 running   42 mpi-ranks, on    1 nodes
 distrk:  each k-point on   42 cores,    1 groups
 distr:  one band on    1 cores,   42 groups
 vasp.6.5.0 16Dec24 (build Jan 08 2025 16:17:04) complex                        
  
 POSCAR found type information on POSCAR B 
 POSCAR found :  1 types and      28 ions
 Reading from existing POTCAR
 scaLAPACK will be used
 -----------------------------------------------------------------------------
|                                                                             |
|           W    W    AA    RRRRR   N    N  II  N    N   GGGG   !!!           |
|           W    W   A  A   R    R  NN   N  II  NN   N  G    G  !!!           |
|           W    W  A    A  R    R  N N  N  II  N N  N  G       !!!           |
|           W WW W  AAAAAA  RRRRR   N  N N  II  N  N N  G  GGG   !            |
|           WW  WW  A    A  R   R   N   NN  II  N   NN  G    G                |
|           W    W  A    A  R    R  N    N  II  N    N   GGGG   !!!           |
|                                                                             |
|     For optimal performance we recommend to set                             |
|       NCORE = 2 up to number-of-cores-per-socket                            |
|     NCORE specifies how many cores store one orbital (NPAR=cpu/NCORE).      |
|     This setting can greatly improve the performance of VASP for DFT.       |
|     The default, NCORE=1 might be grossly inefficient on modern             |
|     multi-core architectures or massively parallel machines. Do your        |
|     own testing! More info at https://www.vasp.at/wiki/index.php/NCORE      |
|     Unfortunately you need to use the default for GW and RPA                |
|     calculations (for HF NCORE is supported but not extensively tested      |
|     yet).                                                                   |
|                                                                             |
 -----------------------------------------------------------------------------

 Reading from existing POTCAR
 -----------------------------------------------------------------------------
|                                                                             |
|               ----> ADVICE to this user running VASP <----                  |
|                                                                             |
|     You have a (more or less) 'large supercell' and for larger cells it     |
|     might be more efficient to use real-space projection operators.         |
|     Therefore, try LREAL= Auto in the INCAR file.                           |
|     Mind: For very accurate calculation, you might also keep the            |
|     reciprocal projection scheme (i.e. LREAL=.FALSE.).                      |
|                                                                             |
 -----------------------------------------------------------------------------

 LDA part: xc-table for (Slater+PW92), standard interpolation
 -----------------------------------------------------------------------------
|                                                                             |
|           W    W    AA    RRRRR   N    N  II  N    N   GGGG   !!!           |
|           W    W   A  A   R    R  NN   N  II  NN   N  G    G  !!!           |
|           W    W  A    A  R    R  N N  N  II  N N  N  G       !!!           |
|           W WW W  AAAAAA  RRRRR   N  N N  II  N  N N  G  GGG   !            |
|           WW  WW  A    A  R   R   N   NN  II  N   NN  G    G                |
|           W    W  A    A  R    R  N    N  II  N    N   GGGG   !!!           |
|                                                                             |
|     The requested file  could not be found or opened for reading            |
|     k-point information. Automatic k-point generation is used as a          |
|     fallback, which may lead to unwanted results.                           |
|                                                                             |
 -----------------------------------------------------------------------------

 INCAR ok, starting setup
 POSCAR ok, starting setup
 FFT: planning ... GRIDC
 FFT: planning ... GRID_SOFT
 FFT: planning ... GRID
 WAVECAR not read
 entering main loop
       N       E                     dE             d eps       ncg     rms          rms(c)
DAV:   1     0.590655327363E+03    0.59066E+03   -0.27545E+04   672   0.761E+02
DAV:   2    -0.124443477122E+03   -0.71510E+03   -0.67727E+03  1218   0.158E+02
DAV:   3    -0.189624852540E+03   -0.65181E+02   -0.64034E+02  1008   0.574E+01
DAV:   4    -0.190750598426E+03   -0.11257E+01   -0.11212E+01  1008   0.895E+00
DAV:   5    -0.190777125914E+03   -0.26527E-01   -0.26519E-01   966   0.134E+00    0.184E+01
DAV:   6    -0.175050819911E+03    0.15726E+02   -0.15140E+01  1008   0.920E+00    0.956E+00
DAV:   7    -0.170980281677E+03    0.40705E+01   -0.11348E+01  1008   0.742E+00    0.287E+00
DAV:   8    -0.170741675489E+03    0.23861E+00   -0.10973E+00  1008   0.237E+00    0.919E-01
DAV:   9    -0.170680216635E+03    0.61459E-01   -0.77481E-02   840   0.666E-01    0.401E-01
DAV:  10    -0.170650086565E+03    0.30130E-01   -0.21164E-02   882   0.308E-01    0.212E-01
DAV:  11    -0.170633853423E+03    0.16233E-01   -0.15400E-02   966   0.224E-01    0.143E-01
DAV:  12    -0.170638916567E+03   -0.50631E-02   -0.72701E-03   798   0.157E-01    0.726E-02
DAV:  13    -0.170642375705E+03   -0.34591E-02   -0.16143E-03   798   0.797E-02    0.489E-02
DAV:  14    -0.170646116504E+03   -0.37408E-02   -0.34271E-04   714   0.329E-02    0.308E-02
DAV:  15    -0.170650774540E+03   -0.46580E-02   -0.48804E-04   714   0.321E-02    0.154E-02
DAV:  16    -0.170653481439E+03   -0.27069E-02   -0.20501E-04   756   0.170E-02    0.968E-03
DAV:  17    -0.170654946980E+03   -0.14655E-02   -0.11708E-04   798   0.109E-02    0.404E-03
DAV:  18    -0.170655496575E+03   -0.54959E-03   -0.35892E-05   798   0.543E-03    0.204E-03
DAV:  19    -0.170655664093E+03   -0.16752E-03   -0.10027E-05   798   0.260E-03    0.768E-04
DAV:  20    -0.170655692098E+03   -0.28005E-04   -0.98124E-07   924   0.997E-04    0.423E-04
DAV:  21    -0.170655703255E+03   -0.11157E-04   -0.27051E-07   840   0.525E-04    0.138E-04
DAV:  22    -0.170655705685E+03   -0.24295E-05   -0.15541E-08   714   0.206E-04    0.601E-05
DAV:  23    -0.170655706412E+03   -0.72776E-06   -0.24634E-09   672   0.134E-04
   1 F= -.17303553E+03 E0= -.17301278E+03  d E =-.454904E-01
 Found    12 degrees of freedom:
 Finite differences POTIM= 0.01500 DOF=  12
 -----------------------------------------------------------------------------
|                                                                             |
|           W    W    AA    RRRRR   N    N  II  N    N   GGGG   !!!           |
|           W    W   A  A   R    R  NN   N  II  NN   N  G    G  !!!           |
|           W    W  A    A  R    R  N N  N  II  N N  N  G       !!!           |
|           W WW W  AAAAAA  RRRRR   N  N N  II  N  N N  G  GGG   !            |
|           WW  WW  A    A  R   R   N   NN  II  N   NN  G    G                |
|           W    W  A    A  R    R  N    N  II  N    N   GGGG   !!!           |
|                                                                             |
|     The requested file  could not be found or opened for reading            |
|     k-point information. Automatic k-point generation is used as a          |
|     fallback, which may lead to unwanted results.                           |
|                                                                             |
 -----------------------------------------------------------------------------

 bond charge predicted
       N       E                     dE             d eps       ncg     rms          rms(c)
DAV:   1    -0.170651911288E+03    0.37944E-02   -0.20488E-01   672   0.122E+00    0.305E-01
DAV:   2    -0.170684832360E+03   -0.32921E-01   -0.83873E-02  1008   0.376E-01    0.201E+00
DAV:   3    -0.170650612511E+03    0.34220E-01   -0.41334E-02   924   0.275E-01    0.144E-01
DAV:   4    -0.170651395608E+03   -0.78310E-03   -0.47299E-03   882   0.863E-02    0.338E-01
DAV:   5    -0.170650548075E+03    0.84753E-03   -0.24329E-03   756   0.587E-02    0.373E-02
DAV:   6    -0.170650609757E+03   -0.61682E-04   -0.24430E-04   756   0.235E-02    0.857E-02
DAV:   7    -0.170650547911E+03    0.61846E-04   -0.14266E-04   756   0.148E-02    0.765E-03
DAV:   8    -0.170650548946E+03   -0.10354E-05   -0.50971E-06   798   0.558E-03    0.453E-03
DAV:   9    -0.170650548998E+03   -0.52040E-07   -0.40494E-07   798   0.167E-03
   2 F= -.17303022E+03 E0= -.17300745E+03  d E =-.455522E-01
 Finite differences progress:
  Degree of freedom:   1/ 12
  Displacement:        1/  2
  Total:               1/ 24
 -----------------------------------------------------------------------------
|                                                                             |
|           W    W    AA    RRRRR   N    N  II  N    N   GGGG   !!!           |
|           W    W   A  A   R    R  NN   N  II  NN   N  G    G  !!!           |
|           W    W  A    A  R    R  N N  N  II  N N  N  G       !!!           |
|           W WW W  AAAAAA  RRRRR   N  N N  II  N  N N  G  GGG   !            |
|           WW  WW  A    A  R   R   N   NN  II  N   NN  G    G                |
|           W    W  A    A  R    R  N    N  II  N    N   GGGG   !!!           |
|                                                                             |
|     The requested file  could not be found or opened for reading            |
|     k-point information. Automatic k-point generation is used as a          |
|     fallback, which may lead to unwanted results.                           |
|                                                                             |
 -----------------------------------------------------------------------------

 bond charge predicted
       N       E                     dE             d eps       ncg     rms          rms(c)
DAV:   1    -0.170659199524E+03   -0.86506E-02   -0.81661E-01   672   0.238E+00    0.626E-01
DAV:   2    -0.170752873787E+03   -0.93674E-01   -0.41838E-01   882   0.758E-01    0.240E+00
DAV:   3    -0.170659454599E+03    0.93419E-01   -0.73353E-02   882   0.529E-01    0.844E-01
DAV:   4    -0.170655055221E+03    0.43994E-02   -0.20351E-02   840   0.166E-01    0.401E-01
DAV:   5    -0.170658264654E+03   -0.32094E-02   -0.25136E-02   798   0.154E-01    0.777E-01
DAV:   6    -0.170655820061E+03    0.24446E-02   -0.20884E-03   756   0.726E-02    0.529E-01
DAV:   7    -0.170654512722E+03    0.13073E-02   -0.22438E-02   756   0.116E-01    0.311E-01
DAV:   8    -0.170653782989E+03    0.72973E-03   -0.75670E-04   756   0.479E-02    0.674E-02
DAV:   9    -0.170653751188E+03    0.31801E-04   -0.17385E-04   756   0.175E-02    0.155E-02
DAV:  10    -0.170653754580E+03   -0.33912E-05   -0.29246E-05   798   0.762E-03    0.195E-02
DAV:  11    -0.170653751451E+03    0.31289E-05   -0.84110E-06   630   0.302E-03    0.615E-04
DAV:  12    -0.170653751763E+03   -0.31210E-06   -0.15872E-07   714   0.106E-03
   3 F= -.17303372E+03 E0= -.17301102E+03  d E =-.454127E-01
 Finite differences progress:
  Degree of freedom:   1/ 12
  Displacement:        2/  2
  Total:               2/ 24
 -----------------------------------------------------------------------------
|                                                                             |
|           W    W    AA    RRRRR   N    N  II  N    N   GGGG   !!!           |
|           W    W   A  A   R    R  NN   N  II  NN   N  G    G  !!!           |
|           W    W  A    A  R    R  N N  N  II  N N  N  G       !!!           |
|           W WW W  AAAAAA  RRRRR   N  N N  II  N  N N  G  GGG   !            |
|           WW  WW  A    A  R   R   N   NN  II  N   NN  G    G                |
|           W    W  A    A  R    R  N    N  II  N    N   GGGG   !!!           |
|                                                                             |
|     The requested file  could not be found or opened for reading            |
|     k-point information. Automatic k-point generation is used as a          |
|     fallback, which may lead to unwanted results.                           |
|                                                                             |
 -----------------------------------------------------------------------------

 bond charge predicted
       N       E                     dE             d eps       ncg     rms          rms(c)
DAV:   1    -0.170657540352E+03   -0.37889E-02   -0.40976E-01   714   0.173E+00    0.437E-01
DAV:   2    -0.170719574750E+03   -0.62034E-01   -0.15987E-01   882   0.537E-01    0.251E+00
DAV:   3    -0.170655088825E+03    0.64486E-01   -0.48833E-02   924   0.380E-01    0.245E-01
DAV:   4    -0.170656124241E+03   -0.10354E-02   -0.84177E-03   882   0.118E-01    0.431E-01
DAV:   5    -0.170654767753E+03    0.13565E-02   -0.51731E-03   714   0.806E-02    0.913E-02
DAV:   6    -0.170654802109E+03   -0.34356E-04   -0.52001E-04   840   0.321E-02    0.972E-02
DAV:   7    -0.170654725391E+03    0.76719E-04   -0.20408E-04   714   0.175E-02    0.203E-02
DAV:   8    -0.170654724286E+03    0.11047E-05   -0.24777E-05   756   0.851E-03    0.111E-02
DAV:   9    -0.170654723701E+03    0.58508E-06   -0.29951E-06   756   0.314E-03
   4 F= -.17303453E+03 E0= -.17301178E+03  d E =-.455002E-01
 Finite differences progress:
  Degree of freedom:   2/ 12
  Displacement:        1/  2
  Total:               3/ 24
 -----------------------------------------------------------------------------
|                                                                             |
|           W    W    AA    RRRRR   N    N  II  N    N   GGGG   !!!           |
|           W    W   A  A   R    R  NN   N  II  NN   N  G    G  !!!           |
|           W    W  A    A  R    R  N N  N  II  N N  N  G       !!!           |
|           W WW W  AAAAAA  RRRRR   N  N N  II  N  N N  G  GGG   !            |
|           WW  WW  A    A  R   R   N   NN  II  N   NN  G    G                |
|           W    W  A    A  R    R  N    N  II  N    N   GGGG   !!!           |
|                                                                             |
|     The requested file  could not be found or opened for reading            |
|     k-point information. Automatic k-point generation is used as a          |
|     fallback, which may lead to unwanted results.                           |
|                                                                             |
 -----------------------------------------------------------------------------

 bond charge predicted
       N       E                     dE             d eps       ncg     rms          rms(c)
DAV:   1    -0.170653917628E+03    0.80666E-03   -0.79215E-01   672   0.237E+00    0.372E-01
DAV:   2    -0.170676313059E+03   -0.22395E-01   -0.89942E-02   798   0.418E-01    0.158E+00
DAV:   3    -0.170651662930E+03    0.24650E-01   -0.44882E-02   882   0.271E-01    0.321E-01
DAV:   4    -0.170652724693E+03   -0.10618E-02   -0.18509E-02   714   0.123E-01    0.466E-01
DAV:   5    -0.170650760002E+03    0.19647E-02   -0.33866E-03   672   0.969E-02    0.594E-02
DAV:   6    -0.170650756992E+03    0.30100E-05   -0.25561E-04   840   0.325E-02    0.320E-02
DAV:   7    -0.170650765392E+03   -0.83995E-05   -0.59700E-05   672   0.119E-02    0.420E-02
DAV:   8    -0.170650751642E+03    0.13750E-04   -0.33923E-05   714   0.881E-03    0.160E-02
DAV:   9    -0.170650750357E+03    0.12847E-05   -0.86972E-06   798   0.467E-03    0.837E-03
DAV:  10    -0.170650749985E+03    0.37242E-06   -0.19074E-06   588   0.192E-03
   5 F= -.17303059E+03 E0= -.17300786E+03  d E =-.454680E-01
 Finite differences progress:
  Degree of freedom:   2/ 12
  Displacement:        2/  2
  Total:               4/ 24
 -----------------------------------------------------------------------------
|                                                                             |
|           W    W    AA    RRRRR   N    N  II  N    N   GGGG   !!!           |
|           W    W   A  A   R    R  NN   N  II  NN   N  G    G  !!!           |
|           W    W  A    A  R    R  N N  N  II  N N  N  G       !!!           |
|           W WW W  AAAAAA  RRRRR   N  N N  II  N  N N  G  GGG   !            |
|           WW  WW  A    A  R   R   N   NN  II  N   NN  G    G                |
|           W    W  A    A  R    R  N    N  II  N    N   GGGG   !!!           |
|                                                                             |
|     The requested file  could not be found or opened for reading            |
|     k-point information. Automatic k-point generation is used as a          |
|     fallback, which may lead to unwanted results.                           |
|                                                                             |
 -----------------------------------------------------------------------------

 bond charge predicted
       N       E                     dE             d eps       ncg     rms          rms(c)
DAV:   1    -0.170656115321E+03   -0.53650E-02   -0.37966E-01   672   0.167E+00    0.209E-01
DAV:   2    -0.170662765501E+03   -0.66502E-02   -0.20663E-02   756   0.229E-01    0.102E+00
DAV:   3    -0.170655226828E+03    0.75387E-02   -0.15767E-02   840   0.140E-01    0.115E-01
DAV:   4    -0.170656631387E+03   -0.14046E-02   -0.52270E-03   840   0.835E-02    0.455E-01
DAV:   5    -0.170655074687E+03    0.15567E-02   -0.31834E-03   756   0.668E-02    0.281E-02
DAV:   6    -0.170655123699E+03   -0.49012E-04   -0.12588E-04   798   0.218E-02    0.705E-02
DAV:   7    -0.170655082676E+03    0.41023E-04   -0.65120E-05   714   0.124E-02    0.824E-03
DAV:   8    -0.170655083082E+03   -0.40607E-06   -0.36461E-06   756   0.472E-03
   6 F= -.17303490E+03 E0= -.17301216E+03  d E =-.454898E-01
 Finite differences progress:
  Degree of freedom:   3/ 12
  Displacement:        1/  2
  Total:               5/ 24
 -----------------------------------------------------------------------------
|                                                                             |
|           W    W    AA    RRRRR   N    N  II  N    N   GGGG   !!!           |
|           W    W   A  A   R    R  NN   N  II  NN   N  G    G  !!!           |
|           W    W  A    A  R    R  N N  N  II  N N  N  G       !!!           |
|           W WW W  AAAAAA  RRRRR   N  N N  II  N  N N  G  GGG   !            |
|           WW  WW  A    A  R   R   N   NN  II  N   NN  G    G                |
|           W    W  A    A  R    R  N    N  II  N    N   GGGG   !!!           |
|                                                                             |
|     The requested file  could not be found or opened for reading            |
|     k-point information. Automatic k-point generation is used as a          |
|     fallback, which may lead to unwanted results.                           |
|                                                                             |
 -----------------------------------------------------------------------------

 bond charge predicted
       N       E                     dE             d eps       ncg     rms          rms(c)
DAV:   1    -0.170656087325E+03   -0.10046E-02   -0.72642E-01   672   0.220E+00    0.186E-01
DAV:   2    -0.170655294874E+03    0.79245E-03   -0.25377E-03   840   0.158E-01    0.103E-01
DAV:   3    -0.170656223850E+03   -0.92898E-03   -0.26947E-03   798   0.798E-02    0.401E-01
DAV:   4    -0.170655085537E+03    0.11383E-02   -0.34022E-03   798   0.580E-02    0.494E-02
DAV:   5    -0.170655235079E+03   -0.14954E-03   -0.76080E-04   714   0.285E-02    0.142E-01
DAV:   6    -0.170655080588E+03    0.15449E-03   -0.27218E-04   840   0.205E-02    0.938E-03
DAV:   7    -0.170655083225E+03   -0.26367E-05   -0.10015E-05   798   0.699E-03    0.139E-02
DAV:   8    -0.170655082485E+03    0.74015E-06   -0.87531E-06   756   0.382E-03
   7 F= -.17303490E+03 E0= -.17301216E+03  d E =-.454891E-01
 Finite differences progress:
  Degree of freedom:   3/ 12
  Displacement:        2/  2
  Total:               6/ 24
 -----------------------------------------------------------------------------
|                                                                             |
|           W    W    AA    RRRRR   N    N  II  N    N   GGGG   !!!           |
|           W    W   A  A   R    R  NN   N  II  NN   N  G    G  !!!           |
|           W    W  A    A  R    R  N N  N  II  N N  N  G       !!!           |
|           W WW W  AAAAAA  RRRRR   N  N N  II  N  N N  G  GGG   !            |
|           WW  WW  A    A  R   R   N   NN  II  N   NN  G    G                |
|           W    W  A    A  R    R  N    N  II  N    N   GGGG   !!!           |
|                                                                             |
|     The requested file  could not be found or opened for reading            |
|     k-point information. Automatic k-point generation is used as a          |
|     fallback, which may lead to unwanted results.                           |
|                                                                             |
 -----------------------------------------------------------------------------

 bond charge predicted
       N       E                     dE             d eps       ncg     rms          rms(c)
DAV:   1    -0.170654339010E+03    0.74422E-03   -0.38115E-01   672   0.168E+00    0.213E-01
DAV:   2    -0.170664574125E+03   -0.10235E-01   -0.29833E-02   756   0.263E-01    0.122E+00
DAV:   3    -0.170653452251E+03    0.11122E-01   -0.22583E-02   840   0.162E-01    0.108E-01
DAV:   4    -0.170654734995E+03   -0.12827E-02   -0.48894E-03   798   0.806E-02    0.441E-01
DAV:   5    -0.170653277530E+03    0.14575E-02   -0.30904E-03   840   0.684E-02    0.315E-02
DAV:   6    -0.170653290015E+03   -0.12486E-04   -0.12005E-04   798   0.236E-02    0.518E-02
DAV:   7    -0.170653268521E+03    0.21494E-04   -0.58620E-05   840   0.117E-02    0.145E-02
DAV:   8    -0.170653264446E+03    0.40752E-05   -0.73268E-06   798   0.645E-03    0.435E-03
DAV:   9    -0.170653263763E+03    0.68231E-06   -0.19917E-06   756   0.328E-03
   8 F= -.17303299E+03 E0= -.17301023E+03  d E =-.455302E-01
 Finite differences progress:
  Degree of freedom:   4/ 12
  Displacement:        1/  2
  Total:               7/ 24
 -----------------------------------------------------------------------------
|                                                                             |
|           W    W    AA    RRRRR   N    N  II  N    N   GGGG   !!!           |
|           W    W   A  A   R    R  NN   N  II  NN   N  G    G  !!!           |
|           W    W  A    A  R    R  N N  N  II  N N  N  G       !!!           |
|           W WW W  AAAAAA  RRRRR   N  N N  II  N  N N  G  GGG   !            |
|           WW  WW  A    A  R   R   N   NN  II  N   NN  G    G                |
|           W    W  A    A  R    R  N    N  II  N    N   GGGG   !!!           |
|                                                                             |
|     The requested file  could not be found or opened for reading            |
|     k-point information. Automatic k-point generation is used as a          |
|     fallback, which may lead to unwanted results.                           |
|                                                                             |
 -----------------------------------------------------------------------------

 bond charge predicted
       N       E                     dE             d eps       ncg     rms          rms(c)
DAV:   1    -0.170656316029E+03   -0.30516E-02   -0.79982E-01   672   0.219E+00    0.414E-01
DAV:   2    -0.170692373212E+03   -0.36057E-01   -0.14912E-01   798   0.493E-01    0.181E+00
DAV:   3    -0.170653605585E+03    0.38768E-01   -0.47325E-02   882   0.326E-01    0.346E-01
DAV:   4    -0.170654527334E+03   -0.92175E-03   -0.18374E-02   840   0.126E-01    0.488E-01
DAV:   5    -0.170652866901E+03    0.16604E-02   -0.58278E-03   798   0.926E-02    0.181E-01
DAV:   6    -0.170652864051E+03    0.28502E-05   -0.26667E-03   798   0.532E-02    0.168E-01
DAV:   7    -0.170652779580E+03    0.84471E-04   -0.42109E-04   714   0.271E-02    0.134E-01
DAV:   8    -0.170652646696E+03    0.13288E-03   -0.63980E-04   840   0.269E-02    0.427E-02
DAV:   9    -0.170652637749E+03    0.89476E-05   -0.73132E-05   756   0.103E-02    0.152E-02
DAV:  10    -0.170652635830E+03    0.19184E-05   -0.52969E-06   840   0.315E-03    0.261E-03
DAV:  11    -0.170652636016E+03   -0.18607E-06   -0.17754E-07   672   0.948E-04
   9 F= -.17303256E+03 E0= -.17300985E+03  d E =-.454198E-01
 Finite differences progress:
  Degree of freedom:   4/ 12
  Displacement:        2/  2
  Total:               8/ 24
 -----------------------------------------------------------------------------
|                                                                             |
|           W    W    AA    RRRRR   N    N  II  N    N   GGGG   !!!           |
|           W    W   A  A   R    R  NN   N  II  NN   N  G    G  !!!           |
|           W    W  A    A  R    R  N N  N  II  N N  N  G       !!!           |
|           W WW W  AAAAAA  RRRRR   N  N N  II  N  N N  G  GGG   !            |
|           WW  WW  A    A  R   R   N   NN  II  N   NN  G    G                |
|           W    W  A    A  R    R  N    N  II  N    N   GGGG   !!!           |
|                                                                             |
|     The requested file  could not be found or opened for reading            |
|     k-point information. Automatic k-point generation is used as a          |
|     fallback, which may lead to unwanted results.                           |
|                                                                             |
 -----------------------------------------------------------------------------

 bond charge predicted
       N       E                     dE             d eps       ncg     rms          rms(c)
DAV:   1    -0.170653964606E+03   -0.13288E-02   -0.37921E-01   672   0.150E+00    0.183E-01
DAV:   2    -0.170654864879E+03   -0.90027E-03   -0.93662E-03   756   0.176E-01    0.506E-01
DAV:   3    -0.170653173374E+03    0.16915E-02   -0.86196E-03   756   0.930E-02    0.189E-01
DAV:   4    -0.170653970882E+03   -0.79751E-03   -0.57011E-03   798   0.777E-02    0.368E-01
DAV:   5    -0.170652837958E+03    0.11329E-02   -0.21844E-03   798   0.593E-02    0.206E-02
DAV:   6    -0.170652851289E+03   -0.13331E-04   -0.47238E-05   798   0.176E-02    0.276E-02
DAV:   7    -0.170652847364E+03    0.39245E-05   -0.20902E-05   714   0.744E-03    0.132E-02
DAV:   8    -0.170652846575E+03    0.78889E-06   -0.24486E-06   756   0.345E-03
  10 F= -.17303275E+03 E0= -.17301004E+03  d E =-.454121E-01
 Finite differences progress:
  Degree of freedom:   5/ 12
  Displacement:        1/  2
  Total:               9/ 24
 -----------------------------------------------------------------------------
|                                                                             |
|           W    W    AA    RRRRR   N    N  II  N    N   GGGG   !!!           |
|           W    W   A  A   R    R  NN   N  II  NN   N  G    G  !!!           |
|           W    W  A    A  R    R  N N  N  II  N N  N  G       !!!           |
|           W WW W  AAAAAA  RRRRR   N  N N  II  N  N N  G  GGG   !            |
|           WW  WW  A    A  R   R   N   NN  II  N   NN  G    G                |
|           W    W  A    A  R    R  N    N  II  N    N   GGGG   !!!           |
|                                                                             |
|     The requested file  could not be found or opened for reading            |
|     k-point information. Automatic k-point generation is used as a          |
|     fallback, which may lead to unwanted results.                           |
|                                                                             |
 -----------------------------------------------------------------------------

 bond charge predicted
       N       E                     dE             d eps       ncg     rms          rms(c)
DAV:   1    -0.170656442215E+03   -0.35949E-02   -0.82617E-01   672   0.223E+00    0.508E-01
DAV:   2    -0.170727373431E+03   -0.70931E-01   -0.19239E-01   924   0.619E-01    0.262E+00
DAV:   3    -0.170652278497E+03    0.75095E-01   -0.53980E-02   882   0.413E-01    0.297E-01
DAV:   4    -0.170655265188E+03   -0.29867E-02   -0.16038E-02   798   0.156E-01    0.702E-01
DAV:   5    -0.170651704454E+03    0.35607E-02   -0.11620E-02   798   0.117E-01    0.132E-01
DAV:   6    -0.170651632465E+03    0.71989E-04   -0.84404E-04   840   0.404E-02    0.479E-02
DAV:   7    -0.170651626787E+03    0.56780E-05   -0.13226E-04   840   0.156E-02    0.351E-02
DAV:   8    -0.170651620189E+03    0.65975E-05   -0.25447E-05  1008   0.791E-03    0.210E-02
DAV:   9    -0.170651617603E+03    0.25861E-05   -0.10963E-05   756   0.479E-03    0.758E-03
DAV:  10    -0.170651617581E+03    0.21864E-07   -0.32742E-06   630   0.223E-03
  11 F= -.17303136E+03 E0= -.17300861E+03  d E =-.455030E-01
 Finite differences progress:
  Degree of freedom:   5/ 12
  Displacement:        2/  2
  Total:              10/ 24
 -----------------------------------------------------------------------------
|                                                                             |
|           W    W    AA    RRRRR   N    N  II  N    N   GGGG   !!!           |
|           W    W   A  A   R    R  NN   N  II  NN   N  G    G  !!!           |
|           W    W  A    A  R    R  N N  N  II  N N  N  G       !!!           |
|           W WW W  AAAAAA  RRRRR   N  N N  II  N  N N  G  GGG   !            |
|           WW  WW  A    A  R   R   N   NN  II  N   NN  G    G                |
|           W    W  A    A  R    R  N    N  II  N    N   GGGG   !!!           |
|                                                                             |
|     The requested file  could not be found or opened for reading            |
|     k-point information. Automatic k-point generation is used as a          |
|     fallback, which may lead to unwanted results.                           |
|                                                                             |
 -----------------------------------------------------------------------------

 bond charge predicted
       N       E                     dE             d eps       ncg     rms          rms(c)
DAV:   1    -0.170656433307E+03   -0.48157E-02   -0.38483E-01   672   0.157E+00    0.284E-01
DAV:   2    -0.170675630660E+03   -0.19197E-01   -0.66712E-02   798   0.335E-01    0.145E+00
DAV:   3    -0.170655329173E+03    0.20301E-01   -0.28721E-02   798   0.228E-01    0.240E-01
DAV:   4    -0.170655599494E+03   -0.27032E-03   -0.82131E-03   924   0.834E-02    0.294E-01
DAV:   5    -0.170654928139E+03    0.67136E-03   -0.15708E-03   798   0.602E-02    0.779E-02
DAV:   6    -0.170654924396E+03    0.37431E-05   -0.35769E-04   756   0.246E-02    0.628E-02
DAV:   7    -0.170654898904E+03    0.25492E-04   -0.65647E-05   756   0.119E-02    0.285E-02
DAV:   8    -0.170654894222E+03    0.46823E-05   -0.33929E-05   756   0.814E-03    0.142E-02
DAV:   9    -0.170654892925E+03    0.12973E-05   -0.50481E-06   756   0.352E-03    0.287E-03
DAV:  10    -0.170654892924E+03    0.51205E-09   -0.30250E-07   588   0.116E-03
  12 F= -.17303471E+03 E0= -.17301197E+03  d E =-.454911E-01
 Finite differences progress:
  Degree of freedom:   6/ 12
  Displacement:        1/  2
  Total:              11/ 24
 -----------------------------------------------------------------------------
|                                                                             |
|           W    W    AA    RRRRR   N    N  II  N    N   GGGG   !!!           |
|           W    W   A  A   R    R  NN   N  II  NN   N  G    G  !!!           |
|           W    W  A    A  R    R  N N  N  II  N N  N  G       !!!           |
|           W WW W  AAAAAA  RRRRR   N  N N  II  N  N N  G  GGG   !            |
|           WW  WW  A    A  R   R   N   NN  II  N   NN  G    G                |
|           W    W  A    A  R    R  N    N  II  N    N   GGGG   !!!           |
|                                                                             |
|     The requested file  could not be found or opened for reading            |
|     k-point information. Automatic k-point generation is used as a          |
|     fallback, which may lead to unwanted results.                           |
|                                                                             |
 -----------------------------------------------------------------------------

 bond charge predicted
       N       E                     dE             d eps       ncg     rms          rms(c)
DAV:   1    -0.170656210103E+03   -0.13172E-02   -0.71010E-01   672   0.208E+00    0.207E-01
DAV:   2    -0.170655144154E+03    0.10659E-02   -0.29766E-03   882   0.159E-01    0.115E-01
DAV:   3    -0.170656794825E+03   -0.16507E-02   -0.43795E-03   798   0.925E-02    0.517E-01
DAV:   4    -0.170654890746E+03    0.19041E-02   -0.44622E-03   798   0.720E-02    0.535E-02
DAV:   5    -0.170655058067E+03   -0.16732E-03   -0.90451E-04   798   0.313E-02    0.149E-01
DAV:   6    -0.170654889633E+03    0.16843E-03   -0.29026E-04   840   0.216E-02    0.105E-02
DAV:   7    -0.170654899051E+03   -0.94173E-05   -0.21393E-05   840   0.845E-03    0.305E-02
DAV:   8    -0.170654891403E+03    0.76473E-05   -0.15060E-05   798   0.569E-03    0.567E-03
DAV:   9    -0.170654891396E+03    0.76634E-08   -0.86579E-07   672   0.232E-03
  13 F= -.17303471E+03 E0= -.17301197E+03  d E =-.454912E-01
 Finite differences progress:
  Degree of freedom:   6/ 12
  Displacement:        2/  2
  Total:              12/ 24
 -----------------------------------------------------------------------------
|                                                                             |
|           W    W    AA    RRRRR   N    N  II  N    N   GGGG   !!!           |
|           W    W   A  A   R    R  NN   N  II  NN   N  G    G  !!!           |
|           W    W  A    A  R    R  N N  N  II  N N  N  G       !!!           |
|           W WW W  AAAAAA  RRRRR   N  N N  II  N  N N  G  GGG   !            |
|           WW  WW  A    A  R   R   N   NN  II  N   NN  G    G                |
|           W    W  A    A  R    R  N    N  II  N    N   GGGG   !!!           |
|                                                                             |
|     The requested file  could not be found or opened for reading            |
|     k-point information. Automatic k-point generation is used as a          |
|     fallback, which may lead to unwanted results.                           |
|                                                                             |
 -----------------------------------------------------------------------------

 bond charge predicted
       N       E                     dE             d eps       ncg     rms          rms(c)
DAV:   1    -0.170654466809E+03    0.42459E-03   -0.34607E-01   672   0.158E+00    0.139E-01
DAV:   2    -0.170654003220E+03    0.46359E-03   -0.20131E-03   840   0.151E-01    0.806E-02
DAV:   3    -0.170654850770E+03   -0.84755E-03   -0.19742E-03   672   0.700E-02    0.342E-01
DAV:   4    -0.170653904040E+03    0.94673E-03   -0.19165E-03   798   0.570E-02    0.460E-02
DAV:   5    -0.170653996137E+03   -0.92097E-04   -0.74183E-04   924   0.235E-02    0.116E-01
DAV:   6    -0.170653900511E+03    0.95626E-04   -0.22399E-04   756   0.177E-02    0.122E-02
DAV:   7    -0.170653908554E+03   -0.80433E-05   -0.25869E-05   798   0.782E-03    0.290E-02
DAV:   8    -0.170653901729E+03    0.68248E-05   -0.13152E-05   798   0.521E-03    0.327E-03
DAV:   9    -0.170653902096E+03   -0.36674E-06   -0.58109E-07   588   0.199E-03
  14 F= -.17303373E+03 E0= -.17301098E+03  d E =-.454868E-01
 Finite differences progress:
  Degree of freedom:   7/ 12
  Displacement:        1/  2
  Total:              13/ 24
 -----------------------------------------------------------------------------
|                                                                             |
|           W    W    AA    RRRRR   N    N  II  N    N   GGGG   !!!           |
|           W    W   A  A   R    R  NN   N  II  NN   N  G    G  !!!           |
|           W    W  A    A  R    R  N N  N  II  N N  N  G       !!!           |
|           W WW W  AAAAAA  RRRRR   N  N N  II  N  N N  G  GGG   !            |
|           WW  WW  A    A  R   R   N   NN  II  N   NN  G    G                |
|           W    W  A    A  R    R  N    N  II  N    N   GGGG   !!!           |
|                                                                             |
|     The requested file  could not be found or opened for reading            |
|     k-point information. Automatic k-point generation is used as a          |
|     fallback, which may lead to unwanted results.                           |
|                                                                             |
 -----------------------------------------------------------------------------

 bond charge predicted
       N       E                     dE             d eps       ncg     rms          rms(c)
DAV:   1    -0.170655845663E+03   -0.19439E-02   -0.76508E-01   672   0.234E+00    0.231E-01
DAV:   2    -0.170654248613E+03    0.15971E-02   -0.49152E-03   714   0.245E-01    0.139E-01
DAV:   3    -0.170656924922E+03   -0.26763E-02   -0.59762E-03   672   0.120E-01    0.613E-01
DAV:   4    -0.170653936594E+03    0.29883E-02   -0.72671E-03   798   0.100E-01    0.901E-02
DAV:   5    -0.170654082216E+03   -0.14562E-03   -0.19401E-03   882   0.373E-02    0.159E-01
DAV:   6    -0.170653906017E+03    0.17620E-03   -0.50094E-04   798   0.265E-02    0.287E-02
DAV:   7    -0.170653908105E+03   -0.20876E-05   -0.57265E-05   756   0.111E-02    0.270E-02
DAV:   8    -0.170653901792E+03    0.63131E-05   -0.14558E-05   756   0.605E-03    0.445E-03
DAV:   9    -0.170653901729E+03    0.62269E-07   -0.11152E-06   672   0.263E-03
  15 F= -.17303373E+03 E0= -.17301098E+03  d E =-.454869E-01
 Finite differences progress:
  Degree of freedom:   7/ 12
  Displacement:        2/  2
  Total:              14/ 24
 -----------------------------------------------------------------------------
|                                                                             |
|           W    W    AA    RRRRR   N    N  II  N    N   GGGG   !!!           |
|           W    W   A  A   R    R  NN   N  II  NN   N  G    G  !!!           |
|           W    W  A    A  R    R  N N  N  II  N N  N  G       !!!           |
|           W WW W  AAAAAA  RRRRR   N  N N  II  N  N N  G  GGG   !            |
|           WW  WW  A    A  R   R   N   NN  II  N   NN  G    G                |
|           W    W  A    A  R    R  N    N  II  N    N   GGGG   !!!           |
|                                                                             |
|     The requested file  could not be found or opened for reading            |
|     k-point information. Automatic k-point generation is used as a          |
|     fallback, which may lead to unwanted results.                           |
|                                                                             |
 -----------------------------------------------------------------------------

 bond charge predicted
       N       E                     dE             d eps       ncg     rms          rms(c)
DAV:   1    -0.170654318184E+03   -0.41639E-03   -0.38398E-01   672   0.167E+00    0.148E-01
DAV:   2    -0.170654160095E+03    0.15809E-03   -0.34974E-03   840   0.152E-01    0.277E-01
DAV:   3    -0.170653863450E+03    0.29665E-03   -0.52131E-03   672   0.661E-02    0.210E-01
DAV:   4    -0.170653782404E+03    0.81045E-04   -0.40326E-03   882   0.653E-02    0.229E-01
DAV:   5    -0.170653354186E+03    0.42822E-03   -0.10032E-03   756   0.404E-02    0.299E-02
DAV:   6    -0.170653320815E+03    0.33370E-04   -0.55197E-05   756   0.214E-02    0.619E-03
DAV:   7    -0.170653314555E+03    0.62599E-05   -0.12222E-05   798   0.982E-03    0.268E-03
DAV:   8    -0.170653312230E+03    0.23254E-05   -0.24716E-06   882   0.496E-03    0.102E-03
DAV:   9    -0.170653311116E+03    0.11133E-05   -0.60689E-07   630   0.289E-03    0.509E-04
DAV:  10    -0.170653310278E+03    0.83886E-06   -0.40540E-07   630   0.237E-03
  16 F= -.17303310E+03 E0= -.17301032E+03  d E =-.455638E-01
 Finite differences progress:
  Degree of freedom:   8/ 12
  Displacement:        1/  2
  Total:              15/ 24
 -----------------------------------------------------------------------------
|                                                                             |
|           W    W    AA    RRRRR   N    N  II  N    N   GGGG   !!!           |
|           W    W   A  A   R    R  NN   N  II  NN   N  G    G  !!!           |
|           W    W  A    A  R    R  N N  N  II  N N  N  G       !!!           |
|           W WW W  AAAAAA  RRRRR   N  N N  II  N  N N  G  GGG   !            |
|           WW  WW  A    A  R   R   N   NN  II  N   NN  G    G                |
|           W    W  A    A  R    R  N    N  II  N    N   GGGG   !!!           |
|                                                                             |
|     The requested file  could not be found or opened for reading            |
|     k-point information. Automatic k-point generation is used as a          |
|     fallback, which may lead to unwanted results.                           |
|                                                                             |
 -----------------------------------------------------------------------------

 bond charge predicted
       N       E                     dE             d eps       ncg     rms          rms(c)
DAV:   1    -0.170656825838E+03   -0.35147E-02   -0.76948E-01   672   0.220E+00    0.242E-01
DAV:   2    -0.170657253888E+03   -0.42805E-03   -0.10985E-02   840   0.244E-01    0.567E-01
DAV:   3    -0.170655538895E+03    0.17150E-02   -0.23849E-02   798   0.115E-01    0.296E-01
DAV:   4    -0.170656020573E+03   -0.48168E-03   -0.10303E-02   840   0.922E-02    0.412E-01
DAV:   5    -0.170654746183E+03    0.12744E-02   -0.36752E-03   840   0.623E-02    0.378E-02
DAV:   6    -0.170654744268E+03    0.19146E-05   -0.50335E-05   840   0.196E-02    0.116E-02
DAV:   7    -0.170654744336E+03   -0.67965E-07   -0.55097E-06   798   0.634E-03
  17 F= -.17303460E+03 E0= -.17301189E+03  d E =-.454111E-01
 Finite differences progress:
  Degree of freedom:   8/ 12
  Displacement:        2/  2
  Total:              16/ 24
 -----------------------------------------------------------------------------
|                                                                             |
|           W    W    AA    RRRRR   N    N  II  N    N   GGGG   !!!           |
|           W    W   A  A   R    R  NN   N  II  NN   N  G    G  !!!           |
|           W    W  A    A  R    R  N N  N  II  N N  N  G       !!!           |
|           W WW W  AAAAAA  RRRRR   N  N N  II  N  N N  G  GGG   !            |
|           WW  WW  A    A  R   R   N   NN  II  N   NN  G    G                |
|           W    W  A    A  R    R  N    N  II  N    N   GGGG   !!!           |
|                                                                             |
|     The requested file  could not be found or opened for reading            |
|     k-point information. Automatic k-point generation is used as a          |
|     fallback, which may lead to unwanted results.                           |
|                                                                             |
 -----------------------------------------------------------------------------

 bond charge predicted
       N       E                     dE             d eps       ncg     rms          rms(c)
DAV:   1    -0.170650979738E+03    0.37645E-02   -0.35715E-01   672   0.151E+00    0.196E-01
DAV:   2    -0.170653977598E+03   -0.29979E-02   -0.13629E-02   840   0.165E-01    0.733E-01
DAV:   3    -0.170650439495E+03    0.35381E-02   -0.14147E-02   756   0.120E-01    0.227E-01
DAV:   4    -0.170651109913E+03   -0.67042E-03   -0.69471E-03   798   0.776E-02    0.371E-01
DAV:   5    -0.170650030302E+03    0.10796E-02   -0.31348E-03   798   0.548E-02    0.240E-02
DAV:   6    -0.170650039016E+03   -0.87142E-05   -0.34079E-05   798   0.155E-02    0.184E-02
DAV:   7    -0.170650038872E+03    0.14442E-06   -0.38788E-06   966   0.445E-03
  18 F= -.17302958E+03 E0= -.17300691E+03  d E =-.453402E-01
 Finite differences progress:
  Degree of freedom:   9/ 12
  Displacement:        1/  2
  Total:              17/ 24
 -----------------------------------------------------------------------------
|                                                                             |
|           W    W    AA    RRRRR   N    N  II  N    N   GGGG   !!!           |
|           W    W   A  A   R    R  NN   N  II  NN   N  G    G  !!!           |
|           W    W  A    A  R    R  N N  N  II  N N  N  G       !!!           |
|           W WW W  AAAAAA  RRRRR   N  N N  II  N  N N  G  GGG   !            |
|           WW  WW  A    A  R   R   N   NN  II  N   NN  G    G                |
|           W    W  A    A  R    R  N    N  II  N    N   GGGG   !!!           |
|                                                                             |
|     The requested file  could not be found or opened for reading            |
|     k-point information. Automatic k-point generation is used as a          |
|     fallback, which may lead to unwanted results.                           |
|                                                                             |
 -----------------------------------------------------------------------------

 bond charge predicted
       N       E                     dE             d eps       ncg     rms          rms(c)
DAV:   1    -0.170659536216E+03   -0.94972E-02   -0.68533E-01   672   0.198E+00    0.345E-01
DAV:   2    -0.170675593696E+03   -0.16057E-01   -0.62338E-02   840   0.268E-01    0.145E+00
DAV:   3    -0.170658706616E+03    0.16887E-01   -0.49602E-02   840   0.245E-01    0.402E-01
DAV:   4    -0.170659879128E+03   -0.11725E-02   -0.10499E-02   756   0.124E-01    0.514E-01
DAV:   5    -0.170657582987E+03    0.22961E-02   -0.62998E-03   714   0.856E-02    0.728E-02
DAV:   6    -0.170657573094E+03    0.98928E-05   -0.10652E-04   798   0.234E-02    0.253E-02
DAV:   7    -0.170657573263E+03   -0.16879E-06   -0.10223E-05   882   0.673E-03    0.584E-03
DAV:   8    -0.170657574982E+03   -0.17190E-05   -0.91520E-07   966   0.257E-03    0.183E-03
DAV:   9    -0.170657576676E+03   -0.16945E-05   -0.11045E-07   672   0.976E-04    0.653E-04
DAV:  10    -0.170657577949E+03   -0.12734E-05   -0.28970E-08   714   0.459E-04    0.321E-04
DAV:  11    -0.170657579809E+03   -0.18597E-05   -0.49265E-08   630   0.371E-04    0.227E-04
DAV:  12    -0.170657581161E+03   -0.13517E-05   -0.27812E-08   672   0.231E-04    0.145E-04
DAV:  13    -0.170657582267E+03   -0.11061E-05   -0.14239E-08   630   0.183E-04    0.817E-05
DAV:  14    -0.170657582753E+03   -0.48584E-06    0.13658E-08   546   0.954E-05
  19 F= -.17303769E+03 E0= -.17301489E+03  d E =-.455943E-01
 Finite differences progress:
  Degree of freedom:   9/ 12
  Displacement:        2/  2
  Total:              18/ 24
 -----------------------------------------------------------------------------
|                                                                             |
|           W    W    AA    RRRRR   N    N  II  N    N   GGGG   !!!           |
|           W    W   A  A   R    R  NN   N  II  NN   N  G    G  !!!           |
|           W    W  A    A  R    R  N N  N  II  N N  N  G       !!!           |
|           W WW W  AAAAAA  RRRRR   N  N N  II  N  N N  G  GGG   !            |
|           WW  WW  A    A  R   R   N   NN  II  N   NN  G    G                |
|           W    W  A    A  R    R  N    N  II  N    N   GGGG   !!!           |
|                                                                             |
|     The requested file  could not be found or opened for reading            |
|     k-point information. Automatic k-point generation is used as a          |
|     fallback, which may lead to unwanted results.                           |
|                                                                             |
 -----------------------------------------------------------------------------

 bond charge predicted
       N       E                     dE             d eps       ncg     rms          rms(c)
DAV:   1    -0.170652815749E+03    0.47665E-02   -0.38186E-01   672   0.170E+00    0.250E-01
DAV:   2    -0.170658288924E+03   -0.54732E-02   -0.20604E-02   798   0.267E-01    0.984E-01
DAV:   3    -0.170651632257E+03    0.66567E-02   -0.36680E-02   840   0.167E-01    0.265E-01
DAV:   4    -0.170652951805E+03   -0.13195E-02   -0.12233E-02   840   0.956E-02    0.502E-01
DAV:   5    -0.170651032158E+03    0.19196E-02   -0.43843E-03   882   0.728E-02    0.318E-02
DAV:   6    -0.170651033888E+03   -0.17305E-05   -0.10903E-04   798   0.229E-02    0.289E-02
DAV:   7    -0.170651042944E+03   -0.90565E-05   -0.61948E-05  1050   0.108E-02    0.434E-02
DAV:   8    -0.170651024684E+03    0.18260E-04   -0.24566E-05   798   0.776E-03    0.357E-03
DAV:   9    -0.170651023383E+03    0.13013E-05   -0.19869E-06   798   0.322E-03    0.135E-03
DAV:  10    -0.170651022889E+03    0.49403E-06   -0.30246E-07   714   0.138E-03
  20 F= -.17303085E+03 E0= -.17300810E+03  d E =-.454899E-01
 Finite differences progress:
  Degree of freedom:  10/ 12
  Displacement:        1/  2
  Total:              19/ 24
 -----------------------------------------------------------------------------
|                                                                             |
|           W    W    AA    RRRRR   N    N  II  N    N   GGGG   !!!           |
|           W    W   A  A   R    R  NN   N  II  NN   N  G    G  !!!           |
|           W    W  A    A  R    R  N N  N  II  N N  N  G       !!!           |
|           W WW W  AAAAAA  RRRRR   N  N N  II  N  N N  G  GGG   !            |
|           WW  WW  A    A  R   R   N   NN  II  N   NN  G    G                |
|           W    W  A    A  R    R  N    N  II  N    N   GGGG   !!!           |
|                                                                             |
|     The requested file  could not be found or opened for reading            |
|     k-point information. Automatic k-point generation is used as a          |
|     fallback, which may lead to unwanted results.                           |
|                                                                             |
 -----------------------------------------------------------------------------

 bond charge predicted
       N       E                     dE             d eps       ncg     rms          rms(c)
DAV:   1    -0.170656123074E+03   -0.50997E-02   -0.84385E-01   714   0.242E+00    0.348E-01
DAV:   2    -0.170652984042E+03    0.31390E-02   -0.10622E-02   672   0.375E-01    0.436E-01
DAV:   3    -0.170654790968E+03   -0.18069E-02   -0.27718E-02   756   0.179E-01    0.634E-01
DAV:   4    -0.170651064534E+03    0.37264E-02   -0.81124E-03   672   0.136E-01    0.938E-02
DAV:   5    -0.170651522126E+03   -0.45759E-03   -0.36636E-03   882   0.575E-02    0.272E-01
DAV:   6    -0.170651018116E+03    0.50401E-03   -0.53627E-04   924   0.392E-02    0.198E-02
DAV:   7    -0.170651053658E+03   -0.35543E-04   -0.10574E-04   672   0.162E-02    0.618E-02
DAV:   8    -0.170651022183E+03    0.31476E-04   -0.54764E-05   672   0.112E-02    0.824E-03
DAV:   9    -0.170651022797E+03   -0.61368E-06   -0.47996E-06   882   0.408E-03
  21 F= -.17303085E+03 E0= -.17300810E+03  d E =-.454899E-01
 Finite differences progress:
  Degree of freedom:  10/ 12
  Displacement:        2/  2
  Total:              20/ 24
 -----------------------------------------------------------------------------
|                                                                             |
|           W    W    AA    RRRRR   N    N  II  N    N   GGGG   !!!           |
|           W    W   A  A   R    R  NN   N  II  NN   N  G    G  !!!           |
|           W    W  A    A  R    R  N N  N  II  N N  N  G       !!!           |
|           W WW W  AAAAAA  RRRRR   N  N N  II  N  N N  G  GGG   !            |
|           WW  WW  A    A  R   R   N   NN  II  N   NN  G    G                |
|           W    W  A    A  R    R  N    N  II  N    N   GGGG   !!!           |
|                                                                             |
|     The requested file  could not be found or opened for reading            |
|     k-point information. Automatic k-point generation is used as a          |
|     fallback, which may lead to unwanted results.                           |
|                                                                             |
 -----------------------------------------------------------------------------

 bond charge predicted
       N       E                     dE             d eps       ncg     rms          rms(c)
DAV:   1    -0.170655561118E+03   -0.45389E-02   -0.41799E-01   672   0.174E+00    0.296E-01
DAV:   2    -0.170676370358E+03   -0.20809E-01   -0.74233E-02   882   0.371E-01    0.148E+00
DAV:   3    -0.170653879681E+03    0.22491E-01   -0.29425E-02   924   0.241E-01    0.229E-01
DAV:   4    -0.170654342003E+03   -0.46232E-03   -0.79259E-03   798   0.890E-02    0.350E-01
DAV:   5    -0.170653177506E+03    0.11645E-02   -0.31641E-03   756   0.852E-02    0.123E-01
DAV:   6    -0.170653036700E+03    0.14081E-03   -0.11830E-03   714   0.451E-02    0.698E-02
DAV:   7    -0.170652984904E+03    0.51796E-04   -0.24190E-04   672   0.255E-02    0.343E-02
DAV:   8    -0.170652968572E+03    0.16333E-04   -0.32196E-05   840   0.108E-02    0.449E-03
DAV:   9    -0.170652961615E+03    0.69566E-05   -0.38469E-06   882   0.659E-03    0.181E-03
DAV:  10    -0.170652957261E+03    0.43537E-05   -0.15567E-06   798   0.437E-03    0.134E-03
DAV:  11    -0.170652953959E+03    0.33028E-05   -0.89142E-07   630   0.370E-03    0.303E-04
DAV:  12    -0.170652951966E+03    0.19931E-05   -0.92587E-07   630   0.312E-03    0.260E-04
DAV:  13    -0.170652951119E+03    0.84688E-06   -0.56353E-07   672   0.224E-03
  22 F= -.17303296E+03 E0= -.17301020E+03  d E =-.455128E-01
 Finite differences progress:
  Degree of freedom:  11/ 12
  Displacement:        1/  2
  Total:              21/ 24
 -----------------------------------------------------------------------------
|                                                                             |
|           W    W    AA    RRRRR   N    N  II  N    N   GGGG   !!!           |
|           W    W   A  A   R    R  NN   N  II  NN   N  G    G  !!!           |
|           W    W  A    A  R    R  N N  N  II  N N  N  G       !!!           |
|           W WW W  AAAAAA  RRRRR   N  N N  II  N  N N  G  GGG   !            |
|           WW  WW  A    A  R   R   N   NN  II  N   NN  G    G                |
|           W    W  A    A  R    R  N    N  II  N    N   GGGG   !!!           |
|                                                                             |
|     The requested file  could not be found or opened for reading            |
|     k-point information. Automatic k-point generation is used as a          |
|     fallback, which may lead to unwanted results.                           |
|                                                                             |
 -----------------------------------------------------------------------------

 bond charge predicted
       N       E                     dE             d eps       ncg     rms          rms(c)
DAV:   1    -0.170658001528E+03   -0.50496E-02   -0.83508E-01   672   0.218E+00    0.523E-01
DAV:   2    -0.170736810105E+03   -0.78809E-01   -0.20573E-01   966   0.662E-01    0.265E+00
DAV:   3    -0.170653599651E+03    0.83210E-01   -0.74414E-02   924   0.429E-01    0.356E-01
DAV:   4    -0.170655834782E+03   -0.22351E-02   -0.14269E-02   840   0.156E-01    0.663E-01
DAV:   5    -0.170652811455E+03    0.30233E-02   -0.12247E-02   756   0.113E-01    0.178E-01
DAV:   6    -0.170652655387E+03    0.15607E-03   -0.13753E-03   798   0.466E-02    0.804E-02
DAV:   7    -0.170652611484E+03    0.43903E-04   -0.23976E-04   798   0.202E-02    0.252E-02
DAV:   8    -0.170652608237E+03    0.32472E-05   -0.13384E-05   798   0.661E-03    0.809E-03
DAV:   9    -0.170652608022E+03    0.21541E-06   -0.18526E-06   630   0.249E-03
  23 F= -.17303225E+03 E0= -.17300952E+03  d E =-.454465E-01
 Finite differences progress:
  Degree of freedom:  11/ 12
  Displacement:        2/  2
  Total:              22/ 24
 -----------------------------------------------------------------------------
|                                                                             |
|           W    W    AA    RRRRR   N    N  II  N    N   GGGG   !!!           |
|           W    W   A  A   R    R  NN   N  II  NN   N  G    G  !!!           |
|           W    W  A    A  R    R  N N  N  II  N N  N  G       !!!           |
|           W WW W  AAAAAA  RRRRR   N  N N  II  N  N N  G  GGG   !            |
|           WW  WW  A    A  R   R   N   NN  II  N   NN  G    G                |
|           W    W  A    A  R    R  N    N  II  N    N   GGGG   !!!           |
|                                                                             |
|     The requested file  could not be found or opened for reading            |
|     k-point information. Automatic k-point generation is used as a          |
|     fallback, which may lead to unwanted results.                           |
|                                                                             |
 -----------------------------------------------------------------------------

 bond charge predicted
       N       E                     dE             d eps       ncg     rms          rms(c)
DAV:   1    -0.170657088780E+03   -0.44805E-02   -0.39092E-01   672   0.152E+00    0.296E-01
DAV:   2    -0.170679058495E+03   -0.21970E-01   -0.74173E-02   840   0.361E-01    0.149E+00
DAV:   3    -0.170655748674E+03    0.23310E-01   -0.30698E-02   882   0.244E-01    0.230E-01
DAV:   4    -0.170656287422E+03   -0.53875E-03   -0.82876E-03   882   0.882E-02    0.350E-01
DAV:   5    -0.170655407185E+03    0.88024E-03   -0.24105E-03   798   0.644E-02    0.101E-01
DAV:   6    -0.170655352763E+03    0.54423E-04   -0.48873E-04   882   0.267E-02    0.374E-02
DAV:   7    -0.170655344894E+03    0.78685E-05   -0.58698E-05   798   0.121E-02    0.168E-02
DAV:   8    -0.170655342996E+03    0.18984E-05   -0.69791E-06   840   0.388E-03    0.332E-03
DAV:   9    -0.170655342992E+03    0.35861E-08   -0.95037E-07   714   0.151E-03
  24 F= -.17303516E+03 E0= -.17301242E+03  d E =-.454915E-01
 Finite differences progress:
  Degree of freedom:  12/ 12
  Displacement:        1/  2
  Total:              23/ 24
 -----------------------------------------------------------------------------
|                                                                             |
|           W    W    AA    RRRRR   N    N  II  N    N   GGGG   !!!           |
|           W    W   A  A   R    R  NN   N  II  NN   N  G    G  !!!           |
|           W    W  A    A  R    R  N N  N  II  N N  N  G       !!!           |
|           W WW W  AAAAAA  RRRRR   N  N N  II  N  N N  G  GGG   !            |
|           WW  WW  A    A  R   R   N   NN  II  N   NN  G    G                |
|           W    W  A    A  R    R  N    N  II  N    N   GGGG   !!!           |
|                                                                             |
|     The requested file  could not be found or opened for reading            |
|     k-point information. Automatic k-point generation is used as a          |
|     fallback, which may lead to unwanted results.                           |
|                                                                             |
 -----------------------------------------------------------------------------

 bond charge predicted
       N       E                     dE             d eps       ncg     rms          rms(c)
DAV:   1    -0.170656807264E+03   -0.14643E-02   -0.72766E-01   672   0.200E+00    0.212E-01
DAV:   2    -0.170655611955E+03    0.11953E-02   -0.31862E-03  1008   0.168E-01    0.121E-01
DAV:   3    -0.170657438319E+03   -0.18264E-02   -0.51196E-03   840   0.967E-02    0.544E-01
DAV:   4    -0.170655344907E+03    0.20934E-02   -0.58035E-03   840   0.767E-02    0.633E-02
DAV:   5    -0.170655604188E+03   -0.25928E-03   -0.12929E-03   840   0.376E-02    0.187E-01
DAV:   6    -0.170655338233E+03    0.26596E-03   -0.48541E-04   882   0.269E-02    0.117E-02
DAV:   7    -0.170655341413E+03   -0.31797E-05   -0.12486E-05   798   0.843E-03    0.516E-03
DAV:   8    -0.170655341689E+03   -0.27635E-06   -0.12302E-06   924   0.276E-03
  25 F= -.17303516E+03 E0= -.17301242E+03  d E =-.454915E-01
 Finite differences progress:
  Degree of freedom:  12/ 12
  Displacement:        2/  2
  Total:              24/ 24
 -----------------------------------------------------------------------------
|                                                                             |
|           W    W    AA    RRRRR   N    N  II  N    N   GGGG   !!!           |
|           W    W   A  A   R    R  NN   N  II  NN   N  G    G  !!!           |
|           W    W  A    A  R    R  N N  N  II  N N  N  G       !!!           |
|           W WW W  AAAAAA  RRRRR   N  N N  II  N  N N  G  GGG   !            |
|           WW  WW  A    A  R   R   N   NN  II  N   NN  G    G                |
|           W    W  A    A  R    R  N    N  II  N    N   GGGG   !!!           |
|                                                                             |
|     The requested file  could not be found or opened for reading            |
|     k-point information. Automatic k-point generation is used as a          |
|     fallback, which may lead to unwanted results.                           |
|                                                                             |
 -----------------------------------------------------------------------------

