  28  28   0   0
  0.6180874E+02  0.1139952E-08  0.6314134E-09  0.2404406E-08  0.1500000E-16
  1.000000000000000E-004
  CAR 
 phonon_dispersion                       
      5.10155502    -20.99895099  301     -4.36372030      1.00000000
    -20.999  0.0000E+00  0.0000E+00
    -20.912  0.0000E+00  0.0000E+00
    -20.825  0.0000E+00  0.0000E+00
    -20.738  0.0000E+00  0.0000E+00
    -20.651  0.0000E+00  0.0000E+00
    -20.564  0.0000E+00  0.0000E+00
    -20.477  0.0000E+00  0.0000E+00
    -20.390  0.0000E+00  0.0000E+00
    -20.303  0.0000E+00  0.0000E+00
    -20.216  0.0000E+00  0.0000E+00
    -20.129  0.0000E+00  0.0000E+00
    -20.042  0.6723E-12  0.5849E-13
    -19.955  0.4357E-06  0.3791E-07
    -19.868  0.9049E-03  0.7877E-04
    -19.781  0.1366E-01  0.1268E-02
    -19.694  0.3705E-01  0.4491E-02
    -19.607  0.3625E-01  0.7645E-02
    -19.520  0.5029E-02  0.8082E-02
    -19.433  0.2974E-01  0.1067E-01
    -19.346  0.3091E-01  0.1336E-01
    -19.259  0.2796E-02  0.1360E-01
    -19.172  0.3072E-01  0.1628E-01
    -19.085  0.4023E-01  0.1977E-01
    -18.998  0.1306E-01  0.2091E-01
    -18.911  0.6121E-02  0.2144E-01
    -18.824  0.5131E-04  0.2145E-01
    -18.737  0.1764E-08  0.2145E-01
    -18.650  0.1745E-15  0.2145E-01
    -18.563  0.0000E+00  0.2145E-01
    -18.476  0.0000E+00  0.2145E-01
    -18.389  0.0000E+00  0.2145E-01
    -18.302  0.0000E+00  0.2145E-01
    -18.215  0.0000E+00  0.2145E-01
    -18.128  0.0000E+00  0.2145E-01
    -18.041  0.0000E+00  0.2145E-01
    -17.954  0.0000E+00  0.2145E-01
    -17.867  0.0000E+00  0.2145E-01
    -17.780  0.0000E+00  0.2145E-01
    -17.693  0.0000E+00  0.2145E-01
    -17.606  0.0000E+00  0.2145E-01
    -17.519  0.0000E+00  0.2145E-01
    -17.432  0.0000E+00  0.2145E-01
    -17.345  0.0000E+00  0.2145E-01
    -17.258  0.0000E+00  0.2145E-01
    -17.171  0.0000E+00  0.2145E-01
    -17.084  0.0000E+00  0.2145E-01
    -16.997  0.0000E+00  0.2145E-01
    -16.910  0.0000E+00  0.2145E-01
    -16.823  0.0000E+00  0.2145E-01
    -16.736  0.0000E+00  0.2145E-01
    -16.649  0.0000E+00  0.2145E-01
    -16.562  0.0000E+00  0.2145E-01
    -16.475  0.0000E+00  0.2145E-01
    -16.388  0.0000E+00  0.2145E-01
    -16.301  0.0000E+00  0.2145E-01
    -16.214  0.0000E+00  0.2145E-01
    -16.127  0.0000E+00  0.2145E-01
    -16.040  0.0000E+00  0.2145E-01
    -15.953  0.0000E+00  0.2145E-01
    -15.866  0.0000E+00  0.2145E-01
    -15.779  0.0000E+00  0.2145E-01
    -15.692  0.0000E+00  0.2145E-01
    -15.605  0.2586E-14  0.2145E-01
    -15.518  0.1400E-07  0.2145E-01
    -15.431  0.2300E-03  0.2147E-01
    -15.344  0.2064E-01  0.2326E-01
    -15.257  0.3861E-01  0.2662E-01
    -15.170  0.1377E-01  0.2782E-01
    -15.083  0.7586E-01  0.3442E-01
    -14.996  0.7818E-01  0.4122E-01
    -14.909  0.3969E-02  0.4157E-01
    -14.822  0.8340E-02  0.4229E-01
    -14.735  0.6843E-02  0.4289E-01
    -14.648  0.7414E-04  0.4290E-01
    -14.561  0.3407E-08  0.4290E-01
    -14.474  0.4533E-15  0.4290E-01
    -14.387  0.0000E+00  0.4290E-01
    -14.300  0.0000E+00  0.4290E-01
    -14.213  0.0000E+00  0.4290E-01
    -14.126  0.0000E+00  0.4290E-01
    -14.039  0.0000E+00  0.4290E-01
    -13.952  0.0000E+00  0.4290E-01
    -13.865  0.4121E-13  0.4290E-01
    -13.778  0.7086E-07  0.4290E-01
    -13.691  0.3723E-03  0.4293E-01
    -13.604  0.1021E-01  0.4382E-01
    -13.517  0.4803E-02  0.4423E-01
    -13.430  0.2471E-04  0.4424E-01
    -13.343  0.4912E-09  0.4424E-01
    -13.256  0.5365E-07  0.4424E-01
    -13.169  0.4515E-03  0.4428E-01
    -13.082  0.1838E-01  0.4587E-01
    -12.995  0.1576E-01  0.4724E-01
    -12.908  0.2771E-01  0.4966E-01
    -12.821  0.5717E-01  0.5463E-01
    -12.734  0.3354E-01  0.5755E-01
    -12.647  0.1335E-02  0.5766E-01
    -12.560  0.1621E-01  0.5907E-01
    -12.473  0.1416E-01  0.6031E-01
    -12.386  0.8800E-03  0.6038E-01
    -12.299  0.1137E-01  0.6137E-01
    -12.212  0.1179E-01  0.6240E-01
    -12.125  0.2139E-01  0.6426E-01
    -12.038  0.9627E-03  0.6434E-01
    -11.951  0.2366E-06  0.6434E-01
    -11.864  0.1797E-12  0.6434E-01
    -11.777  0.0000E+00  0.6434E-01
    -11.690  0.0000E+00  0.6434E-01
    -11.603  0.0000E+00  0.6434E-01
    -11.516  0.3216E-15  0.6434E-01
    -11.429  0.2691E-08  0.6434E-01
    -11.342  0.6523E-04  0.6435E-01
    -11.255  0.7362E-02  0.6499E-01
    -11.168  0.2843E-01  0.6746E-01
    -11.081  0.3144E-01  0.7020E-01
    -10.994  0.6374E-01  0.7574E-01
    -10.907  0.2529E-01  0.7794E-01
    -10.820  0.3714E-01  0.8118E-01
    -10.733  0.2184E-01  0.8308E-01
    -10.646  0.3945E-03  0.8311E-01
    -10.559  0.2097E-02  0.8329E-01
    -10.472  0.2651E-01  0.8560E-01
    -10.385  0.3745E-01  0.8886E-01
    -10.298  0.2350E-01  0.9090E-01
    -10.211  0.1798E-01  0.9247E-01
    -10.124  0.1602E-01  0.9386E-01
    -10.037  0.3766E-01  0.9714E-01
     -9.950  0.2433E-01  0.9925E-01
     -9.863  0.5019E-01  0.1036E+00
     -9.776  0.2581E-01  0.1059E+00
     -9.689  0.3711E-03  0.1059E+00
     -9.602  0.5611E-04  0.1059E+00
     -9.515  0.6352E-02  0.1065E+00
     -9.428  0.2200E-01  0.1084E+00
     -9.341  0.3606E-01  0.1115E+00
     -9.254  0.1264E-01  0.1126E+00
     -9.167  0.1956E-01  0.1143E+00
     -9.080  0.1608E-01  0.1157E+00
     -8.993  0.2374E-01  0.1178E+00
     -8.906  0.2171E-02  0.1180E+00
     -8.819  0.1293E-05  0.1180E+00
     -8.732  0.1134E-06  0.1180E+00
     -8.645  0.6648E-03  0.1180E+00
     -8.558  0.2012E-01  0.1198E+00
     -8.471  0.1856E-01  0.1214E+00
     -8.384  0.1449E-01  0.1226E+00
     -8.297  0.2457E-01  0.1248E+00
     -8.210  0.3949E-01  0.1282E+00
     -8.123  0.1993E-01  0.1300E+00
     -8.036  0.8563E-03  0.1300E+00
     -7.949  0.1170E-02  0.1301E+00
     -7.862  0.2209E-01  0.1321E+00
     -7.775  0.1704E-01  0.1335E+00
     -7.688  0.5824E-01  0.1386E+00
     -7.601  0.5215E-01  0.1431E+00
     -7.514  0.4236E-02  0.1435E+00
     -7.427  0.3504E-01  0.1466E+00
     -7.340  0.3257E-01  0.1494E+00
     -7.253  0.5483E-01  0.1542E+00
     -7.166  0.4472E-01  0.1580E+00
     -7.079  0.5057E-01  0.1624E+00
     -6.992  0.6743E-01  0.1683E+00
     -6.905  0.2191E-01  0.1702E+00
     -6.818  0.2323E-03  0.1702E+00
     -6.731  0.4287E-06  0.1702E+00
     -6.644  0.1591E-02  0.1704E+00
     -6.557  0.3986E-01  0.1738E+00
     -6.470  0.2540E-01  0.1761E+00
     -6.383  0.1000E-01  0.1769E+00
     -6.296  0.8967E-02  0.1777E+00
     -6.209  0.1973E-01  0.1794E+00
     -6.122  0.1664E-01  0.1809E+00
     -6.035  0.3918E-01  0.1843E+00
     -5.948  0.2785E-01  0.1867E+00
     -5.861  0.1392E-01  0.1879E+00
     -5.774  0.4439E-01  0.1918E+00
     -5.687  0.3782E-01  0.1951E+00
     -5.600  0.4118E-01  0.1987E+00
     -5.513  0.4627E-01  0.2027E+00
     -5.426  0.1234E-01  0.2037E+00
     -5.339  0.4726E-04  0.2038E+00
     -5.252  0.2265E-02  0.2040E+00
     -5.165  0.2374E-01  0.2060E+00
     -5.078  0.8395E-02  0.2067E+00
     -4.991  0.2408E-01  0.2088E+00
     -4.904  0.3144E-02  0.2091E+00
     -4.817  0.3372E-04  0.2091E+00
     -4.730  0.6479E-02  0.2097E+00
     -4.643  0.3255E-01  0.2125E+00
     -4.556  0.2374E-01  0.2146E+00
     -4.469  0.6196E-01  0.2200E+00
     -4.382  0.4148E-01  0.2236E+00
     -4.295  0.7552E-01  0.2301E+00
     -4.208  0.1872E-01  0.2318E+00
     -4.121  0.2615E-01  0.2341E+00
     -4.034  0.6113E-02  0.2346E+00
     -3.947  0.1451E-04  0.2346E+00
     -3.860  0.1234E-09  0.2346E+00
     -3.773  0.3421E-17  0.2346E+00
     -3.686  0.0000E+00  0.2346E+00
     -3.599  0.0000E+00  0.2346E+00
     -3.512  0.0000E+00  0.2346E+00
     -3.425  0.0000E+00  0.2346E+00
     -3.338  0.0000E+00  0.2346E+00
     -3.251  0.0000E+00  0.2346E+00
     -3.164  0.0000E+00  0.2346E+00
     -3.077  0.1711E-17  0.2346E+00
     -2.990  0.7146E-10  0.2346E+00
     -2.903  0.7921E-05  0.2346E+00
     -2.816  0.3159E-02  0.2349E+00
     -2.729  0.1146E-01  0.2359E+00
     -2.642  0.7796E-03  0.2359E+00
     -2.555  0.3188E-06  0.2359E+00
     -2.468  0.4133E-12  0.2359E+00
     -2.381  0.0000E+00  0.2359E+00
     -2.294  0.0000E+00  0.2359E+00
     -2.207  0.0000E+00  0.2359E+00
     -2.120  0.0000E+00  0.2359E+00
     -2.033  0.0000E+00  0.2359E+00
     -1.946  0.9757E-11  0.2359E+00
     -1.859  0.2351E-05  0.2359E+00
     -1.772  0.1925E-02  0.2361E+00
     -1.685  0.1202E-01  0.2371E+00
     -1.598  0.1462E-02  0.2373E+00
     -1.511  0.2336E-04  0.2373E+00
     -1.424  0.7167E-02  0.2379E+00
     -1.337  0.3462E-01  0.2409E+00
     -1.250  0.1410E-01  0.2421E+00
     -1.163  0.2908E-01  0.2447E+00
     -1.076  0.4015E-01  0.2482E+00
     -0.989  0.6140E-01  0.2535E+00
     -0.902  0.2623E-01  0.2558E+00
     -0.815  0.1798E-01  0.2573E+00
     -0.728  0.5860E-02  0.2579E+00
     -0.641  0.2363E-01  0.2599E+00
     -0.554  0.2044E-01  0.2617E+00
     -0.467  0.6169E-01  0.2671E+00
     -0.380  0.4085E-01  0.2706E+00
     -0.293  0.1897E-01  0.2723E+00
     -0.206  0.3858E-01  0.2756E+00
     -0.119  0.3556E-01  0.2787E+00
     -0.032  0.4663E-02  0.2791E+00
      0.055  0.1135E-01  0.2801E+00
      0.142  0.5410E-02  0.2806E+00
      0.229  0.1137E-01  0.2816E+00
      0.316  0.2282E-01  0.2835E+00
      0.403  0.2651E-01  0.2859E+00
      0.490  0.6758E-01  0.2917E+00
      0.577  0.5820E-01  0.2968E+00
      0.664  0.9117E-02  0.2976E+00
      0.751  0.1112E-01  0.2986E+00
      0.838  0.3193E-01  0.3013E+00
      0.925  0.1367E-01  0.3025E+00
      1.012  0.2686E-01  0.3049E+00
      1.099  0.4688E-01  0.3089E+00
      1.186  0.4302E-01  0.3127E+00
      1.273  0.4405E-01  0.3165E+00
      1.360  0.6252E-01  0.3220E+00
      1.447  0.4165E-01  0.3256E+00
      1.534  0.2877E-01  0.3281E+00
      1.621  0.3348E-01  0.3310E+00
      1.708  0.1801E-01  0.3326E+00
      1.795  0.3515E-01  0.3356E+00
      1.882  0.6738E-01  0.3415E+00
      1.969  0.4144E-01  0.3451E+00
      2.056  0.2364E-01  0.3471E+00
      2.143  0.8000E-02  0.3478E+00
      2.230  0.4061E-01  0.3514E+00
      2.318  0.6304E-01  0.3569E+00
      2.405  0.6203E-01  0.3623E+00
      2.492  0.6516E-01  0.3679E+00
      2.579  0.5208E-01  0.3725E+00
      2.666  0.5201E-01  0.3770E+00
      2.753  0.9095E-01  0.3849E+00
      2.840  0.5689E-01  0.3898E+00
      2.927  0.9671E-01  0.3983E+00
      3.014  0.9169E-01  0.4062E+00
      3.101  0.4516E-01  0.4102E+00
      3.188  0.1194E+00  0.4206E+00
      3.275  0.8178E-01  0.4277E+00
      3.362  0.3077E-01  0.4303E+00
      3.449  0.9268E-01  0.4384E+00
      3.536  0.6005E-01  0.4436E+00
      3.623  0.2607E-01  0.4459E+00
      3.710  0.2347E-01  0.4479E+00
      3.797  0.1277E-01  0.4491E+00
      3.884  0.2968E-02  0.4493E+00
      3.971  0.1165E-01  0.4503E+00
      4.058  0.9037E-03  0.4504E+00
      4.145  0.4357E-06  0.4504E+00
      4.232  0.6723E-12  0.4504E+00
      4.319  0.0000E+00  0.4504E+00
      4.406  0.0000E+00  0.4504E+00
      4.493  0.0000E+00  0.4504E+00
      4.580  0.0000E+00  0.4504E+00
      4.667  0.0000E+00  0.4504E+00
      4.754  0.0000E+00  0.4504E+00
      4.841  0.0000E+00  0.4504E+00
      4.928  0.0000E+00  0.4504E+00
      5.015  0.0000E+00  0.4504E+00
      5.102  0.0000E+00  0.4504E+00
