phonon_dispersion                       
           1
    11.399516    0.000000    0.000000
     0.000000    6.314134    0.000000
     0.000000    0.000000   24.044058
   B 
    28
Direct configuration=     1
   0.25691115  0.64076397  0.08409683
   0.75691115  0.64076397  0.08409683
   0.24308885  0.35923603  0.08409683
   0.74308885  0.35923603  0.08409683
   0.49308885  0.64076397  0.08409683
   0.99308885  0.64076397  0.08409683
   0.00691115  0.35923603  0.08409683
   0.50691115  0.35923603  0.08409683
   0.29804543  0.90122213  0.08409683
   0.79804543  0.90122213  0.08409683
   0.20195457  0.09877786  0.08409683
   0.70195457  0.09877786  0.08409683
   0.45195457  0.90122213  0.08409683
   0.95195457  0.90122213  0.08409683
   0.04804543  0.09877786  0.08409683
   0.54804543  0.09877786  0.08409683
   0.37500000  0.72378395  0.12541800
   0.87500000  0.72378395  0.12541800
   0.12500000  0.27621605  0.04277567
   0.62500000  0.27621605  0.04277567
   0.37500000  0.72378395  0.04277567
   0.87500000  0.72378395  0.04277567
   0.12500000  0.27621605  0.12541800
   0.62500000  0.27621605  0.12541800
   0.12500000  0.51648766  0.08409683
   0.62500000  0.51648766  0.08409683
   0.37500000  0.48351231  0.08409683
   0.87500000  0.48351231  0.08409683
Direct configuration=     2
   0.25822699  0.64076397  0.08409683
   0.75691115  0.64076397  0.08409683
   0.24308885  0.35923603  0.08409683
   0.74308885  0.35923603  0.08409683
   0.49308885  0.64076397  0.08409683
   0.99308885  0.64076397  0.08409683
   0.00691115  0.35923603  0.08409683
   0.50691115  0.35923603  0.08409683
   0.29804543  0.90122213  0.08409683
   0.79804543  0.90122213  0.08409683
   0.20195457  0.09877786  0.08409683
   0.70195457  0.09877786  0.08409683
   0.45195457  0.90122213  0.08409683
   0.95195457  0.90122213  0.08409683
   0.04804543  0.09877786  0.08409683
   0.54804543  0.09877786  0.08409683
   0.37500000  0.72378395  0.12541800
   0.87500000  0.72378395  0.12541800
   0.12500000  0.27621605  0.04277567
   0.62500000  0.27621605  0.04277567
   0.37500000  0.72378395  0.04277567
   0.87500000  0.72378395  0.04277567
   0.12500000  0.27621605  0.12541800
   0.62500000  0.27621605  0.12541800
   0.12500000  0.51648766  0.08409683
   0.62500000  0.51648766  0.08409683
   0.37500000  0.48351231  0.08409683
   0.87500000  0.48351231  0.08409683
Direct configuration=     3
   0.25559530  0.64076397  0.08409683
   0.75691115  0.64076397  0.08409683
   0.24308885  0.35923603  0.08409683
   0.74308885  0.35923603  0.08409683
   0.49308885  0.64076397  0.08409683
   0.99308885  0.64076397  0.08409683
   0.00691115  0.35923603  0.08409683
   0.50691115  0.35923603  0.08409683
   0.29804543  0.90122213  0.08409683
   0.79804543  0.90122213  0.08409683
   0.20195457  0.09877786  0.08409683
   0.70195457  0.09877786  0.08409683
   0.45195457  0.90122213  0.08409683
   0.95195457  0.90122213  0.08409683
   0.04804543  0.09877786  0.08409683
   0.54804543  0.09877786  0.08409683
   0.37500000  0.72378395  0.12541800
   0.87500000  0.72378395  0.12541800
   0.12500000  0.27621605  0.04277567
   0.62500000  0.27621605  0.04277567
   0.37500000  0.72378395  0.04277567
   0.87500000  0.72378395  0.04277567
   0.12500000  0.27621605  0.12541800
   0.62500000  0.27621605  0.12541800
   0.12500000  0.51648766  0.08409683
   0.62500000  0.51648766  0.08409683
   0.37500000  0.48351231  0.08409683
   0.87500000  0.48351231  0.08409683
Direct configuration=     4
   0.25691115  0.64313959  0.08409683
   0.75691115  0.64076397  0.08409683
   0.24308885  0.35923603  0.08409683
   0.74308885  0.35923603  0.08409683
   0.49308885  0.64076397  0.08409683
   0.99308885  0.64076397  0.08409683
   0.00691115  0.35923603  0.08409683
   0.50691115  0.35923603  0.08409683
   0.29804543  0.90122213  0.08409683
   0.79804543  0.90122213  0.08409683
   0.20195457  0.09877786  0.08409683
   0.70195457  0.09877786  0.08409683
   0.45195457  0.90122213  0.08409683
   0.95195457  0.90122213  0.08409683
   0.04804543  0.09877786  0.08409683
   0.54804543  0.09877786  0.08409683
   0.37500000  0.72378395  0.12541800
   0.87500000  0.72378395  0.12541800
   0.12500000  0.27621605  0.04277567
   0.62500000  0.27621605  0.04277567
   0.37500000  0.72378395  0.04277567
   0.87500000  0.72378395  0.04277567
   0.12500000  0.27621605  0.12541800
   0.62500000  0.27621605  0.12541800
   0.12500000  0.51648766  0.08409683
   0.62500000  0.51648766  0.08409683
   0.37500000  0.48351231  0.08409683
   0.87500000  0.48351231  0.08409683
Direct configuration=     5
   0.25691115  0.63838834  0.08409683
   0.75691115  0.64076397  0.08409683
   0.24308885  0.35923603  0.08409683
   0.74308885  0.35923603  0.08409683
   0.49308885  0.64076397  0.08409683
   0.99308885  0.64076397  0.08409683
   0.00691115  0.35923603  0.08409683
   0.50691115  0.35923603  0.08409683
   0.29804543  0.90122213  0.08409683
   0.79804543  0.90122213  0.08409683
   0.20195457  0.09877786  0.08409683
   0.70195457  0.09877786  0.08409683
   0.45195457  0.90122213  0.08409683
   0.95195457  0.90122213  0.08409683
   0.04804543  0.09877786  0.08409683
   0.54804543  0.09877786  0.08409683
   0.37500000  0.72378395  0.12541800
   0.87500000  0.72378395  0.12541800
   0.12500000  0.27621605  0.04277567
   0.62500000  0.27621605  0.04277567
   0.37500000  0.72378395  0.04277567
   0.87500000  0.72378395  0.04277567
   0.12500000  0.27621605  0.12541800
   0.62500000  0.27621605  0.12541800
   0.12500000  0.51648766  0.08409683
   0.62500000  0.51648766  0.08409683
   0.37500000  0.48351231  0.08409683
   0.87500000  0.48351231  0.08409683
Direct configuration=     6
   0.25691115  0.64076397  0.08472069
   0.75691115  0.64076397  0.08409683
   0.24308885  0.35923603  0.08409683
   0.74308885  0.35923603  0.08409683
   0.49308885  0.64076397  0.08409683
   0.99308885  0.64076397  0.08409683
   0.00691115  0.35923603  0.08409683
   0.50691115  0.35923603  0.08409683
   0.29804543  0.90122213  0.08409683
   0.79804543  0.90122213  0.08409683
   0.20195457  0.09877786  0.08409683
   0.70195457  0.09877786  0.08409683
   0.45195457  0.90122213  0.08409683
   0.95195457  0.90122213  0.08409683
   0.04804543  0.09877786  0.08409683
   0.54804543  0.09877786  0.08409683
   0.37500000  0.72378395  0.12541800
   0.87500000  0.72378395  0.12541800
   0.12500000  0.27621605  0.04277567
   0.62500000  0.27621605  0.04277567
   0.37500000  0.72378395  0.04277567
   0.87500000  0.72378395  0.04277567
   0.12500000  0.27621605  0.12541800
   0.62500000  0.27621605  0.12541800
   0.12500000  0.51648766  0.08409683
   0.62500000  0.51648766  0.08409683
   0.37500000  0.48351231  0.08409683
   0.87500000  0.48351231  0.08409683
Direct configuration=     7
   0.25691115  0.64076397  0.08347298
   0.75691115  0.64076397  0.08409683
   0.24308885  0.35923603  0.08409683
   0.74308885  0.35923603  0.08409683
   0.49308885  0.64076397  0.08409683
   0.99308885  0.64076397  0.08409683
   0.00691115  0.35923603  0.08409683
   0.50691115  0.35923603  0.08409683
   0.29804543  0.90122213  0.08409683
   0.79804543  0.90122213  0.08409683
   0.20195457  0.09877786  0.08409683
   0.70195457  0.09877786  0.08409683
   0.45195457  0.90122213  0.08409683
   0.95195457  0.90122213  0.08409683
   0.04804543  0.09877786  0.08409683
   0.54804543  0.09877786  0.08409683
   0.37500000  0.72378395  0.12541800
   0.87500000  0.72378395  0.12541800
   0.12500000  0.27621605  0.04277567
   0.62500000  0.27621605  0.04277567
   0.37500000  0.72378395  0.04277567
   0.87500000  0.72378395  0.04277567
   0.12500000  0.27621605  0.12541800
   0.62500000  0.27621605  0.12541800
   0.12500000  0.51648766  0.08409683
   0.62500000  0.51648766  0.08409683
   0.37500000  0.48351231  0.08409683
   0.87500000  0.48351231  0.08409683
Direct configuration=     8
   0.25691115  0.64076397  0.08409683
   0.75691115  0.64076397  0.08409683
   0.24308885  0.35923603  0.08409683
   0.74308885  0.35923603  0.08409683
   0.49308885  0.64076397  0.08409683
   0.99308885  0.64076397  0.08409683
   0.00691115  0.35923603  0.08409683
   0.50691115  0.35923603  0.08409683
   0.29936128  0.90122213  0.08409683
   0.79804543  0.90122213  0.08409683
   0.20195457  0.09877786  0.08409683
   0.70195457  0.09877786  0.08409683
   0.45195457  0.90122213  0.08409683
   0.95195457  0.90122213  0.08409683
   0.04804543  0.09877786  0.08409683
   0.54804543  0.09877786  0.08409683
   0.37500000  0.72378395  0.12541800
   0.87500000  0.72378395  0.12541800
   0.12500000  0.27621605  0.04277567
   0.62500000  0.27621605  0.04277567
   0.37500000  0.72378395  0.04277567
   0.87500000  0.72378395  0.04277567
   0.12500000  0.27621605  0.12541800
   0.62500000  0.27621605  0.12541800
   0.12500000  0.51648766  0.08409683
   0.62500000  0.51648766  0.08409683
   0.37500000  0.48351231  0.08409683
   0.87500000  0.48351231  0.08409683
Direct configuration=     9
   0.25691115  0.64076397  0.08409683
   0.75691115  0.64076397  0.08409683
   0.24308885  0.35923603  0.08409683
   0.74308885  0.35923603  0.08409683
   0.49308885  0.64076397  0.08409683
   0.99308885  0.64076397  0.08409683
   0.00691115  0.35923603  0.08409683
   0.50691115  0.35923603  0.08409683
   0.29672959  0.90122213  0.08409683
   0.79804543  0.90122213  0.08409683
   0.20195457  0.09877786  0.08409683
   0.70195457  0.09877786  0.08409683
   0.45195457  0.90122213  0.08409683
   0.95195457  0.90122213  0.08409683
   0.04804543  0.09877786  0.08409683
   0.54804543  0.09877786  0.08409683
   0.37500000  0.72378395  0.12541800
   0.87500000  0.72378395  0.12541800
   0.12500000  0.27621605  0.04277567
   0.62500000  0.27621605  0.04277567
   0.37500000  0.72378395  0.04277567
   0.87500000  0.72378395  0.04277567
   0.12500000  0.27621605  0.12541800
   0.62500000  0.27621605  0.12541800
   0.12500000  0.51648766  0.08409683
   0.62500000  0.51648766  0.08409683
   0.37500000  0.48351231  0.08409683
   0.87500000  0.48351231  0.08409683
Direct configuration=    10
   0.25691115  0.64076397  0.08409683
   0.75691115  0.64076397  0.08409683
   0.24308885  0.35923603  0.08409683
   0.74308885  0.35923603  0.08409683
   0.49308885  0.64076397  0.08409683
   0.99308885  0.64076397  0.08409683
   0.00691115  0.35923603  0.08409683
   0.50691115  0.35923603  0.08409683
   0.29804543  0.90359776  0.08409683
   0.79804543  0.90122213  0.08409683
   0.20195457  0.09877786  0.08409683
   0.70195457  0.09877786  0.08409683
   0.45195457  0.90122213  0.08409683
   0.95195457  0.90122213  0.08409683
   0.04804543  0.09877786  0.08409683
   0.54804543  0.09877786  0.08409683
   0.37500000  0.72378395  0.12541800
   0.87500000  0.72378395  0.12541800
   0.12500000  0.27621605  0.04277567
   0.62500000  0.27621605  0.04277567
   0.37500000  0.72378395  0.04277567
   0.87500000  0.72378395  0.04277567
   0.12500000  0.27621605  0.12541800
   0.62500000  0.27621605  0.12541800
   0.12500000  0.51648766  0.08409683
   0.62500000  0.51648766  0.08409683
   0.37500000  0.48351231  0.08409683
   0.87500000  0.48351231  0.08409683
Direct configuration=    11
   0.25691115  0.64076397  0.08409683
   0.75691115  0.64076397  0.08409683
   0.24308885  0.35923603  0.08409683
   0.74308885  0.35923603  0.08409683
   0.49308885  0.64076397  0.08409683
   0.99308885  0.64076397  0.08409683
   0.00691115  0.35923603  0.08409683
   0.50691115  0.35923603  0.08409683
   0.29804543  0.89884651  0.08409683
   0.79804543  0.90122213  0.08409683
   0.20195457  0.09877786  0.08409683
   0.70195457  0.09877786  0.08409683
   0.45195457  0.90122213  0.08409683
   0.95195457  0.90122213  0.08409683
   0.04804543  0.09877786  0.08409683
   0.54804543  0.09877786  0.08409683
   0.37500000  0.72378395  0.12541800
   0.87500000  0.72378395  0.12541800
   0.12500000  0.27621605  0.04277567
   0.62500000  0.27621605  0.04277567
   0.37500000  0.72378395  0.04277567
   0.87500000  0.72378395  0.04277567
   0.12500000  0.27621605  0.12541800
   0.62500000  0.27621605  0.12541800
   0.12500000  0.51648766  0.08409683
   0.62500000  0.51648766  0.08409683
   0.37500000  0.48351231  0.08409683
   0.87500000  0.48351231  0.08409683
Direct configuration=    12
   0.25691115  0.64076397  0.08409683
   0.75691115  0.64076397  0.08409683
   0.24308885  0.35923603  0.08409683
   0.74308885  0.35923603  0.08409683
   0.49308885  0.64076397  0.08409683
   0.99308885  0.64076397  0.08409683
   0.00691115  0.35923603  0.08409683
   0.50691115  0.35923603  0.08409683
   0.29804543  0.90122213  0.08472069
   0.79804543  0.90122213  0.08409683
   0.20195457  0.09877786  0.08409683
   0.70195457  0.09877786  0.08409683
   0.45195457  0.90122213  0.08409683
   0.95195457  0.90122213  0.08409683
   0.04804543  0.09877786  0.08409683
   0.54804543  0.09877786  0.08409683
   0.37500000  0.72378395  0.12541800
   0.87500000  0.72378395  0.12541800
   0.12500000  0.27621605  0.04277567
   0.62500000  0.27621605  0.04277567
   0.37500000  0.72378395  0.04277567
   0.87500000  0.72378395  0.04277567
   0.12500000  0.27621605  0.12541800
   0.62500000  0.27621605  0.12541800
   0.12500000  0.51648766  0.08409683
   0.62500000  0.51648766  0.08409683
   0.37500000  0.48351231  0.08409683
   0.87500000  0.48351231  0.08409683
Direct configuration=    13
   0.25691115  0.64076397  0.08409683
   0.75691115  0.64076397  0.08409683
   0.24308885  0.35923603  0.08409683
   0.74308885  0.35923603  0.08409683
   0.49308885  0.64076397  0.08409683
   0.99308885  0.64076397  0.08409683
   0.00691115  0.35923603  0.08409683
   0.50691115  0.35923603  0.08409683
   0.29804543  0.90122213  0.08347298
   0.79804543  0.90122213  0.08409683
   0.20195457  0.09877786  0.08409683
   0.70195457  0.09877786  0.08409683
   0.45195457  0.90122213  0.08409683
   0.95195457  0.90122213  0.08409683
   0.04804543  0.09877786  0.08409683
   0.54804543  0.09877786  0.08409683
   0.37500000  0.72378395  0.12541800
   0.87500000  0.72378395  0.12541800
   0.12500000  0.27621605  0.04277567
   0.62500000  0.27621605  0.04277567
   0.37500000  0.72378395  0.04277567
   0.87500000  0.72378395  0.04277567
   0.12500000  0.27621605  0.12541800
   0.62500000  0.27621605  0.12541800
   0.12500000  0.51648766  0.08409683
   0.62500000  0.51648766  0.08409683
   0.37500000  0.48351231  0.08409683
   0.87500000  0.48351231  0.08409683
Direct configuration=    14
   0.25691115  0.64076397  0.08409683
   0.75691115  0.64076397  0.08409683
   0.24308885  0.35923603  0.08409683
   0.74308885  0.35923603  0.08409683
   0.49308885  0.64076397  0.08409683
   0.99308885  0.64076397  0.08409683
   0.00691115  0.35923603  0.08409683
   0.50691115  0.35923603  0.08409683
   0.29804543  0.90122213  0.08409683
   0.79804543  0.90122213  0.08409683
   0.20195457  0.09877786  0.08409683
   0.70195457  0.09877786  0.08409683
   0.45195457  0.90122213  0.08409683
   0.95195457  0.90122213  0.08409683
   0.04804543  0.09877786  0.08409683
   0.54804543  0.09877786  0.08409683
   0.37631585  0.72378395  0.12541800
   0.87500000  0.72378395  0.12541800
   0.12500000  0.27621605  0.04277567
   0.62500000  0.27621605  0.04277567
   0.37500000  0.72378395  0.04277567
   0.87500000  0.72378395  0.04277567
   0.12500000  0.27621605  0.12541800
   0.62500000  0.27621605  0.12541800
   0.12500000  0.51648766  0.08409683
   0.62500000  0.51648766  0.08409683
   0.37500000  0.48351231  0.08409683
   0.87500000  0.48351231  0.08409683
Direct configuration=    15
   0.25691115  0.64076397  0.08409683
   0.75691115  0.64076397  0.08409683
   0.24308885  0.35923603  0.08409683
   0.74308885  0.35923603  0.08409683
   0.49308885  0.64076397  0.08409683
   0.99308885  0.64076397  0.08409683
   0.00691115  0.35923603  0.08409683
   0.50691115  0.35923603  0.08409683
   0.29804543  0.90122213  0.08409683
   0.79804543  0.90122213  0.08409683
   0.20195457  0.09877786  0.08409683
   0.70195457  0.09877786  0.08409683
   0.45195457  0.90122213  0.08409683
   0.95195457  0.90122213  0.08409683
   0.04804543  0.09877786  0.08409683
   0.54804543  0.09877786  0.08409683
   0.37368415  0.72378395  0.12541800
   0.87500000  0.72378395  0.12541800
   0.12500000  0.27621605  0.04277567
   0.62500000  0.27621605  0.04277567
   0.37500000  0.72378395  0.04277567
   0.87500000  0.72378395  0.04277567
   0.12500000  0.27621605  0.12541800
   0.62500000  0.27621605  0.12541800
   0.12500000  0.51648766  0.08409683
   0.62500000  0.51648766  0.08409683
   0.37500000  0.48351231  0.08409683
   0.87500000  0.48351231  0.08409683
Direct configuration=    16
   0.25691115  0.64076397  0.08409683
   0.75691115  0.64076397  0.08409683
   0.24308885  0.35923603  0.08409683
   0.74308885  0.35923603  0.08409683
   0.49308885  0.64076397  0.08409683
   0.99308885  0.64076397  0.08409683
   0.00691115  0.35923603  0.08409683
   0.50691115  0.35923603  0.08409683
   0.29804543  0.90122213  0.08409683
   0.79804543  0.90122213  0.08409683
   0.20195457  0.09877786  0.08409683
   0.70195457  0.09877786  0.08409683
   0.45195457  0.90122213  0.08409683
   0.95195457  0.90122213  0.08409683
   0.04804543  0.09877786  0.08409683
   0.54804543  0.09877786  0.08409683
   0.37500000  0.72615957  0.12541800
   0.87500000  0.72378395  0.12541800
   0.12500000  0.27621605  0.04277567
   0.62500000  0.27621605  0.04277567
   0.37500000  0.72378395  0.04277567
   0.87500000  0.72378395  0.04277567
   0.12500000  0.27621605  0.12541800
   0.62500000  0.27621605  0.12541800
   0.12500000  0.51648766  0.08409683
   0.62500000  0.51648766  0.08409683
   0.37500000  0.48351231  0.08409683
   0.87500000  0.48351231  0.08409683
Direct configuration=    17
   0.25691115  0.64076397  0.08409683
   0.75691115  0.64076397  0.08409683
   0.24308885  0.35923603  0.08409683
   0.74308885  0.35923603  0.08409683
   0.49308885  0.64076397  0.08409683
   0.99308885  0.64076397  0.08409683
   0.00691115  0.35923603  0.08409683
   0.50691115  0.35923603  0.08409683
   0.29804543  0.90122213  0.08409683
   0.79804543  0.90122213  0.08409683
   0.20195457  0.09877786  0.08409683
   0.70195457  0.09877786  0.08409683
   0.45195457  0.90122213  0.08409683
   0.95195457  0.90122213  0.08409683
   0.04804543  0.09877786  0.08409683
   0.54804543  0.09877786  0.08409683
   0.37500000  0.72140832  0.12541800
   0.87500000  0.72378395  0.12541800
   0.12500000  0.27621605  0.04277567
   0.62500000  0.27621605  0.04277567
   0.37500000  0.72378395  0.04277567
   0.87500000  0.72378395  0.04277567
   0.12500000  0.27621605  0.12541800
   0.62500000  0.27621605  0.12541800
   0.12500000  0.51648766  0.08409683
   0.62500000  0.51648766  0.08409683
   0.37500000  0.48351231  0.08409683
   0.87500000  0.48351231  0.08409683
Direct configuration=    18
   0.25691115  0.64076397  0.08409683
   0.75691115  0.64076397  0.08409683
   0.24308885  0.35923603  0.08409683
   0.74308885  0.35923603  0.08409683
   0.49308885  0.64076397  0.08409683
   0.99308885  0.64076397  0.08409683
   0.00691115  0.35923603  0.08409683
   0.50691115  0.35923603  0.08409683
   0.29804543  0.90122213  0.08409683
   0.79804543  0.90122213  0.08409683
   0.20195457  0.09877786  0.08409683
   0.70195457  0.09877786  0.08409683
   0.45195457  0.90122213  0.08409683
   0.95195457  0.90122213  0.08409683
   0.04804543  0.09877786  0.08409683
   0.54804543  0.09877786  0.08409683
   0.37500000  0.72378395  0.12604185
   0.87500000  0.72378395  0.12541800
   0.12500000  0.27621605  0.04277567
   0.62500000  0.27621605  0.04277567
   0.37500000  0.72378395  0.04277567
   0.87500000  0.72378395  0.04277567
   0.12500000  0.27621605  0.12541800
   0.62500000  0.27621605  0.12541800
   0.12500000  0.51648766  0.08409683
   0.62500000  0.51648766  0.08409683
   0.37500000  0.48351231  0.08409683
   0.87500000  0.48351231  0.08409683
Direct configuration=    19
   0.25691115  0.64076397  0.08409683
   0.75691115  0.64076397  0.08409683
   0.24308885  0.35923603  0.08409683
   0.74308885  0.35923603  0.08409683
   0.49308885  0.64076397  0.08409683
   0.99308885  0.64076397  0.08409683
   0.00691115  0.35923603  0.08409683
   0.50691115  0.35923603  0.08409683
   0.29804543  0.90122213  0.08409683
   0.79804543  0.90122213  0.08409683
   0.20195457  0.09877786  0.08409683
   0.70195457  0.09877786  0.08409683
   0.45195457  0.90122213  0.08409683
   0.95195457  0.90122213  0.08409683
   0.04804543  0.09877786  0.08409683
   0.54804543  0.09877786  0.08409683
   0.37500000  0.72378395  0.12479414
   0.87500000  0.72378395  0.12541800
   0.12500000  0.27621605  0.04277567
   0.62500000  0.27621605  0.04277567
   0.37500000  0.72378395  0.04277567
   0.87500000  0.72378395  0.04277567
   0.12500000  0.27621605  0.12541800
   0.62500000  0.27621605  0.12541800
   0.12500000  0.51648766  0.08409683
   0.62500000  0.51648766  0.08409683
   0.37500000  0.48351231  0.08409683
   0.87500000  0.48351231  0.08409683
Direct configuration=    20
   0.25691115  0.64076397  0.08409683
   0.75691115  0.64076397  0.08409683
   0.24308885  0.35923603  0.08409683
   0.74308885  0.35923603  0.08409683
   0.49308885  0.64076397  0.08409683
   0.99308885  0.64076397  0.08409683
   0.00691115  0.35923603  0.08409683
   0.50691115  0.35923603  0.08409683
   0.29804543  0.90122213  0.08409683
   0.79804543  0.90122213  0.08409683
   0.20195457  0.09877786  0.08409683
   0.70195457  0.09877786  0.08409683
   0.45195457  0.90122213  0.08409683
   0.95195457  0.90122213  0.08409683
   0.04804543  0.09877786  0.08409683
   0.54804543  0.09877786  0.08409683
   0.37500000  0.72378395  0.12541800
   0.87500000  0.72378395  0.12541800
   0.12500000  0.27621605  0.04277567
   0.62500000  0.27621605  0.04277567
   0.37500000  0.72378395  0.04277567
   0.87500000  0.72378395  0.04277567
   0.12500000  0.27621605  0.12541800
   0.62500000  0.27621605  0.12541800
   0.12631585  0.51648766  0.08409683
   0.62500000  0.51648766  0.08409683
   0.37500000  0.48351231  0.08409683
   0.87500000  0.48351231  0.08409683
Direct configuration=    21
   0.25691115  0.64076397  0.08409683
   0.75691115  0.64076397  0.08409683
   0.24308885  0.35923603  0.08409683
   0.74308885  0.35923603  0.08409683
   0.49308885  0.64076397  0.08409683
   0.99308885  0.64076397  0.08409683
   0.00691115  0.35923603  0.08409683
   0.50691115  0.35923603  0.08409683
   0.29804543  0.90122213  0.08409683
   0.79804543  0.90122213  0.08409683
   0.20195457  0.09877786  0.08409683
   0.70195457  0.09877786  0.08409683
   0.45195457  0.90122213  0.08409683
   0.95195457  0.90122213  0.08409683
   0.04804543  0.09877786  0.08409683
   0.54804543  0.09877786  0.08409683
   0.37500000  0.72378395  0.12541800
   0.87500000  0.72378395  0.12541800
   0.12500000  0.27621605  0.04277567
   0.62500000  0.27621605  0.04277567
   0.37500000  0.72378395  0.04277567
   0.87500000  0.72378395  0.04277567
   0.12500000  0.27621605  0.12541800
   0.62500000  0.27621605  0.12541800
   0.12368415  0.51648766  0.08409683
   0.62500000  0.51648766  0.08409683
   0.37500000  0.48351231  0.08409683
   0.87500000  0.48351231  0.08409683
Direct configuration=    22
   0.25691115  0.64076397  0.08409683
   0.75691115  0.64076397  0.08409683
   0.24308885  0.35923603  0.08409683
   0.74308885  0.35923603  0.08409683
   0.49308885  0.64076397  0.08409683
   0.99308885  0.64076397  0.08409683
   0.00691115  0.35923603  0.08409683
   0.50691115  0.35923603  0.08409683
   0.29804543  0.90122213  0.08409683
   0.79804543  0.90122213  0.08409683
   0.20195457  0.09877786  0.08409683
   0.70195457  0.09877786  0.08409683
   0.45195457  0.90122213  0.08409683
   0.95195457  0.90122213  0.08409683
   0.04804543  0.09877786  0.08409683
   0.54804543  0.09877786  0.08409683
   0.37500000  0.72378395  0.12541800
   0.87500000  0.72378395  0.12541800
   0.12500000  0.27621605  0.04277567
   0.62500000  0.27621605  0.04277567
   0.37500000  0.72378395  0.04277567
   0.87500000  0.72378395  0.04277567
   0.12500000  0.27621605  0.12541800
   0.62500000  0.27621605  0.12541800
   0.12500000  0.51886328  0.08409683
   0.62500000  0.51648766  0.08409683
   0.37500000  0.48351231  0.08409683
   0.87500000  0.48351231  0.08409683
Direct configuration=    23
   0.25691115  0.64076397  0.08409683
   0.75691115  0.64076397  0.08409683
   0.24308885  0.35923603  0.08409683
   0.74308885  0.35923603  0.08409683
   0.49308885  0.64076397  0.08409683
   0.99308885  0.64076397  0.08409683
   0.00691115  0.35923603  0.08409683
   0.50691115  0.35923603  0.08409683
   0.29804543  0.90122213  0.08409683
   0.79804543  0.90122213  0.08409683
   0.20195457  0.09877786  0.08409683
   0.70195457  0.09877786  0.08409683
   0.45195457  0.90122213  0.08409683
   0.95195457  0.90122213  0.08409683
   0.04804543  0.09877786  0.08409683
   0.54804543  0.09877786  0.08409683
   0.37500000  0.72378395  0.12541800
   0.87500000  0.72378395  0.12541800
   0.12500000  0.27621605  0.04277567
   0.62500000  0.27621605  0.04277567
   0.37500000  0.72378395  0.04277567
   0.87500000  0.72378395  0.04277567
   0.12500000  0.27621605  0.12541800
   0.62500000  0.27621605  0.12541800
   0.12500000  0.51411203  0.08409683
   0.62500000  0.51648766  0.08409683
   0.37500000  0.48351231  0.08409683
   0.87500000  0.48351231  0.08409683
Direct configuration=    24
   0.25691115  0.64076397  0.08409683
   0.75691115  0.64076397  0.08409683
   0.24308885  0.35923603  0.08409683
   0.74308885  0.35923603  0.08409683
   0.49308885  0.64076397  0.08409683
   0.99308885  0.64076397  0.08409683
   0.00691115  0.35923603  0.08409683
   0.50691115  0.35923603  0.08409683
   0.29804543  0.90122213  0.08409683
   0.79804543  0.90122213  0.08409683
   0.20195457  0.09877786  0.08409683
   0.70195457  0.09877786  0.08409683
   0.45195457  0.90122213  0.08409683
   0.95195457  0.90122213  0.08409683
   0.04804543  0.09877786  0.08409683
   0.54804543  0.09877786  0.08409683
   0.37500000  0.72378395  0.12541800
   0.87500000  0.72378395  0.12541800
   0.12500000  0.27621605  0.04277567
   0.62500000  0.27621605  0.04277567
   0.37500000  0.72378395  0.04277567
   0.87500000  0.72378395  0.04277567
   0.12500000  0.27621605  0.12541800
   0.62500000  0.27621605  0.12541800
   0.12500000  0.51648766  0.08472069
   0.62500000  0.51648766  0.08409683
   0.37500000  0.48351231  0.08409683
   0.87500000  0.48351231  0.08409683
Direct configuration=    25
   0.25691115  0.64076397  0.08409683
   0.75691115  0.64076397  0.08409683
   0.24308885  0.35923603  0.08409683
   0.74308885  0.35923603  0.08409683
   0.49308885  0.64076397  0.08409683
   0.99308885  0.64076397  0.08409683
   0.00691115  0.35923603  0.08409683
   0.50691115  0.35923603  0.08409683
   0.29804543  0.90122213  0.08409683
   0.79804543  0.90122213  0.08409683
   0.20195457  0.09877786  0.08409683
   0.70195457  0.09877786  0.08409683
   0.45195457  0.90122213  0.08409683
   0.95195457  0.90122213  0.08409683
   0.04804543  0.09877786  0.08409683
   0.54804543  0.09877786  0.08409683
   0.37500000  0.72378395  0.12541800
   0.87500000  0.72378395  0.12541800
   0.12500000  0.27621605  0.04277567
   0.62500000  0.27621605  0.04277567
   0.37500000  0.72378395  0.04277567
   0.87500000  0.72378395  0.04277567
   0.12500000  0.27621605  0.12541800
   0.62500000  0.27621605  0.12541800
   0.12500000  0.51648766  0.08347298
   0.62500000  0.51648766  0.08409683
   0.37500000  0.48351231  0.08409683
   0.87500000  0.48351231  0.08409683
