 running   42 mpi-ranks, on    1 nodes
 distrk:  each k-point on   42 cores,    1 groups
 distr:  one band on    7 cores,    6 groups
 vasp.6.5.0 16Dec24 (build Jan 08 2025 16:17:04) complex                        
  
 POSCAR found type information on POSCAR B H 
 POSCAR found :  2 types and     162 ions
 Reading from existing POTCAR
 scaLAPACK will be used
 Reading from existing POTCAR
 LDA part: xc-table for (Slater+PW92), standard interpolation
 POSCAR, INCAR and KPOINTS ok, starting setup
 FFT: planning ... GRIDC
 FFT: planning ... GRID_SOFT
 FFT: planning ... GRID
 WAVECAR not read
 entering main loop
       N       E                     dE             d eps       ncg     rms          rms(c)
DAV:   1     0.331500269294E+04    0.33150E+04   -0.13792E+05  3744   0.108E+03
DAV:   2    -0.408975808869E+03   -0.37240E+04   -0.36001E+04  5244   0.229E+02
DAV:   3    -0.100412980347E+04   -0.59515E+03   -0.58981E+03  4404   0.986E+01
DAV:   4    -0.102329107938E+04   -0.19161E+02   -0.19031E+02  4416   0.198E+01
DAV:   5    -0.102381079550E+04   -0.51972E+00   -0.51840E+00  4704   0.292E+00    0.423E+01
DAV:   6    -0.963726761241E+03    0.60084E+02   -0.60092E+01  3984   0.106E+01    0.237E+01
DAV:   7    -0.940420160787E+03    0.23307E+02   -0.71188E+01  4188   0.108E+01    0.485E+00
DAV:   8    -0.940149067173E+03    0.27109E+00   -0.53686E+00  4404   0.346E+00    0.219E+00
DAV:   9    -0.939870637503E+03    0.27843E+00   -0.67363E-01  4344   0.135E+00    0.111E+00
DAV:  10    -0.939793891778E+03    0.76746E-01   -0.36098E-01  4428   0.103E+00    0.714E-01
DAV:  11    -0.939762204759E+03    0.31687E-01   -0.59770E-02  4392   0.514E-01    0.428E-01
DAV:  12    -0.939735495322E+03    0.26709E-01   -0.79327E-02  4368   0.474E-01    0.324E-01
DAV:  13    -0.939726470220E+03    0.90251E-02   -0.56405E-02  4248   0.369E-01    0.198E-01
DAV:  14    -0.939739425006E+03   -0.12955E-01   -0.13918E-02  4056   0.202E-01    0.138E-01
DAV:  15    -0.939750088162E+03   -0.10663E-01   -0.67288E-03  4044   0.133E-01    0.936E-02
DAV:  16    -0.939755239477E+03   -0.51513E-02   -0.17105E-03  4164   0.784E-02    0.670E-02
DAV:  17    -0.939762347275E+03   -0.71078E-02   -0.93250E-04  4044   0.614E-02    0.526E-02
DAV:  18    -0.939772947257E+03   -0.10600E-01   -0.10940E-03  3948   0.515E-02    0.282E-02
DAV:  19    -0.939779381888E+03   -0.64346E-02   -0.44465E-04  4044   0.278E-02    0.188E-02
DAV:  20    -0.939783735428E+03   -0.43535E-02   -0.23917E-04  4056   0.178E-02    0.114E-02
DAV:  21    -0.939786180973E+03   -0.24455E-02   -0.11497E-04  4044   0.120E-02    0.794E-03
DAV:  22    -0.939787247816E+03   -0.10668E-02   -0.33042E-05  4272   0.698E-03    0.523E-03
DAV:  23    -0.939788099034E+03   -0.85122E-03   -0.27396E-05  3852   0.573E-03    0.304E-03
DAV:  24    -0.939788380399E+03   -0.28136E-03   -0.62682E-06  3744   0.328E-03    0.193E-03
DAV:  25    -0.939788575030E+03   -0.19463E-03   -0.40133E-06  3414   0.205E-03    0.103E-03
DAV:  26    -0.939788669913E+03   -0.94883E-04   -0.17796E-06  3216   0.127E-03    0.455E-04
DAV:  27    -0.939788696537E+03   -0.26623E-04   -0.28101E-07  2874   0.573E-04    0.263E-04
DAV:  28    -0.939788709109E+03   -0.12572E-04   -0.18029E-07  2712   0.359E-04    0.954E-05
DAV:  29    -0.939788712131E+03   -0.30220E-05   -0.32081E-08  2754   0.185E-04    0.502E-05
DAV:  30    -0.939788712794E+03   -0.66317E-06    0.24335E-09  2592   0.106E-04
   1 F= -.95251706E+03 E0= -.95242195E+03  d E =-.190239E+00
