o-B14 large bilayer with Hydrogen 3 time
   1.00000000000000     
    17.0399875640999987    0.0000000000000000    0.0000000000000000
     0.0000000000000000   18.4413337708000000    0.0000000000000000
     0.0000000000000000    0.0000000000000000   30.0881175994999985
  B               H             
   252    36
Direct
     0.1741815312267647    0.2125743168429182    0.1335763429768946
     0.1741815312267647    0.5459076501798634    0.1335763429768946
     0.1741815312267647    0.8792409835168158    0.1335763429768946
     0.5075148645190168    0.2125743168429182    0.1335763429768946
     0.5075148645190168    0.5459076501798634    0.1335763429768946
     0.5075148645190168    0.8792409835168158    0.1335763429768946
     0.8408481978699598    0.2125743168429182    0.1335763429768946
     0.8408481978699598    0.5459076501798634    0.1335763429768946
     0.8408481978699598    0.8792409835168158    0.1335763429768946
     0.1741815312267647    0.2125743168429182    0.2681808287047573
     0.1741815312267647    0.5459076501798634    0.2681808287047573
     0.1741815312267647    0.8792409835168158    0.2681808287047573
     0.5075148645190168    0.2125743168429182    0.2681808287047573
     0.5075148645190168    0.5459076501798634    0.2681808287047573
     0.5075148645190168    0.8792409835168158    0.2681808287047573
     0.8408481978699598    0.2125743168429182    0.2681808287047573
     0.8408481978699598    0.5459076501798634    0.2681808287047573
     0.8408481978699598    0.8792409835168158    0.2681808287047573
     0.1591518021241711    0.1207590164940342    0.1335763429768946
     0.1591518021241711    0.4540923498309795    0.1335763429768946
     0.1591518021241711    0.7874256831679318    0.1335763429768946
     0.4924851354751141    0.1207590164940342    0.1335763429768946
     0.4924851354751141    0.4540923498309795    0.1335763429768946
     0.4924851354751141    0.7874256831679318    0.1335763429768946
     0.8258184688260499    0.1207590164940342    0.1335763429768946
     0.8258184688260499    0.4540923498309795    0.1335763429768946
     0.8258184688260499    0.7874256831679318    0.1335763429768946
     0.1591518021241711    0.1207590164940342    0.2681808287047573
     0.1591518021241711    0.4540923498309795    0.2681808287047573
     0.1591518021241711    0.7874256831679318    0.2681808287047573
     0.4924851354751141    0.1207590164940342    0.2681808287047573
     0.4924851354751141    0.4540923498309795    0.2681808287047573
     0.4924851354751141    0.7874256831679318    0.2681808287047573
     0.8258184688260499    0.1207590164940342    0.2681808287047573
     0.8258184688260499    0.4540923498309795    0.2681808287047573
     0.8258184688260499    0.7874256831679318    0.2681808287047573
     0.3258184688289845    0.2125743168429182    0.1335763429768946
     0.3258184688289845    0.5459076501798634    0.1335763429768946
     0.3258184688289845    0.8792409835168158    0.1335763429768946
     0.6591518021212366    0.2125743168429182    0.1335763429768946
     0.6591518021212366    0.5459076501798634    0.1335763429768946
     0.6591518021212366    0.8792409835168158    0.1335763429768946
     0.9924851354721795    0.2125743168429182    0.1335763429768946
     0.9924851354721795    0.5459076501798634    0.1335763429768946
     0.9924851354721795    0.8792409835168158    0.1335763429768946
     0.3258184688289845    0.2125743168429182    0.2681808287047573
     0.3258184688289845    0.5459076501798634    0.2681808287047573
     0.3258184688289845    0.8792409835168158    0.2681808287047573
     0.6591518021212366    0.2125743168429182    0.2681808287047573
     0.6591518021212366    0.5459076501798634    0.2681808287047573
     0.6591518021212366    0.8792409835168158    0.2681808287047573
     0.9924851354721795    0.2125743168429182    0.2681808287047573
     0.9924851354721795    0.5459076501798634    0.2681808287047573
     0.9924851354721795    0.8792409835168158    0.2681808287047573
     0.0075148645219514    0.1207590164940342    0.1335763429768946
     0.0075148645219514    0.4540923498309795    0.1335763429768946
     0.0075148645219514    0.7874256831679318    0.1335763429768946
     0.3408481978728943    0.1207590164940342    0.1335763429768946
     0.3408481978728943    0.4540923498309795    0.1335763429768946
     0.3408481978728943    0.7874256831679318    0.1335763429768946
     0.6741815312238302    0.1207590164940342    0.1335763429768946
     0.6741815312238302    0.4540923498309795    0.1335763429768946
     0.6741815312238302    0.7874256831679318    0.1335763429768946
     0.0075148645219514    0.1207590164940342    0.2681808287047573
     0.0075148645219514    0.4540923498309795    0.2681808287047573
     0.0075148645219514    0.7874256831679318    0.2681808287047573
     0.3408481978728943    0.1207590164940342    0.2681808287047573
     0.3408481978728943    0.4540923498309795    0.2681808287047573
     0.3408481978728943    0.7874256831679318    0.2681808287047573
     0.6741815312238302    0.1207590164940342    0.2681808287047573
     0.6741815312238302    0.4540923498309795    0.2681808287047573
     0.6741815312238302    0.7874256831679318    0.2681808287047573
     0.1993344846187597    0.3000396974952650    0.1329445808556144
     0.1993344846187597    0.6333730308322103    0.1329445808556144
     0.1993344846187597    0.9667063641691627    0.1329445808556144
     0.5326678179697026    0.3000396974952650    0.1329445808556144
     0.5326678179697026    0.6333730308322103    0.1329445808556144
     0.5326678179697026    0.9667063641691627    0.1329445808556144
     0.8660011513206385    0.3000396974952650    0.1329445808556144
     0.8660011513206385    0.6333730308322103    0.1329445808556144
     0.8660011513206385    0.9667063641691627    0.1329445808556144
     0.1993344846187597    0.3000396974952650    0.2688125908260375
     0.1993344846187597    0.6333730308322103    0.2688125908260375
     0.1993344846187597    0.9667063641691627    0.2688125908260375
     0.5326678179697026    0.3000396974952650    0.2688125908260375
     0.5326678179697026    0.6333730308322103    0.2688125908260375
     0.5326678179697026    0.9667063641691627    0.2688125908260375
     0.8660011513206385    0.3000396974952650    0.2688125908260375
     0.8660011513206385    0.6333730308322103    0.2688125908260375
     0.8660011513206385    0.9667063641691627    0.2688125908260375
     0.1339988487321762    0.0332936333472915    0.1329445808556144
     0.1339988487321762    0.3666269666842368    0.1329445808556144
     0.1339988487321762    0.6999603000211891    0.1329445808556144
     0.4673321820831120    0.0332936333472915    0.1329445808556144
     0.4673321820831120    0.3666269666842368    0.1329445808556144
     0.4673321820831120    0.6999603000211891    0.1329445808556144
     0.8006655153753712    0.0332936333472915    0.1329445808556144
     0.8006655153753712    0.3666269666842368    0.1329445808556144
     0.8006655153753712    0.6999603000211891    0.1329445808556144
     0.1339988487321762    0.0332936333472915    0.2688125908260375
     0.1339988487321762    0.3666269666842368    0.2688125908260375
     0.1339988487321762    0.6999603000211891    0.2688125908260375
     0.4673321820831120    0.0332936333472915    0.2688125908260375
     0.4673321820831120    0.3666269666842368    0.2688125908260375
     0.4673321820831120    0.6999603000211891    0.2688125908260375
     0.8006655153753712    0.0332936333472915    0.2688125908260375
     0.8006655153753712    0.3666269666842368    0.2688125908260375
     0.8006655153753712    0.6999603000211891    0.2688125908260375
     0.3006655153783058    0.3000396974952650    0.1329445808556144
     0.3006655153783058    0.6333730308322103    0.1329445808556144
     0.3006655153783058    0.9667063641691627    0.1329445808556144
     0.6339988487292416    0.3000396974952650    0.1329445808556144
     0.6339988487292416    0.6333730308322103    0.1329445808556144
     0.6339988487292416    0.9667063641691627    0.1329445808556144
     0.9673321820801846    0.3000396974952650    0.1329445808556144
     0.9673321820801846    0.6333730308322103    0.1329445808556144
     0.9673321820801846    0.9667063641691627    0.1329445808556144
     0.3006655153783058    0.3000396974952650    0.2688125908260375
     0.3006655153783058    0.6333730308322103    0.2688125908260375
     0.3006655153783058    0.9667063641691627    0.2688125908260375
     0.6339988487292416    0.3000396974952650    0.2688125908260375
     0.6339988487292416    0.6333730308322103    0.2688125908260375
     0.6339988487292416    0.9667063641691627    0.2688125908260375
     0.9673321820801846    0.3000396974952650    0.2688125908260375
     0.9673321820801846    0.6333730308322103    0.2688125908260375
     0.9673321820801846    0.9667063641691627    0.2688125908260375
     0.0326678179726372    0.0332936333472915    0.1329445808556144
     0.0326678179726372    0.3666269666842368    0.1329445808556144
     0.0326678179726372    0.6999603000211891    0.1329445808556144
     0.3660011512648893    0.0332936333472915    0.1329445808556144
     0.3660011512648893    0.3666269666842368    0.1329445808556144
     0.3660011512648893    0.6999603000211891    0.1329445808556144
     0.6993344846158251    0.0332936333472915    0.1329445808556144
     0.6993344846158251    0.3666269666842368    0.1329445808556144
     0.6993344846158251    0.6999603000211891    0.1329445808556144
     0.0326678179726372    0.0332936333472915    0.2688125908260375
     0.0326678179726372    0.3666269666842368    0.2688125908260375
     0.0326678179726372    0.6999603000211891    0.2688125908260375
     0.3660011512648893    0.0332936333472915    0.2688125908260375
     0.3660011512648893    0.3666269666842368    0.2688125908260375
     0.3660011512648893    0.6999603000211891    0.2688125908260375
     0.6993344846158251    0.0332936333472915    0.2688125908260375
     0.6993344846158251    0.3666269666842368    0.2688125908260375
     0.6993344846158251    0.6999603000211891    0.2688125908260375
     0.2499999999985363    0.2444520545004210    0.1735378551593669
     0.2499999999985363    0.5777853878373662    0.1735378551593669
     0.2499999999985363    0.9111187211743115    0.1735378551593669
     0.5833333332907884    0.2444520545004210    0.1735378551593669
     0.5833333332907884    0.5777853878373662    0.1735378551593669
     0.5833333332907884    0.9111187211743115    0.1735378551593669
     0.9166666666417242    0.2444520545004210    0.1735378551593669
     0.9166666666417242    0.5777853878373662    0.1735378551593669
     0.9166666666417242    0.9111187211743115    0.1735378551593669
     0.2499999999985363    0.2429312146116871    0.3077674953701290
     0.2499999999985363    0.5762645479486395    0.3077674953701290
     0.2499999999985363    0.9095978812313632    0.3077674953701290
     0.5833333332907884    0.2429312146116871    0.3077674953701290
     0.5833333332907884    0.5762645479486395    0.3077674953701290
     0.5833333332907884    0.9095978812313632    0.3077674953701290
     0.9166666666417242    0.2429312146116871    0.3077674953701290
     0.9166666666417242    0.5762645479486395    0.3077674953701290
     0.9166666666417242    0.9095978812313632    0.3077674953701290
     0.0833333332937229    0.0904021187252582    0.0939896783389003
     0.0833333332937229    0.4237354520622105    0.0939896783389003
     0.0833333332937229    0.7570687853991558    0.0939896783389003
     0.4166666666446588    0.0904021187252582    0.0939896783389003
     0.4166666666446588    0.4237354520622105    0.0939896783389003
     0.4166666666446588    0.7570687853991558    0.0939896783389003
     0.7499999999956017    0.0904021187252582    0.0939896783389003
     0.7499999999956017    0.4237354520622105    0.0939896783389003
     0.7499999999956017    0.7570687853991558    0.0939896783389003
     0.0833333332937229    0.0888812788365314    0.2282193185496624
     0.0833333332937229    0.4222146121734767    0.2282193185496624
     0.0833333332937229    0.7555479455104290    0.2282193185496624
     0.4166666666446588    0.0888812788365314    0.2282193185496624
     0.4166666666446588    0.4222146121734767    0.2282193185496624
     0.4166666666446588    0.7555479455104290    0.2282193185496624
     0.7499999999956017    0.0888812788365314    0.2282193185496624
     0.7499999999956017    0.4222146121734767    0.2282193185496624
     0.7499999999956017    0.7555479455104290    0.2282193185496624
     0.2499999999985363    0.2429312146116871    0.0939896783389003
     0.2499999999985363    0.5762645479486395    0.0939896783389003
     0.2499999999985363    0.9095978812313632    0.0939896783389003
     0.5833333332907884    0.2429312146116871    0.0939896783389003
     0.5833333332907884    0.5762645479486395    0.0939896783389003
     0.5833333332907884    0.9095978812313632    0.0939896783389003
     0.9166666666417242    0.2429312146116871    0.0939896783389003
     0.9166666666417242    0.5762645479486395    0.0939896783389003
     0.9166666666417242    0.9095978812313632    0.0939896783389003
     0.2499999999985363    0.2444520545004210    0.2282193185496624
     0.2499999999985363    0.5777853878373662    0.2282193185496624
     0.2499999999985363    0.9111187211743115    0.2282193185496624
     0.5833333332907884    0.2444520545004210    0.2282193185496624
     0.5833333332907884    0.5777853878373662    0.2282193185496624
     0.5833333332907884    0.9111187211743115    0.2282193185496624
     0.9166666666417242    0.2444520545004210    0.2282193185496624
     0.9166666666417242    0.5777853878373662    0.2282193185496624
     0.9166666666417242    0.9111187211743115    0.2282193185496624
     0.0833333332937229    0.0888812788365314    0.1735378551593669
     0.0833333332937229    0.4222146121734767    0.1735378551593669
     0.0833333332937229    0.7555479455104290    0.1735378551593669
     0.4166666666446588    0.0888812788365314    0.1735378551593669
     0.4166666666446588    0.4222146121734767    0.1735378551593669
     0.4166666666446588    0.7555479455104290    0.1735378551593669
     0.7499999999956017    0.0888812788365314    0.1735378551593669
     0.7499999999956017    0.4222146121734767    0.1735378551593669
     0.7499999999956017    0.7555479455104290    0.1735378551593669
     0.0833333332937229    0.0904021187252582    0.3077674953701290
     0.0833333332937229    0.4237354520622105    0.3077674953701290
     0.0833333332937229    0.7570687853991558    0.3077674953701290
     0.4166666666446588    0.0904021187252582    0.3077674953701290
     0.4166666666446588    0.4237354520622105    0.3077674953701290
     0.4166666666446588    0.7570687853991558    0.3077674953701290
     0.7499999999956017    0.0904021187252582    0.3077674953701290
     0.7499999999956017    0.4237354520622105    0.3077674953701290
     0.7499999999956017    0.7570687853991558    0.3077674953701290
     0.0833333332937229    0.1752454584991625    0.1337172153989101
     0.0833333332937229    0.5085787918361149    0.1337172153989101
     0.0833333332937229    0.8419121251730601    0.1337172153989101
     0.4166666666446588    0.1752454584991625    0.1337172153989101
     0.4166666666446588    0.5085787918361149    0.1337172153989101
     0.4166666666446588    0.8419121251730601    0.1337172153989101
     0.7499999999956017    0.1752454584991625    0.1337172153989101
     0.7499999999956017    0.5085787918361149    0.1337172153989101
     0.7499999999956017    0.8419121251730601    0.1337172153989101
     0.0833333332937229    0.1752454584991625    0.2680399562827418
     0.0833333332937229    0.5085787918361149    0.2680399562827418
     0.0833333332937229    0.8419121251730601    0.2680399562827418
     0.4166666666446588    0.1752454584991625    0.2680399562827418
     0.4166666666446588    0.5085787918361149    0.2680399562827418
     0.4166666666446588    0.8419121251730601    0.2680399562827418
     0.7499999999956017    0.1752454584991625    0.2680399562827418
     0.7499999999956017    0.5085787918361149    0.2680399562827418
     0.7499999999956017    0.8419121251730601    0.2680399562827418
     0.2499999999985363    0.1580878649144211    0.1337172153989101
     0.2499999999985363    0.4914211982513734    0.1337172153989101
     0.2499999999985363    0.8247545315883187    0.1337172153989101
     0.5833333332907884    0.1580878649144211    0.1337172153989101
     0.5833333332907884    0.4914211982513734    0.1337172153989101
     0.5833333332907884    0.8247545315883187    0.1337172153989101
     0.9166666666417242    0.1580878649144211    0.1337172153989101
     0.9166666666417242    0.4914211982513734    0.1337172153989101
     0.9166666666417242    0.8247545315883187    0.1337172153989101
     0.2499999999985363    0.1580878649144211    0.2680399562827418
     0.2499999999985363    0.4914211982513734    0.2680399562827418
     0.2499999999985363    0.8247545315883187    0.2680399562827418
     0.5833333332907884    0.1580878649144211    0.2680399562827418
     0.5833333332907884    0.4914211982513734    0.2680399562827418
     0.5833333332907884    0.8247545315883187    0.2680399562827418
     0.9166666666417242    0.1580878649144211    0.2680399562827418
     0.9166666666417242    0.4914211982513734    0.2680399562827418
     0.9166666666417242    0.8247545315883187    0.2680399562827418
     0.0833333332937229    0.0957090049416465    0.0539997334704284
     0.0833333332937229    0.4290423382785917    0.0544982691448652
     0.0833333332937229    0.7623756716155441    0.0544982691448652
     0.4166666666446588    0.0957090049416465    0.0544982691448652
     0.4166666666446588    0.4290423382785917    0.0544982691448652
     0.4166666666446588    0.7623756716155441    0.0544982691448652
     0.7499999999956017    0.0957090049416465    0.0544982691448652
     0.7499999999956017    0.4290423382785917    0.0544982691448652
     0.7499999999956017    0.7623756716155441    0.0544982691448652
     0.2499999999985363    0.2376243283953059    0.0544982691448652
     0.2499999999985363    0.5709576617322512    0.0544982691448652
     0.2499999999985363    0.9042909950692035    0.0544982691448652
     0.5833333332907884    0.2376243283953059    0.0544982691448652
     0.5833333332907884    0.5709576617322512    0.0544982691448652
     0.5833333332907884    0.9042909950692035    0.0544982691448652
     0.9166666666417242    0.2376243283953059    0.0544982691448652
     0.9166666666417242    0.5709576617322512    0.0544982691448652
     0.9166666666417242    0.9042909950692035    0.0544982691448652
     0.0833333332937229    0.0957090049416465    0.3472589045641570
     0.0833333332937229    0.4290423382785917    0.3472589045641570
     0.0833333332937229    0.7623756716155441    0.3472589045641570
     0.4166666666446588    0.0957090049416465    0.3472589045641570
     0.4166666666446588    0.4290423382785917    0.3472589045641570
     0.4166666666446588    0.7623756716155441    0.3472589045641570
     0.7499999999956017    0.0957090049416465    0.3472589045641570
     0.7499999999956017    0.4290423382785917    0.3472589045641570
     0.7499999999956017    0.7623756716155441    0.3472589045641570
     0.2499999999985363    0.2376243283953059    0.3472589045641570
     0.2499999999985363    0.5709576617322512    0.3472589045641570
     0.2499999999985363    0.9042909950692035    0.3472589045641570
     0.5833333332907884    0.2376243283953059    0.3472589045641570
     0.5833333332907884    0.5709576617322512    0.3472589045641570
     0.5833333332907884    0.9042909950692035    0.3472589045641570
     0.9166666666417242    0.2376243283953059    0.3472589045641570
     0.9166666666417242    0.5709576617322512    0.3472589045641570
     0.9166666666417242    0.9042909950692035    0.3472589045641570
 
  0.00000000E+00  0.00000000E+00  0.00000000E+00
  0.00000000E+00  0.00000000E+00  0.00000000E+00
  0.00000000E+00  0.00000000E+00  0.00000000E+00
  0.00000000E+00  0.00000000E+00  0.00000000E+00
  0.00000000E+00  0.00000000E+00  0.00000000E+00
  0.00000000E+00  0.00000000E+00  0.00000000E+00
  0.00000000E+00  0.00000000E+00  0.00000000E+00
  0.00000000E+00  0.00000000E+00  0.00000000E+00
  0.00000000E+00  0.00000000E+00  0.00000000E+00
  0.00000000E+00  0.00000000E+00  0.00000000E+00
  0.00000000E+00  0.00000000E+00  0.00000000E+00
  0.00000000E+00  0.00000000E+00  0.00000000E+00
  0.00000000E+00  0.00000000E+00  0.00000000E+00
  0.00000000E+00  0.00000000E+00  0.00000000E+00
  0.00000000E+00  0.00000000E+00  0.00000000E+00
  0.00000000E+00  0.00000000E+00  0.00000000E+00
  0.00000000E+00  0.00000000E+00  0.00000000E+00
  0.00000000E+00  0.00000000E+00  0.00000000E+00
  0.00000000E+00  0.00000000E+00  0.00000000E+00
  0.00000000E+00  0.00000000E+00  0.00000000E+00
  0.00000000E+00  0.00000000E+00  0.00000000E+00
  0.00000000E+00  0.00000000E+00  0.00000000E+00
  0.00000000E+00  0.00000000E+00  0.00000000E+00
  0.00000000E+00  0.00000000E+00  0.00000000E+00
  0.00000000E+00  0.00000000E+00  0.00000000E+00
  0.00000000E+00  0.00000000E+00  0.00000000E+00
  0.00000000E+00  0.00000000E+00  0.00000000E+00
  0.00000000E+00  0.00000000E+00  0.00000000E+00
  0.00000000E+00  0.00000000E+00  0.00000000E+00
  0.00000000E+00  0.00000000E+00  0.00000000E+00
  0.00000000E+00  0.00000000E+00  0.00000000E+00
  0.00000000E+00  0.00000000E+00  0.00000000E+00
  0.00000000E+00  0.00000000E+00  0.00000000E+00
  0.00000000E+00  0.00000000E+00  0.00000000E+00
  0.00000000E+00  0.00000000E+00  0.00000000E+00
  0.00000000E+00  0.00000000E+00  0.00000000E+00
  0.00000000E+00  0.00000000E+00  0.00000000E+00
  0.00000000E+00  0.00000000E+00  0.00000000E+00
  0.00000000E+00  0.00000000E+00  0.00000000E+00
  0.00000000E+00  0.00000000E+00  0.00000000E+00
  0.00000000E+00  0.00000000E+00  0.00000000E+00
  0.00000000E+00  0.00000000E+00  0.00000000E+00
  0.00000000E+00  0.00000000E+00  0.00000000E+00
  0.00000000E+00  0.00000000E+00  0.00000000E+00
  0.00000000E+00  0.00000000E+00  0.00000000E+00
  0.00000000E+00  0.00000000E+00  0.00000000E+00
  0.00000000E+00  0.00000000E+00  0.00000000E+00
  0.00000000E+00  0.00000000E+00  0.00000000E+00
  0.00000000E+00  0.00000000E+00  0.00000000E+00
  0.00000000E+00  0.00000000E+00  0.00000000E+00
  0.00000000E+00  0.00000000E+00  0.00000000E+00
  0.00000000E+00  0.00000000E+00  0.00000000E+00
  0.00000000E+00  0.00000000E+00  0.00000000E+00
  0.00000000E+00  0.00000000E+00  0.00000000E+00
  0.00000000E+00  0.00000000E+00  0.00000000E+00
  0.00000000E+00  0.00000000E+00  0.00000000E+00
  0.00000000E+00  0.00000000E+00  0.00000000E+00
  0.00000000E+00  0.00000000E+00  0.00000000E+00
  0.00000000E+00  0.00000000E+00  0.00000000E+00
  0.00000000E+00  0.00000000E+00  0.00000000E+00
  0.00000000E+00  0.00000000E+00  0.00000000E+00
  0.00000000E+00  0.00000000E+00  0.00000000E+00
  0.00000000E+00  0.00000000E+00  0.00000000E+00
  0.00000000E+00  0.00000000E+00  0.00000000E+00
  0.00000000E+00  0.00000000E+00  0.00000000E+00
  0.00000000E+00  0.00000000E+00  0.00000000E+00
  0.00000000E+00  0.00000000E+00  0.00000000E+00
  0.00000000E+00  0.00000000E+00  0.00000000E+00
  0.00000000E+00  0.00000000E+00  0.00000000E+00
  0.00000000E+00  0.00000000E+00  0.00000000E+00
  0.00000000E+00  0.00000000E+00  0.00000000E+00
  0.00000000E+00  0.00000000E+00  0.00000000E+00
  0.00000000E+00  0.00000000E+00  0.00000000E+00
  0.00000000E+00  0.00000000E+00  0.00000000E+00
  0.00000000E+00  0.00000000E+00  0.00000000E+00
  0.00000000E+00  0.00000000E+00  0.00000000E+00
  0.00000000E+00  0.00000000E+00  0.00000000E+00
  0.00000000E+00  0.00000000E+00  0.00000000E+00
  0.00000000E+00  0.00000000E+00  0.00000000E+00
  0.00000000E+00  0.00000000E+00  0.00000000E+00
  0.00000000E+00  0.00000000E+00  0.00000000E+00
  0.00000000E+00  0.00000000E+00  0.00000000E+00
  0.00000000E+00  0.00000000E+00  0.00000000E+00
  0.00000000E+00  0.00000000E+00  0.00000000E+00
  0.00000000E+00  0.00000000E+00  0.00000000E+00
  0.00000000E+00  0.00000000E+00  0.00000000E+00
  0.00000000E+00  0.00000000E+00  0.00000000E+00
  0.00000000E+00  0.00000000E+00  0.00000000E+00
  0.00000000E+00  0.00000000E+00  0.00000000E+00
  0.00000000E+00  0.00000000E+00  0.00000000E+00
  0.00000000E+00  0.00000000E+00  0.00000000E+00
  0.00000000E+00  0.00000000E+00  0.00000000E+00
  0.00000000E+00  0.00000000E+00  0.00000000E+00
  0.00000000E+00  0.00000000E+00  0.00000000E+00
  0.00000000E+00  0.00000000E+00  0.00000000E+00
  0.00000000E+00  0.00000000E+00  0.00000000E+00
  0.00000000E+00  0.00000000E+00  0.00000000E+00
  0.00000000E+00  0.00000000E+00  0.00000000E+00
  0.00000000E+00  0.00000000E+00  0.00000000E+00
  0.00000000E+00  0.00000000E+00  0.00000000E+00
  0.00000000E+00  0.00000000E+00  0.00000000E+00
  0.00000000E+00  0.00000000E+00  0.00000000E+00
  0.00000000E+00  0.00000000E+00  0.00000000E+00
  0.00000000E+00  0.00000000E+00  0.00000000E+00
  0.00000000E+00  0.00000000E+00  0.00000000E+00
  0.00000000E+00  0.00000000E+00  0.00000000E+00
  0.00000000E+00  0.00000000E+00  0.00000000E+00
  0.00000000E+00  0.00000000E+00  0.00000000E+00
  0.00000000E+00  0.00000000E+00  0.00000000E+00
  0.00000000E+00  0.00000000E+00  0.00000000E+00
  0.00000000E+00  0.00000000E+00  0.00000000E+00
  0.00000000E+00  0.00000000E+00  0.00000000E+00
  0.00000000E+00  0.00000000E+00  0.00000000E+00
  0.00000000E+00  0.00000000E+00  0.00000000E+00
  0.00000000E+00  0.00000000E+00  0.00000000E+00
  0.00000000E+00  0.00000000E+00  0.00000000E+00
  0.00000000E+00  0.00000000E+00  0.00000000E+00
  0.00000000E+00  0.00000000E+00  0.00000000E+00
  0.00000000E+00  0.00000000E+00  0.00000000E+00
  0.00000000E+00  0.00000000E+00  0.00000000E+00
  0.00000000E+00  0.00000000E+00  0.00000000E+00
  0.00000000E+00  0.00000000E+00  0.00000000E+00
  0.00000000E+00  0.00000000E+00  0.00000000E+00
  0.00000000E+00  0.00000000E+00  0.00000000E+00
  0.00000000E+00  0.00000000E+00  0.00000000E+00
  0.00000000E+00  0.00000000E+00  0.00000000E+00
  0.00000000E+00  0.00000000E+00  0.00000000E+00
  0.00000000E+00  0.00000000E+00  0.00000000E+00
  0.00000000E+00  0.00000000E+00  0.00000000E+00
  0.00000000E+00  0.00000000E+00  0.00000000E+00
  0.00000000E+00  0.00000000E+00  0.00000000E+00
  0.00000000E+00  0.00000000E+00  0.00000000E+00
  0.00000000E+00  0.00000000E+00  0.00000000E+00
  0.00000000E+00  0.00000000E+00  0.00000000E+00
  0.00000000E+00  0.00000000E+00  0.00000000E+00
  0.00000000E+00  0.00000000E+00  0.00000000E+00
  0.00000000E+00  0.00000000E+00  0.00000000E+00
  0.00000000E+00  0.00000000E+00  0.00000000E+00
  0.00000000E+00  0.00000000E+00  0.00000000E+00
  0.00000000E+00  0.00000000E+00  0.00000000E+00
  0.00000000E+00  0.00000000E+00  0.00000000E+00
  0.00000000E+00  0.00000000E+00  0.00000000E+00
  0.00000000E+00  0.00000000E+00  0.00000000E+00
  0.00000000E+00  0.00000000E+00  0.00000000E+00
  0.00000000E+00  0.00000000E+00  0.00000000E+00
  0.00000000E+00  0.00000000E+00  0.00000000E+00
  0.00000000E+00  0.00000000E+00  0.00000000E+00
  0.00000000E+00  0.00000000E+00  0.00000000E+00
  0.00000000E+00  0.00000000E+00  0.00000000E+00
  0.00000000E+00  0.00000000E+00  0.00000000E+00
  0.00000000E+00  0.00000000E+00  0.00000000E+00
  0.00000000E+00  0.00000000E+00  0.00000000E+00
  0.00000000E+00  0.00000000E+00  0.00000000E+00
  0.00000000E+00  0.00000000E+00  0.00000000E+00
  0.00000000E+00  0.00000000E+00  0.00000000E+00
  0.00000000E+00  0.00000000E+00  0.00000000E+00
  0.00000000E+00  0.00000000E+00  0.00000000E+00
  0.00000000E+00  0.00000000E+00  0.00000000E+00
  0.00000000E+00  0.00000000E+00  0.00000000E+00
  0.00000000E+00  0.00000000E+00  0.00000000E+00
  0.00000000E+00  0.00000000E+00  0.00000000E+00
  0.00000000E+00  0.00000000E+00  0.00000000E+00
  0.00000000E+00  0.00000000E+00  0.00000000E+00
  0.00000000E+00  0.00000000E+00  0.00000000E+00
  0.00000000E+00  0.00000000E+00  0.00000000E+00
  0.00000000E+00  0.00000000E+00  0.00000000E+00
  0.00000000E+00  0.00000000E+00  0.00000000E+00
  0.00000000E+00  0.00000000E+00  0.00000000E+00
  0.00000000E+00  0.00000000E+00  0.00000000E+00
  0.00000000E+00  0.00000000E+00  0.00000000E+00
  0.00000000E+00  0.00000000E+00  0.00000000E+00
  0.00000000E+00  0.00000000E+00  0.00000000E+00
  0.00000000E+00  0.00000000E+00  0.00000000E+00
  0.00000000E+00  0.00000000E+00  0.00000000E+00
  0.00000000E+00  0.00000000E+00  0.00000000E+00
  0.00000000E+00  0.00000000E+00  0.00000000E+00
  0.00000000E+00  0.00000000E+00  0.00000000E+00
  0.00000000E+00  0.00000000E+00  0.00000000E+00
  0.00000000E+00  0.00000000E+00  0.00000000E+00
  0.00000000E+00  0.00000000E+00  0.00000000E+00
  0.00000000E+00  0.00000000E+00  0.00000000E+00
  0.00000000E+00  0.00000000E+00  0.00000000E+00
  0.00000000E+00  0.00000000E+00  0.00000000E+00
  0.00000000E+00  0.00000000E+00  0.00000000E+00
  0.00000000E+00  0.00000000E+00  0.00000000E+00
  0.00000000E+00  0.00000000E+00  0.00000000E+00
  0.00000000E+00  0.00000000E+00  0.00000000E+00
  0.00000000E+00  0.00000000E+00  0.00000000E+00
  0.00000000E+00  0.00000000E+00  0.00000000E+00
  0.00000000E+00  0.00000000E+00  0.00000000E+00
  0.00000000E+00  0.00000000E+00  0.00000000E+00
  0.00000000E+00  0.00000000E+00  0.00000000E+00
  0.00000000E+00  0.00000000E+00  0.00000000E+00
  0.00000000E+00  0.00000000E+00  0.00000000E+00
  0.00000000E+00  0.00000000E+00  0.00000000E+00
  0.00000000E+00  0.00000000E+00  0.00000000E+00
  0.00000000E+00  0.00000000E+00  0.00000000E+00
  0.00000000E+00  0.00000000E+00  0.00000000E+00
  0.00000000E+00  0.00000000E+00  0.00000000E+00
  0.00000000E+00  0.00000000E+00  0.00000000E+00
  0.00000000E+00  0.00000000E+00  0.00000000E+00
  0.00000000E+00  0.00000000E+00  0.00000000E+00
  0.00000000E+00  0.00000000E+00  0.00000000E+00
  0.00000000E+00  0.00000000E+00  0.00000000E+00
  0.00000000E+00  0.00000000E+00  0.00000000E+00
  0.00000000E+00  0.00000000E+00  0.00000000E+00
  0.00000000E+00  0.00000000E+00  0.00000000E+00
  0.00000000E+00  0.00000000E+00  0.00000000E+00
  0.00000000E+00  0.00000000E+00  0.00000000E+00
  0.00000000E+00  0.00000000E+00  0.00000000E+00
  0.00000000E+00  0.00000000E+00  0.00000000E+00
  0.00000000E+00  0.00000000E+00  0.00000000E+00
  0.00000000E+00  0.00000000E+00  0.00000000E+00
  0.00000000E+00  0.00000000E+00  0.00000000E+00
  0.00000000E+00  0.00000000E+00  0.00000000E+00
  0.00000000E+00  0.00000000E+00  0.00000000E+00
  0.00000000E+00  0.00000000E+00  0.00000000E+00
  0.00000000E+00  0.00000000E+00  0.00000000E+00
  0.00000000E+00  0.00000000E+00  0.00000000E+00
  0.00000000E+00  0.00000000E+00  0.00000000E+00
  0.00000000E+00  0.00000000E+00  0.00000000E+00
  0.00000000E+00  0.00000000E+00  0.00000000E+00
  0.00000000E+00  0.00000000E+00  0.00000000E+00
  0.00000000E+00  0.00000000E+00  0.00000000E+00
  0.00000000E+00  0.00000000E+00  0.00000000E+00
  0.00000000E+00  0.00000000E+00  0.00000000E+00
  0.00000000E+00  0.00000000E+00  0.00000000E+00
  0.00000000E+00  0.00000000E+00  0.00000000E+00
  0.00000000E+00  0.00000000E+00  0.00000000E+00
  0.00000000E+00  0.00000000E+00  0.00000000E+00
  0.00000000E+00  0.00000000E+00  0.00000000E+00
  0.00000000E+00  0.00000000E+00  0.00000000E+00
  0.00000000E+00  0.00000000E+00  0.00000000E+00
  0.00000000E+00  0.00000000E+00  0.00000000E+00
  0.00000000E+00  0.00000000E+00  0.00000000E+00
  0.00000000E+00  0.00000000E+00  0.00000000E+00
  0.00000000E+00  0.00000000E+00  0.00000000E+00
  0.00000000E+00  0.00000000E+00  0.00000000E+00
  0.00000000E+00  0.00000000E+00  0.00000000E+00
  0.00000000E+00  0.00000000E+00  0.00000000E+00
  0.00000000E+00  0.00000000E+00  0.00000000E+00
  0.00000000E+00  0.00000000E+00  0.00000000E+00
  0.00000000E+00  0.00000000E+00  0.00000000E+00
  0.00000000E+00  0.00000000E+00  0.00000000E+00
  0.00000000E+00  0.00000000E+00  0.00000000E+00
  0.00000000E+00  0.00000000E+00  0.00000000E+00
  0.00000000E+00  0.00000000E+00  0.00000000E+00
  0.00000000E+00  0.00000000E+00  0.00000000E+00
  0.00000000E+00  0.00000000E+00  0.00000000E+00
  0.00000000E+00  0.00000000E+00  0.00000000E+00
  0.00000000E+00  0.00000000E+00  0.00000000E+00
  0.00000000E+00  0.00000000E+00  0.00000000E+00
  0.00000000E+00  0.00000000E+00  0.00000000E+00
  0.00000000E+00  0.00000000E+00  0.00000000E+00
  0.00000000E+00  0.00000000E+00  0.00000000E+00
  0.00000000E+00  0.00000000E+00  0.00000000E+00
  0.00000000E+00  0.00000000E+00  0.00000000E+00
  0.00000000E+00  0.00000000E+00  0.00000000E+00
  0.00000000E+00  0.00000000E+00  0.00000000E+00
  0.00000000E+00  0.00000000E+00  0.00000000E+00
  0.00000000E+00  0.00000000E+00  0.00000000E+00
  0.00000000E+00  0.00000000E+00  0.00000000E+00
  0.00000000E+00  0.00000000E+00  0.00000000E+00
  0.00000000E+00  0.00000000E+00  0.00000000E+00
  0.00000000E+00  0.00000000E+00  0.00000000E+00
  0.00000000E+00  0.00000000E+00  0.00000000E+00
  0.00000000E+00  0.00000000E+00  0.00000000E+00
  0.00000000E+00  0.00000000E+00  0.00000000E+00
  0.00000000E+00  0.00000000E+00  0.00000000E+00
  0.00000000E+00  0.00000000E+00  0.00000000E+00
  0.00000000E+00  0.00000000E+00  0.00000000E+00
  0.00000000E+00  0.00000000E+00  0.00000000E+00
  0.00000000E+00  0.00000000E+00  0.00000000E+00
  0.00000000E+00  0.00000000E+00  0.00000000E+00
  0.00000000E+00  0.00000000E+00  0.00000000E+00
  0.00000000E+00  0.00000000E+00  0.00000000E+00
  0.00000000E+00  0.00000000E+00  0.00000000E+00
  0.00000000E+00  0.00000000E+00  0.00000000E+00
  0.00000000E+00  0.00000000E+00  0.00000000E+00
  0.00000000E+00  0.00000000E+00  0.00000000E+00
  0.00000000E+00  0.00000000E+00  0.00000000E+00
  0.00000000E+00  0.00000000E+00  0.00000000E+00
  0.00000000E+00  0.00000000E+00  0.00000000E+00
  0.00000000E+00  0.00000000E+00  0.00000000E+00
  0.00000000E+00  0.00000000E+00  0.00000000E+00
  0.00000000E+00  0.00000000E+00  0.00000000E+00
  0.00000000E+00  0.00000000E+00  0.00000000E+00
  0.00000000E+00  0.00000000E+00  0.00000000E+00
