 288 288   0   0
  0.3282949E+02  0.1703999E-08  0.1844133E-08  0.3008812E-08  0.1500000E-16
  1.000000000000000E-004
  CAR 
 phonon_dispersion                       
      3.65508903    -19.55738427  301     -4.18422658      1.00000000
    -19.557  0.0000E+00  0.0000E+00
    -19.480  0.0000E+00  0.0000E+00
    -19.403  0.0000E+00  0.0000E+00
    -19.325  0.0000E+00  0.0000E+00
    -19.248  0.0000E+00  0.0000E+00
    -19.171  0.0000E+00  0.0000E+00
    -19.093  0.0000E+00  0.0000E+00
    -19.016  0.0000E+00  0.0000E+00
    -18.938  0.0000E+00  0.0000E+00
    -18.861  0.0000E+00  0.0000E+00
    -18.784  0.6573E-17  0.5085E-18
    -18.706  0.2939E-10  0.2274E-11
    -18.629  0.1266E-05  0.9793E-07
    -18.552  0.6069E-03  0.4706E-04
    -18.474  0.6414E-02  0.5434E-03
    -18.397  0.1356E-01  0.1592E-02
    -18.319  0.1251E-01  0.2560E-02
    -18.242  0.2357E-01  0.4384E-02
    -18.165  0.2948E-01  0.6665E-02
    -18.087  0.2515E-01  0.8611E-02
    -18.010  0.2069E-01  0.1021E-01
    -17.933  0.1217E-02  0.1031E-01
    -17.855  0.1314E-05  0.1031E-01
    -17.778  0.2081E-03  0.1032E-01
    -17.700  0.1314E-01  0.1134E-01
    -17.623  0.2956E-01  0.1363E-01
    -17.546  0.2829E-01  0.1582E-01
    -17.468  0.1803E-01  0.1721E-01
    -17.391  0.1064E-01  0.1803E-01
    -17.314  0.7918E-02  0.1865E-01
    -17.236  0.1571E-01  0.1986E-01
    -17.159  0.5300E-02  0.2027E-01
    -17.081  0.4213E-02  0.2060E-01
    -17.004  0.1886E-03  0.2061E-01
    -16.927  0.1285E-06  0.2061E-01
    -16.849  0.9160E-12  0.2061E-01
    -16.772  0.0000E+00  0.2061E-01
    -16.695  0.0000E+00  0.2061E-01
    -16.617  0.0000E+00  0.2061E-01
    -16.540  0.0000E+00  0.2061E-01
    -16.462  0.0000E+00  0.2061E-01
    -16.385  0.0000E+00  0.2061E-01
    -16.308  0.0000E+00  0.2061E-01
    -16.230  0.0000E+00  0.2061E-01
    -16.153  0.0000E+00  0.2061E-01
    -16.076  0.0000E+00  0.2061E-01
    -15.998  0.0000E+00  0.2061E-01
    -15.921  0.0000E+00  0.2061E-01
    -15.843  0.0000E+00  0.2061E-01
    -15.766  0.0000E+00  0.2061E-01
    -15.689  0.0000E+00  0.2061E-01
    -15.611  0.0000E+00  0.2061E-01
    -15.534  0.0000E+00  0.2061E-01
    -15.457  0.0000E+00  0.2061E-01
    -15.379  0.0000E+00  0.2061E-01
    -15.302  0.0000E+00  0.2061E-01
    -15.224  0.0000E+00  0.2061E-01
    -15.147  0.0000E+00  0.2061E-01
    -15.070  0.0000E+00  0.2061E-01
    -14.992  0.0000E+00  0.2061E-01
    -14.915  0.4929E-16  0.2061E-01
    -14.838  0.1875E-09  0.2061E-01
    -14.760  0.6834E-05  0.2061E-01
    -14.683  0.2791E-02  0.2083E-01
    -14.605  0.2157E-01  0.2250E-01
    -14.528  0.2414E-01  0.2437E-01
    -14.451  0.3527E-01  0.2710E-01
    -14.373  0.2393E-01  0.2895E-01
    -14.296  0.1427E-01  0.3005E-01
    -14.219  0.2910E-01  0.3230E-01
    -14.141  0.3407E-01  0.3494E-01
    -14.064  0.3410E-01  0.3758E-01
    -13.986  0.1763E-01  0.3894E-01
    -13.909  0.1093E-01  0.3979E-01
    -13.832  0.8948E-02  0.4048E-01
    -13.754  0.9121E-02  0.4118E-01
    -13.677  0.5261E-03  0.4123E-01
    -13.600  0.4829E-06  0.4123E-01
    -13.522  0.4700E-11  0.4123E-01
    -13.445  0.0000E+00  0.4123E-01
    -13.367  0.0000E+00  0.4123E-01
    -13.290  0.0000E+00  0.4123E-01
    -13.213  0.0000E+00  0.4123E-01
    -13.135  0.0000E+00  0.4123E-01
    -13.058  0.0000E+00  0.4123E-01
    -12.981  0.0000E+00  0.4123E-01
    -12.903  0.0000E+00  0.4123E-01
    -12.826  0.7274E-14  0.4123E-01
    -12.748  0.5652E-08  0.4123E-01
    -12.671  0.4331E-04  0.4123E-01
    -12.594  0.4178E-02  0.4155E-01
    -12.516  0.9858E-02  0.4231E-01
    -12.439  0.5392E-02  0.4273E-01
    -12.362  0.9481E-02  0.4347E-01
    -12.284  0.6466E-03  0.4352E-01
    -12.207  0.7197E-06  0.4352E-01
    -12.129  0.9971E-11  0.4352E-01
    -12.052  0.1720E-06  0.4352E-01
    -11.975  0.2348E-03  0.4353E-01
    -11.897  0.6308E-02  0.4402E-01
    -11.820  0.2127E-01  0.4567E-01
    -11.743  0.5341E-01  0.4980E-01
    -11.665  0.2033E-01  0.5137E-01
    -11.588  0.5159E-01  0.5536E-01
    -11.510  0.3921E-01  0.5840E-01
    -11.433  0.1987E-01  0.5994E-01
    -11.356  0.2466E-02  0.6013E-01
    -11.278  0.5526E-02  0.6055E-01
    -11.201  0.8783E-02  0.6123E-01
    -11.124  0.6316E-02  0.6172E-01
    -11.046  0.2401E-01  0.6358E-01
    -10.969  0.1442E-01  0.6470E-01
    -10.891  0.1803E-01  0.6609E-01
    -10.814  0.2882E-01  0.6832E-01
    -10.737  0.1555E-01  0.6952E-01
    -10.659  0.3542E-01  0.7226E-01
    -10.582  0.1819E-01  0.7367E-01
    -10.505  0.4187E-01  0.7691E-01
    -10.427  0.4334E-01  0.8026E-01
    -10.350  0.5095E-01  0.8421E-01
    -10.272  0.1422E-01  0.8531E-01
    -10.195  0.4524E-02  0.8566E-01
    -10.118  0.5111E-02  0.8605E-01
    -10.040  0.5532E-02  0.8648E-01
     -9.963  0.1702E-01  0.8780E-01
     -9.886  0.2150E-01  0.8946E-01
     -9.808  0.9202E-02  0.9017E-01
     -9.731  0.1022E-01  0.9096E-01
     -9.653  0.9859E-03  0.9104E-01
     -9.576  0.3936E-02  0.9135E-01
     -9.499  0.1577E-01  0.9257E-01
     -9.421  0.4991E-02  0.9295E-01
     -9.344  0.1698E-01  0.9427E-01
     -9.267  0.1641E-01  0.9554E-01
     -9.189  0.1275E-01  0.9652E-01
     -9.112  0.1191E-01  0.9744E-01
     -9.034  0.2027E-01  0.9901E-01
     -8.957  0.1617E-01  0.1003E+00
     -8.880  0.1979E-01  0.1018E+00
     -8.802  0.3174E-02  0.1020E+00
     -8.725  0.1069E-01  0.1029E+00
     -8.648  0.5623E-02  0.1033E+00
     -8.570  0.1107E-01  0.1042E+00
     -8.493  0.1754E-01  0.1055E+00
     -8.415  0.2363E-01  0.1073E+00
     -8.338  0.2594E-01  0.1094E+00
     -8.261  0.1755E-01  0.1107E+00
     -8.183  0.2579E-01  0.1127E+00
     -8.106  0.6197E-01  0.1175E+00
     -8.029  0.6297E-01  0.1224E+00
     -7.951  0.2798E-01  0.1245E+00
     -7.874  0.6952E-02  0.1251E+00
     -7.796  0.1038E-01  0.1259E+00
     -7.719  0.1137E-02  0.1260E+00
     -7.642  0.1892E-02  0.1261E+00
     -7.564  0.2065E-01  0.1277E+00
     -7.487  0.2191E-01  0.1294E+00
     -7.410  0.2195E-01  0.1311E+00
     -7.332  0.2839E-01  0.1333E+00
     -7.255  0.3554E-01  0.1361E+00
     -7.177  0.4681E-01  0.1397E+00
     -7.100  0.4679E-01  0.1433E+00
     -7.023  0.5157E-01  0.1473E+00
     -6.945  0.4972E-01  0.1511E+00
     -6.868  0.9365E-02  0.1519E+00
     -6.791  0.1842E-01  0.1533E+00
     -6.713  0.2281E-01  0.1550E+00
     -6.636  0.1034E-01  0.1558E+00
     -6.558  0.3039E-01  0.1582E+00
     -6.481  0.3966E-01  0.1613E+00
     -6.404  0.2755E-01  0.1634E+00
     -6.326  0.3779E-01  0.1663E+00
     -6.249  0.2935E-01  0.1686E+00
     -6.172  0.4704E-01  0.1722E+00
     -6.094  0.3202E-01  0.1747E+00
     -6.017  0.2704E-01  0.1768E+00
     -5.939  0.4142E-01  0.1800E+00
     -5.862  0.1392E-01  0.1811E+00
     -5.785  0.2454E-01  0.1830E+00
     -5.707  0.3024E-01  0.1853E+00
     -5.630  0.6417E-01  0.1903E+00
     -5.553  0.4981E-01  0.1941E+00
     -5.475  0.2364E-01  0.1960E+00
     -5.398  0.2596E-01  0.1980E+00
     -5.320  0.2487E-01  0.1999E+00
     -5.243  0.2062E-01  0.2015E+00
     -5.166  0.2092E-01  0.2031E+00
     -5.088  0.6952E-02  0.2037E+00
     -5.011  0.2705E-01  0.2057E+00
     -4.934  0.1692E-01  0.2071E+00
     -4.856  0.3205E-01  0.2095E+00
     -4.779  0.2790E-01  0.2117E+00
     -4.701  0.9127E-02  0.2124E+00
     -4.624  0.3371E-02  0.2127E+00
     -4.547  0.4686E-01  0.2163E+00
     -4.469  0.4455E-01  0.2197E+00
     -4.392  0.1475E-01  0.2209E+00
     -4.315  0.2368E-01  0.2227E+00
     -4.237  0.2091E-01  0.2243E+00
     -4.160  0.4563E-01  0.2279E+00
     -4.082  0.3892E-01  0.2309E+00
     -4.005  0.5823E-02  0.2313E+00
     -3.928  0.1752E-03  0.2313E+00
     -3.850  0.1030E-01  0.2321E+00
     -3.773  0.1811E-01  0.2335E+00
     -3.696  0.1036E-02  0.2336E+00
     -3.618  0.2210E-05  0.2336E+00
     -3.541  0.6060E-03  0.2337E+00
     -3.463  0.5240E-02  0.2341E+00
     -3.386  0.3647E-02  0.2343E+00
     -3.309  0.4915E-02  0.2347E+00
     -3.231  0.3897E-03  0.2348E+00
     -3.154  0.5196E-06  0.2348E+00
     -3.077  0.7487E-11  0.2348E+00
     -2.999  0.8216E-18  0.2348E+00
     -2.922  0.0000E+00  0.2348E+00
     -2.844  0.0000E+00  0.2348E+00
     -2.767  0.0000E+00  0.2348E+00
     -2.690  0.0000E+00  0.2348E+00
     -2.612  0.0000E+00  0.2348E+00
     -2.535  0.0000E+00  0.2348E+00
     -2.458  0.0000E+00  0.2348E+00
     -2.380  0.4765E-16  0.2348E+00
     -2.303  0.1534E-09  0.2348E+00
     -2.225  0.4681E-05  0.2348E+00
     -2.148  0.1619E-02  0.2349E+00
     -2.071  0.1174E-01  0.2358E+00
     -1.993  0.1275E-01  0.2368E+00
     -1.916  0.3457E-02  0.2370E+00
     -1.839  0.2654E-04  0.2370E+00
     -1.761  0.2502E-08  0.2370E+00
     -1.684  0.2304E-14  0.2370E+00
     -1.606  0.0000E+00  0.2370E+00
     -1.529  0.4108E-18  0.2370E+00
     -1.452  0.3649E-11  0.2370E+00
     -1.374  0.3234E-06  0.2370E+00
     -1.297  0.3060E-03  0.2371E+00
     -1.220  0.4689E-02  0.2374E+00
     -1.142  0.2455E-02  0.2376E+00
     -1.065  0.4063E-02  0.2379E+00
     -0.987  0.1358E-01  0.2390E+00
     -0.910  0.4463E-02  0.2393E+00
     -0.833  0.4747E-04  0.2393E+00
     -0.755  0.8070E-07  0.2393E+00
     -0.678  0.1913E-03  0.2394E+00
     -0.601  0.6974E-02  0.2399E+00
     -0.523  0.7697E-02  0.2405E+00
     -0.446  0.5419E-02  0.2409E+00
     -0.368  0.1505E-01  0.2421E+00
     -0.291  0.1673E-01  0.2434E+00
     -0.214  0.1089E-01  0.2442E+00
     -0.136  0.3105E-01  0.2466E+00
     -0.059  0.9851E-02  0.2474E+00
      0.018  0.8277E-02  0.2480E+00
      0.096  0.1262E-01  0.2490E+00
      0.173  0.3122E-01  0.2514E+00
      0.251  0.4177E-01  0.2546E+00
      0.328  0.3452E-01  0.2573E+00
      0.405  0.3024E-01  0.2596E+00
      0.483  0.8448E-02  0.2603E+00
      0.560  0.2160E-01  0.2620E+00
      0.637  0.1091E-01  0.2628E+00
      0.715  0.1938E-01  0.2643E+00
      0.792  0.2489E-01  0.2662E+00
      0.870  0.3287E-01  0.2688E+00
      0.947  0.1157E-01  0.2697E+00
      1.024  0.7050E-02  0.2702E+00
      1.102  0.5973E-01  0.2748E+00
      1.179  0.4345E-01  0.2782E+00
      1.256  0.7019E-02  0.2788E+00
      1.334  0.6292E-02  0.2792E+00
      1.411  0.1001E-01  0.2800E+00
      1.489  0.2816E-01  0.2822E+00
      1.566  0.3848E-01  0.2852E+00
      1.643  0.1928E-01  0.2867E+00
      1.721  0.1565E-01  0.2879E+00
      1.798  0.1613E-01  0.2891E+00
      1.875  0.9814E-02  0.2899E+00
      1.953  0.2661E-01  0.2919E+00
      2.030  0.4126E-01  0.2951E+00
      2.108  0.2340E-01  0.2969E+00
      2.185  0.2215E-01  0.2987E+00
      2.262  0.1110E-01  0.2995E+00
      2.340  0.2950E-01  0.3018E+00
      2.417  0.3132E-01  0.3042E+00
      2.494  0.3207E-01  0.3067E+00
      2.572  0.4636E-01  0.3103E+00
      2.649  0.2818E-01  0.3125E+00
      2.727  0.2008E-02  0.3126E+00
      2.804  0.3823E-05  0.3126E+00
      2.881  0.8756E-10  0.3126E+00
      2.959  0.1972E-16  0.3126E+00
      3.036  0.0000E+00  0.3126E+00
      3.113  0.0000E+00  0.3126E+00
      3.191  0.0000E+00  0.3126E+00
      3.268  0.0000E+00  0.3126E+00
      3.346  0.0000E+00  0.3126E+00
      3.423  0.0000E+00  0.3126E+00
      3.500  0.0000E+00  0.3126E+00
      3.578  0.0000E+00  0.3126E+00
      3.655  0.0000E+00  0.3126E+00
