k-points
0
Monkhorst-pack
8   11  7
0   0   0