SCF                                     
           1
     5.694176    0.000000    0.000000
     0.000000    6.133770    0.000000
     0.000000    0.000000   26.044058
   B    H 
    14     4
Direct configuration=     1
   0.52341282  0.63703537  0.15443173
   0.47658718  0.36296460  0.15443173
   0.97658724  0.63703537  0.15443173
   0.02341282  0.36296460  0.15443173
   0.59851277  0.90000689  0.15443173
   0.40148726  0.09999312  0.15443173
   0.90148723  0.90000689  0.15443173
   0.09851274  0.09999312  0.15443173
   0.75000000  0.73129612  0.20008546
   0.25000000  0.26870385  0.10877801
   0.75000000  0.73129612  0.10877801
   0.25000000  0.26870385  0.20008546
   0.25000000  0.52496010  0.15443173
   0.75000000  0.47503987  0.15443173
   0.75000000  0.71773732  0.06314467
   0.25000000  0.28226268  0.06314467
   0.75000000  0.71773732  0.24571881
   0.25000000  0.28226268  0.24571881
