k-points
0
Monkhorst-pack
15  21  14
0   0   0