SCF                                     
           1
    11.399516    0.000000    0.000000
     0.000000    6.314134    0.000000
     0.000000    0.000000   24.044058
   B 
    28
Direct configuration=     1
   0.25687674  0.64073215  0.08409683
   0.75687813  0.64073330  0.08409683
   0.24313525  0.35927891  0.08409683
   0.74313594  0.35927944  0.08409683
   0.49312330  0.64073208  0.08409683
   0.99312184  0.64073335  0.08409683
   0.00686483  0.35927882  0.08409683
   0.50686399  0.35927954  0.08409683
   0.29800601  0.90110397  0.08409685
   0.79800684  0.90110206  0.08409685
   0.20200052  0.09887872  0.08409685
   0.70200095  0.09887769  0.08409685
   0.45199398  0.90110392  0.08409685
   0.95199318  0.90110210  0.08409685
   0.04799946  0.09887866  0.08409685
   0.54799907  0.09887775  0.08409685
   0.37500000  0.72362158  0.12537151
   0.87500000  0.72362137  0.12537157
   0.12500000  0.27637596  0.04282411
   0.62500000  0.27637580  0.04282413
   0.37500000  0.72362153  0.04282215
   0.87500000  0.72362132  0.04282209
   0.12500000  0.27637591  0.12536955
   0.62500000  0.27637575  0.12536953
   0.12499995  0.51641065  0.08409682
   0.62500004  0.51641193  0.08409682
   0.37499998  0.48360665  0.08409682
   0.87500003  0.48360900  0.08409682
