       N       E                     dE             d eps       ncg     rms          rms(c)
DAV:   1     0.331508110706E+04    0.33151E+04   -0.13792E+05  3744   0.108E+03
DAV:   2    -0.408970561773E+03   -0.37241E+04   -0.36001E+04  5244   0.229E+02
DAV:   3    -0.100413752033E+04   -0.59517E+03   -0.58982E+03  4404   0.986E+01
DAV:   4    -0.102329943640E+04   -0.19162E+02   -0.19032E+02  4416   0.198E+01
DAV:   5    -0.102381948760E+04   -0.52005E+00   -0.51877E+00  4728   0.292E+00    0.423E+01
DAV:   6    -0.963725979417E+03    0.60094E+02   -0.60158E+01  3972   0.106E+01    0.237E+01
DAV:   7    -0.940422937744E+03    0.23303E+02   -0.71158E+01  4188   0.108E+01    0.486E+00
DAV:   8    -0.940169669609E+03    0.25327E+00   -0.53900E+00  4416   0.352E+00    0.228E+00
DAV:   9    -0.939981947730E+03    0.18772E+00   -0.10452E+00  4476   0.174E+00    0.139E+00
DAV:  10    -0.939790409385E+03    0.19154E+00   -0.31950E-01  4440   0.120E+00    0.731E-01
DAV:  11    -0.939764857777E+03    0.25552E-01   -0.13901E-01  4428   0.631E-01    0.529E-01
DAV:  12    -0.939743552673E+03    0.21305E-01   -0.44608E-02  4308   0.397E-01    0.322E-01
DAV:  13    -0.939729339132E+03    0.14214E-01   -0.58779E-02  4248   0.372E-01    0.228E-01
DAV:  14    -0.939732034413E+03   -0.26953E-02   -0.22788E-02  4224   0.249E-01    0.157E-01
DAV:  15    -0.939743883031E+03   -0.11849E-01   -0.72578E-03  3888   0.152E-01    0.114E-01
DAV:  16    -0.939751871053E+03   -0.79880E-02   -0.36523E-03  4116   0.124E-01    0.781E-02
DAV:  17    -0.939759641633E+03   -0.77706E-02   -0.21761E-03  4080   0.745E-02    0.500E-02
DAV:  18    -0.939771238297E+03   -0.11597E-01   -0.10190E-03  4080   0.429E-02    0.285E-02
DAV:  19    -0.939778301843E+03   -0.70635E-02   -0.43601E-04  3972   0.268E-02    0.182E-02
DAV:  20    -0.939782939773E+03   -0.46379E-02   -0.26264E-04  4056   0.189E-02    0.127E-02
DAV:  21    -0.939785243958E+03   -0.23042E-02   -0.10367E-04  4044   0.127E-02    0.834E-03
DAV:  22    -0.939786915258E+03   -0.16713E-02   -0.77645E-05  4152   0.944E-03    0.516E-03
DAV:  23    -0.939787549724E+03   -0.63447E-03   -0.18972E-05  4068   0.525E-03    0.331E-03
DAV:  24    -0.939787898563E+03   -0.34884E-03   -0.74818E-06  3588   0.313E-03    0.185E-03
DAV:  25    -0.939788092133E+03   -0.19357E-03   -0.38429E-06  3456   0.201E-03    0.952E-04
DAV:  26    -0.939788175821E+03   -0.83687E-04   -0.14250E-06  3168   0.116E-03    0.452E-04
DAV:  27    -0.939788206031E+03   -0.30210E-04   -0.37139E-07  2868   0.605E-04    0.226E-04
DAV:  28    -0.939788215616E+03   -0.95848E-05   -0.13560E-07  2796   0.318E-04    0.930E-05
DAV:  29    -0.939788218522E+03   -0.29060E-05   -0.26551E-08  2784   0.175E-04    0.500E-05
DAV:  30    -0.939788219091E+03   -0.56946E-06    0.28862E-09  2616   0.102E-04
   1 F= -.95251652E+03 E0= -.95242145E+03  d E =-.190130E+00
