  270  270    1    1
  0.3412730E+02  0.1681933E-08  0.1822305E-08  0.3008812E-08  0.5000000E-15
  1.000000000000000E-004
  CAR 
 SCF                                     
    774      6    528
 
  0.1250000E+00  0.1276323E-14  0.1276756E-14  0.1666667E+00
      1     -23966.655941   1.000000
      2     -22145.786814   1.000000
      3     -18598.071294   1.000000
      4     -16457.471875   1.000000
      5     -12848.646750   1.000000
      6     -10322.691288   1.000000
      7      -6517.392985   1.000000
      8      -5871.647204   1.000000
      9      -4441.148464   1.000000
     10      -3518.559910   1.000000
     11      -3416.937807   1.000000
     12      -3017.810300   1.000000
     13      -2122.877799   1.000000
     14      -1649.809458   1.000000
     15      -1222.606669   1.000000
     16      -1077.400911   1.000000
     17       -741.367262   1.000000
     18       -727.594208   1.000000
     19       -455.352348   1.000000
     20       -297.167366   1.000000
     21       -288.668542   1.000000
     22       -134.124794   1.000000
     23        -68.581582   1.000000
     24        -64.704933   1.000000
     25        -51.449520   1.000000
     26        -35.294252   1.000000
     27        -22.834100   1.000000
     28        -16.886936   1.000000
     29        -14.991624   1.000000
     30        -14.011371   1.000000
     31        -11.093609   1.000000
     32         -8.392716   1.000000
     33         -5.677515   1.000000
     34         -5.057038   1.000000
     35         -4.590172   1.000000
     36         -3.958229   1.000000
     37         -3.742001   1.000000
     38         -3.138295   1.000000
     39         -2.964738   1.000000
     40         -2.792623   1.000000
     41         -2.093521   1.000000
     42         -1.708082   1.000000
     43         -1.377972   1.000000
     44         -1.155606   1.000000
     45         -1.114561   1.000000
     46         -0.908607   1.000000
     47         -0.808510   1.000000
     48         -0.767491   1.000000
     49         -0.703188   1.000000
     50         -0.657121   1.000000
     51         -0.547994   1.000000
     52         -0.537372   1.000000
     53         -0.475055   1.000000
     54         -0.453969   1.000000
     55         -0.400691   1.000000
     56         -0.381578   1.000000
     57         -0.343086   0.999999
     58         -0.323466   0.999995
     59         -0.316006   0.999992
     60         -0.288270   0.999955
     61         -0.284109   0.999943
     62         -0.270400   0.999876
     63         -0.247089   0.999574
     64         -0.232519   0.999123
     65         -0.227277   0.998875
     66         -0.220300   0.998443
     67         -0.207873   0.997287
     68         -0.204305   0.996834
     69         -0.189022   0.994031
     70         -0.184807   0.992943
     71         -0.180109   0.991528
     72         -0.172801   0.988831
     73         -0.171196   0.988147
     74         -0.163030   0.984079
     75         -0.154945   0.978925
     76         -0.151955   0.976691
     77         -0.147353   0.972865
     78         -0.143891   0.969653
     79         -0.135880   0.961001
     80         -0.134640   0.959498
     81         -0.131778   0.955847
     82         -0.129851   0.953244
     83         -0.127765   0.950289
     84         -0.122470   0.942114
     85         -0.117175   0.932919
     86         -0.115746   0.930254
     87         -0.113607   0.926112
     88         -0.109769   0.918214
     89         -0.107098   0.912352
     90         -0.104633   0.906671
     91         -0.100172   0.895703
     92         -0.098823   0.892209
     93         -0.098089   0.890271
     94         -0.094153   0.879464
     95         -0.092702   0.875297
     96         -0.089570   0.865960
     97         -0.088013   0.861145
     98         -0.085880   0.854360
     99         -0.084712   0.850550
    100         -0.083149   0.845350
    101         -0.081366   0.839274
    102         -0.078512   0.829226
    103         -0.077706   0.826317
    104         -0.076995   0.823728
    105         -0.076346   0.821341
    106         -0.073464   0.810497
    107         -0.071783   0.803990
    108         -0.071036   0.801053
    109         -0.069621   0.795424
    110         -0.069004   0.792938
    111         -0.067889   0.788399
    112         -0.065826   0.779858
    113         -0.064437   0.773995
    114         -0.062648   0.766315
    115         -0.061722   0.762285
    116         -0.060329   0.756149
    117         -0.059943   0.754435
    118         -0.059333   0.751712
    119         -0.057315   0.742588
    120         -0.056234   0.737630
    121         -0.055534   0.734393
    122         -0.054257   0.728440
    123         -0.053836   0.726461
    124         -0.052888   0.721980
    125         -0.051915   0.717347
    126         -0.050847   0.712217
    127         -0.050102   0.708611
    128         -0.048664   0.701597
    129         -0.047449   0.695613
    130         -0.046961   0.693190
    131         -0.046416   0.690478
    132         -0.045272   0.684754
    133         -0.044454   0.680633
    134         -0.044359   0.680149
    135         -0.043431   0.675443
    136         -0.042721   0.671825
    137         -0.042248   0.669401
    138         -0.041157   0.663792
    139         -0.040670   0.661274
    140         -0.039774   0.656626
    141         -0.039424   0.654806
    142         -0.038845   0.651781
    143         -0.038030   0.647514
    144         -0.037429   0.644353
    145         -0.036863   0.641363
    146         -0.035984   0.636713
    147         -0.035593   0.634632
    148         -0.034975   0.631344
    149         -0.034210   0.627256
    150         -0.033863   0.625394
    151         -0.033445   0.623156
    152         -0.032650   0.618878
    153         -0.032303   0.617006
    154         -0.031866   0.614642
    155         -0.031101   0.610498
    156         -0.030602   0.607794
    157         -0.030239   0.605815
    158         -0.029824   0.603556
    159         -0.029268   0.600525
    160         -0.029068   0.599429
    161         -0.028502   0.596333
    162         -0.028158   0.594451
    163         -0.027554   0.591133
    164         -0.027103   0.588654
    165         -0.026811   0.587047
    166         -0.026285   0.584150
    167         -0.025698   0.580906
    168         -0.025328   0.578864
    169         -0.024872   0.576338
    170         -0.024536   0.574478
    171         -0.024425   0.573860
    172         -0.024222   0.572733
    173         -0.023749   0.570110
    174         -0.023184   0.566966
    175         -0.022975   0.565805
    176         -0.022853   0.565129
    177         -0.022451   0.562885
    178         -0.022207   0.561526
    179         -0.021752   0.558993
    180         -0.021508   0.557627
    181         -0.021188   0.555839
    182         -0.020844   0.553916
    183         -0.020590   0.552496
    184         -0.020248   0.550582
    185         -0.019952   0.548926
    186         -0.019701   0.547522
    187         -0.019274   0.545132
    188         -0.018960   0.543371
    189         -0.018648   0.541620
    190         -0.018473   0.540636
    191         -0.018096   0.538521
    192         -0.017935   0.537614
    193         -0.017820   0.536969
    194         -0.017576   0.535599
    195         -0.017244   0.533730
    196         -0.016731   0.530847
    197         -0.016608   0.530157
    198         -0.016256   0.528173
    199         -0.016119   0.527404
    200         -0.015860   0.525946
    201         -0.015587   0.524409
    202         -0.015217   0.522328
    203         -0.014991   0.521051
    204         -0.014889   0.520476
    205         -0.014693   0.519372
    206         -0.014440   0.517948
    207         -0.014289   0.517096
    208         -0.014177   0.516464
    209         -0.013729   0.513937
    210         -0.013659   0.513547
    211         -0.013268   0.511340
    212         -0.013214   0.511034
    213         -0.012988   0.509762
    214         -0.012815   0.508786
    215         -0.012691   0.508088
    216         -0.012454   0.506751
    217         -0.012201   0.505318
    218         -0.012010   0.504246
    219         -0.011678   0.502369
    220         -0.011642   0.502165
    221         -0.011416   0.500891
    222         -0.011186   0.499595
    223         -0.010892   0.497933
    224         -0.010817   0.497513
    225         -0.010653   0.496589
    226         -0.010377   0.495033
    227         -0.010248   0.494303
    228         -0.010059   0.493239
    229         -0.009879   0.492223
    230         -0.009776   0.491639
    231         -0.009493   0.490044
    232         -0.009269   0.488780
    233         -0.009160   0.488163
    234         -0.008949   0.486976
    235         -0.008763   0.485929
    236         -0.008695   0.485544
    237         -0.008539   0.484663
    238         -0.008378   0.483757
    239         -0.008250   0.483032
    240         -0.008057   0.481947
    241         -0.007842   0.480737
    242         -0.007604   0.479392
    243         -0.007527   0.478963
    244         -0.007310   0.477739
    245         -0.007259   0.477452
    246         -0.007188   0.477052
    247         -0.007088   0.476490
    248         -0.006867   0.475243
    249         -0.006776   0.474729
    250         -0.006566   0.473546
    251         -0.006341   0.472282
    252         -0.006157   0.471246
    253         -0.006047   0.470630
    254         -0.005939   0.470021
    255         -0.005802   0.469249
    256         -0.005611   0.468172
    257         -0.005514   0.467631
    258         -0.005396   0.466964
    259         -0.005238   0.466078
    260         -0.005182   0.465760
    261         -0.005098   0.465288
    262         -0.004941   0.464409
    263         -0.004825   0.463754
    264         -0.004628   0.462651
    265         -0.004502   0.461943
    266         -0.004406   0.461404
    267         -0.004296   0.460783
    268         -0.004082   0.459583
    269         -0.004039   0.459343
    270         -0.003969   0.458952
    271         -0.003746   0.457696
    272         -0.003703   0.457457
    273         -0.003667   0.457257
    274         -0.003486   0.456239
    275         -0.003450   0.456036
    276         -0.003261   0.454977
    277         -0.003215   0.454722
    278         -0.003124   0.454208
    279         -0.003010   0.453574
    280         -0.002896   0.452933
    281         -0.002813   0.452465
    282         -0.002724   0.451968
    283         -0.002610   0.451330
    284         -0.002517   0.450813
    285         -0.002457   0.450476
    286         -0.002414   0.450231
    287         -0.002343   0.449837
    288         -0.002117   0.448570
    289         -0.002019   0.448022
    290         -0.001918   0.447457
    291         -0.001844   0.447042
    292         -0.001761   0.446579
    293         -0.001690   0.446185
    294         -0.001586   0.445600
    295         -0.001532   0.445300
    296         -0.001409   0.444614
    297         -0.001335   0.444197
    298         -0.001286   0.443925
    299         -0.001146   0.443142
    300         -0.001063   0.442677
    301         -0.000956   0.442085
    302         -0.000858   0.441536
    303         -0.000794   0.441177
    304         -0.000713   0.440729
    305         -0.000615   0.440181
    306         -0.000544   0.439781
    307         -0.000474   0.439395
    308         -0.000374   0.438839
    309         -0.000246   0.438125
    310         -0.000175   0.437728
    311         -0.000099   0.437304
    312         -0.000056   0.437063
    313          0.000039   0.436536
    314          0.000090   0.436249
    315          0.000135   0.435998
    316          0.000241   0.435409
    317          0.000349   0.434808
    318          0.000441   0.434296
    319          0.000530   0.433799
    320          0.000584   0.433503
    321          0.000639   0.433194
    322          0.000787   0.432369
    323          0.000896   0.431766
    324          0.000938   0.431532
    325          0.001005   0.431161
    326          0.001139   0.430415
    327          0.001242   0.429843
    328          0.001306   0.429490
    329          0.001388   0.429031
    330          0.001470   0.428578
    331          0.001564   0.428057
    332          0.001643   0.427619
    333          0.001765   0.426937
    334          0.001834   0.426557
    335          0.001920   0.426082
    336          0.002035   0.425441
    337          0.002060   0.425305
    338          0.002164   0.424725
    339          0.002339   0.423759
    340          0.002410   0.423364
    341          0.002530   0.422702
    342          0.002652   0.422026
    343          0.002678   0.421881
    344          0.002835   0.421012
    345          0.002973   0.420251
    346          0.003046   0.419844
    347          0.003153   0.419252
    348          0.003291   0.418495
    349          0.003420   0.417778
    350          0.003534   0.417150
    351          0.003652   0.416497
    352          0.003815   0.415601
    353          0.003942   0.414898
    354          0.004030   0.414413
    355          0.004146   0.413773
    356          0.004236   0.413278
    357          0.004512   0.411759
    358          0.004621   0.411160
    359          0.004770   0.410342
    360          0.004872   0.409782
    361          0.004993   0.409113
    362          0.005179   0.408091
    363          0.005362   0.407086
    364          0.005502   0.406322
    365          0.005620   0.405676
    366          0.005666   0.405419
    367          0.005828   0.404535
    368          0.005882   0.404236
    369          0.006159   0.402719
    370          0.006222   0.402377
    371          0.006339   0.401738
    372          0.006448   0.401138
    373          0.006573   0.400454
    374          0.006886   0.398745
    375          0.007063   0.397780
    376          0.007269   0.396655
    377          0.007391   0.395993
    378          0.007644   0.394616
    379          0.007812   0.393698
    380          0.007948   0.392959
    381          0.008261   0.391259
    382          0.008381   0.390610
    383          0.008521   0.389847
    384          0.008689   0.388937
    385          0.008898   0.387804
    386          0.009247   0.385915
    387          0.009463   0.384747
    388          0.009630   0.383847
    389          0.009899   0.382395
    390          0.010043   0.381616
    391          0.010333   0.380054
    392          0.010498   0.379164
    393          0.010831   0.377375
    394          0.011197   0.375410
    395          0.011262   0.375063
    396          0.011500   0.373785
    397          0.011987   0.371179
    398          0.012140   0.370360
    399          0.012555   0.368148
    400          0.012876   0.366440
    401          0.013259   0.364400
    402          0.013463   0.363315
    403          0.013676   0.362189
    404          0.013908   0.360958
    405          0.014204   0.359391
    406          0.014911   0.355658
    407          0.015047   0.354943
    408          0.015456   0.352795
    409          0.015942   0.350246
    410          0.016407   0.347812
    411          0.016616   0.346717
    412          0.016840   0.345550
    413          0.017672   0.341221
    414          0.018090   0.339055
    415          0.019153   0.333573
    416          0.019780   0.330350
    417          0.020153   0.328443
    418          0.020724   0.325531
    419          0.021866   0.319733
    420          0.022511   0.316479
    421          0.023161   0.313216
    422          0.023454   0.311748
    423          0.024070   0.308675
    424          0.024458   0.306745
    425          0.025612   0.301039
    426          0.026111   0.298586
    427          0.026971   0.294379
    428          0.027472   0.291943
    429          0.029221   0.283507
    430          0.029641   0.281498
    431          0.030754   0.276212
    432          0.031682   0.271836
    433          0.032750   0.266852
    434          0.033895   0.261556
    435          0.034886   0.257014
    436          0.036601   0.249256
    437          0.036997   0.247483
    438          0.040458   0.232275
    439          0.043024   0.221342
    440          0.043328   0.220069
    441          0.044357   0.215782
    442          0.045825   0.209755
    443          0.046973   0.205108
    444          0.049824   0.193843
    445          0.050295   0.192018
    446          0.053020   0.181669
    447          0.055778   0.171556
    448          0.056727   0.168164
    449          0.059140   0.159726
    450          0.063902   0.143909
    451          0.065781   0.137968
    452          0.068113   0.130832
    453          0.071620   0.120585
    454          0.075851   0.108993
    455          0.080055   0.098291
    456          0.081947   0.093732
    457          0.084414   0.088026
    458          0.091925   0.072251
    459          0.096397   0.063945
    460          0.100885   0.056376
    461          0.104859   0.050280
    462          0.115522   0.036491
    463          0.126609   0.025604
    464          0.132639   0.020925
    465          0.139874   0.016286
    466          0.150904   0.010915
    467          0.166689   0.005926
    468          0.177565   0.003789
    469          0.181998   0.003138
    470          0.191658   0.002055
    471          0.206702   0.001027
    472          0.213240   0.000749
    473          0.232277   0.000286
    474          0.238080   0.000211
    475          0.255743   0.000080
    476          0.283140   0.000016
    477          0.296409   0.000007
    478          0.310907   0.000003
    479          0.332257   0.000001
    480          0.347739   0.000000
    481          0.365449   0.000000
    482          0.388732   0.000000
    483          0.417406   0.000000
    484          0.468931   0.000000
    485          0.511614   0.000000
    486          0.548149   0.000000
    487          0.621622   0.000000
    488          0.685545   0.000000
    489          0.824082   0.000000
    490          0.922571   0.000000
    491          1.063810   0.000000
    492          1.247512   0.000000
    493          1.544524   0.000000
    494          2.105165   0.000000
    495          2.687994   0.000000
    496          3.051274   0.000000
    497          3.172084   0.000000
    498          3.919237   0.000000
    499          6.346849   0.000000
    500          7.445179   0.000000
    501          8.106757   0.000000
    502         12.373985   0.000000
    503         13.991178   0.000000
    504         17.717309   0.000000
    505         26.740972   0.000000
    506         47.143723   0.000000
    507         53.792447   0.000000
    508         58.166812   0.000000
    509         90.266337   0.000000
    510        257.694978   0.000000
    511        286.920704   0.000000
    512        417.626150   0.000000
    513        709.855502   0.000000
    514       1183.050093   0.000000
    515       1202.667748   0.000000
    516       1639.633448   0.000000
    517       2078.029625   0.000000
    518       2455.724720   0.000000
    519       3343.460310   0.000000
    520       3523.366249   0.000000
    521       4782.544419   0.000000
    522       5533.311490   0.000000
    523       9763.408684   0.000000
    524      12129.165161   0.000000
    525      15762.595452   0.000000
    526      18191.287970   0.000000
    527      21659.449197   0.000000
    528      23952.958543   0.000000
 
  0.3750000E+00  0.1278491E-14  0.1276756E-14  0.1666667E+00
      1        -21.559911   1.000000
      2        -21.444845   1.000000
      3        -21.386830   1.000000
      4        -21.299333   1.000000
      5        -21.260626   1.000000
      6        -21.222075   1.000000
      7        -21.185048   1.000000
      8        -21.114299   1.000000
      9        -21.038409   1.000000
     10        -20.978635   1.000000
     11        -20.957873   1.000000
     12        -20.929300   1.000000
     13        -20.875079   1.000000
     14        -20.836568   1.000000
     15        -20.771622   1.000000
     16        -20.760565   1.000000
     17        -20.669512   1.000000
     18        -20.639802   1.000000
     19        -20.614983   1.000000
     20        -20.552943   1.000000
     21        -20.491669   1.000000
     22        -20.466553   1.000000
     23        -20.441384   1.000000
     24        -20.404947   1.000000
     25        -20.348981   1.000000
     26        -20.309369   1.000000
     27        -20.257951   1.000000
     28        -20.223204   1.000000
     29        -20.116070   1.000000
     30        -20.065750   1.000000
     31        -20.020592   1.000000
     32        -19.979524   1.000000
     33        -19.905980   1.000000
     34        -19.843621   1.000000
     35        -19.680829   1.000000
     36        -19.520651   1.000000
     37        -18.569727   1.000000
     38        -18.486267   1.000000
     39        -18.444451   1.000000
     40        -18.382388   1.000000
     41        -18.368995   1.000000
     42        -18.332382   1.000000
     43        -18.310447   1.000000
     44        -18.241354   1.000000
     45        -18.221368   1.000000
     46        -18.204596   1.000000
     47        -18.173683   1.000000
     48        -18.137163   1.000000
     49        -18.118486   1.000000
     50        -18.095894   1.000000
     51        -18.061862   1.000000
     52        -18.014018   1.000000
     53        -17.986455   1.000000
     54        -17.940908   1.000000
     55        -17.913909   1.000000
     56        -17.885765   1.000000
     57        -17.855767   1.000000
     58        -17.819489   1.000000
     59        -17.777598   1.000000
     60        -17.686918   1.000000
     61        -17.661249   1.000000
     62        -17.610543   1.000000
     63        -17.592719   1.000000
     64        -17.565387   1.000000
     65        -17.520146   1.000000
     66        -17.473823   1.000000
     67        -17.451906   1.000000
     68        -17.375895   1.000000
     69        -17.305580   1.000000
     70        -17.269317   1.000000
     71        -17.203337   1.000000
     72        -17.044215   1.000000
     73        -16.755319   1.000000
     74        -16.718171   1.000000
     75        -16.701692   1.000000
     76        -16.636664   1.000000
     77        -16.587995   1.000000
     78        -16.524077   1.000000
     79        -16.500099   1.000000
     80        -16.491539   1.000000
     81        -16.448586   1.000000
     82        -16.440483   1.000000
     83        -16.384936   1.000000
     84        -16.365627   1.000000
     85        -16.317949   1.000000
     86        -16.280375   1.000000
     87        -16.271290   1.000000
     88        -16.242677   1.000000
     89        -16.192375   1.000000
     90        -16.172451   1.000000
     91        -16.156095   1.000000
     92        -16.140019   1.000000
     93        -16.100334   1.000000
     94        -16.016525   1.000000
     95        -15.997384   1.000000
     96        -15.935875   1.000000
     97        -15.916929   1.000000
     98        -15.897205   1.000000
     99        -15.843045   1.000000
    100        -15.825544   1.000000
    101        -15.748389   1.000000
    102        -15.723808   1.000000
    103        -15.711401   1.000000
    104        -15.704058   1.000000
    105        -15.637933   1.000000
    106        -15.618527   1.000000
    107        -15.590389   1.000000
    108        -15.550961   1.000000
    109        -15.501824   1.000000
    110        -15.483349   1.000000
    111        -15.471534   1.000000
    112        -15.450751   1.000000
    113        -15.430094   1.000000
    114        -15.397372   1.000000
    115        -15.349323   1.000000
    116        -15.340177   1.000000
    117        -15.330899   1.000000
    118        -15.304127   1.000000
    119        -15.257320   1.000000
    120        -15.228647   1.000000
    121        -15.209744   1.000000
    122        -15.187293   1.000000
    123        -15.174664   1.000000
    124        -15.141362   1.000000
    125        -15.087425   1.000000
    126        -15.046958   1.000000
    127        -14.983569   1.000000
    128        -14.921578   1.000000
    129        -14.843498   1.000000
    130        -14.642169   1.000000
    131        -14.390460   1.000000
    132        -14.305881   1.000000
    133        -14.293229   1.000000
    134        -14.241278   1.000000
    135        -14.160351   1.000000
    136        -14.145329   1.000000
    137        -14.143744   1.000000
    138        -14.111654   1.000000
    139        -14.098814   1.000000
    140        -14.078751   1.000000
    141        -14.043927   1.000000
    142        -14.018816   1.000000
    143        -13.975290   1.000000
    144        -13.968874   1.000000
    145        -13.959950   1.000000
    146        -13.906650   1.000000
    147        -13.885383   1.000000
    148        -13.858403   1.000000
    149        -13.820254   1.000000
    150        -13.701412   1.000000
    151        -13.622004   1.000000
    152        -13.566247   1.000000
    153        -13.554273   1.000000
    154        -13.532346   1.000000
    155        -13.510747   1.000000
    156        -13.484665   1.000000
    157        -13.476763   1.000000
    158        -13.443005   1.000000
    159        -13.422596   1.000000
    160        -13.400989   1.000000
    161        -13.371260   1.000000
    162        -13.354175   1.000000
    163        -13.325389   1.000000
    164        -13.309234   1.000000
    165        -13.298649   1.000000
    166        -13.248028   1.000000
    167        -13.230537   1.000000
    168        -13.207449   1.000000
    169        -13.194625   1.000000
    170        -13.172301   1.000000
    171        -13.154604   1.000000
    172        -13.129730   1.000000
    173        -13.086087   1.000000
    174        -13.059675   1.000000
    175        -13.015218   1.000000
    176        -13.002032   1.000000
    177        -12.988608   1.000000
    178        -12.958041   1.000000
    179        -12.949154   1.000000
    180        -12.928825   1.000000
    181        -12.917901   1.000000
    182        -12.884065   1.000000
    183        -12.876379   1.000000
    184        -12.862958   1.000000
    185        -12.813921   1.000000
    186        -12.768710   1.000000
    187        -12.738020   1.000000
    188        -12.725857   1.000000
    189        -12.705719   1.000000
    190        -12.648100   1.000000
    191        -12.628431   1.000000
    192        -12.591708   1.000000
    193        -12.534342   1.000000
    194        -12.502345   1.000000
    195        -12.442983   1.000000
    196        -12.391029   1.000000
    197        -12.331156   1.000000
    198        -12.311459   1.000000
    199        -12.261349   1.000000
    200        -12.238068   1.000000
    201        -12.225142   1.000000
    202        -12.214654   1.000000
    203        -12.177034   1.000000
    204        -12.144417   1.000000
    205        -12.115212   1.000000
    206        -12.102629   1.000000
    207        -12.088873   1.000000
    208        -12.059398   1.000000
    209        -12.041600   1.000000
    210        -12.022159   1.000000
    211        -11.970802   1.000000
    212        -11.946450   1.000000
    213        -11.936587   1.000000
    214        -11.906085   1.000000
    215        -11.878621   1.000000
    216        -11.847029   1.000000
    217        -11.835679   1.000000
    218        -11.778924   1.000000
    219        -11.759687   1.000000
    220        -11.731172   1.000000
    221        -11.690577   1.000000
    222        -11.661132   1.000000
    223        -11.639499   1.000000
    224        -11.632211   1.000000
    225        -11.609048   1.000000
    226        -11.602300   1.000000
    227        -11.584176   1.000000
    228        -11.564468   1.000000
    229        -11.552021   1.000000
    230        -11.539454   1.000000
    231        -11.516392   1.000000
    232        -11.507109   1.000000
    233        -11.485072   1.000000
    234        -11.459210   1.000000
    235        -11.443766   1.000000
    236        -11.412145   1.000000
    237        -11.390860   1.000000
    238        -11.371519   1.000000
    239        -11.315581   1.000000
    240        -11.299115   1.000000
    241        -11.288104   1.000000
    242        -11.278764   1.000000
    243        -11.259367   1.000000
    244        -11.247958   1.000000
    245        -11.227109   1.000000
    246        -11.191089   1.000000
    247        -11.182791   1.000000
    248        -11.170786   1.000000
    249        -11.144198   1.000000
    250        -11.130269   1.000000
    251        -11.126760   1.000000
    252        -11.109426   1.000000
    253        -11.081345   1.000000
    254        -11.051591   1.000000
    255        -11.035081   1.000000
    256        -11.021548   1.000000
    257        -10.998579   1.000000
    258        -10.987067   1.000000
    259        -10.965062   1.000000
    260        -10.929993   1.000000
    261        -10.908635   1.000000
    262        -10.875793   1.000000
    263        -10.852120   1.000000
    264        -10.838053   1.000000
    265        -10.817646   1.000000
    266        -10.793025   1.000000
    267        -10.782732   1.000000
    268        -10.759666   1.000000
    269        -10.733738   1.000000
    270        -10.704773   1.000000
    271        -10.682978   1.000000
    272        -10.661185   1.000000
    273        -10.655140   1.000000
    274        -10.644473   1.000000
    275        -10.629664   1.000000
    276        -10.602619   1.000000
    277        -10.589269   1.000000
    278        -10.581041   1.000000
    279        -10.571546   1.000000
    280        -10.543228   1.000000
    281        -10.533213   1.000000
    282        -10.523370   1.000000
    283        -10.492688   1.000000
    284        -10.477181   1.000000
    285        -10.462185   1.000000
    286        -10.446909   1.000000
    287        -10.437227   1.000000
    288        -10.385546   1.000000
    289        -10.368088   1.000000
    290        -10.350211   1.000000
    291        -10.328595   1.000000
    292        -10.318392   1.000000
    293        -10.294294   1.000000
    294        -10.284571   1.000000
    295        -10.268115   1.000000
    296        -10.258907   1.000000
    297        -10.252535   1.000000
    298        -10.232879   1.000000
    299        -10.222666   1.000000
    300        -10.211323   1.000000
    301        -10.199685   1.000000
    302        -10.180879   1.000000
    303        -10.158763   1.000000
    304        -10.144438   1.000000
    305        -10.080025   1.000000
    306        -10.048982   1.000000
    307        -10.021637   1.000000
    308         -9.985230   1.000000
    309         -9.981215   1.000000
    310         -9.929683   1.000000
    311         -9.868063   1.000000
    312         -9.854285   1.000000
    313         -9.834926   1.000000
    314         -9.807188   1.000000
    315         -9.794006   1.000000
    316         -9.765955   1.000000
    317         -9.742520   1.000000
    318         -9.725761   1.000000
    319         -9.689501   1.000000
    320         -9.600679   1.000000
    321         -9.594839   1.000000
    322         -9.558107   1.000000
    323         -9.541454   1.000000
    324         -9.521097   1.000000
    325         -9.499905   1.000000
    326         -9.485254   1.000000
    327         -9.403393   1.000000
    328         -9.368250   1.000000
    329         -9.352963   1.000000
    330         -9.316283   1.000000
    331         -9.288909   1.000000
    332         -9.258188   1.000000
    333         -9.200325   1.000000
    334         -9.196762   1.000000
    335         -9.167707   1.000000
    336         -9.146814   1.000000
    337         -9.134219   1.000000
    338         -9.116827   1.000000
    339         -9.100831   1.000000
    340         -9.061767   1.000000
    341         -9.046994   1.000000
    342         -9.033504   1.000000
    343         -9.015043   1.000000
    344         -8.986531   1.000000
    345         -8.967224   1.000000
    346         -8.956956   1.000000
    347         -8.950095   1.000000
    348         -8.921755   1.000000
    349         -8.905689   1.000000
    350         -8.888384   1.000000
    351         -8.847831   1.000000
    352         -8.828926   1.000000
    353         -8.814975   1.000000
    354         -8.787048   1.000000
    355         -8.775149   1.000000
    356         -8.742515   1.000000
    357         -8.722100   1.000000
    358         -8.716174   1.000000
    359         -8.699453   1.000000
    360         -8.673211   1.000000
    361         -8.659547   1.000000
    362         -8.635544   1.000000
    363         -8.628847   1.000000
    364         -8.614449   1.000000
    365         -8.580691   1.000000
    366         -8.533596   1.000000
    367         -8.517108   1.000000
    368         -8.475730   1.000000
    369         -8.436261   1.000000
    370         -8.345611   1.000000
    371         -8.302183   1.000000
    372         -8.281487   1.000000
    373         -8.258593   1.000000
    374         -8.231383   1.000000
    375         -8.214195   1.000000
    376         -8.089329   1.000000
    377         -8.048227   1.000000
    378         -7.965117   1.000000
    379         -7.899890   1.000000
    380         -7.849701   1.000000
    381         -7.798512   1.000000
    382         -7.729357   1.000000
    383         -7.715048   1.000000
    384         -7.663535   1.000000
    385         -7.642833   1.000000
    386         -7.525137   1.000000
    387         -7.478187   1.000000
    388         -7.462032   1.000000
    389         -7.423842   1.000000
    390         -7.349972   1.000000
    391         -7.336778   1.000000
    392         -7.313547   1.000000
    393         -7.177879   1.000000
    394         -7.096125   1.000000
    395         -6.908653   1.000000
    396         -6.715011   1.000000
    397         -6.111414   1.000000
    398         -6.042248   1.000000
    399         -5.937422   1.000000
    400         -5.916695   1.000000
    401         -5.879932   1.000000
    402         -5.816881   1.000000
    403         -5.797101   1.000000
    404         -5.744977   1.000000
    405         -5.737793   1.000000
    406         -5.731849   1.000000
    407         -5.680610   1.000000
    408         -5.630403   1.000000
    409         -5.613587   1.000000
    410         -5.581644   1.000000
    411         -5.496162   1.000000
    412         -5.483487   1.000000
    413         -5.455227   1.000000
    414         -5.397160   1.000000
    415         -5.386085   1.000000
    416         -5.317664   1.000000
    417         -5.293091   1.000000
    418         -5.259101   1.000000
    419         -5.165395   1.000000
    420         -5.085587   1.000000
    421         -5.042482   1.000000
    422         -5.003563   1.000000
    423         -4.971229   1.000000
    424         -4.882601   1.000000
    425         -4.836185   1.000000
    426         -4.803061   1.000000
    427         -4.748280   1.000000
    428         -4.715034   1.000000
    429         -4.693653   1.000000
    430         -4.561873   1.000000
    431         -4.550462   1.000000
    432         -4.502021   1.000000
    433         -4.433976   1.000000
    434         -4.415995   1.000000
    435         -4.354949   1.000000
    436         -4.283942   1.000000
    437         -4.241396   1.000000
    438         -4.215958   1.000000
    439         -4.167552   1.000000
    440         -4.150776   1.000000
    441         -4.139470   1.000000
    442         -4.115864   1.000000
    443         -4.105926   1.000000
    444         -4.084306   1.000000
    445         -3.990328   1.000000
    446         -3.966037   1.000000
    447         -3.946618   1.000000
    448         -3.931857   1.000000
    449         -3.874978   1.000000
    450         -3.864630   1.000000
    451         -3.850182   1.000000
    452         -3.809974   1.000000
    453         -3.768125   1.000000
    454         -3.749434   1.000000
    455         -3.732427   1.000000
    456         -3.722126   1.000000
    457         -3.710352   1.000000
    458         -3.676968   1.000000
    459         -3.652153   1.000000
    460         -3.641368   1.000000
    461         -3.620020   1.000000
    462         -3.593522   1.000000
    463         -3.563681   1.000000
    464         -3.551500   1.000000
    465         -3.536200   1.000000
    466         -3.502475   1.000000
    467         -3.434154   1.000000
    468         -3.406571   1.000000
    469         -3.335747   1.000000
    470         -3.321813   1.000000
    471         -3.293492   1.000000
    472         -3.253442   1.000000
    473         -3.229004   1.000000
    474         -3.202146   1.000000
    475         -3.181494   1.000000
    476         -3.167955   1.000000
    477         -3.152610   1.000000
    478         -3.016888   1.000000
    479         -3.003462   1.000000
    480         -2.971559   1.000000
    481         -2.954360   1.000000
    482         -2.943015   1.000000
    483         -2.909240   1.000000
    484         -2.897162   1.000000
    485         -2.758898   1.000000
    486         -2.684721   1.000000
    487         -2.666659   1.000000
    488         -2.615191   1.000000
    489         -2.600335   1.000000
    490         -2.586749   1.000000
    491         -2.555381   1.000000
    492         -2.540904   1.000000
    493         -2.525610   1.000000
    494         -2.494211   1.000000
    495         -2.482972   1.000000
    496         -2.469876   1.000000
    497         -2.456261   1.000000
    498         -2.408510   1.000000
    499         -2.370990   1.000000
    500         -2.353096   1.000000
    501         -2.311709   1.000000
    502         -2.301913   1.000000
    503         -2.264555   1.000000
    504         -2.244543   1.000000
    505         -2.240923   1.000000
    506         -2.224100   1.000000
    507         -2.211868   1.000000
    508         -2.189927   1.000000
    509         -2.171292   1.000000
    510         -2.144573   1.000000
    511         -2.136023   1.000000
    512         -2.114636   1.000000
    513         -2.100040   1.000000
    514         -2.085457   1.000000
    515         -2.060073   1.000000
    516         -2.035224   1.000000
    517         -2.007391   1.000000
    518         -1.992778   1.000000
    519         -1.983174   1.000000
    520         -1.971023   1.000000
    521         -1.946672   1.000000
    522         -1.925208   1.000000
    523         -1.901891   1.000000
    524         -1.850798   1.000000
    525         -1.800860   1.000000
    526         -1.723721   1.000000
    527         -1.704706   1.000000
    528         -1.683305   1.000000
 
  0.1250000E+00  0.3333333E+00  0.1276756E-14  0.1666667E+00
      1    -384068.035732   1.000000
      2     -66986.348102   1.000000
      3     -44962.754807   1.000000
      4     -22125.606578   1.000000
      5     -18510.516617   1.000000
      6     -16244.365564   1.000000
      7     -13344.850806   1.000000
      8     -11505.207612   1.000000
      9      -8489.662351   1.000000
     10      -7862.951556   1.000000
     11      -6945.063745   1.000000
     12      -5552.239308   1.000000
     13      -4992.370369   1.000000
     14      -3468.185025   1.000000
     15      -2524.228205   1.000000
     16      -2357.090675   1.000000
     17      -2141.670746   1.000000
     18      -1803.493144   1.000000
     19      -1538.138884   1.000000
     20      -1056.729597   1.000000
     21       -772.015715   1.000000
     22       -708.945728   1.000000
     23       -676.994215   1.000000
     24       -534.997558   1.000000
     25       -505.093723   1.000000
     26       -465.095805   1.000000
     27       -388.568577   1.000000
     28       -373.351010   1.000000
     29       -330.412476   1.000000
     30       -296.148316   1.000000
     31       -287.756898   1.000000
     32       -253.866566   1.000000
     33       -229.735589   1.000000
     34       -220.211307   1.000000
     35       -196.129361   1.000000
     36       -190.582047   1.000000
     37       -176.371996   1.000000
     38       -158.359599   1.000000
     39       -154.195665   1.000000
     40       -139.563707   1.000000
     41       -134.731342   1.000000
     42       -127.437249   1.000000
     43       -112.795494   1.000000
     44       -101.204377   1.000000
     45        -86.785795   1.000000
     46        -84.237328   1.000000
     47        -80.261099   1.000000
     48        -75.105481   1.000000
     49        -73.406057   1.000000
     50        -68.939683   1.000000
     51        -64.191879   1.000000
     52        -60.321836   1.000000
     53        -58.580529   1.000000
     54        -55.870976   1.000000
     55        -51.560231   1.000000
     56        -48.532917   1.000000
     57        -45.609999   1.000000
     58        -41.864833   1.000000
     59        -40.625655   1.000000
     60        -38.027101   1.000000
     61        -35.509690   1.000000
     62        -34.159577   1.000000
     63        -31.841232   1.000000
     64        -29.677587   1.000000
     65        -28.953617   1.000000
     66        -27.901764   1.000000
     67        -27.152036   1.000000
     68        -26.324329   1.000000
     69        -25.411482   1.000000
     70        -25.187688   1.000000
     71        -24.044446   1.000000
     72        -23.180603   1.000000
     73        -22.832670   1.000000
     74        -22.150144   1.000000
     75        -21.570875   1.000000
     76        -21.300874   1.000000
     77        -20.750221   1.000000
     78        -20.216178   1.000000
     79        -19.937482   1.000000
     80        -19.612952   1.000000
     81        -19.275322   1.000000
     82        -18.614858   1.000000
     83        -18.383741   1.000000
     84        -17.696132   1.000000
     85        -17.306770   1.000000
     86        -16.999913   1.000000
     87        -16.371655   1.000000
     88        -16.008100   1.000000
     89        -15.549712   1.000000
     90        -15.385350   1.000000
     91        -15.198741   1.000000
     92        -14.384052   1.000000
     93        -14.260550   1.000000
     94        -13.819689   1.000000
     95        -13.647879   1.000000
     96        -13.126223   1.000000
     97        -12.822232   1.000000
     98        -12.270429   1.000000
     99        -12.139592   1.000000
    100        -11.936278   1.000000
    101        -11.377610   1.000000
    102        -10.885850   1.000000
    103        -10.492981   1.000000
    104        -10.273367   1.000000
    105         -9.931744   1.000000
    106         -9.633233   1.000000
    107         -9.421752   1.000000
    108         -8.997381   1.000000
    109         -8.500362   1.000000
    110         -8.190178   1.000000
    111         -7.981082   1.000000
    112         -7.936946   1.000000
    113         -7.585493   1.000000
    114         -7.384515   1.000000
    115         -7.199064   1.000000
    116         -7.098711   1.000000
    117         -6.971977   1.000000
    118         -6.790288   1.000000
    119         -6.282350   1.000000
    120         -5.935184   1.000000
    121         -5.714375   1.000000
    122         -5.389774   1.000000
    123         -5.103903   1.000000
    124         -5.016045   1.000000
    125         -4.760031   1.000000
    126         -4.633663   1.000000
    127         -4.413446   1.000000
    128         -4.303514   1.000000
    129         -4.071101   1.000000
    130         -3.949460   1.000000
    131         -3.818624   1.000000
    132         -3.737639   1.000000
    133         -3.594575   1.000000
    134         -3.467167   1.000000
    135         -3.283691   1.000000
    136         -3.203757   1.000000
    137         -3.029776   1.000000
    138         -2.975477   1.000000
    139         -2.910790   1.000000
    140         -2.871782   1.000000
    141         -2.753143   1.000000
    142         -2.693934   1.000000
    143         -2.519195   1.000000
    144         -2.425650   1.000000
    145         -2.393981   1.000000
    146         -2.282751   1.000000
    147         -2.208507   1.000000
    148         -2.127176   1.000000
    149         -2.015163   1.000000
    150         -1.978295   1.000000
    151         -1.923852   1.000000
    152         -1.896855   1.000000
    153         -1.823751   1.000000
    154         -1.704817   1.000000
    155         -1.672070   1.000000
    156         -1.626684   1.000000
    157         -1.578666   1.000000
    158         -1.549168   1.000000
    159         -1.471420   1.000000
    160         -1.455128   1.000000
    161         -1.372791   1.000000
    162         -1.331451   1.000000
    163         -1.272981   1.000000
    164         -1.214107   1.000000
    165         -1.178330   1.000000
    166         -1.152532   1.000000
    167         -1.081973   1.000000
    168         -1.057332   1.000000
    169         -1.031805   1.000000
    170         -0.994373   1.000000
    171         -0.990543   1.000000
    172         -0.951661   1.000000
    173         -0.921898   1.000000
    174         -0.916002   1.000000
    175         -0.883837   1.000000
    176         -0.858434   1.000000
    177         -0.830130   1.000000
    178         -0.803812   1.000000
    179         -0.795822   1.000000
    180         -0.750682   1.000000
    181         -0.725543   1.000000
    182         -0.700730   1.000000
    183         -0.685338   1.000000
    184         -0.675149   1.000000
    185         -0.655207   1.000000
    186         -0.639028   1.000000
    187         -0.596794   1.000000
    188         -0.585699   1.000000
    189         -0.577989   1.000000
    190         -0.559945   1.000000
    191         -0.547806   1.000000
    192         -0.536897   1.000000
    193         -0.517840   1.000000
    194         -0.500572   1.000000
    195         -0.486788   1.000000
    196         -0.471683   1.000000
    197         -0.452389   1.000000
    198         -0.435374   1.000000
    199         -0.424842   1.000000
    200         -0.414116   1.000000
    201         -0.402602   1.000000
    202         -0.389042   1.000000
    203         -0.382710   1.000000
    204         -0.373420   1.000000
    205         -0.361255   1.000000
    206         -0.352660   0.999999
    207         -0.334777   0.999998
    208         -0.327994   0.999996
    209         -0.314014   0.999991
    210         -0.305528   0.999984
    211         -0.294210   0.999969
    212         -0.292757   0.999966
    213         -0.282274   0.999937
    214         -0.270999   0.999880
    215         -0.264045   0.999825
    216         -0.254728   0.999713
    217         -0.248094   0.999595
    218         -0.240321   0.999401
    219         -0.232579   0.999126
    220         -0.222600   0.998600
    221         -0.216453   0.998145
    222         -0.210445   0.997576
    223         -0.206382   0.997105
    224         -0.203497   0.996723
    225         -0.199503   0.996118
    226         -0.194242   0.995170
    227         -0.188588   0.993926
    228         -0.184229   0.992781
    229         -0.178667   0.991046
    230         -0.173815   0.989245
    231         -0.169237   0.987264
    232         -0.163415   0.984294
    233         -0.161568   0.983236
    234         -0.154254   0.978425
    235         -0.149030   0.974316
    236         -0.142456   0.968232
    237         -0.137743   0.963174
    238         -0.133067   0.957524
    239         -0.128610   0.951503
    240         -0.125500   0.946913
    241         -0.123507   0.943794
    242         -0.120194   0.938291
    243         -0.116941   0.932490
    244         -0.111900   0.922675
    245         -0.109672   0.918007
    246         -0.106396   0.910760
    247         -0.102770   0.902198
    248         -0.100438   0.896382
    249         -0.096628   0.886345
    250         -0.093575   0.877815
    251         -0.091388   0.871438
    252         -0.088053   0.861270
    253         -0.084416   0.849576
    254         -0.082879   0.844439
    255         -0.079866   0.834044
    256         -0.075410   0.817864
    257         -0.073321   0.809948
    258         -0.072423   0.806481
    259         -0.067458   0.786631
    260         -0.063442   0.769740
    261         -0.060813   0.758290
    262         -0.058431   0.747655
    263         -0.057497   0.743417
    264         -0.055908   0.736125
    265         -0.052949   0.722270
    266         -0.050350   0.709818
    267         -0.048835   0.702437
    268         -0.046529   0.691044
    269         -0.043544   0.676018
    270         -0.041738   0.666787
    271         -0.040519   0.660493
    272         -0.038352   0.649201
    273         -0.036138   0.637530
    274         -0.035353   0.633355
    275         -0.031628   0.613356
    276         -0.030582   0.607680
    277         -0.028825   0.598100
    278         -0.027922   0.593156
    279         -0.025875   0.581882
    280         -0.024527   0.574427
    281         -0.023253   0.567350
    282         -0.021693   0.558660
    283         -0.018993   0.543557
    284         -0.017865   0.537222
    285         -0.016202   0.527872
    286         -0.014957   0.520860
    287         -0.013219   0.511061
    288         -0.012361   0.506225
    289         -0.010983   0.498449
    290         -0.009558   0.490412
    291         -0.009085   0.487744
    292         -0.008117   0.482287
    293         -0.006528   0.473334
    294         -0.005433   0.467175
    295         -0.004875   0.464036
    296         -0.004240   0.460471
    297         -0.002899   0.452950
    298         -0.002315   0.449677
    299         -0.000490   0.439483
    300          0.000499   0.433973
    301          0.001013   0.431113
    302          0.002194   0.424564
    303          0.003054   0.419802
    304          0.004558   0.411506
    305          0.005412   0.406815
    306          0.005914   0.404059
    307          0.006631   0.400141
    308          0.008300   0.391047
    309          0.009418   0.384989
    310          0.010470   0.379317
    311          0.011824   0.372051
    312          0.012720   0.367266
    313          0.013792   0.361573
    314          0.015298   0.353623
    315          0.016084   0.349502
    316          0.016952   0.344964
    317          0.017711   0.341022
    318          0.018181   0.338583
    319          0.019861   0.329938
    320          0.020401   0.327178
    321          0.021844   0.319847
    322          0.022253   0.317781
    323          0.022844   0.314806
    324          0.024834   0.304878
    325          0.025841   0.299909
    326          0.027431   0.292142
    327          0.028980   0.284663
    328          0.029910   0.280214
    329          0.030926   0.275398
    330          0.032415   0.268409
    331          0.033347   0.264083
    332          0.034914   0.256890
    333          0.036003   0.251949
    334          0.037031   0.247335
    335          0.041393   0.228257
    336          0.041719   0.226865
    337          0.042717   0.222638
    338          0.044008   0.217232
    339          0.046364   0.207564
    340          0.047491   0.203034
    341          0.049441   0.195331
    342          0.053143   0.181210
    343          0.054388   0.176606
    344          0.056575   0.168704
    345          0.058208   0.162953
    346          0.060343   0.155629
    347          0.061072   0.153178
    348          0.062912   0.147108
    349          0.066345   0.136217
    350          0.067845   0.131636
    351          0.070357   0.124207
    352          0.071359   0.121327
    353          0.072489   0.118135
    354          0.074078   0.113749
    355          0.074896   0.111537
    356          0.079211   0.100375
    357          0.082163   0.093222
    358          0.083839   0.089333
    359          0.086762   0.082842
    360          0.087577   0.081097
    361          0.088536   0.079078
    362          0.091901   0.072297
    363          0.093220   0.069766
    364          0.094964   0.066523
    365          0.099609   0.058453
    366          0.102489   0.053849
    367          0.105353   0.049560
    368          0.106562   0.047835
    369          0.110302   0.042796
    370          0.111587   0.041168
    371          0.113588   0.038733
    372          0.116371   0.035542
    373          0.119951   0.031757
    374          0.125751   0.026336
    375          0.127142   0.025158
    376          0.133351   0.020424
    377          0.138292   0.017217
    378          0.143405   0.014362
    379          0.146698   0.012747
    380          0.157256   0.008583
    381          0.161892   0.007168
    382          0.168407   0.005529
    383          0.178532   0.003637
    384          0.180640   0.003325
    385          0.186462   0.002586
    386          0.190866   0.002128
    387          0.202873   0.001230
    388          0.209671   0.000891
    389          0.225548   0.000406
    390          0.230132   0.000320
    391          0.243430   0.000158
    392          0.258211   0.000069
    393          0.270977   0.000033
    394          0.279695   0.000019
    395          0.289066   0.000011
    396          0.294486   0.000008
    397          0.317223   0.000002
    398          0.324899   0.000001
    399          0.346286   0.000000
    400          0.366999   0.000000
    401          0.378751   0.000000
    402          0.401301   0.000000
    403          0.405422   0.000000
    404          0.433136   0.000000
    405          0.448280   0.000000
    406          0.461347   0.000000
    407          0.503435   0.000000
    408          0.514908   0.000000
    409          0.536499   0.000000
    410          0.579757   0.000000
    411          0.606476   0.000000
    412          0.631829   0.000000
    413          0.690161   0.000000
    414          0.708552   0.000000
    415          0.755556   0.000000
    416          0.788175   0.000000
    417          0.871405   0.000000
    418          0.890483   0.000000
    419          0.956806   0.000000
    420          0.996515   0.000000
    421          1.062516   0.000000
    422          1.108781   0.000000
    423          1.168558   0.000000
    424          1.225694   0.000000
    425          1.272858   0.000000
    426          1.299177   0.000000
    427          1.405122   0.000000
    428          1.493383   0.000000
    429          1.527098   0.000000
    430          1.655498   0.000000
    431          1.759077   0.000000
    432          1.976226   0.000000
    433          2.041777   0.000000
    434          2.248810   0.000000
    435          2.352614   0.000000
    436          2.564623   0.000000
    437          2.592126   0.000000
    438          2.701296   0.000000
    439          2.916059   0.000000
    440          3.212073   0.000000
    441          3.345065   0.000000
    442          3.500510   0.000000
    443          3.623377   0.000000
    444          3.683683   0.000000
    445          3.988897   0.000000
    446          4.355000   0.000000
    447          4.882528   0.000000
    448          4.951587   0.000000
    449          5.545008   0.000000
    450          6.010148   0.000000
    451          6.263777   0.000000
    452          6.483832   0.000000
    453          7.010043   0.000000
    454          7.243024   0.000000
    455          7.542456   0.000000
    456          8.539025   0.000000
    457          9.055541   0.000000
    458          9.724313   0.000000
    459         10.133266   0.000000
    460         10.406072   0.000000
    461         10.739976   0.000000
    462         11.152890   0.000000
    463         11.799691   0.000000
    464         12.536482   0.000000
    465         13.203485   0.000000
    466         13.990660   0.000000
    467         14.909678   0.000000
    468         15.791809   0.000000
    469         16.839526   0.000000
    470         17.971821   0.000000
    471         19.384589   0.000000
    472         21.168624   0.000000
    473         22.042832   0.000000
    474         22.675085   0.000000
    475         24.655003   0.000000
    476         26.968906   0.000000
    477         27.490222   0.000000
    478         29.343978   0.000000
    479         32.372462   0.000000
    480         34.214963   0.000000
    481         36.992964   0.000000
    482         38.478501   0.000000
    483         45.027037   0.000000
    484         46.760705   0.000000
    485         49.176779   0.000000
    486         55.044989   0.000000
    487         59.889908   0.000000
    488         64.704927   0.000000
    489         67.047009   0.000000
    490         70.772255   0.000000
    491         77.399293   0.000000
    492         80.139986   0.000000
    493         98.438013   0.000000
    494        112.184102   0.000000
    495        129.059385   0.000000
    496        140.802025   0.000000
    497        149.250900   0.000000
    498        181.211396   0.000000
    499        193.575925   0.000000
    500        210.147609   0.000000
    501        217.264510   0.000000
    502        258.550982   0.000000
    503        284.035418   0.000000
    504        306.416254   0.000000
    505        319.745651   0.000000
    506        343.318115   0.000000
    507        387.492687   0.000000
    508        422.456955   0.000000
    509        452.418970   0.000000
    510        658.863909   0.000000
    511        855.395275   0.000000
    512       1048.158021   0.000000
    513       1165.343936   0.000000
    514       1436.130730   0.000000
    515       1583.444955   0.000000
    516       2060.837747   0.000000
    517       2190.040964   0.000000
    518       2593.589116   0.000000
    519       4497.885180   0.000000
    520       5296.636336   0.000000
    521       6094.309993   0.000000
    522       7132.499379   0.000000
    523      10277.341763   0.000000
    524      11428.373006   0.000000
    525      14510.515859   0.000000
    526      17968.784867   0.000000
    527      21415.883258   0.000000
    528      45505.118532   0.000000
 
  0.3750000E+00  0.3333333E+00  0.1276756E-14  0.1666667E+00
      1        -21.547777   1.000000
      2        -21.435828   1.000000
      3        -21.423676   1.000000
      4        -21.335338   1.000000
      5        -21.243350   1.000000
      6        -21.189043   1.000000
      7        -21.157135   1.000000
      8        -21.111795   1.000000
      9        -21.050135   1.000000
     10        -21.000805   1.000000
     11        -20.971608   1.000000
     12        -20.917048   1.000000
     13        -20.883289   1.000000
     14        -20.805727   1.000000
     15        -20.758669   1.000000
     16        -20.735012   1.000000
     17        -20.670228   1.000000
     18        -20.634970   1.000000
     19        -20.625401   1.000000
     20        -20.571120   1.000000
     21        -20.543154   1.000000
     22        -20.506901   1.000000
     23        -20.453706   1.000000
     24        -20.394531   1.000000
     25        -20.322633   1.000000
     26        -20.300594   1.000000
     27        -20.253912   1.000000
     28        -20.183519   1.000000
     29        -20.143098   1.000000
     30        -20.104929   1.000000
     31        -20.036152   1.000000
     32        -19.943893   1.000000
     33        -19.881841   1.000000
     34        -19.755959   1.000000
     35        -19.684901   1.000000
     36        -19.598167   1.000000
     37        -18.653891   1.000000
     38        -18.512139   1.000000
     39        -18.431363   1.000000
     40        -18.389086   1.000000
     41        -18.323209   1.000000
     42        -18.315527   1.000000
     43        -18.270220   1.000000
     44        -18.230190   1.000000
     45        -18.212231   1.000000
     46        -18.189882   1.000000
     47        -18.175138   1.000000
     48        -18.148401   1.000000
     49        -18.059325   1.000000
     50        -18.047950   1.000000
     51        -18.029560   1.000000
     52        -18.020657   1.000000
     53        -17.985426   1.000000
     54        -17.957774   1.000000
     55        -17.917563   1.000000
     56        -17.906349   1.000000
     57        -17.823716   1.000000
     58        -17.790454   1.000000
     59        -17.776110   1.000000
     60        -17.754347   1.000000
     61        -17.709090   1.000000
     62        -17.690893   1.000000
     63        -17.602495   1.000000
     64        -17.558683   1.000000
     65        -17.509668   1.000000
     66        -17.478782   1.000000
     67        -17.469369   1.000000
     68        -17.410641   1.000000
     69        -17.374048   1.000000
     70        -17.340364   1.000000
     71        -17.164513   1.000000
     72        -17.091597   1.000000
     73        -16.709813   1.000000
     74        -16.622859   1.000000
     75        -16.596714   1.000000
     76        -16.566415   1.000000
     77        -16.524004   1.000000
     78        -16.487892   1.000000
     79        -16.421289   1.000000
     80        -16.408954   1.000000
     81        -16.391535   1.000000
     82        -16.363791   1.000000
     83        -16.346579   1.000000
     84        -16.285487   1.000000
     85        -16.274933   1.000000
     86        -16.268291   1.000000
     87        -16.240374   1.000000
     88        -16.219225   1.000000
     89        -16.212922   1.000000
     90        -16.189431   1.000000
     91        -16.178336   1.000000
     92        -16.153867   1.000000
     93        -16.137714   1.000000
     94        -16.124735   1.000000
     95        -16.089521   1.000000
     96        -16.039663   1.000000
     97        -16.015006   1.000000
     98        -15.996014   1.000000
     99        -15.975406   1.000000
    100        -15.922130   1.000000
    101        -15.906122   1.000000
    102        -15.892655   1.000000
    103        -15.820276   1.000000
    104        -15.803690   1.000000
    105        -15.685500   1.000000
    106        -15.642172   1.000000
    107        -15.569931   1.000000
    108        -15.540595   1.000000
    109        -15.526266   1.000000
    110        -15.502800   1.000000
    111        -15.463845   1.000000
    112        -15.427787   1.000000
    113        -15.387735   1.000000
    114        -15.359539   1.000000
    115        -15.332927   1.000000
    116        -15.262678   1.000000
    117        -15.236103   1.000000
    118        -15.223050   1.000000
    119        -15.176997   1.000000
    120        -15.151526   1.000000
    121        -15.118621   1.000000
    122        -15.110497   1.000000
    123        -15.081602   1.000000
    124        -14.984779   1.000000
    125        -14.923226   1.000000
    126        -14.904941   1.000000
    127        -14.874525   1.000000
    128        -14.835227   1.000000
    129        -14.807665   1.000000
    130        -14.762324   1.000000
    131        -14.584992   1.000000
    132        -14.546351   1.000000
    133        -14.455776   1.000000
    134        -14.386243   1.000000
    135        -14.322397   1.000000
    136        -14.276025   1.000000
    137        -14.235641   1.000000
    138        -14.173872   1.000000
    139        -14.088693   1.000000
    140        -14.085234   1.000000
    141        -14.065360   1.000000
    142        -14.054115   1.000000
    143        -14.021152   1.000000
    144        -13.973836   1.000000
    145        -13.907578   1.000000
    146        -13.837664   1.000000
    147        -13.823305   1.000000
    148        -13.765589   1.000000
    149        -13.717165   1.000000
    150        -13.709930   1.000000
    151        -13.677730   1.000000
    152        -13.638751   1.000000
    153        -13.607334   1.000000
    154        -13.582848   1.000000
    155        -13.536125   1.000000
    156        -13.511016   1.000000
    157        -13.492878   1.000000
    158        -13.378785   1.000000
    159        -13.366032   1.000000
    160        -13.322028   1.000000
    161        -13.303525   1.000000
    162        -13.250898   1.000000
    163        -13.244950   1.000000
    164        -13.227496   1.000000
    165        -13.210350   1.000000
    166        -13.180947   1.000000
    167        -13.168991   1.000000
    168        -13.150273   1.000000
    169        -13.143743   1.000000
    170        -13.109578   1.000000
    171        -13.069375   1.000000
    172        -13.041746   1.000000
    173        -13.026419   1.000000
    174        -13.010346   1.000000
    175        -12.986178   1.000000
    176        -12.978396   1.000000
    177        -12.942552   1.000000
    178        -12.926763   1.000000
    179        -12.899497   1.000000
    180        -12.879053   1.000000
    181        -12.852330   1.000000
    182        -12.845472   1.000000
    183        -12.829506   1.000000
    184        -12.806517   1.000000
    185        -12.804799   1.000000
    186        -12.782375   1.000000
    187        -12.777450   1.000000
    188        -12.739109   1.000000
    189        -12.724916   1.000000
    190        -12.698704   1.000000
    191        -12.687660   1.000000
    192        -12.657463   1.000000
    193        -12.592113   1.000000
    194        -12.547202   1.000000
    195        -12.526711   1.000000
    196        -12.450072   1.000000
    197        -12.401410   1.000000
    198        -12.388542   1.000000
    199        -12.355658   1.000000
    200        -12.334560   1.000000
    201        -12.317252   1.000000
    202        -12.299886   1.000000
    203        -12.289449   1.000000
    204        -12.254698   1.000000
    205        -12.233812   1.000000
    206        -12.139201   1.000000
    207        -12.128671   1.000000
    208        -12.106551   1.000000
    209        -12.089296   1.000000
    210        -12.071821   1.000000
    211        -12.042697   1.000000
    212        -12.032737   1.000000
    213        -11.971384   1.000000
    214        -11.959742   1.000000
    215        -11.912266   1.000000
    216        -11.882477   1.000000
    217        -11.832893   1.000000
    218        -11.824287   1.000000
    219        -11.735936   1.000000
    220        -11.722115   1.000000
    221        -11.695260   1.000000
    222        -11.686419   1.000000
    223        -11.652235   1.000000
    224        -11.625537   1.000000
    225        -11.607005   1.000000
    226        -11.591358   1.000000
    227        -11.576505   1.000000
    228        -11.543117   1.000000
    229        -11.530573   1.000000
    230        -11.522535   1.000000
    231        -11.494155   1.000000
    232        -11.464819   1.000000
    233        -11.420639   1.000000
    234        -11.388123   1.000000
    235        -11.381219   1.000000
    236        -11.342538   1.000000
    237        -11.334882   1.000000
    238        -11.308186   1.000000
    239        -11.294091   1.000000
    240        -11.279412   1.000000
    241        -11.267476   1.000000
    242        -11.239172   1.000000
    243        -11.234908   1.000000
    244        -11.217277   1.000000
    245        -11.195745   1.000000
    246        -11.177634   1.000000
    247        -11.140079   1.000000
    248        -11.127084   1.000000
    249        -11.104755   1.000000
    250        -11.101071   1.000000
    251        -11.091371   1.000000
    252        -11.056515   1.000000
    253        -11.038540   1.000000
    254        -11.026477   1.000000
    255        -11.004728   1.000000
    256        -10.990509   1.000000
    257        -10.969849   1.000000
    258        -10.952675   1.000000
    259        -10.945317   1.000000
    260        -10.932102   1.000000
    261        -10.910638   1.000000
    262        -10.904784   1.000000
    263        -10.869663   1.000000
    264        -10.858883   1.000000
    265        -10.834534   1.000000
    266        -10.818898   1.000000
    267        -10.811827   1.000000
    268        -10.783443   1.000000
    269        -10.752312   1.000000
    270        -10.732855   1.000000
    271        -10.714732   1.000000
    272        -10.701749   1.000000
    273        -10.664690   1.000000
    274        -10.641177   1.000000
    275        -10.608686   1.000000
    276        -10.588355   1.000000
    277        -10.583674   1.000000
    278        -10.573093   1.000000
    279        -10.561979   1.000000
    280        -10.543998   1.000000
    281        -10.528141   1.000000
    282        -10.504970   1.000000
    283        -10.491300   1.000000
    284        -10.477638   1.000000
    285        -10.454727   1.000000
    286        -10.421452   1.000000
    287        -10.388019   1.000000
    288        -10.370933   1.000000
    289        -10.351668   1.000000
    290        -10.330931   1.000000
    291        -10.319483   1.000000
    292        -10.303191   1.000000
    293        -10.281590   1.000000
    294        -10.271349   1.000000
    295        -10.251085   1.000000
    296        -10.234344   1.000000
    297        -10.225469   1.000000
    298        -10.206105   1.000000
    299        -10.191866   1.000000
    300        -10.172838   1.000000
    301        -10.142413   1.000000
    302        -10.123248   1.000000
    303        -10.121823   1.000000
    304        -10.100957   1.000000
    305        -10.076175   1.000000
    306        -10.056559   1.000000
    307        -10.038787   1.000000
    308         -9.999138   1.000000
    309         -9.968810   1.000000
    310         -9.944367   1.000000
    311         -9.925746   1.000000
    312         -9.910058   1.000000
    313         -9.900608   1.000000
    314         -9.854821   1.000000
    315         -9.803594   1.000000
    316         -9.760929   1.000000
    317         -9.743418   1.000000
    318         -9.694399   1.000000
    319         -9.676626   1.000000
    320         -9.660752   1.000000
    321         -9.630736   1.000000
    322         -9.615653   1.000000
    323         -9.584678   1.000000
    324         -9.550973   1.000000
    325         -9.504987   1.000000
    326         -9.469353   1.000000
    327         -9.429326   1.000000
    328         -9.421319   1.000000
    329         -9.389322   1.000000
    330         -9.344883   1.000000
    331         -9.331200   1.000000
    332         -9.296451   1.000000
    333         -9.252637   1.000000
    334         -9.229416   1.000000
    335         -9.213496   1.000000
    336         -9.182858   1.000000
    337         -9.156686   1.000000
    338         -9.138140   1.000000
    339         -9.120761   1.000000
    340         -9.095848   1.000000
    341         -9.075400   1.000000
    342         -9.065771   1.000000
    343         -9.010844   1.000000
    344         -8.999420   1.000000
    345         -8.987201   1.000000
    346         -8.966050   1.000000
    347         -8.959005   1.000000
    348         -8.919454   1.000000
    349         -8.907374   1.000000
    350         -8.861688   1.000000
    351         -8.853937   1.000000
    352         -8.826239   1.000000
    353         -8.820506   1.000000
    354         -8.796175   1.000000
    355         -8.767944   1.000000
    356         -8.741548   1.000000
    357         -8.738003   1.000000
    358         -8.706928   1.000000
    359         -8.697980   1.000000
    360         -8.687533   1.000000
    361         -8.681574   1.000000
    362         -8.647246   1.000000
    363         -8.612589   1.000000
    364         -8.558493   1.000000
    365         -8.546999   1.000000
    366         -8.510836   1.000000
    367         -8.497863   1.000000
    368         -8.477797   1.000000
    369         -8.443018   1.000000
    370         -8.396387   1.000000
    371         -8.354977   1.000000
    372         -8.180454   1.000000
    373         -8.159875   1.000000
    374         -8.132839   1.000000
    375         -8.096168   1.000000
    376         -8.059610   1.000000
    377         -7.986514   1.000000
    378         -7.928249   1.000000
    379         -7.906445   1.000000
    380         -7.824613   1.000000
    381         -7.798181   1.000000
    382         -7.715822   1.000000
    383         -7.682026   1.000000
    384         -7.652671   1.000000
    385         -7.631903   1.000000
    386         -7.575594   1.000000
    387         -7.568331   1.000000
    388         -7.533839   1.000000
    389         -7.411188   1.000000
    390         -7.362126   1.000000
    391         -7.322609   1.000000
    392         -7.244772   1.000000
    393         -7.236907   1.000000
    394         -7.097423   1.000000
    395         -7.011625   1.000000
    396         -6.641993   1.000000
    397         -6.148885   1.000000
    398         -6.025064   1.000000
    399         -5.968783   1.000000
    400         -5.923973   1.000000
    401         -5.891291   1.000000
    402         -5.825899   1.000000
    403         -5.785898   1.000000
    404         -5.738148   1.000000
    405         -5.726629   1.000000
    406         -5.698356   1.000000
    407         -5.659495   1.000000
    408         -5.621894   1.000000
    409         -5.617834   1.000000
    410         -5.573637   1.000000
    411         -5.474578   1.000000
    412         -5.416237   1.000000
    413         -5.395247   1.000000
    414         -5.380174   1.000000
    415         -5.354160   1.000000
    416         -5.331525   1.000000
    417         -5.274872   1.000000
    418         -5.244639   1.000000
    419         -5.222234   1.000000
    420         -5.124385   1.000000
    421         -5.102944   1.000000
    422         -5.067769   1.000000
    423         -5.002507   1.000000
    424         -4.939129   1.000000
    425         -4.914120   1.000000
    426         -4.839672   1.000000
    427         -4.688267   1.000000
    428         -4.626999   1.000000
    429         -4.584194   1.000000
    430         -4.550347   1.000000
    431         -4.503009   1.000000
    432         -4.467672   1.000000
    433         -4.442202   1.000000
    434         -4.415217   1.000000
    435         -4.406211   1.000000
    436         -4.391323   1.000000
    437         -4.350149   1.000000
    438         -4.296769   1.000000
    439         -4.228399   1.000000
    440         -4.163947   1.000000
    441         -4.153679   1.000000
    442         -4.136047   1.000000
    443         -4.107054   1.000000
    444         -4.027848   1.000000
    445         -3.984327   1.000000
    446         -3.965267   1.000000
    447         -3.946897   1.000000
    448         -3.931744   1.000000
    449         -3.904824   1.000000
    450         -3.874482   1.000000
    451         -3.835362   1.000000
    452         -3.811508   1.000000
    453         -3.789401   1.000000
    454         -3.763471   1.000000
    455         -3.755593   1.000000
    456         -3.723995   1.000000
    457         -3.682944   1.000000
    458         -3.643733   1.000000
    459         -3.634971   1.000000
    460         -3.612305   1.000000
    461         -3.602444   1.000000
    462         -3.560082   1.000000
    463         -3.518486   1.000000
    464         -3.480272   1.000000
    465         -3.459713   1.000000
    466         -3.389595   1.000000
    467         -3.363795   1.000000
    468         -3.347704   1.000000
    469         -3.341883   1.000000
    470         -3.332643   1.000000
    471         -3.310953   1.000000
    472         -3.285239   1.000000
    473         -3.209492   1.000000
    474         -3.164557   1.000000
    475         -3.128750   1.000000
    476         -3.071669   1.000000
    477         -3.045047   1.000000
    478         -3.030432   1.000000
    479         -2.981529   1.000000
    480         -2.972932   1.000000
    481         -2.960945   1.000000
    482         -2.902397   1.000000
    483         -2.892175   1.000000
    484         -2.875677   1.000000
    485         -2.825094   1.000000
    486         -2.771354   1.000000
    487         -2.764169   1.000000
    488         -2.667711   1.000000
    489         -2.645364   1.000000
    490         -2.633451   1.000000
    491         -2.621636   1.000000
    492         -2.582097   1.000000
    493         -2.578851   1.000000
    494         -2.534411   1.000000
    495         -2.516716   1.000000
    496         -2.484076   1.000000
    497         -2.466207   1.000000
    498         -2.430634   1.000000
    499         -2.413027   1.000000
    500         -2.355487   1.000000
    501         -2.339161   1.000000
    502         -2.321644   1.000000
    503         -2.318386   1.000000
    504         -2.290549   1.000000
    505         -2.279718   1.000000
    506         -2.259656   1.000000
    507         -2.243695   1.000000
    508         -2.218882   1.000000
    509         -2.198075   1.000000
    510         -2.176433   1.000000
    511         -2.154843   1.000000
    512         -2.150616   1.000000
    513         -2.128467   1.000000
    514         -2.116042   1.000000
    515         -2.100505   1.000000
    516         -2.073535   1.000000
    517         -1.974306   1.000000
    518         -1.944597   1.000000
    519         -1.924040   1.000000
    520         -1.910754   1.000000
    521         -1.881765   1.000000
    522         -1.849799   1.000000
    523         -1.821865   1.000000
    524         -1.804119   1.000000
    525         -1.754714   1.000000
    526         -1.727021   1.000000
    527         -1.681420   1.000000
    528         -1.642130   1.000000
 
 -0.3750000E+00  0.3333333E+00  0.1276756E-14  0.1666667E+00
      1    **************   1.000000
      2    **************   1.000000
      3    **************   1.000000
      4    **************   1.000000
      5    **************   1.000000
      6    **************   1.000000
      7    **************   1.000000
      8    **************   1.000000
      9    **************   1.000000
     10    **************   1.000000
     11    **************   1.000000
     12    **************   1.000000
     13    **************   1.000000
     14    **************   1.000000
     15    **************   1.000000
     16    **************   1.000000
     17    **************   1.000000
     18    **************   1.000000
     19    **************   1.000000
     20    **************   1.000000
     21    **************   1.000000
     22    **************   1.000000
     23    **************   1.000000
     24    **************   1.000000
     25    **************   1.000000
     26    **************   1.000000
     27    **************   1.000000
     28    **************   1.000000
     29    **************   1.000000
     30    **************   1.000000
     31    **************   1.000000
     32    **************   1.000000
     33    **************   1.000000
     34    -872956.461265   1.000000
     35    -855113.158342   1.000000
     36    -838484.194910   1.000000
     37    -767588.352212   1.000000
     38    -695635.319369   1.000000
     39    -683557.483176   1.000000
     40    -616976.828165   1.000000
     41    -580902.183117   1.000000
     42    -509014.653162   1.000000
     43    -480423.329033   1.000000
     44    -459862.357663   1.000000
     45    -441134.818227   1.000000
     46    -429445.733743   1.000000
     47    -347082.269172   1.000000
     48    -332755.862006   1.000000
     49    -330332.893989   1.000000
     50    -315643.007191   1.000000
     51    -305032.887415   1.000000
     52    -299023.418255   1.000000
     53    -277611.676396   1.000000
     54    -265334.103297   1.000000
     55    -257498.173616   1.000000
     56    -227102.711170   1.000000
     57    -214904.678131   1.000000
     58    -182879.880375   1.000000
     59    -166839.902021   1.000000
     60    -140739.665570   1.000000
     61    -125040.347488   1.000000
     62    -110476.729865   1.000000
     63     -95962.254117   1.000000
     64     -91743.322880   1.000000
     65     -79675.344107   1.000000
     66     -75811.839892   1.000000
     67     -73081.932024   1.000000
     68     -66077.790559   1.000000
     69     -64230.139960   1.000000
     70     -59990.646581   1.000000
     71     -59049.943874   1.000000
     72     -58434.806423   1.000000
     73     -56603.150919   1.000000
     74     -54602.704146   1.000000
     75     -53219.594358   1.000000
     76     -46456.794693   1.000000
     77     -43592.814713   1.000000
     78     -40655.621334   1.000000
     79     -35499.177989   1.000000
     80     -31483.231804   1.000000
     81     -30757.576912   1.000000
     82     -28621.137056   1.000000
     83     -26147.533876   1.000000
     84     -25093.133786   1.000000
     85     -24461.921349   1.000000
     86     -20824.470556   1.000000
     87     -20035.102208   1.000000
     88     -19896.741727   1.000000
     89     -18283.456233   1.000000
     90     -15981.312083   1.000000
     91     -13773.673303   1.000000
     92     -13243.157060   1.000000
     93     -13140.767918   1.000000
     94     -12515.793841   1.000000
     95     -12318.687164   1.000000
     96     -11719.955956   1.000000
     97     -10584.146948   1.000000
     98     -10439.423594   1.000000
     99     -10175.024240   1.000000
    100     -10095.975058   1.000000
    101      -9934.797156   1.000000
    102      -9264.334673   1.000000
    103      -8570.703585   1.000000
    104      -8504.387251   1.000000
    105      -7970.097782   1.000000
    106      -7312.108286   1.000000
    107      -7063.358310   1.000000
    108      -6573.852577   1.000000
    109      -6424.387322   1.000000
    110      -6082.734960   1.000000
    111      -5937.384956   1.000000
    112      -5480.691562   1.000000
    113      -5347.364126   1.000000
    114      -5286.240899   1.000000
    115      -4809.553328   1.000000
    116      -4502.538630   1.000000
    117      -4320.737591   1.000000
    118      -3999.210700   1.000000
    119      -3917.648487   1.000000
    120      -3696.741205   1.000000
    121      -3527.083741   1.000000
    122      -3431.621619   1.000000
    123      -3260.277913   1.000000
    124      -3030.107718   1.000000
    125      -2961.679449   1.000000
    126      -2815.125342   1.000000
    127      -2793.573725   1.000000
    128      -2751.454972   1.000000
    129      -2498.616447   1.000000
    130      -2472.183649   1.000000
    131      -2314.219941   1.000000
    132      -2269.326896   1.000000
    133      -2044.931400   1.000000
    134      -1890.326090   1.000000
    135      -1795.142762   1.000000
    136      -1660.854204   1.000000
    137      -1634.687456   1.000000
    138      -1427.279011   1.000000
    139      -1338.993261   1.000000
    140      -1278.395814   1.000000
    141      -1214.810723   1.000000
    142      -1169.659017   1.000000
    143      -1091.412648   1.000000
    144       -947.758545   1.000000
    145       -895.459287   1.000000
    146       -862.195709   1.000000
    147       -727.776238   1.000000
    148       -688.730607   1.000000
    149       -669.452093   1.000000
    150       -596.678515   1.000000
    151       -594.143919   1.000000
    152       -577.968703   1.000000
    153       -569.218897   1.000000
    154       -537.621147   1.000000
    155       -535.056471   1.000000
    156       -506.279266   1.000000
    157       -490.143609   1.000000
    158       -472.228580   1.000000
    159       -456.470576   1.000000
    160       -424.226798   1.000000
    161       -419.338965   1.000000
    162       -361.453812   1.000000
    163       -354.493961   1.000000
    164       -350.228869   1.000000
    165       -329.435567   1.000000
    166       -304.932629   1.000000
    167       -301.074165   1.000000
    168       -273.274985   1.000000
    169       -265.561662   1.000000
    170       -244.501336   1.000000
    171       -235.064916   1.000000
    172       -213.984345   1.000000
    173       -210.446527   1.000000
    174       -199.854712   1.000000
    175       -189.236926   1.000000
    176       -185.280980   1.000000
    177       -179.822596   1.000000
    178       -170.496626   1.000000
    179       -164.958259   1.000000
    180       -160.308470   1.000000
    181       -153.078332   1.000000
    182       -151.341027   1.000000
    183       -148.454086   1.000000
    184       -140.544210   1.000000
    185       -130.914193   1.000000
    186       -123.693438   1.000000
    187       -120.780232   1.000000
    188       -116.837290   1.000000
    189       -113.958257   1.000000
    190       -109.760221   1.000000
    191       -105.045301   1.000000
    192        -99.470758   1.000000
    193        -97.184302   1.000000
    194        -94.899470   1.000000
    195        -93.100309   1.000000
    196        -89.480434   1.000000
    197        -85.939520   1.000000
    198        -80.678066   1.000000
    199        -75.997200   1.000000
    200        -73.863685   1.000000
    201        -68.328402   1.000000
    202        -67.352358   1.000000
    203        -59.206735   1.000000
    204        -53.695364   1.000000
    205        -52.280878   1.000000
    206        -48.158584   1.000000
    207        -44.543662   1.000000
    208        -42.643549   1.000000
    209        -41.458237   1.000000
    210        -39.914692   1.000000
    211        -38.453089   1.000000
    212        -35.213826   1.000000
    213        -31.760629   1.000000
    214        -30.018133   1.000000
    215        -28.118652   1.000000
    216        -27.280726   1.000000
    217        -25.613476   1.000000
    218        -21.562761   1.000000
    219        -18.576775   1.000000
    220        -16.749285   1.000000
    221        -16.185269   1.000000
    222        -14.663050   1.000000
    223        -12.594767   1.000000
    224        -11.795849   1.000000
    225        -10.253755   1.000000
    226         -9.045798   1.000000
    227         -8.383790   1.000000
    228         -7.611962   1.000000
    229         -7.218190   1.000000
    230         -6.931725   1.000000
    231         -6.715552   1.000000
    232         -6.372481   1.000000
    233         -5.963042   1.000000
    234         -5.751741   1.000000
    235         -5.188457   1.000000
    236         -4.800800   1.000000
    237         -4.725523   1.000000
    238         -4.315812   1.000000
    239         -4.082361   1.000000
    240         -3.809677   1.000000
    241         -3.731932   1.000000
    242         -3.526423   1.000000
    243         -3.279125   1.000000
    244         -3.147401   1.000000
    245         -2.890750   1.000000
    246         -2.593964   1.000000
    247         -2.423000   1.000000
    248         -2.331668   1.000000
    249         -2.289685   1.000000
    250         -2.199282   1.000000
    251         -2.088555   1.000000
    252         -2.071597   1.000000
    253         -2.026849   1.000000
    254         -1.872193   1.000000
    255         -1.830249   1.000000
    256         -1.768739   1.000000
    257         -1.705343   1.000000
    258         -1.569054   1.000000
    259         -1.528869   1.000000
    260         -1.394914   1.000000
    261         -1.314990   1.000000
    262         -1.267879   1.000000
    263         -1.224174   1.000000
    264         -1.200893   1.000000
    265         -1.103757   1.000000
    266         -1.053065   1.000000
    267         -1.011174   1.000000
    268         -0.973817   1.000000
    269         -0.901184   1.000000
    270         -0.840709   1.000000
    271         -0.798352   1.000000
    272         -0.778075   1.000000
    273         -0.739323   1.000000
    274         -0.727515   1.000000
    275         -0.709128   1.000000
    276         -0.698929   1.000000
    277         -0.688244   1.000000
    278         -0.638821   1.000000
    279         -0.614647   1.000000
    280         -0.594013   1.000000
    281         -0.573859   1.000000
    282         -0.558316   1.000000
    283         -0.538785   1.000000
    284         -0.522167   1.000000
    285         -0.504344   1.000000
    286         -0.499160   1.000000
    287         -0.479096   1.000000
    288         -0.468127   1.000000
    289         -0.458939   1.000000
    290         -0.436160   1.000000
    291         -0.432059   1.000000
    292         -0.417243   1.000000
    293         -0.411825   1.000000
    294         -0.406026   1.000000
    295         -0.399990   1.000000
    296         -0.387178   1.000000
    297         -0.378369   1.000000
    298         -0.368310   1.000000
    299         -0.359865   1.000000
    300         -0.347807   0.999999
    301         -0.345552   0.999999
    302         -0.340241   0.999998
    303         -0.324791   0.999995
    304         -0.317013   0.999992
    305         -0.311687   0.999989
    306         -0.302166   0.999981
    307         -0.297360   0.999974
    308         -0.290835   0.999962
    309         -0.286202   0.999950
    310         -0.281080   0.999932
    311         -0.272231   0.999888
    312         -0.265975   0.999842
    313         -0.256423   0.999737
    314         -0.248958   0.999613
    315         -0.243324   0.999484
    316         -0.238998   0.999361
    317         -0.232701   0.999131
    318         -0.226076   0.998809
    319         -0.220814   0.998480
    320         -0.212245   0.997761
    321         -0.207143   0.997199
    322         -0.198687   0.995983
    323         -0.194696   0.995260
    324         -0.190008   0.994263
    325         -0.187299   0.993605
    326         -0.183833   0.992668
    327         -0.179164   0.991215
    328         -0.177521   0.990646
    329         -0.170063   0.987643
    330         -0.165917   0.985636
    331         -0.163158   0.984150
    332         -0.158336   0.981237
    333         -0.148650   0.973993
    334         -0.146674   0.972258
    335         -0.140433   0.966136
    336         -0.135767   0.960866
    337         -0.130710   0.954420
    338         -0.125238   0.946511
    339         -0.118187   0.934759
    340         -0.112373   0.923639
    341         -0.108246   0.914909
    342         -0.105844   0.909494
    343         -0.100300   0.896030
    344         -0.091080   0.870520
    345         -0.086036   0.854864
    346         -0.082298   0.842470
    347         -0.066550   0.782876
    348         -0.053014   0.722581
    349         -0.045380   0.685294
    350         -0.036282   0.638292
    351         -0.019929   0.548800
    352         -0.010857   0.497740
    353         -0.001310   0.444057
    354          0.009191   0.386215
    355          0.022111   0.318499
    356          0.032463   0.268186
    357          0.036407   0.250127
    358          0.046335   0.207685
    359          0.060877   0.153831
    360          0.081863   0.093932
    361          0.112534   0.040000
    362          0.133238   0.020502
    363          0.142106   0.015045
    364          0.155725   0.009101
    365          0.162677   0.006951
    366          0.203841   0.001175
    367          0.254822   0.000084
    368          0.270489   0.000034
    369          0.286318   0.000013
    370          0.347893   0.000000
    371          0.386220   0.000000
    372          0.440151   0.000000
    373          0.510872   0.000000
    374          0.598438   0.000000
    375          0.670090   0.000000
    376          0.727618   0.000000
    377          0.803098   0.000000
    378          0.872101   0.000000
    379          0.913875   0.000000
    380          0.981605   0.000000
    381          1.027474   0.000000
    382          1.094130   0.000000
    383          1.134211   0.000000
    384          1.408783   0.000000
    385          1.508610   0.000000
    386          1.607510   0.000000
    387          1.696568   0.000000
    388          1.740995   0.000000
    389          1.953307   0.000000
    390          2.094951   0.000000
    391          2.160711   0.000000
    392          2.222830   0.000000
    393          2.441865   0.000000
    394          2.699715   0.000000
    395          3.063781   0.000000
    396          3.208821   0.000000
    397          3.501972   0.000000
    398          3.613839   0.000000
    399          3.796528   0.000000
    400          3.961435   0.000000
    401          4.226443   0.000000
    402          4.385051   0.000000
    403          4.687207   0.000000
    404          5.261430   0.000000
    405          5.684583   0.000000
    406          6.163581   0.000000
    407          6.667636   0.000000
    408          6.920189   0.000000
    409          7.676689   0.000000
    410          7.936808   0.000000
    411          8.243142   0.000000
    412         10.012608   0.000000
    413         10.958116   0.000000
    414         11.307943   0.000000
    415         12.103591   0.000000
    416         14.081401   0.000000
    417         15.032005   0.000000
    418         16.199385   0.000000
    419         17.940437   0.000000
    420         19.063583   0.000000
    421         20.255714   0.000000
    422         21.224132   0.000000
    423         22.495910   0.000000
    424         22.734468   0.000000
    425         24.327635   0.000000
    426         27.763064   0.000000
    427         30.083005   0.000000
    428         34.831551   0.000000
    429         37.578237   0.000000
    430         39.247342   0.000000
    431         43.536560   0.000000
    432         46.032010   0.000000
    433         50.669633   0.000000
    434         51.390683   0.000000
    435         52.702946   0.000000
    436         58.764475   0.000000
    437         63.127631   0.000000
    438         69.336064   0.000000
    439         82.032349   0.000000
    440         94.962627   0.000000
    441         97.446584   0.000000
    442        106.782385   0.000000
    443        114.063164   0.000000
    444        122.404169   0.000000
    445        130.060861   0.000000
    446        135.059800   0.000000
    447        161.729283   0.000000
    448        174.253188   0.000000
    449        181.175121   0.000000
    450        191.132623   0.000000
    451        200.990725   0.000000
    452        205.193495   0.000000
    453        226.412623   0.000000
    454        252.774883   0.000000
    455        279.030997   0.000000
    456        318.599508   0.000000
    457        332.202299   0.000000
    458        374.131625   0.000000
    459        405.978066   0.000000
    460        420.003059   0.000000
    461        468.397531   0.000000
    462        671.353286   0.000000
    463        732.274170   0.000000
    464        814.770235   0.000000
    465        857.277499   0.000000
    466        921.655139   0.000000
    467       1018.833875   0.000000
    468       1233.988891   0.000000
    469       1354.756677   0.000000
    470       1393.563473   0.000000
    471       1447.269770   0.000000
    472       1517.242342   0.000000
    473       1665.194154   0.000000
    474       1728.180639   0.000000
    475       1942.079836   0.000000
    476       2202.830917   0.000000
    477       2265.945787   0.000000
    478       2312.234443   0.000000
    479       2391.333812   0.000000
    480       2595.111416   0.000000
    481       2660.114622   0.000000
    482       3193.619571   0.000000
    483       3364.138473   0.000000
    484       3954.059046   0.000000
    485       3991.311034   0.000000
    486       4226.841461   0.000000
    487       4351.240818   0.000000
    488       4879.890855   0.000000
    489       5311.657985   0.000000
    490       6018.364067   0.000000
    491       6242.658562   0.000000
    492       6767.141564   0.000000
    493       7837.385576   0.000000
    494       7977.068698   0.000000
    495       8557.428326   0.000000
    496       9006.883744   0.000000
    497       9138.455937   0.000000
    498       9900.060315   0.000000
    499      10268.275066   0.000000
    500      10805.784531   0.000000
    501      11565.915159   0.000000
    502      12803.285058   0.000000
    503      13018.554712   0.000000
    504      13715.176531   0.000000
    505      15197.538252   0.000000
    506      18670.058478   0.000000
    507      23222.962890   0.000000
    508      26840.537731   0.000000
    509      29063.152048   0.000000
    510      30667.390753   0.000000
    511      44281.974935   0.000000
    512      52005.986287   0.000000
    513      53647.541783   0.000000
    514      54415.397741   0.000000
    515      63283.474989   0.000000
    516      71876.004263   0.000000
    517      83373.871832   0.000000
    518      91216.034957   0.000000
    519     125477.865465   0.000000
    520     164136.539109   0.000000
    521     195064.793519   0.000000
    522     278804.385605   0.000000
    523     331226.765317   0.000000
    524     580350.265331   0.000000
    525     642449.318117   0.000000
    526    1168826.571993   0.000000
    527    3038210.654141   0.000000
    528    4224962.731139   0.000000
 
 -0.1250000E+00  0.3333333E+00  0.1276756E-14  0.1666667E+00
      1    **************   1.000000
      2    **************   1.000000
      3    **************   1.000000
      4    **************   1.000000
      5    **************   1.000000
      6    **************   1.000000
      7    **************   1.000000
      8    **************   1.000000
      9    **************   1.000000
     10    **************   1.000000
     11    **************   1.000000
     12    **************   1.000000
     13    **************   1.000000
     14    **************   1.000000
     15    **************   1.000000
     16    **************   1.000000
     17    **************   1.000000
     18    **************   1.000000
     19    **************   1.000000
     20    **************   1.000000
     21    **************   1.000000
     22    **************   1.000000
     23    **************   1.000000
     24    **************   1.000000
     25    **************   1.000000
     26    **************   1.000000
     27    **************   1.000000
     28    **************   1.000000
     29    **************   1.000000
     30    **************   1.000000
     31    **************   1.000000
     32    -702153.505648   1.000000
     33    -648085.870377   1.000000
     34    -615313.729304   1.000000
     35    -553193.490177   1.000000
     36    -532598.737803   1.000000
     37    -517294.937315   1.000000
     38    -348526.709083   1.000000
     39    -342783.415500   1.000000
     40    -269100.176480   1.000000
     41    -245925.657745   1.000000
     42    -244265.635035   1.000000
     43    -240650.513642   1.000000
     44    -197451.491329   1.000000
     45    -195739.390942   1.000000
     46    -187767.258445   1.000000
     47    -167349.742821   1.000000
     48    -163084.842315   1.000000
     49    -123902.320380   1.000000
     50    -103691.678804   1.000000
     51     -93249.271584   1.000000
     52     -80725.657016   1.000000
     53     -66334.952936   1.000000
     54     -63773.268484   1.000000
     55     -59655.326247   1.000000
     56     -53907.008525   1.000000
     57     -51102.620084   1.000000
     58     -48784.106787   1.000000
     59     -47101.608216   1.000000
     60     -44305.424326   1.000000
     61     -42606.995645   1.000000
     62     -39766.935008   1.000000
     63     -38171.093430   1.000000
     64     -37346.668397   1.000000
     65     -30034.917391   1.000000
     66     -26181.421891   1.000000
     67     -24298.902706   1.000000
     68     -22512.983048   1.000000
     69     -21789.418327   1.000000
     70     -17654.581506   1.000000
     71     -17220.490978   1.000000
     72     -14951.626711   1.000000
     73     -13040.034021   1.000000
     74     -12680.865722   1.000000
     75     -11687.516851   1.000000
     76     -11302.095006   1.000000
     77     -10111.229266   1.000000
     78      -9641.578835   1.000000
     79      -8863.240212   1.000000
     80      -8328.771386   1.000000
     81      -8006.146429   1.000000
     82      -7498.102471   1.000000
     83      -7347.981114   1.000000
     84      -5995.936690   1.000000
     85      -5804.082911   1.000000
     86      -5779.885098   1.000000
     87      -4178.762854   1.000000
     88      -3902.901536   1.000000
     89      -3719.852887   1.000000
     90      -3102.969160   1.000000
     91      -2937.817682   1.000000
     92      -2897.327040   1.000000
     93      -2612.087913   1.000000
     94      -2410.308606   1.000000
     95      -2368.430426   1.000000
     96      -2271.959642   1.000000
     97      -2139.069162   1.000000
     98      -2099.966504   1.000000
     99      -2038.556774   1.000000
    100      -1835.028236   1.000000
    101      -1744.167445   1.000000
    102      -1689.726588   1.000000
    103      -1578.783240   1.000000
    104      -1435.287385   1.000000
    105      -1422.356609   1.000000
    106      -1324.222694   1.000000
    107      -1258.754436   1.000000
    108      -1227.788779   1.000000
    109      -1150.516105   1.000000
    110       -985.983315   1.000000
    111       -972.565901   1.000000
    112       -876.620195   1.000000
    113       -829.129088   1.000000
    114       -778.621598   1.000000
    115       -737.854634   1.000000
    116       -678.019257   1.000000
    117       -610.707535   1.000000
    118       -570.159170   1.000000
    119       -524.988224   1.000000
    120       -484.244871   1.000000
    121       -445.765261   1.000000
    122       -392.600577   1.000000
    123       -375.960066   1.000000
    124       -372.303759   1.000000
    125       -357.106741   1.000000
    126       -335.413473   1.000000
    127       -322.357058   1.000000
    128       -313.785858   1.000000
    129       -300.627152   1.000000
    130       -282.993137   1.000000
    131       -260.952911   1.000000
    132       -251.974653   1.000000
    133       -246.375779   1.000000
    134       -231.194876   1.000000
    135       -222.833159   1.000000
    136       -214.468588   1.000000
    137       -194.699378   1.000000
    138       -189.968691   1.000000
    139       -187.450224   1.000000
    140       -176.506772   1.000000
    141       -172.665072   1.000000
    142       -164.842202   1.000000
    143       -153.665254   1.000000
    144       -137.790845   1.000000
    145       -129.602910   1.000000
    146       -125.857963   1.000000
    147       -120.004280   1.000000
    148       -117.475819   1.000000
    149       -107.644732   1.000000
    150        -96.747954   1.000000
    151        -92.175681   1.000000
    152        -89.351617   1.000000
    153        -87.543876   1.000000
    154        -85.274503   1.000000
    155        -76.023195   1.000000
    156        -71.982158   1.000000
    157        -65.473969   1.000000
    158        -62.873275   1.000000
    159        -59.010871   1.000000
    160        -55.977828   1.000000
    161        -51.458846   1.000000
    162        -50.208279   1.000000
    163        -46.530636   1.000000
    164        -43.010131   1.000000
    165        -40.680358   1.000000
    166        -38.748319   1.000000
    167        -35.757699   1.000000
    168        -33.133375   1.000000
    169        -30.791501   1.000000
    170        -30.164439   1.000000
    171        -28.340714   1.000000
    172        -25.795478   1.000000
    173        -24.824196   1.000000
    174        -24.240227   1.000000
    175        -23.014074   1.000000
    176        -22.482202   1.000000
    177        -21.967472   1.000000
    178        -20.844226   1.000000
    179        -20.116537   1.000000
    180        -19.832239   1.000000
    181        -18.647241   1.000000
    182        -18.435251   1.000000
    183        -18.078732   1.000000
    184        -17.709620   1.000000
    185        -16.644685   1.000000
    186        -15.774668   1.000000
    187        -15.162189   1.000000
    188        -14.502267   1.000000
    189        -14.166834   1.000000
    190        -13.802256   1.000000
    191        -13.222011   1.000000
    192        -13.143296   1.000000
    193        -12.437312   1.000000
    194        -12.175226   1.000000
    195        -11.989257   1.000000
    196        -11.485983   1.000000
    197        -11.191259   1.000000
    198        -10.918601   1.000000
    199        -10.560770   1.000000
    200        -10.432144   1.000000
    201        -10.128370   1.000000
    202         -9.648068   1.000000
    203         -9.584202   1.000000
    204         -9.356782   1.000000
    205         -9.109581   1.000000
    206         -9.021909   1.000000
    207         -8.873733   1.000000
    208         -8.565010   1.000000
    209         -8.273897   1.000000
    210         -8.210805   1.000000
    211         -7.901859   1.000000
    212         -7.639116   1.000000
    213         -7.365888   1.000000
    214         -7.220492   1.000000
    215         -6.993761   1.000000
    216         -6.732775   1.000000
    217         -6.443982   1.000000
    218         -6.348161   1.000000
    219         -6.107560   1.000000
    220         -5.979027   1.000000
    221         -5.823356   1.000000
    222         -5.734114   1.000000
    223         -5.595690   1.000000
    224         -5.417763   1.000000
    225         -5.266764   1.000000
    226         -4.991527   1.000000
    227         -4.871127   1.000000
    228         -4.741757   1.000000
    229         -4.586162   1.000000
    230         -4.493416   1.000000
    231         -4.352293   1.000000
    232         -4.225311   1.000000
    233         -4.127883   1.000000
    234         -4.042221   1.000000
    235         -3.818930   1.000000
    236         -3.768895   1.000000
    237         -3.684563   1.000000
    238         -3.577951   1.000000
    239         -3.445761   1.000000
    240         -3.386005   1.000000
    241         -3.195420   1.000000
    242         -3.141036   1.000000
    243         -3.051400   1.000000
    244         -2.976687   1.000000
    245         -2.887741   1.000000
    246         -2.845597   1.000000
    247         -2.714616   1.000000
    248         -2.655207   1.000000
    249         -2.553335   1.000000
    250         -2.497405   1.000000
    251         -2.476794   1.000000
    252         -2.415461   1.000000
    253         -2.365101   1.000000
    254         -2.294221   1.000000
    255         -2.222385   1.000000
    256         -2.099150   1.000000
    257         -2.068140   1.000000
    258         -1.996163   1.000000
    259         -1.939711   1.000000
    260         -1.908021   1.000000
    261         -1.850003   1.000000
    262         -1.807885   1.000000
    263         -1.741834   1.000000
    264         -1.697696   1.000000
    265         -1.631277   1.000000
    266         -1.596983   1.000000
    267         -1.522706   1.000000
    268         -1.497458   1.000000
    269         -1.476293   1.000000
    270         -1.437858   1.000000
    271         -1.398756   1.000000
    272         -1.383241   1.000000
    273         -1.342079   1.000000
    274         -1.310594   1.000000
    275         -1.279110   1.000000
    276         -1.242863   1.000000
    277         -1.235183   1.000000
    278         -1.215888   1.000000
    279         -1.199070   1.000000
    280         -1.148351   1.000000
    281         -1.123604   1.000000
    282         -1.098895   1.000000
    283         -1.085987   1.000000
    284         -1.057896   1.000000
    285         -1.046878   1.000000
    286         -1.016703   1.000000
    287         -0.993042   1.000000
    288         -0.961908   1.000000
    289         -0.941991   1.000000
    290         -0.919029   1.000000
    291         -0.904281   1.000000
    292         -0.880045   1.000000
    293         -0.855713   1.000000
    294         -0.840495   1.000000
    295         -0.817665   1.000000
    296         -0.797579   1.000000
    297         -0.777548   1.000000
    298         -0.765364   1.000000
    299         -0.740602   1.000000
    300         -0.727169   1.000000
    301         -0.704578   1.000000
    302         -0.687434   1.000000
    303         -0.677225   1.000000
    304         -0.649465   1.000000
    305         -0.637851   1.000000
    306         -0.635542   1.000000
    307         -0.604690   1.000000
    308         -0.581585   1.000000
    309         -0.576001   1.000000
    310         -0.554569   1.000000
    311         -0.549911   1.000000
    312         -0.533331   1.000000
    313         -0.525734   1.000000
    314         -0.511594   1.000000
    315         -0.495887   1.000000
    316         -0.485374   1.000000
    317         -0.473147   1.000000
    318         -0.461741   1.000000
    319         -0.446203   1.000000
    320         -0.433117   1.000000
    321         -0.429227   1.000000
    322         -0.420634   1.000000
    323         -0.405520   1.000000
    324         -0.393847   1.000000
    325         -0.388353   1.000000
    326         -0.375478   1.000000
    327         -0.360140   1.000000
    328         -0.350106   0.999999
    329         -0.344800   0.999999
    330         -0.313846   0.999991
    331         -0.306825   0.999985
    332         -0.295416   0.999971
    333         -0.285097   0.999946
    334         -0.276461   0.999912
    335         -0.267707   0.999856
    336         -0.252618   0.999679
    337         -0.247694   0.999587
    338         -0.225425   0.998772
    339         -0.215543   0.998068
    340         -0.199427   0.996106
    341         -0.191529   0.994605
    342         -0.182277   0.992209
    343         -0.162615   0.983844
    344         -0.156082   0.979726
    345         -0.136190   0.961369
    346         -0.132450   0.956727
    347         -0.115254   0.929318
    348         -0.104326   0.905943
    349         -0.087546   0.859679
    350         -0.067434   0.786535
    351         -0.057254   0.742312
    352         -0.036109   0.637376
    353         -0.010163   0.493820
    354          0.016437   0.347653
    355          0.056651   0.168433
    356          0.061715   0.151037
    357          0.080556   0.097067
    358          0.114213   0.037997
    359          0.130318   0.022633
    360          0.152524   0.010273
    361          0.209027   0.000919
    362          0.237980   0.000212
    363          0.294069   0.000008
    364          0.342425   0.000000
    365          0.372079   0.000000
    366          0.430165   0.000000
    367          0.464852   0.000000
    368          0.508347   0.000000
    369          0.557591   0.000000
    370          0.670931   0.000000
    371          0.681443   0.000000
    372          0.725240   0.000000
    373          0.772276   0.000000
    374          0.837204   0.000000
    375          0.883292   0.000000
    376          0.918231   0.000000
    377          1.004142   0.000000
    378          1.077161   0.000000
    379          1.178525   0.000000
    380          1.281089   0.000000
    381          1.399549   0.000000
    382          1.458893   0.000000
    383          1.507396   0.000000
    384          1.548548   0.000000
    385          1.620649   0.000000
    386          1.722625   0.000000
    387          1.753963   0.000000
    388          1.896537   0.000000
    389          1.966765   0.000000
    390          2.021447   0.000000
    391          2.127807   0.000000
    392          2.177940   0.000000
    393          2.352767   0.000000
    394          2.468844   0.000000
    395          2.504636   0.000000
    396          2.613663   0.000000
    397          2.768921   0.000000
    398          3.007972   0.000000
    399          3.217991   0.000000
    400          3.371771   0.000000
    401          3.570392   0.000000
    402          3.750874   0.000000
    403          3.846639   0.000000
    404          3.990739   0.000000
    405          4.234758   0.000000
    406          4.487405   0.000000
    407          4.618036   0.000000
    408          4.697630   0.000000
    409          4.928986   0.000000
    410          5.107529   0.000000
    411          5.400774   0.000000
    412          5.748182   0.000000
    413          5.969550   0.000000
    414          6.181940   0.000000
    415          6.272059   0.000000
    416          6.833590   0.000000
    417          7.044392   0.000000
    418          7.767743   0.000000
    419          7.995602   0.000000
    420          8.665265   0.000000
    421          8.830375   0.000000
    422          9.309274   0.000000
    423          9.561903   0.000000
    424          9.798120   0.000000
    425         10.255309   0.000000
    426         10.524745   0.000000
    427         11.464450   0.000000
    428         12.790260   0.000000
    429         13.446184   0.000000
    430         13.586155   0.000000
    431         14.243131   0.000000
    432         14.907053   0.000000
    433         15.346570   0.000000
    434         17.307295   0.000000
    435         18.584771   0.000000
    436         18.806964   0.000000
    437         20.049829   0.000000
    438         20.221305   0.000000
    439         21.453387   0.000000
    440         22.160707   0.000000
    441         24.470163   0.000000
    442         25.382776   0.000000
    443         26.148818   0.000000
    444         28.641732   0.000000
    445         32.273838   0.000000
    446         33.633820   0.000000
    447         37.140899   0.000000
    448         37.843426   0.000000
    449         43.042864   0.000000
    450         46.322084   0.000000
    451         48.928609   0.000000
    452         51.320839   0.000000
    453         57.320437   0.000000
    454         60.668919   0.000000
    455         62.764300   0.000000
    456         70.396616   0.000000
    457         76.842024   0.000000
    458         85.303362   0.000000
    459         95.718074   0.000000
    460        100.604603   0.000000
    461        105.731431   0.000000
    462        109.502400   0.000000
    463        118.546716   0.000000
    464        126.960899   0.000000
    465        140.061137   0.000000
    466        172.928043   0.000000
    467        182.275679   0.000000
    468        200.017744   0.000000
    469        211.566736   0.000000
    470        218.264893   0.000000
    471        252.623595   0.000000
    472        267.494085   0.000000
    473        283.791213   0.000000
    474        311.306909   0.000000
    475        345.025112   0.000000
    476        352.697746   0.000000
    477        382.960987   0.000000
    478        406.492389   0.000000
    479        428.498009   0.000000
    480        452.957002   0.000000
    481        464.980715   0.000000
    482        543.690183   0.000000
    483        663.133217   0.000000
    484        833.754632   0.000000
    485        963.760234   0.000000
    486       1170.566680   0.000000
    487       1282.253179   0.000000
    488       1325.165152   0.000000
    489       1590.088538   0.000000
    490       1792.925050   0.000000
    491       1978.039160   0.000000
    492       2311.685660   0.000000
    493       2685.728545   0.000000
    494       2751.013625   0.000000
    495       3165.588274   0.000000
    496       3281.469135   0.000000
    497       3849.006692   0.000000
    498       5245.565260   0.000000
    499       5639.916512   0.000000
    500       6063.931664   0.000000
    501       7207.762473   0.000000
    502       9036.033623   0.000000
    503       9390.745052   0.000000
    504      10460.306887   0.000000
    505      14700.503553   0.000000
    506      16267.318695   0.000000
    507      16725.112354   0.000000
    508      19654.345894   0.000000
    509      22944.005255   0.000000
    510      25764.603819   0.000000
    511      30195.202353   0.000000
    512      34737.593255   0.000000
    513      36455.517033   0.000000
    514      43573.101969   0.000000
    515      50321.599572   0.000000
    516      57257.450794   0.000000
    517      60254.601120   0.000000
    518      73810.420461   0.000000
    519      90463.782080   0.000000
    520      95929.513965   0.000000
    521     118354.870036   0.000000
    522     156127.115537   0.000000
    523     232680.857512   0.000000
    524     267953.418601   0.000000
    525     621950.955262   0.000000
    526    1112725.165585   0.000000
    527    1868817.683702   0.000000
    528    2979927.836793   0.000000
