 running   42 mpi-ranks, on    1 nodes
 distrk:  each k-point on   42 cores,    1 groups
 distr:  one band on    7 cores,    6 groups
 vasp.6.5.0 16Dec24 (build Jan 08 2025 16:17:04) complex                        
  
 POSCAR found type information on POSCAR B H 
 POSCAR found :  2 types and     270 ions
 Reading from existing POTCAR
 scaLAPACK will be used
 Reading from existing POTCAR
 LDA part: xc-table for (Slater+PW92), standard interpolation
 POSCAR, INCAR and KPOINTS ok, starting setup
 FFT: planning ... GRIDC
 FFT: planning ... GRID_SOFT
 FFT: planning ... GRID
 WAVECAR not read
 entering main loop
       N       E                     dE             d eps       ncg     rms          rms(c)
DAV:   1     0.607459857173E+04    0.60746E+04   -0.29266E+05  6576   0.122E+03
DAV:   2    -0.893139348970E+03   -0.69677E+04   -0.67238E+04  9072   0.263E+02
DAV:   3    -0.176220264440E+04   -0.86906E+03   -0.85626E+03  7200   0.981E+01
DAV:   4    -0.179175013885E+04   -0.29547E+02   -0.29314E+02  8556   0.186E+01
DAV:   5    -0.179275741944E+04   -0.10073E+01   -0.10052E+01  8400   0.301E+00    0.547E+01
DAV:   6    -0.166556356645E+04    0.12719E+03   -0.17775E+02  7308   0.143E+01    0.291E+01
DAV:   7    -0.163529565499E+04    0.30268E+02   -0.11355E+02  7680   0.110E+01    0.883E+00
DAV:   8    -0.163433418628E+04    0.96147E+00   -0.94041E+00  7764   0.379E+00    0.325E+00
DAV:   9    -0.163391556819E+04    0.41862E+00   -0.12486E+00  7656   0.131E+00    0.115E+00
DAV:  10    -0.163386222816E+04    0.53340E-01   -0.17505E-01  8124   0.465E-01    0.650E-01
DAV:  11    -0.163380682470E+04    0.55403E-01   -0.91016E-02  7452   0.300E-01    0.302E-01
DAV:  12    -0.165672648679E+04   -0.22920E+02   -0.20155E+01  7824   0.236E-01BRMIX: very serious problems
 the old and the new charge density differ
 old charge density:   774.00674 new  775.90657
    0.871E-01
DAV:  13    -0.200365158967E+04   -0.34693E+03   -0.14265E+02  7764   0.197E+00BRMIX: very serious problems
 the old and the new charge density differ
 old charge density:   775.90657 new  775.60740
    0.194E+00
DAV:  14    -0.106896184576E+05   -0.86860E+04   -0.34878E+02  7944   0.691E+00BRMIX: very serious problems
 the old and the new charge density differ
 old charge density:   775.60740 new  786.98063
    0.448E+00
DAV:  15    -0.110569695310E+05   -0.36735E+03    0.20460E+02  7860   0.162E+01BRMIX: very serious problems
 the old and the new charge density differ
 old charge density:   786.98063 new  786.84715
    0.458E+00
DAV:  16    -0.109765748209E+05    0.80395E+02   -0.74303E+02  8088   0.211E+01BRMIX: very serious problems
 the old and the new charge density differ
 old charge density:   786.84715 new  785.91507
    0.769E+00
DAV:  17    -0.142088719817E+05   -0.32323E+04   -0.11212E+03  7668   0.401E+01BRMIX: very serious problems
 the old and the new charge density differ
 old charge density:   785.91507 new  779.99096
    0.120E+01
DAV:  18    -0.771511833300E+05   -0.62942E+05   -0.11648E+03  7680   0.600E+01BRMIX: very serious problems
 the old and the new charge density differ
 old charge density:   779.99096 new  792.40771
    0.209E+01
DAV:  19    -0.616266007531E+05    0.15525E+05    0.69822E+02  7824   0.876E+01BRMIX: very serious problems
 the old and the new charge density differ
 old charge density:   792.40771 new  795.72051
    0.305E+01
DAV:  20    -0.415254266092E+05    0.20101E+05    0.26923E+03  8088   0.108E+02BRMIX: very serious problems
 the old and the new charge density differ
 old charge density:   795.72051 new  790.79750
    0.306E+01
DAV:  21    -0.199201912366E+05    0.21605E+05    0.20499E+03  8004   0.123E+02BRMIX: very serious problems
 the old and the new charge density differ
 old charge density:   790.79750 new  792.13408
    0.281E+01
DAV:  22    -0.143190394974E+05    0.56012E+04    0.23194E+03  7524   0.114E+02BRMIX: very serious problems
 the old and the new charge density differ
 old charge density:   792.13408 new  792.47190
    0.269E+01
DAV:  23    -0.555037398000E+05   -0.41185E+05    0.37155E+02  7764   0.111E+02BRMIX: very serious problems
 the old and the new charge density differ
 old charge density:   792.47190 new  820.55997
    0.343E+01
DAV:  24    -0.188946213499E+05    0.36609E+05    0.69591E+03  7704   0.161E+02BRMIX: very serious problems
 the old and the new charge density differ
 old charge density:   820.55997 new  821.23037
    0.295E+01
DAV:  25    -0.221126236594E+05   -0.32180E+04   -0.12159E+04  8268   0.142E+02BRMIX: very serious problems
 the old and the new charge density differ
 old charge density:   821.23037 new  809.30846
    0.322E+01
DAV:  26    -0.232231957593E+05   -0.11106E+04    0.36272E+03  7500   0.127E+02BRMIX: very serious problems
 the old and the new charge density differ
 old charge density:   809.30846 new  802.71197
    0.270E+01
DAV:  27    -0.355581887289E+05   -0.12335E+05    0.35372E+03  7704   0.126E+02BRMIX: very serious problems
 the old and the new charge density differ
 old charge density:   802.71197 new  795.43865
    0.304E+01
DAV:  28    -0.136522200905E+06   -0.10096E+06   -0.11000E+04  7752   0.146E+02BRMIX: very serious problems
 the old and the new charge density differ
 old charge density:   795.43865 new  780.85747
    0.436E+01
DAV:  29    -0.107931923269E+08   -0.10657E+08   -0.20884E+03  7572   0.177E+02BRMIX: very serious problems
 the old and the new charge density differ
 old charge density:   780.85747 new  779.80721
    0.489E+01
DAV:  30    -0.478164609526E+05    0.10745E+08   -0.72947E+02  8052   0.209E+02BRMIX: very serious problems
 the old and the new charge density differ
 old charge density:   779.80721 new  770.72329
    0.493E+01
DAV:  31    -0.738969515862E+05   -0.26080E+05   -0.32192E+03  7896   0.207E+02BRMIX: very serious problems
 the old and the new charge density differ
 old charge density:   770.72329 new  769.57167
    0.578E+01
DAV:  32    -0.525024436746E+05    0.21395E+05   -0.21890E+03  7764   0.253E+02BRMIX: very serious problems
 the old and the new charge density differ
 old charge density:   769.57167 new  748.45154
    0.532E+01
DAV:  33    -0.861815315704E+05   -0.33679E+05   -0.61859E+03  7368   0.226E+02BRMIX: very serious problems
 the old and the new charge density differ
 old charge density:   748.45154 new  754.94330
    0.556E+01
DAV:  34    -0.152915667937E+06   -0.66734E+05   -0.40521E+04  7440   0.254E+02BRMIX: very serious problems
 the old and the new charge density differ
 old charge density:   754.94330 new  770.63113
    0.724E+01
DAV:  35    -0.122893181286E+06    0.30022E+05   -0.53192E+03  7368   0.302E+02BRMIX: very serious problems
 the old and the new charge density differ
 old charge density:   770.63113 new  760.05099
    0.641E+01
DAV:  36    -0.115068377512E+06    0.78248E+04   -0.52212E+03  7404   0.316E+02BRMIX: very serious problems
 the old and the new charge density differ
 old charge density:   760.05099 new  724.70302
    0.609E+01
DAV:  37    -0.100453412762E+06    0.14615E+05   -0.12271E+04  7572   0.286E+02BRMIX: very serious problems
 the old and the new charge density differ
 old charge density:   724.70302 new  709.83121
    0.673E+01
DAV:  38    -0.605574201591E+07   -0.59553E+07   -0.15982E+05  7860   0.321E+02BRMIX: very serious problems
 the old and the new charge density differ
 old charge density:   709.83121 new  711.22974
    0.100E+02
DAV:  39    -0.674256234648E+07   -0.68682E+06   -0.16114E+04  7644   0.361E+02BRMIX: very serious problems
 the old and the new charge density differ
 old charge density:   711.22974 new  707.87387
    0.882E+01
DAV:  40    -0.786222728691E+05    0.66639E+07   -0.13149E+04  7188   0.353E+02BRMIX: very serious problems
 the old and the new charge density differ
 old charge density:   707.87387 new  706.89339
    0.845E+01
DAV:  41    -0.473285033294E+07   -0.46542E+07   -0.13087E+04  8016   0.357E+02BRMIX: very serious problems
 the old and the new charge density differ
 old charge density:   706.89339 new  690.09960
    0.797E+01
DAV:  42    -0.467284055260E+05    0.46861E+07   -0.46548E+04  7380   0.351E+02BRMIX: very serious problems
 the old and the new charge density differ
 old charge density:   690.09960 new  685.49634
    0.783E+01
DAV:  43    -0.153693200681E+08   -0.15323E+08   -0.26445E+05  8100   0.349E+02BRMIX: very serious problems
 the old and the new charge density differ
 old charge density:   685.49634 new  716.34660
    0.120E+02
DAV:  44    -0.556253996012E+05    0.15314E+08   -0.15805E+04  6720   0.406E+02BRMIX: very serious problems
 the old and the new charge density differ
 old charge density:   716.34660 new  719.63516
    0.892E+01
DAV:  45    -0.865683268954E+05   -0.30943E+05   -0.11387E+04  8292   0.349E+02BRMIX: very serious problems
 the old and the new charge density differ
 old charge density:   719.63516 new  693.25546
    0.802E+01
DAV:  46    -0.693934721677E+05    0.17175E+05   -0.15001E+04  7320   0.367E+02BRMIX: very serious problems
 the old and the new charge density differ
 old charge density:   693.25546 new  688.50050
    0.788E+01
DAV:  47    -0.637708051931E+05    0.56227E+04   -0.33739E+04  8016   0.355E+02BRMIX: very serious problems
 the old and the new charge density differ
 old charge density:   688.50050 new  689.56397
    0.813E+01
DAV:  48    -0.639740684152E+07   -0.63336E+07   -0.17347E+04  7716   0.363E+02BRMIX: very serious problems
 the old and the new charge density differ
 old charge density:   689.56397 new  697.93341
    0.829E+01
DAV:  49    -0.666688245566E+05    0.63307E+07   -0.14187E+04  7092   0.370E+02BRMIX: very serious problems
 the old and the new charge density differ
 old charge density:   697.93341 new  695.93923
    0.800E+01
DAV:  50    -0.738487690863E+05   -0.71799E+04   -0.15018E+04  7560   0.339E+02BRMIX: very serious problems
 the old and the new charge density differ
 old charge density:   695.93923 new  691.44196
    0.790E+01
DAV:  51    -0.598292317226E+05    0.14020E+05   -0.15279E+04  7464   0.367E+02BRMIX: very serious problems
 the old and the new charge density differ
 old charge density:   691.44196 new  698.49650
    0.807E+01
DAV:  52    -0.358132238961E+07   -0.35215E+07   -0.53882E+04  7596   0.384E+02BRMIX: very serious problems
 the old and the new charge density differ
 old charge density:   698.49650 new  696.70657
    0.935E+01
DAV:  53    -0.662376552234E+05    0.35151E+07   -0.16940E+04  7056   0.376E+02BRMIX: very serious problems
 the old and the new charge density differ
 old charge density:   696.70657 new  701.11708
    0.825E+01
DAV:  54    -0.727620726893E+05   -0.65244E+04   -0.14071E+04  7524   0.363E+02BRMIX: very serious problems
 the old and the new charge density differ
 old charge density:   701.11708 new  692.91246
    0.791E+01
DAV:  55    -0.719789267978E+05    0.78315E+03   -0.17121E+05  7488   0.372E+02BRMIX: very serious problems
 the old and the new charge density differ
 old charge density:   692.91246 new  683.90087
    0.877E+01
DAV:  56    -0.657465446242E+05    0.62324E+04   -0.90643E+04  8196   0.360E+02BRMIX: very serious problems
 the old and the new charge density differ
 old charge density:   683.90087 new  685.76108
    0.864E+01
DAV:  57    -0.670894577726E+07   -0.66432E+07   -0.18774E+04  7632   0.368E+02BRMIX: very serious problems
 the old and the new charge density differ
 old charge density:   685.76108 new  690.77104
    0.846E+01
DAV:  58    -0.840693397950E+05    0.66249E+07   -0.15553E+04  7716   0.359E+02BRMIX: very serious problems
 the old and the new charge density differ
 old charge density:   690.77104 new  700.63158
    0.833E+01
DAV:  59    -0.100880882314E+06   -0.16812E+05   -0.25899E+05  7848   0.365E+02BRMIX: very serious problems
 the old and the new charge density differ
 old charge density:   700.63158 new  677.26358
    0.948E+01
DAV:  60    -0.623181966981E+05    0.38563E+05   -0.22230E+04  7296   0.347E+02BRMIX: very serious problems
 the old and the new charge density differ
 old charge density:   677.26358 new  679.25854
    0.765E+01
DAV:  61    -0.357712251771E+06   -0.29539E+06   -0.28576E+06  7968   0.345E+02BRMIX: very serious problems
 the old and the new charge density differ
 old charge density:   679.25854 new  683.89117
    0.122E+02
DAV:  62    -0.677131685578E+05    0.29000E+06   -0.23556E+04  7788   0.362E+02BRMIX: very serious problems
 the old and the new charge density differ
 old charge density:   683.89117 new  672.54166
    0.761E+01
DAV:  63    -0.159295825129E+08   -0.15862E+08   -0.15546E+07  8184   0.343E+02BRMIX: very serious problems
 the old and the new charge density differ
 old charge density:   672.54166 new  693.85008
    0.195E+02
DAV:  64    -0.859786029970E+05    0.15844E+08   -0.18217E+05  7224   0.355E+02BRMIX: very serious problems
 the old and the new charge density differ
 old charge density:   693.85008 new  705.49851
    0.110E+02
DAV:  65    -0.103542452888E+06   -0.17564E+05   -0.17298E+04  7968   0.336E+02BRMIX: very serious problems
 the old and the new charge density differ
 old charge density:   705.49851 new  694.33280
    0.832E+01
DAV:  66    -0.769007737198E+05    0.26642E+05   -0.15078E+04  7848   0.372E+02BRMIX: very serious problems
 the old and the new charge density differ
 old charge density:   694.33280 new  685.28363
    0.785E+01
DAV:  67    -0.167496170848E+06   -0.90595E+05   -0.97417E+05  7968   0.356E+02BRMIX: very serious problems
 the old and the new charge density differ
 old charge density:   685.28363 new  682.39728
    0.930E+01
DAV:  68    -0.660528955017E+05    0.10144E+06   -0.21431E+04  7716   0.365E+02BRMIX: very serious problems
 the old and the new charge density differ
 old charge density:   682.39728 new  684.50091
    0.776E+01
DAV:  69    -0.385573606991E+07   -0.37897E+07   -0.16384E+04  7944   0.363E+02BRMIX: very serious problems
 the old and the new charge density differ
 old charge density:   684.50091 new  674.49577
    0.795E+01
DAV:  70    -0.640798853550E+05    0.37917E+07   -0.19276E+04  7572   0.328E+02BRMIX: very serious problems
 the old and the new charge density differ
 old charge density:   674.49577 new  691.52229
    0.792E+01
DAV:  71    -0.516398290948E+07   -0.50999E+07   -0.25867E+06  8088   0.367E+02BRMIX: very serious problems
 the old and the new charge density differ
 old charge density:   691.52229 new  692.40159
    0.157E+02
DAV:  72    -0.508126905483E+05    0.51132E+07   -0.25376E+04  7728   0.368E+02BRMIX: very serious problems
 the old and the new charge density differ
 old charge density:   692.40159 new  685.18835
    0.784E+01
DAV:  73    -0.476588733097E+07   -0.47151E+07   -0.16835E+04  7764   0.345E+02BRMIX: very serious problems
 the old and the new charge density differ
 old charge density:   685.18835 new  685.52873
    0.847E+01
DAV:  74    -0.635874320591E+05    0.47023E+07   -0.17126E+04  7644   0.344E+02BRMIX: very serious problems
 the old and the new charge density differ
 old charge density:   685.52873 new  693.57206
    0.816E+01
DAV:  75    -0.878101027748E+07   -0.87174E+07   -0.90610E+06  7884   0.359E+02BRMIX: very serious problems
 the old and the new charge density differ
 old charge density:   693.57206 new  689.36111
    0.160E+02
DAV:  76    -0.614727874403E+05    0.87195E+07   -0.25883E+04  7716   0.361E+02BRMIX: very serious problems
 the old and the new charge density differ
 old charge density:   689.36111 new  703.13306
    0.875E+01
DAV:  77    -0.751996404487E+06   -0.69052E+06   -0.67278E+06  8112   0.346E+02BRMIX: very serious problems
 the old and the new charge density differ
 old charge density:   703.13306 new  689.47657
    0.998E+01
DAV:  78    -0.134599942032E+06    0.61740E+06   -0.62263E+05  7608   0.366E+02BRMIX: very serious problems
 the old and the new charge density differ
 old charge density:   689.47657 new  682.88159
    0.983E+01
DAV:  79    -0.877339921696E+05    0.46866E+05   -0.20372E+04  7848   0.349E+02BRMIX: very serious problems
 the old and the new charge density differ
 old charge density:   682.88159 new  678.86049
    0.854E+01
DAV:  80    -0.588122344124E+07   -0.57935E+07   -0.32160E+06  7764   0.350E+02BRMIX: very serious problems
 the old and the new charge density differ
 old charge density:   678.86049 new  688.89923
    0.117E+02
DAV:  81    -0.159920873555E+08   -0.10111E+08   -0.25212E+04  7008   0.433E+02BRMIX: very serious problems
 the old and the new charge density differ
 old charge density:   688.89923 new  795.38975
    0.662E+01
DAV:  82    -0.104603949281E+06    0.15887E+08    0.65351E+02  7296   0.400E+02BRMIX: very serious problems
 the old and the new charge density differ
 old charge density:   795.38975 new  791.06014
    0.390E+01
DAV:  83    -0.631604402663E+07   -0.62114E+07    0.14539E+03  7620   0.404E+02BRMIX: very serious problems
 the old and the new charge density differ
 old charge density:   791.06014 new  791.14011
    0.456E+01
DAV:  84    -0.778120726406E+05    0.62382E+07    0.18960E+03  7416   0.433E+02BRMIX: very serious problems
 the old and the new charge density differ
 old charge density:   791.14011 new  788.91430
    0.345E+01
DAV:  85    -0.949351957774E+06   -0.87154E+06   -0.87000E+06  7824   0.402E+02BRMIX: very serious problems
 the old and the new charge density differ
 old charge density:   788.91430 new  782.56813
    0.733E+01
DAV:  86    -0.150972585393E+08   -0.14148E+08   -0.33675E+06  7740   0.433E+02BRMIX: very serious problems
 the old and the new charge density differ
 old charge density:   782.56813 new  769.74601
    0.169E+02
DAV:  87    -0.137655361423E+06    0.14960E+08   -0.12302E+04  7380   0.373E+02BRMIX: very serious problems
 the old and the new charge density differ
 old charge density:   769.74601 new  795.84094
    0.426E+01
DAV:  88    -0.142142824083E+06   -0.44875E+04    0.35141E+03  8292   0.420E+02BRMIX: very serious problems
 the old and the new charge density differ
 old charge density:   795.84094 new  790.09256
    0.378E+01
DAV:  89    -0.161847700688E+08   -0.16043E+08    0.28746E+03  7740   0.434E+02BRMIX: very serious problems
 the old and the new charge density differ
 old charge density:   790.09256 new  788.24804
    0.685E+01
DAV:  90    -0.897529756971E+06    0.15287E+08   -0.80679E+06  7296   0.404E+02BRMIX: very serious problems
 the old and the new charge density differ
 old charge density:   788.24804 new  798.39342
    0.916E+01
DAV:  91    -0.178213818215E+06    0.71932E+06   -0.67508E+05  7920   0.399E+02BRMIX: very serious problems
 the old and the new charge density differ
 old charge density:   798.39342 new  788.72304
    0.483E+01
DAV:  92    -0.751318421078E+07   -0.73350E+07   -0.35650E+02  8028   0.420E+02BRMIX: very serious problems
 the old and the new charge density differ
 old charge density:   788.72304 new  778.09606
    0.369E+01
DAV:  93    -0.865660369656E+06    0.66475E+07   -0.76473E+06  7560   0.397E+02BRMIX: very serious problems
 the old and the new charge density differ
 old charge density:   778.09606 new  787.64821
    0.756E+01
DAV:  94    -0.264886945413E+08   -0.25623E+08   -0.66937E+06  7728   0.403E+02BRMIX: very serious problems
 the old and the new charge density differ
 old charge density:   787.64821 new  765.31732
    0.189E+02
DAV:  95    -0.187517878008E+08    0.77369E+07   -0.13382E+04  7116   0.356E+02BRMIX: very serious problems
 the old and the new charge density differ
 old charge density:   765.31732 new  807.25821
    0.373E+01
DAV:  96    -0.137877508407E+06    0.18614E+08    0.57424E+03  7716   0.398E+02BRMIX: very serious problems
 the old and the new charge density differ
 old charge density:   807.25821 new  807.84368
    0.390E+01
DAV:  97    -0.153977630739E+06   -0.16100E+05    0.40731E+03  7728   0.396E+02BRMIX: very serious problems
 the old and the new charge density differ
 old charge density:   807.84368 new  792.64872
    0.278E+01
DAV:  98    -0.102841518818E+08   -0.10130E+08   -0.13824E+07  7668   0.408E+02BRMIX: very serious problems
 the old and the new charge density differ
 old charge density:   792.64872 new  784.37675
    0.108E+02
DAV:  99    -0.247950350408E+06    0.10036E+08   -0.15291E+06  7440   0.378E+02BRMIX: very serious problems
 the old and the new charge density differ
 old charge density:   784.37675 new  799.24325
    0.415E+01
DAV: 100    -0.662450941466E+07   -0.63766E+07    0.14362E+03  7992   0.411E+02BRMIX: very serious problems
 the old and the new charge density differ
 old charge density:   799.24325 new  781.39903
    0.391E+01
DAV: 101    -0.799324766267E+07   -0.13687E+07   -0.22832E+06  8340   0.386E+02BRMIX: very serious problems
 the old and the new charge density differ
 old charge density:   781.39903 new  796.38162
    0.755E+01
DAV: 102    -0.722860680031E+07    0.76464E+06   -0.10594E+05  7872   0.400E+02BRMIX: very serious problems
 the old and the new charge density differ
 old charge density:   796.38162 new  783.87058
    0.560E+01
DAV: 103    -0.556969346983E+06    0.66716E+07   -0.60490E+05  8244   0.348E+02BRMIX: very serious problems
 the old and the new charge density differ
 old charge density:   783.87058 new  810.58593
    0.274E+01
DAV: 104    -0.148828753733E+08   -0.14326E+08   -0.63019E+06  7908   0.413E+02BRMIX: very serious problems
 the old and the new charge density differ
 old charge density:   810.58593 new  773.98903
    0.923E+01
DAV: 105    -0.204223092524E+08   -0.55394E+07   -0.11616E+05  7740   0.313E+02BRMIX: very serious problems
 the old and the new charge density differ
 old charge density:   773.98903 new  796.40376
    0.520E+01
DAV: 106    -0.146526172151E+08    0.57697E+07   -0.60803E+07  7932   0.369E+02BRMIX: very serious problems
 the old and the new charge density differ
 old charge density:   796.40376 new  798.76794
    0.112E+02
DAV: 107    -0.726126506764E+07    0.73914E+07   -0.65539E+03  7488   0.357E+02BRMIX: very serious problems
 the old and the new charge density differ
 old charge density:   798.76794 new  778.98935
    0.396E+01
DAV: 108    -0.656467378233E+06    0.66048E+07   -0.54019E+06  7512   0.377E+02BRMIX: very serious problems
 the old and the new charge density differ
 old charge density:   778.98935 new  777.48069
    0.755E+01
DAV: 109    -0.108887991575E+08   -0.10232E+08   -0.92767E+06  7632   0.393E+02BRMIX: very serious problems
 the old and the new charge density differ
 old charge density:   777.48069 new  752.92290
    0.558E+01
DAV: 110    -0.174156515973E+08   -0.65269E+07   -0.40232E+06  7140   0.358E+02BRMIX: very serious problems
 the old and the new charge density differ
 old charge density:   752.92290 new  755.78416
    0.369E+01
DAV: 111    -0.277752057310E+08   -0.10360E+08   -0.28749E+07  7644   0.385E+02BRMIX: very serious problems
 the old and the new charge density differ
 old charge density:   755.78416 new  743.94868
    0.919E+01
DAV: 112    -0.435696659355E+07    0.23418E+08   -0.21095E+05  7128   0.410E+02BRMIX: very serious problems
 the old and the new charge density differ
 old charge density:   743.94868 new  721.53603
    0.437E+01
DAV: 113    -0.104512579145E+08   -0.60943E+07   -0.13781E+04  7320   0.423E+02BRMIX: very serious problems
 the old and the new charge density differ
 old charge density:   721.53603 new  709.93176
    0.625E+01
DAV: 114    -0.513212252806E+07    0.53191E+07   -0.19705E+07  7560   0.472E+02BRMIX: very serious problems
 the old and the new charge density differ
 old charge density:   709.93176 new  724.21218
    0.745E+01
DAV: 115    -0.181212762905E+08   -0.12989E+08   -0.15933E+07  7716   0.452E+02BRMIX: very serious problems
 the old and the new charge density differ
 old charge density:   724.21218 new  713.17396
    0.123E+02
DAV: 116    -0.138469900967E+08    0.42743E+07   -0.26460E+04  7824   0.498E+02BRMIX: very serious problems
 the old and the new charge density differ
 old charge density:   713.17396 new  691.95468
    0.594E+01
DAV: 117    -0.427135766389E+06    0.13420E+08   -0.22365E+06  7056   0.438E+02BRMIX: very serious problems
 the old and the new charge density differ
 old charge density:   691.95468 new  711.89814
    0.325E+01
DAV: 118    -0.116988201699E+08   -0.11272E+08   -0.89063E+06  7908   0.486E+02BRMIX: very serious problems
 the old and the new charge density differ
 old charge density:   711.89814 new  722.68461
    0.557E+01
DAV: 119    -0.238583511365E+07    0.93130E+07   -0.14538E+07  7560   0.543E+02BRMIX: very serious problems
 the old and the new charge density differ
 old charge density:   722.68461 new  709.13437
    0.924E+01
DAV: 120    -0.313877905952E+08   -0.29002E+08   -0.42014E+07  7860   0.497E+02BRMIX: very serious problems
 the old and the new charge density differ
 old charge density:   709.13437 new  690.50373
    0.136E+02
DAV: 121    -0.288034502624E+07    0.28507E+08   -0.17085E+07  7296   0.408E+02BRMIX: very serious problems
 the old and the new charge density differ
 old charge density:   690.50373 new  747.23934
    0.696E+01
DAV: 122    -0.106876701407E+08   -0.78073E+07   -0.34239E+04  7464   0.532E+02BRMIX: very serious problems
 the old and the new charge density differ
 old charge density:   747.23934 new  702.93308
    0.511E+01
DAV: 123    -0.186954789013E+08   -0.80078E+07   -0.87475E+05  7224   0.549E+02BRMIX: very serious problems
 the old and the new charge density differ
 old charge density:   702.93308 new  708.04485
    0.483E+01
DAV: 124    -0.225766953070E+08   -0.38812E+07   -0.22757E+07  7848   0.523E+02BRMIX: very serious problems
 the old and the new charge density differ
 old charge density:   708.04485 new  712.38349
    0.145E+02
DAV: 125    -0.135276355122E+07    0.21224E+08   -0.11363E+06  7248   0.508E+02BRMIX: very serious problems
 the old and the new charge density differ
 old charge density:   712.38349 new  754.65702
    0.481E+01
DAV: 126    -0.155272270172E+08   -0.14174E+08   -0.20841E+07  8052   0.543E+02BRMIX: very serious problems
 the old and the new charge density differ
 old charge density:   754.65702 new  717.20501
    0.139E+02
DAV: 127    -0.326007601707E+08   -0.17074E+08   -0.41835E+07  7620   0.486E+02BRMIX: very serious problems
 the old and the new charge density differ
 old charge density:   717.20501 new  718.27893
    0.112E+02
DAV: 128    -0.891990693716E+07    0.23681E+08   -0.12765E+05  7284   0.430E+02BRMIX: very serious problems
 the old and the new charge density differ
 old charge density:   718.27893 new  721.36209
    0.445E+01
DAV: 129    -0.183524149126E+09   -0.17460E+09   -0.72275E+08  8208   0.492E+02BRMIX: very serious problems
 the old and the new charge density differ
 old charge density:   721.36209 new  725.00371
    0.120E+02
 WARNING: Sub-Space-Matrix is not hermitian in DAV            4
  1.278329472125418E-005
 WARNING: Sub-Space-Matrix is not hermitian in DAV            4
  1.278329472125418E-005
 WARNING: Sub-Space-Matrix is not hermitian in DAV            4
  1.278329472125418E-005
 WARNING: Sub-Space-Matrix is not hermitian in DAV            4
  1.278329472125418E-005
 WARNING: Sub-Space-Matrix is not hermitian in DAV            4
  1.278329472125418E-005
 WARNING: Sub-Space-Matrix is not hermitian in DAV            4
  1.278329472125418E-005
 WARNING: Sub-Space-Matrix is not hermitian in DAV            4
  1.278329472125418E-005
 WARNING: Sub-Space-Matrix is not hermitian in DAV            4
  1.278329472125418E-005
 WARNING: Sub-Space-Matrix is not hermitian in DAV            4
  1.278329472125418E-005
 WARNING: Sub-Space-Matrix is not hermitian in DAV            4
  1.278329472125418E-005
 WARNING: Sub-Space-Matrix is not hermitian in DAV            4
  1.278329472125418E-005
 WARNING: Sub-Space-Matrix is not hermitian in DAV            4
  1.278329472125418E-005
 WARNING: Sub-Space-Matrix is not hermitian in DAV            4
  1.278329472125418E-005
 WARNING: Sub-Space-Matrix is not hermitian in DAV            4
  1.278329472125418E-005
 WARNING: Sub-Space-Matrix is not hermitian in DAV            4
  1.278329472125418E-005
 WARNING: Sub-Space-Matrix is not hermitian in DAV            4
  1.278329472125418E-005
 WARNING: Sub-Space-Matrix is not hermitian in DAV            4
  1.278329472125418E-005
 WARNING: Sub-Space-Matrix is not hermitian in DAV            4
  1.278329472125418E-005
 WARNING: Sub-Space-Matrix is not hermitian in DAV            4
  1.278329472125418E-005
 WARNING: Sub-Space-Matrix is not hermitian in DAV            4
  1.278329472125418E-005
 WARNING: Sub-Space-Matrix is not hermitian in DAV            4
  1.278329472125418E-005
 WARNING: Sub-Space-Matrix is not hermitian in DAV            4
  1.278329472125418E-005
 WARNING: Sub-Space-Matrix is not hermitian in DAV            4
  1.278329472125418E-005
 WARNING: Sub-Space-Matrix is not hermitian in DAV            4
  1.278329472125418E-005
 WARNING: Sub-Space-Matrix is not hermitian in DAV            4
  1.278329472125418E-005
 WARNING: Sub-Space-Matrix is not hermitian in DAV            4
  1.278329472125418E-005
 WARNING: Sub-Space-Matrix is not hermitian in DAV            4
  1.278329472125418E-005
 WARNING: Sub-Space-Matrix is not hermitian in DAV            4
  1.278329472125418E-005
 WARNING: Sub-Space-Matrix is not hermitian in DAV            4
  1.278329472125418E-005
 WARNING: Sub-Space-Matrix is not hermitian in DAV            4
  1.278329472125418E-005
 WARNING: Sub-Space-Matrix is not hermitian in DAV            4
  1.278329472125418E-005
 WARNING: Sub-Space-Matrix is not hermitian in DAV            4
  1.278329472125418E-005
 WARNING: Sub-Space-Matrix is not hermitian in DAV            4
  1.278329472125418E-005
 WARNING: Sub-Space-Matrix is not hermitian in DAV            4
  1.278329472125418E-005
 WARNING: Sub-Space-Matrix is not hermitian in DAV            4
  1.278329472125418E-005
 WARNING: Sub-Space-Matrix is not hermitian in DAV            4
  1.278329472125418E-005
 WARNING: Sub-Space-Matrix is not hermitian in DAV            4
  1.278329472125418E-005
 WARNING: Sub-Space-Matrix is not hermitian in DAV            4
  1.278329472125418E-005
 WARNING: Sub-Space-Matrix is not hermitian in DAV            4
  1.278329472125418E-005
 WARNING: Sub-Space-Matrix is not hermitian in DAV            4
  1.278329472125418E-005
 WARNING: Sub-Space-Matrix is not hermitian in DAV            4
  1.278329472125418E-005
 WARNING: Sub-Space-Matrix is not hermitian in DAV            4
  1.278329472125418E-005
DAV: 130    -0.598455216364E+07    0.17754E+09   -0.35117E+05  7524   0.429E+02BRMIX: very serious problems
 the old and the new charge density differ
 old charge density:   725.00371 new  690.78914
    0.801E+01
DAV: 131    -0.113719500504E+09   -0.10773E+09   -0.71276E+06  7500   0.484E+02BRMIX: very serious problems
 the old and the new charge density differ
 old charge density:   690.78914 new  666.70967
    0.125E+02
DAV: 132    -0.338223360762E+08    0.79897E+08   -0.49497E+06  7092   0.433E+02BRMIX: very serious problems
 the old and the new charge density differ
 old charge density:   666.70967 new  709.05165
    0.715E+01
DAV: 133    -0.365517291084E+07    0.30167E+08   -0.75561E+06  7428   0.449E+02BRMIX: very serious problems
 the old and the new charge density differ
 old charge density:   709.05165 new  721.10458
    0.598E+01
DAV: 134    -0.350399049611E+08   -0.31385E+08   -0.76638E+07  8016   0.454E+02BRMIX: very serious problems
 the old and the new charge density differ
 old charge density:   721.10458 new  712.06422
    0.102E+02
 WARNING: Sub-Space-Matrix is not hermitian in DAV            9
 -1.177031197483139E-005
 WARNING: Sub-Space-Matrix is not hermitian in DAV            9
 -1.177031197483139E-005
 WARNING: Sub-Space-Matrix is not hermitian in DAV            9
 -1.177031197483139E-005
 WARNING: Sub-Space-Matrix is not hermitian in DAV            9
 -1.177031197483139E-005
 WARNING: Sub-Space-Matrix is not hermitian in DAV            9
 -1.177031197483139E-005
 WARNING: Sub-Space-Matrix is not hermitian in DAV            9
 -1.177031197483139E-005
 WARNING: Sub-Space-Matrix is not hermitian in DAV            9
 -1.177031197483139E-005
 WARNING: Sub-Space-Matrix is not hermitian in DAV            9
 -1.177031197483139E-005
 WARNING: Sub-Space-Matrix is not hermitian in DAV            9
 -1.177031197483139E-005
 WARNING: Sub-Space-Matrix is not hermitian in DAV            9
 -1.177031197483139E-005
 WARNING: Sub-Space-Matrix is not hermitian in DAV            9
 -1.177031197483139E-005
 WARNING: Sub-Space-Matrix is not hermitian in DAV            9
 -1.177031197483139E-005
 WARNING: Sub-Space-Matrix is not hermitian in DAV            9
 -1.177031197483139E-005
 WARNING: Sub-Space-Matrix is not hermitian in DAV            9
 -1.177031197483139E-005
 WARNING: Sub-Space-Matrix is not hermitian in DAV            9
 -1.177031197483139E-005
 WARNING: Sub-Space-Matrix is not hermitian in DAV            9
 -1.177031197483139E-005
 WARNING: Sub-Space-Matrix is not hermitian in DAV            9
 -1.177031197483139E-005
 WARNING: Sub-Space-Matrix is not hermitian in DAV            9
 -1.177031197483139E-005
 WARNING: Sub-Space-Matrix is not hermitian in DAV            9
 -1.177031197483139E-005
 WARNING: Sub-Space-Matrix is not hermitian in DAV            9
 -1.177031197483139E-005
 WARNING: Sub-Space-Matrix is not hermitian in DAV            9
 -1.177031197483139E-005
 WARNING: Sub-Space-Matrix is not hermitian in DAV            9
 -1.177031197483139E-005
 WARNING: Sub-Space-Matrix is not hermitian in DAV            9
 -1.177031197483139E-005
 WARNING: Sub-Space-Matrix is not hermitian in DAV            9
 -1.177031197483139E-005
 WARNING: Sub-Space-Matrix is not hermitian in DAV            9
 -1.177031197483139E-005
 WARNING: Sub-Space-Matrix is not hermitian in DAV            9
 -1.177031197483139E-005
 WARNING: Sub-Space-Matrix is not hermitian in DAV            9
 -1.177031197483139E-005
 WARNING: Sub-Space-Matrix is not hermitian in DAV            9
 -1.177031197483139E-005
 WARNING: Sub-Space-Matrix is not hermitian in DAV            9
 -1.177031197483139E-005
 WARNING: Sub-Space-Matrix is not hermitian in DAV            9
 -1.177031197483139E-005
 WARNING: Sub-Space-Matrix is not hermitian in DAV            9
 -1.177031197483139E-005
 WARNING: Sub-Space-Matrix is not hermitian in DAV            9
 -1.177031197483139E-005
 WARNING: Sub-Space-Matrix is not hermitian in DAV            9
 -1.177031197483139E-005
 WARNING: Sub-Space-Matrix is not hermitian in DAV            9
 -1.177031197483139E-005
 WARNING: Sub-Space-Matrix is not hermitian in DAV            9
 -1.177031197483139E-005
 WARNING: Sub-Space-Matrix is not hermitian in DAV            9
 -1.177031197483139E-005
 WARNING: Sub-Space-Matrix is not hermitian in DAV            9
 -1.177031197483139E-005
 WARNING: Sub-Space-Matrix is not hermitian in DAV            9
 -1.177031197483139E-005
 WARNING: Sub-Space-Matrix is not hermitian in DAV            9
 -1.177031197483139E-005
 WARNING: Sub-Space-Matrix is not hermitian in DAV            9
 -1.177031197483139E-005
 WARNING: Sub-Space-Matrix is not hermitian in DAV            9
 -1.177031197483139E-005
 WARNING: Sub-Space-Matrix is not hermitian in DAV            9
 -1.177031197483139E-005
DAV: 135    -0.902277537263E+08   -0.55188E+08   -0.34500E+08  7620   0.434E+02BRMIX: very serious problems
 the old and the new charge density differ
 old charge density:   712.06422 new  733.54841
    0.820E+01
DAV: 136    -0.139907263117E+08    0.76237E+08   -0.58057E+07  7536   0.422E+02BRMIX: very serious problems
 the old and the new charge density differ
 old charge density:   733.54841 new  697.46651
    0.723E+01
 WARNING: Sub-Space-Matrix is not hermitian in DAV            4
  1.030718408049229E-005
 WARNING: Sub-Space-Matrix is not hermitian in DAV            4
  1.030718408049229E-005
 WARNING: Sub-Space-Matrix is not hermitian in DAV            4
  1.030718408049229E-005
 WARNING: Sub-Space-Matrix is not hermitian in DAV            4
  1.030718408049229E-005
 WARNING: Sub-Space-Matrix is not hermitian in DAV            4
  1.030718408049229E-005
 WARNING: Sub-Space-Matrix is not hermitian in DAV            4
  1.030718408049229E-005
 WARNING: Sub-Space-Matrix is not hermitian in DAV            4
  1.030718408049229E-005
 WARNING: Sub-Space-Matrix is not hermitian in DAV            4
  1.030718408049229E-005
 WARNING: Sub-Space-Matrix is not hermitian in DAV            4
  1.030718408049229E-005
 WARNING: Sub-Space-Matrix is not hermitian in DAV            4
  1.030718408049229E-005
 WARNING: Sub-Space-Matrix is not hermitian in DAV            4
  1.030718408049229E-005
 WARNING: Sub-Space-Matrix is not hermitian in DAV            4
  1.030718408049229E-005
 WARNING: Sub-Space-Matrix is not hermitian in DAV            4
  1.030718408049229E-005
 WARNING: Sub-Space-Matrix is not hermitian in DAV            4
  1.030718408049229E-005
 WARNING: Sub-Space-Matrix is not hermitian in DAV            4
  1.030718408049229E-005
 WARNING: Sub-Space-Matrix is not hermitian in DAV            4
  1.030718408049229E-005
 WARNING: Sub-Space-Matrix is not hermitian in DAV            4
  1.030718408049229E-005
 WARNING: Sub-Space-Matrix is not hermitian in DAV            4
  1.030718408049229E-005
 WARNING: Sub-Space-Matrix is not hermitian in DAV            4
  1.030718408049229E-005
 WARNING: Sub-Space-Matrix is not hermitian in DAV            4
  1.030718408049229E-005
 WARNING: Sub-Space-Matrix is not hermitian in DAV            4
  1.030718408049229E-005
 WARNING: Sub-Space-Matrix is not hermitian in DAV            4
  1.030718408049229E-005
 WARNING: Sub-Space-Matrix is not hermitian in DAV            4
  1.030718408049229E-005
 WARNING: Sub-Space-Matrix is not hermitian in DAV            4
  1.030718408049229E-005
 WARNING: Sub-Space-Matrix is not hermitian in DAV            4
  1.030718408049229E-005
 WARNING: Sub-Space-Matrix is not hermitian in DAV            4
  1.030718408049229E-005
 WARNING: Sub-Space-Matrix is not hermitian in DAV            4
  1.030718408049229E-005
 WARNING: Sub-Space-Matrix is not hermitian in DAV            4
  1.030718408049229E-005
 WARNING: Sub-Space-Matrix is not hermitian in DAV            4
  1.030718408049229E-005
 WARNING: Sub-Space-Matrix is not hermitian in DAV            4
  1.030718408049229E-005
 WARNING: Sub-Space-Matrix is not hermitian in DAV            4
  1.030718408049229E-005
 WARNING: Sub-Space-Matrix is not hermitian in DAV            4
  1.030718408049229E-005
 WARNING: Sub-Space-Matrix is not hermitian in DAV            4
  1.030718408049229E-005
 WARNING: Sub-Space-Matrix is not hermitian in DAV            4
  1.030718408049229E-005
 WARNING: Sub-Space-Matrix is not hermitian in DAV            4
  1.030718408049229E-005
 WARNING: Sub-Space-Matrix is not hermitian in DAV            4
  1.030718408049229E-005
 WARNING: Sub-Space-Matrix is not hermitian in DAV            4
  1.030718408049229E-005
 WARNING: Sub-Space-Matrix is not hermitian in DAV            4
  1.030718408049229E-005
 WARNING: Sub-Space-Matrix is not hermitian in DAV            4
  1.030718408049229E-005
 WARNING: Sub-Space-Matrix is not hermitian in DAV            4
  1.030718408049229E-005
 WARNING: Sub-Space-Matrix is not hermitian in DAV            4
  1.030718408049229E-005
 WARNING: Sub-Space-Matrix is not hermitian in DAV            4
  1.030718408049229E-005
DAV: 137    -0.453697842757E+08   -0.31379E+08   -0.13340E+08  8136   0.430E+02BRMIX: very serious problems
 the old and the new charge density differ
 old charge density:   697.46651 new  727.06427
    0.106E+02
 WARNING: Sub-Space-Matrix is not hermitian in DAV           17
  3.389812639737575E-005
 WARNING: Sub-Space-Matrix is not hermitian in DAV           17
  3.389812639737575E-005
 WARNING: Sub-Space-Matrix is not hermitian in DAV           17
  3.389812639737575E-005
 WARNING: Sub-Space-Matrix is not hermitian in DAV           17
  3.389812639737575E-005
 WARNING: Sub-Space-Matrix is not hermitian in DAV           17
  3.389812639737575E-005
 WARNING: Sub-Space-Matrix is not hermitian in DAV           17
  3.389812639737575E-005
 WARNING: Sub-Space-Matrix is not hermitian in DAV           17
  3.389812639737575E-005
 WARNING: Sub-Space-Matrix is not hermitian in DAV           17
  3.389812639737575E-005
 WARNING: Sub-Space-Matrix is not hermitian in DAV           17
  3.389812639737575E-005
 WARNING: Sub-Space-Matrix is not hermitian in DAV           17
  3.389812639737575E-005
 WARNING: Sub-Space-Matrix is not hermitian in DAV           17
  3.389812639737575E-005
 WARNING: Sub-Space-Matrix is not hermitian in DAV           17
  3.389812639737575E-005
 WARNING: Sub-Space-Matrix is not hermitian in DAV           17
  3.389812639737575E-005
 WARNING: Sub-Space-Matrix is not hermitian in DAV           17
  3.389812639737575E-005
 WARNING: Sub-Space-Matrix is not hermitian in DAV           17
  3.389812639737575E-005
 WARNING: Sub-Space-Matrix is not hermitian in DAV           17
  3.389812639737575E-005
 WARNING: Sub-Space-Matrix is not hermitian in DAV           17
  3.389812639737575E-005
 WARNING: Sub-Space-Matrix is not hermitian in DAV           17
  3.389812639737575E-005
 WARNING: Sub-Space-Matrix is not hermitian in DAV           17
  3.389812639737575E-005
 WARNING: Sub-Space-Matrix is not hermitian in DAV           17
  3.389812639737575E-005
 WARNING: Sub-Space-Matrix is not hermitian in DAV           17
  3.389812639737575E-005
 WARNING: Sub-Space-Matrix is not hermitian in DAV           17
  3.389812639737575E-005
 WARNING: Sub-Space-Matrix is not hermitian in DAV           17
  3.389812639737575E-005
 WARNING: Sub-Space-Matrix is not hermitian in DAV           17
  3.389812639737575E-005
 WARNING: Sub-Space-Matrix is not hermitian in DAV           17
  3.389812639737575E-005
 WARNING: Sub-Space-Matrix is not hermitian in DAV           17
  3.389812639737575E-005
 WARNING: Sub-Space-Matrix is not hermitian in DAV           17
  3.389812639737575E-005
 WARNING: Sub-Space-Matrix is not hermitian in DAV           17
  3.389812639737575E-005
 WARNING: Sub-Space-Matrix is not hermitian in DAV           17
  3.389812639737575E-005
 WARNING: Sub-Space-Matrix is not hermitian in DAV           17
  3.389812639737575E-005
 WARNING: Sub-Space-Matrix is not hermitian in DAV           17
  3.389812639737575E-005
 WARNING: Sub-Space-Matrix is not hermitian in DAV           17
  3.389812639737575E-005
 WARNING: Sub-Space-Matrix is not hermitian in DAV           17
  3.389812639737575E-005
 WARNING: Sub-Space-Matrix is not hermitian in DAV           17
  3.389812639737575E-005
 WARNING: Sub-Space-Matrix is not hermitian in DAV           17
  3.389812639737575E-005
 WARNING: Sub-Space-Matrix is not hermitian in DAV           17
  3.389812639737575E-005
 WARNING: Sub-Space-Matrix is not hermitian in DAV           17
  3.389812639737575E-005
 WARNING: Sub-Space-Matrix is not hermitian in DAV           17
  3.389812639737575E-005
 WARNING: Sub-Space-Matrix is not hermitian in DAV           17
  3.389812639737575E-005
 WARNING: Sub-Space-Matrix is not hermitian in DAV           17
  3.389812639737575E-005
 WARNING: Sub-Space-Matrix is not hermitian in DAV           17
  3.389812639737575E-005
 WARNING: Sub-Space-Matrix is not hermitian in DAV           17
  3.389812639737575E-005
 WARNING: Sub-Space-Matrix is not hermitian in DAV           14
 -4.555578756778076E-005
 WARNING: Sub-Space-Matrix is not hermitian in DAV           14
 -4.555578756778076E-005
 WARNING: Sub-Space-Matrix is not hermitian in DAV           14
 -4.555578756778076E-005
 WARNING: Sub-Space-Matrix is not hermitian in DAV           14
 -4.555578756778076E-005
 WARNING: Sub-Space-Matrix is not hermitian in DAV           14
 -4.555578756778076E-005
 WARNING: Sub-Space-Matrix is not hermitian in DAV           14
 -4.555578756778076E-005
 WARNING: Sub-Space-Matrix is not hermitian in DAV           14
 -4.555578756778076E-005
 WARNING: Sub-Space-Matrix is not hermitian in DAV           14
 -4.555578756778076E-005
 WARNING: Sub-Space-Matrix is not hermitian in DAV           14
 -4.555578756778076E-005
 WARNING: Sub-Space-Matrix is not hermitian in DAV           14
 -4.555578756778076E-005
 WARNING: Sub-Space-Matrix is not hermitian in DAV           14
 -4.555578756778076E-005
 WARNING: Sub-Space-Matrix is not hermitian in DAV           14
 -4.555578756778076E-005
 WARNING: Sub-Space-Matrix is not hermitian in DAV           14
 -4.555578756778076E-005
 WARNING: Sub-Space-Matrix is not hermitian in DAV           14
 -4.555578756778076E-005
 WARNING: Sub-Space-Matrix is not hermitian in DAV           14
 -4.555578756778076E-005
 WARNING: Sub-Space-Matrix is not hermitian in DAV           14
 -4.555578756778076E-005
 WARNING: Sub-Space-Matrix is not hermitian in DAV           14
 -4.555578756778076E-005
 WARNING: Sub-Space-Matrix is not hermitian in DAV           14
 -4.555578756778076E-005
 WARNING: Sub-Space-Matrix is not hermitian in DAV           14
 -4.555578756778076E-005
 WARNING: Sub-Space-Matrix is not hermitian in DAV           14
 -4.555578756778076E-005
 WARNING: Sub-Space-Matrix is not hermitian in DAV           14
 -4.555578756778076E-005
 WARNING: Sub-Space-Matrix is not hermitian in DAV           14
 -4.555578756778076E-005
 WARNING: Sub-Space-Matrix is not hermitian in DAV           14
 -4.555578756778076E-005
 WARNING: Sub-Space-Matrix is not hermitian in DAV           14
 -4.555578756778076E-005
 WARNING: Sub-Space-Matrix is not hermitian in DAV           14
 -4.555578756778076E-005
 WARNING: Sub-Space-Matrix is not hermitian in DAV           14
 -4.555578756778076E-005
 WARNING: Sub-Space-Matrix is not hermitian in DAV           14
 -4.555578756778076E-005
 WARNING: Sub-Space-Matrix is not hermitian in DAV           14
 -4.555578756778076E-005
 WARNING: Sub-Space-Matrix is not hermitian in DAV           14
 -4.555578756778076E-005
 WARNING: Sub-Space-Matrix is not hermitian in DAV           14
 -4.555578756778076E-005
 WARNING: Sub-Space-Matrix is not hermitian in DAV           14
 -4.555578756778076E-005
 WARNING: Sub-Space-Matrix is not hermitian in DAV           14
 -4.555578756778076E-005
 WARNING: Sub-Space-Matrix is not hermitian in DAV           14
 -4.555578756778076E-005
 WARNING: Sub-Space-Matrix is not hermitian in DAV           14
 -4.555578756778076E-005
 WARNING: Sub-Space-Matrix is not hermitian in DAV           14
 -4.555578756778076E-005
 WARNING: Sub-Space-Matrix is not hermitian in DAV           14
 -4.555578756778076E-005
 WARNING: Sub-Space-Matrix is not hermitian in DAV           14
 -4.555578756778076E-005
 WARNING: Sub-Space-Matrix is not hermitian in DAV           14
 -4.555578756778076E-005
 WARNING: Sub-Space-Matrix is not hermitian in DAV           14
 -4.555578756778076E-005
 WARNING: Sub-Space-Matrix is not hermitian in DAV           14
 -4.555578756778076E-005
 WARNING: Sub-Space-Matrix is not hermitian in DAV           14
 -4.555578756778076E-005
 WARNING: Sub-Space-Matrix is not hermitian in DAV           14
 -4.555578756778076E-005
 WARNING: Sub-Space-Matrix is not hermitian in DAV            1
 -1.000336383637740E-005
 WARNING: Sub-Space-Matrix is not hermitian in DAV            1
 -1.000336383637740E-005
 WARNING: Sub-Space-Matrix is not hermitian in DAV            1
 -1.000336383637740E-005
 WARNING: Sub-Space-Matrix is not hermitian in DAV            1
 -1.000336383637740E-005
 WARNING: Sub-Space-Matrix is not hermitian in DAV            1
 -1.000336383637740E-005
 WARNING: Sub-Space-Matrix is not hermitian in DAV            1
 -1.000336383637740E-005
 WARNING: Sub-Space-Matrix is not hermitian in DAV            1
 -1.000336383637740E-005
 WARNING: Sub-Space-Matrix is not hermitian in DAV            1
 -1.000336383637740E-005
 WARNING: Sub-Space-Matrix is not hermitian in DAV            1
 -1.000336383637740E-005
 WARNING: Sub-Space-Matrix is not hermitian in DAV            1
 -1.000336383637740E-005
 WARNING: Sub-Space-Matrix is not hermitian in DAV            1
 -1.000336383637740E-005
 WARNING: Sub-Space-Matrix is not hermitian in DAV            1
 -1.000336383637740E-005
 WARNING: Sub-Space-Matrix is not hermitian in DAV            1
 -1.000336383637740E-005
 WARNING: Sub-Space-Matrix is not hermitian in DAV            1
 -1.000336383637740E-005
 WARNING: Sub-Space-Matrix is not hermitian in DAV            1
 -1.000336383637740E-005
 WARNING: Sub-Space-Matrix is not hermitian in DAV            1
 -1.000336383637740E-005
 WARNING: Sub-Space-Matrix is not hermitian in DAV            1
 -1.000336383637740E-005
 WARNING: Sub-Space-Matrix is not hermitian in DAV            1
 -1.000336383637740E-005
 WARNING: Sub-Space-Matrix is not hermitian in DAV            1
 -1.000336383637740E-005
 WARNING: Sub-Space-Matrix is not hermitian in DAV            1
 -1.000336383637740E-005
 WARNING: Sub-Space-Matrix is not hermitian in DAV            1
 -1.000336383637740E-005
 WARNING: Sub-Space-Matrix is not hermitian in DAV            1
 -1.000336383637740E-005
 WARNING: Sub-Space-Matrix is not hermitian in DAV            1
 -1.000336383637740E-005
 WARNING: Sub-Space-Matrix is not hermitian in DAV            1
 -1.000336383637740E-005
 WARNING: Sub-Space-Matrix is not hermitian in DAV            1
 -1.000336383637740E-005
 WARNING: Sub-Space-Matrix is not hermitian in DAV            1
 -1.000336383637740E-005
 WARNING: Sub-Space-Matrix is not hermitian in DAV            1
 -1.000336383637740E-005
 WARNING: Sub-Space-Matrix is not hermitian in DAV            1
 -1.000336383637740E-005
 WARNING: Sub-Space-Matrix is not hermitian in DAV            1
 -1.000336383637740E-005
 WARNING: Sub-Space-Matrix is not hermitian in DAV            1
 -1.000336383637740E-005
 WARNING: Sub-Space-Matrix is not hermitian in DAV            1
 -1.000336383637740E-005
 WARNING: Sub-Space-Matrix is not hermitian in DAV            1
 -1.000336383637740E-005
 WARNING: Sub-Space-Matrix is not hermitian in DAV            1
 -1.000336383637740E-005
 WARNING: Sub-Space-Matrix is not hermitian in DAV            1
 -1.000336383637740E-005
 WARNING: Sub-Space-Matrix is not hermitian in DAV            1
 -1.000336383637740E-005
 WARNING: Sub-Space-Matrix is not hermitian in DAV            1
 -1.000336383637740E-005
 WARNING: Sub-Space-Matrix is not hermitian in DAV            1
 -1.000336383637740E-005
 WARNING: Sub-Space-Matrix is not hermitian in DAV            1
 -1.000336383637740E-005
 WARNING: Sub-Space-Matrix is not hermitian in DAV            1
 -1.000336383637740E-005
 WARNING: Sub-Space-Matrix is not hermitian in DAV            1
 -1.000336383637740E-005
 WARNING: Sub-Space-Matrix is not hermitian in DAV            1
 -1.000336383637740E-005
 WARNING: Sub-Space-Matrix is not hermitian in DAV            1
 -1.000336383637740E-005
DAV: 138    -0.850797762442E+08   -0.39710E+08   -0.20543E+08  7716   0.448E+02BRMIX: very serious problems
 the old and the new charge density differ
 old charge density:   727.06427 new  699.47311
    0.131E+02
 WARNING: Sub-Space-Matrix is not hermitian in DAV            1
 -4.117836198841441E-005
 WARNING: Sub-Space-Matrix is not hermitian in DAV            1
 -4.117836198841441E-005
 WARNING: Sub-Space-Matrix is not hermitian in DAV            1
 -4.117836198841441E-005
 WARNING: Sub-Space-Matrix is not hermitian in DAV            1
 -4.117836198841441E-005
 WARNING: Sub-Space-Matrix is not hermitian in DAV            1
 -4.117836198841441E-005
 WARNING: Sub-Space-Matrix is not hermitian in DAV            1
 -4.117836198841441E-005
 WARNING: Sub-Space-Matrix is not hermitian in DAV            1
 -4.117836198841441E-005
 WARNING: Sub-Space-Matrix is not hermitian in DAV            1
 -4.117836198841441E-005
 WARNING: Sub-Space-Matrix is not hermitian in DAV            1
 -4.117836198841441E-005
 WARNING: Sub-Space-Matrix is not hermitian in DAV            1
 -4.117836198841441E-005
 WARNING: Sub-Space-Matrix is not hermitian in DAV            1
 -4.117836198841441E-005
 WARNING: Sub-Space-Matrix is not hermitian in DAV            1
 -4.117836198841441E-005
 WARNING: Sub-Space-Matrix is not hermitian in DAV            1
 -4.117836198841441E-005
 WARNING: Sub-Space-Matrix is not hermitian in DAV            1
 -4.117836198841441E-005
 WARNING: Sub-Space-Matrix is not hermitian in DAV            1
 -4.117836198841441E-005
 WARNING: Sub-Space-Matrix is not hermitian in DAV            1
 -4.117836198841441E-005
 WARNING: Sub-Space-Matrix is not hermitian in DAV            1
 -4.117836198841441E-005
 WARNING: Sub-Space-Matrix is not hermitian in DAV            1
 -4.117836198841441E-005
 WARNING: Sub-Space-Matrix is not hermitian in DAV            1
 -4.117836198841441E-005
 WARNING: Sub-Space-Matrix is not hermitian in DAV            1
 -4.117836198841441E-005
 WARNING: Sub-Space-Matrix is not hermitian in DAV            1
 -4.117836198841441E-005
 WARNING: Sub-Space-Matrix is not hermitian in DAV            1
 -4.117836198841441E-005
 WARNING: Sub-Space-Matrix is not hermitian in DAV            1
 -4.117836198841441E-005
 WARNING: Sub-Space-Matrix is not hermitian in DAV            1
 -4.117836198841441E-005
 WARNING: Sub-Space-Matrix is not hermitian in DAV            1
 -4.117836198841441E-005
 WARNING: Sub-Space-Matrix is not hermitian in DAV            1
 -4.117836198841441E-005
 WARNING: Sub-Space-Matrix is not hermitian in DAV            1
 -4.117836198841441E-005
 WARNING: Sub-Space-Matrix is not hermitian in DAV            1
 -4.117836198841441E-005
 WARNING: Sub-Space-Matrix is not hermitian in DAV            1
 -4.117836198841441E-005
 WARNING: Sub-Space-Matrix is not hermitian in DAV            1
 -4.117836198841441E-005
 WARNING: Sub-Space-Matrix is not hermitian in DAV            1
 -4.117836198841441E-005
 WARNING: Sub-Space-Matrix is not hermitian in DAV            1
 -4.117836198841441E-005
 WARNING: Sub-Space-Matrix is not hermitian in DAV            1
 -4.117836198841441E-005
 WARNING: Sub-Space-Matrix is not hermitian in DAV            1
 -4.117836198841441E-005
 WARNING: Sub-Space-Matrix is not hermitian in DAV            1
 -4.117836198841441E-005
 WARNING: Sub-Space-Matrix is not hermitian in DAV            1
 -4.117836198841441E-005
 WARNING: Sub-Space-Matrix is not hermitian in DAV            1
 -4.117836198841441E-005
 WARNING: Sub-Space-Matrix is not hermitian in DAV            1
 -4.117836198841441E-005
 WARNING: Sub-Space-Matrix is not hermitian in DAV            1
 -4.117836198841441E-005
 WARNING: Sub-Space-Matrix is not hermitian in DAV            1
 -4.117836198841441E-005
 WARNING: Sub-Space-Matrix is not hermitian in DAV            1
 -4.117836198841441E-005
 WARNING: Sub-Space-Matrix is not hermitian in DAV            1
 -4.117836198841441E-005
DAV: 139    -0.152563668920E+08    0.69823E+08   -0.52231E+05  6984   0.420E+02BRMIX: very serious problems
 the old and the new charge density differ
 old charge density:   699.47311 new  698.17216
    0.669E+01
DAV: 140    -0.138204550204E+08    0.14359E+07   -0.33649E+07  7896   0.416E+02BRMIX: very serious problems
 the old and the new charge density differ
 old charge density:   698.17216 new  694.94720
    0.565E+01
DAV: 141    -0.189622543988E+09   -0.17580E+09   -0.59067E+08  8784   0.402E+02BRMIX: very serious problems
 the old and the new charge density differ
 old charge density:   694.94720 new  747.16038
    0.119E+02
 WARNING: Sub-Space-Matrix is not hermitian in DAV            4
 -1.170150502896549E-005
 WARNING: Sub-Space-Matrix is not hermitian in DAV            4
 -1.170150502896549E-005
 WARNING: Sub-Space-Matrix is not hermitian in DAV            4
 -1.170150502896549E-005
 WARNING: Sub-Space-Matrix is not hermitian in DAV            4
 -1.170150502896549E-005
 WARNING: Sub-Space-Matrix is not hermitian in DAV            4
 -1.170150502896549E-005
 WARNING: Sub-Space-Matrix is not hermitian in DAV            4
 -1.170150502896549E-005
 WARNING: Sub-Space-Matrix is not hermitian in DAV            4
 -1.170150502896549E-005
 WARNING: Sub-Space-Matrix is not hermitian in DAV            4
 -1.170150502896549E-005
 WARNING: Sub-Space-Matrix is not hermitian in DAV            4
 -1.170150502896549E-005
 WARNING: Sub-Space-Matrix is not hermitian in DAV            4
 -1.170150502896549E-005
 WARNING: Sub-Space-Matrix is not hermitian in DAV            4
 -1.170150502896549E-005
 WARNING: Sub-Space-Matrix is not hermitian in DAV            4
 -1.170150502896549E-005
 WARNING: Sub-Space-Matrix is not hermitian in DAV            4
 -1.170150502896549E-005
 WARNING: Sub-Space-Matrix is not hermitian in DAV            4
 -1.170150502896549E-005
 WARNING: Sub-Space-Matrix is not hermitian in DAV            4
 -1.170150502896549E-005
 WARNING: Sub-Space-Matrix is not hermitian in DAV            4
 -1.170150502896549E-005
 WARNING: Sub-Space-Matrix is not hermitian in DAV            4
 -1.170150502896549E-005
 WARNING: Sub-Space-Matrix is not hermitian in DAV            4
 -1.170150502896549E-005
 WARNING: Sub-Space-Matrix is not hermitian in DAV            4
 -1.170150502896549E-005
 WARNING: Sub-Space-Matrix is not hermitian in DAV            4
 -1.170150502896549E-005
 WARNING: Sub-Space-Matrix is not hermitian in DAV            4
 -1.170150502896549E-005
 WARNING: Sub-Space-Matrix is not hermitian in DAV            4
 -1.170150502896549E-005
 WARNING: Sub-Space-Matrix is not hermitian in DAV            4
 -1.170150502896549E-005
 WARNING: Sub-Space-Matrix is not hermitian in DAV            4
 -1.170150502896549E-005
 WARNING: Sub-Space-Matrix is not hermitian in DAV            4
 -1.170150502896549E-005
 WARNING: Sub-Space-Matrix is not hermitian in DAV            4
 -1.170150502896549E-005
 WARNING: Sub-Space-Matrix is not hermitian in DAV            4
 -1.170150502896549E-005
 WARNING: Sub-Space-Matrix is not hermitian in DAV            4
 -1.170150502896549E-005
 WARNING: Sub-Space-Matrix is not hermitian in DAV            4
 -1.170150502896549E-005
 WARNING: Sub-Space-Matrix is not hermitian in DAV            4
 -1.170150502896549E-005
 WARNING: Sub-Space-Matrix is not hermitian in DAV            4
 -1.170150502896549E-005
 WARNING: Sub-Space-Matrix is not hermitian in DAV            4
 -1.170150502896549E-005
 WARNING: Sub-Space-Matrix is not hermitian in DAV            4
 -1.170150502896549E-005
 WARNING: Sub-Space-Matrix is not hermitian in DAV            4
 -1.170150502896549E-005
 WARNING: Sub-Space-Matrix is not hermitian in DAV            4
 -1.170150502896549E-005
 WARNING: Sub-Space-Matrix is not hermitian in DAV            4
 -1.170150502896549E-005
 WARNING: Sub-Space-Matrix is not hermitian in DAV            4
 -1.170150502896549E-005
 WARNING: Sub-Space-Matrix is not hermitian in DAV            4
 -1.170150502896549E-005
 WARNING: Sub-Space-Matrix is not hermitian in DAV            4
 -1.170150502896549E-005
 WARNING: Sub-Space-Matrix is not hermitian in DAV            4
 -1.170150502896549E-005
 WARNING: Sub-Space-Matrix is not hermitian in DAV            4
 -1.170150502896549E-005
 WARNING: Sub-Space-Matrix is not hermitian in DAV            4
 -1.170150502896549E-005
DAV: 142    -0.134051971202E+08    0.17622E+09   -0.40936E+07  7548   0.388E+02BRMIX: very serious problems
 the old and the new charge density differ
 old charge density:   747.16038 new  706.94964
    0.473E+01
DAV: 143    -0.661108115480E+08   -0.52706E+08   -0.36818E+08  7884   0.416E+02BRMIX: very serious problems
 the old and the new charge density differ
 old charge density:   706.94964 new  703.22672
    0.176E+02
 WARNING: Sub-Space-Matrix is not hermitian in DAV            3
 -1.445133546221992E-005
 WARNING: Sub-Space-Matrix is not hermitian in DAV            3
 -1.445133546221992E-005
 WARNING: Sub-Space-Matrix is not hermitian in DAV            3
 -1.445133546221992E-005
 WARNING: Sub-Space-Matrix is not hermitian in DAV            3
 -1.445133546221992E-005
 WARNING: Sub-Space-Matrix is not hermitian in DAV            3
 -1.445133546221992E-005
 WARNING: Sub-Space-Matrix is not hermitian in DAV            3
 -1.445133546221992E-005
 WARNING: Sub-Space-Matrix is not hermitian in DAV            3
 -1.445133546221992E-005
 WARNING: Sub-Space-Matrix is not hermitian in DAV            3
 -1.445133546221992E-005
 WARNING: Sub-Space-Matrix is not hermitian in DAV            3
 -1.445133546221992E-005
 WARNING: Sub-Space-Matrix is not hermitian in DAV            3
 -1.445133546221992E-005
 WARNING: Sub-Space-Matrix is not hermitian in DAV            3
 -1.445133546221992E-005
 WARNING: Sub-Space-Matrix is not hermitian in DAV            3
 -1.445133546221992E-005
 WARNING: Sub-Space-Matrix is not hermitian in DAV            3
 -1.445133546221992E-005
 WARNING: Sub-Space-Matrix is not hermitian in DAV            3
 -1.445133546221992E-005
 WARNING: Sub-Space-Matrix is not hermitian in DAV            3
 -1.445133546221992E-005
 WARNING: Sub-Space-Matrix is not hermitian in DAV            3
 -1.445133546221992E-005
 WARNING: Sub-Space-Matrix is not hermitian in DAV            3
 -1.445133546221992E-005
 WARNING: Sub-Space-Matrix is not hermitian in DAV            3
 -1.445133546221992E-005
 WARNING: Sub-Space-Matrix is not hermitian in DAV            3
 -1.445133546221992E-005
 WARNING: Sub-Space-Matrix is not hermitian in DAV            3
 -1.445133546221992E-005
 WARNING: Sub-Space-Matrix is not hermitian in DAV            3
 -1.445133546221992E-005
 WARNING: Sub-Space-Matrix is not hermitian in DAV            3
 -1.445133546221992E-005
 WARNING: Sub-Space-Matrix is not hermitian in DAV            3
 -1.445133546221992E-005
 WARNING: Sub-Space-Matrix is not hermitian in DAV            3
 -1.445133546221992E-005
 WARNING: Sub-Space-Matrix is not hermitian in DAV            3
 -1.445133546221992E-005
 WARNING: Sub-Space-Matrix is not hermitian in DAV            3
 -1.445133546221992E-005
 WARNING: Sub-Space-Matrix is not hermitian in DAV            3
 -1.445133546221992E-005
 WARNING: Sub-Space-Matrix is not hermitian in DAV            3
 -1.445133546221992E-005
 WARNING: Sub-Space-Matrix is not hermitian in DAV            3
 -1.445133546221992E-005
 WARNING: Sub-Space-Matrix is not hermitian in DAV            3
 -1.445133546221992E-005
 WARNING: Sub-Space-Matrix is not hermitian in DAV            3
 -1.445133546221992E-005
 WARNING: Sub-Space-Matrix is not hermitian in DAV            3
 -1.445133546221992E-005
 WARNING: Sub-Space-Matrix is not hermitian in DAV            3
 -1.445133546221992E-005
 WARNING: Sub-Space-Matrix is not hermitian in DAV            3
 -1.445133546221992E-005
 WARNING: Sub-Space-Matrix is not hermitian in DAV            3
 -1.445133546221992E-005
 WARNING: Sub-Space-Matrix is not hermitian in DAV            3
 -1.445133546221992E-005
 WARNING: Sub-Space-Matrix is not hermitian in DAV            3
 -1.445133546221992E-005
 WARNING: Sub-Space-Matrix is not hermitian in DAV            3
 -1.445133546221992E-005
 WARNING: Sub-Space-Matrix is not hermitian in DAV            3
 -1.445133546221992E-005
 WARNING: Sub-Space-Matrix is not hermitian in DAV            3
 -1.445133546221992E-005
 WARNING: Sub-Space-Matrix is not hermitian in DAV            3
 -1.445133546221992E-005
 WARNING: Sub-Space-Matrix is not hermitian in DAV            3
 -1.445133546221992E-005
DAV: 144    -0.500280452638E+08    0.16083E+08   -0.39489E+07  7560   0.444E+02BRMIX: very serious problems
 the old and the new charge density differ
 old charge density:   703.22672 new  707.54106
    0.125E+02
DAV: 145    -0.220268107191E+08    0.28001E+08   -0.86625E+04  6900   0.424E+02BRMIX: very serious problems
 the old and the new charge density differ
 old charge density:   707.54106 new  711.38503
    0.756E+01
DAV: 146    -0.152612887445E+08    0.67655E+07   -0.40995E+07  8340   0.413E+02BRMIX: very serious problems
 the old and the new charge density differ
 old charge density:   711.38503 new  711.37732
    0.535E+01
DAV: 147    -0.676440170502E+08   -0.52383E+08   -0.27214E+08  8388   0.405E+02BRMIX: very serious problems
 the old and the new charge density differ
 old charge density:   711.37732 new  727.73052
    0.930E+01
 WARNING: Sub-Space-Matrix is not hermitian in DAV           11
 -1.071781189482201E-005
 WARNING: Sub-Space-Matrix is not hermitian in DAV           11
 -1.071781189482201E-005
 WARNING: Sub-Space-Matrix is not hermitian in DAV           11
 -1.071781189482201E-005
 WARNING: Sub-Space-Matrix is not hermitian in DAV           11
 -1.071781189482201E-005
 WARNING: Sub-Space-Matrix is not hermitian in DAV           11
 -1.071781189482201E-005
 WARNING: Sub-Space-Matrix is not hermitian in DAV           11
 -1.071781189482201E-005
 WARNING: Sub-Space-Matrix is not hermitian in DAV           11
 -1.071781189482201E-005
 WARNING: Sub-Space-Matrix is not hermitian in DAV           11
 -1.071781189482201E-005
 WARNING: Sub-Space-Matrix is not hermitian in DAV           11
 -1.071781189482201E-005
 WARNING: Sub-Space-Matrix is not hermitian in DAV           11
 -1.071781189482201E-005
 WARNING: Sub-Space-Matrix is not hermitian in DAV           11
 -1.071781189482201E-005
 WARNING: Sub-Space-Matrix is not hermitian in DAV           11
 -1.071781189482201E-005
 WARNING: Sub-Space-Matrix is not hermitian in DAV           11
 -1.071781189482201E-005
 WARNING: Sub-Space-Matrix is not hermitian in DAV           11
 -1.071781189482201E-005
 WARNING: Sub-Space-Matrix is not hermitian in DAV           11
 -1.071781189482201E-005
 WARNING: Sub-Space-Matrix is not hermitian in DAV           11
 -1.071781189482201E-005
 WARNING: Sub-Space-Matrix is not hermitian in DAV           11
 -1.071781189482201E-005
 WARNING: Sub-Space-Matrix is not hermitian in DAV           11
 -1.071781189482201E-005
 WARNING: Sub-Space-Matrix is not hermitian in DAV           11
 -1.071781189482201E-005
 WARNING: Sub-Space-Matrix is not hermitian in DAV           11
 -1.071781189482201E-005
 WARNING: Sub-Space-Matrix is not hermitian in DAV           11
 -1.071781189482201E-005
 WARNING: Sub-Space-Matrix is not hermitian in DAV           11
 -1.071781189482201E-005
 WARNING: Sub-Space-Matrix is not hermitian in DAV           11
 -1.071781189482201E-005
 WARNING: Sub-Space-Matrix is not hermitian in DAV           11
 -1.071781189482201E-005
 WARNING: Sub-Space-Matrix is not hermitian in DAV           11
 -1.071781189482201E-005
 WARNING: Sub-Space-Matrix is not hermitian in DAV           11
 -1.071781189482201E-005
 WARNING: Sub-Space-Matrix is not hermitian in DAV           11
 -1.071781189482201E-005
 WARNING: Sub-Space-Matrix is not hermitian in DAV           11
 -1.071781189482201E-005
 WARNING: Sub-Space-Matrix is not hermitian in DAV           11
 -1.071781189482201E-005
 WARNING: Sub-Space-Matrix is not hermitian in DAV           11
 -1.071781189482201E-005
 WARNING: Sub-Space-Matrix is not hermitian in DAV           11
 -1.071781189482201E-005
 WARNING: Sub-Space-Matrix is not hermitian in DAV           11
 -1.071781189482201E-005
 WARNING: Sub-Space-Matrix is not hermitian in DAV           11
 -1.071781189482201E-005
 WARNING: Sub-Space-Matrix is not hermitian in DAV           11
 -1.071781189482201E-005
 WARNING: Sub-Space-Matrix is not hermitian in DAV           11
 -1.071781189482201E-005
 WARNING: Sub-Space-Matrix is not hermitian in DAV           11
 -1.071781189482201E-005
 WARNING: Sub-Space-Matrix is not hermitian in DAV           11
 -1.071781189482201E-005
 WARNING: Sub-Space-Matrix is not hermitian in DAV           11
 -1.071781189482201E-005
 WARNING: Sub-Space-Matrix is not hermitian in DAV           11
 -1.071781189482201E-005
 WARNING: Sub-Space-Matrix is not hermitian in DAV           11
 -1.071781189482201E-005
 WARNING: Sub-Space-Matrix is not hermitian in DAV           11
 -1.071781189482201E-005
 WARNING: Sub-Space-Matrix is not hermitian in DAV           11
 -1.071781189482201E-005
DAV: 148    -0.314384940960E+08    0.36206E+08   -0.11416E+08  7740   0.371E+02BRMIX: very serious problems
 the old and the new charge density differ
 old charge density:   727.73052 new  724.29496
    0.117E+02
 WARNING: Sub-Space-Matrix is not hermitian in DAV            8
 -2.185424214835487E-005
 WARNING: Sub-Space-Matrix is not hermitian in DAV            8
 -2.185424214835487E-005
 WARNING: Sub-Space-Matrix is not hermitian in DAV            8
 -2.185424214835487E-005
 WARNING: Sub-Space-Matrix is not hermitian in DAV            8
 -2.185424214835487E-005
 WARNING: Sub-Space-Matrix is not hermitian in DAV            8
 -2.185424214835487E-005
 WARNING: Sub-Space-Matrix is not hermitian in DAV            8
 -2.185424214835487E-005
 WARNING: Sub-Space-Matrix is not hermitian in DAV            8
 -2.185424214835487E-005
 WARNING: Sub-Space-Matrix is not hermitian in DAV            8
 -2.185424214835487E-005
 WARNING: Sub-Space-Matrix is not hermitian in DAV            8
 -2.185424214835487E-005
 WARNING: Sub-Space-Matrix is not hermitian in DAV            8
 -2.185424214835487E-005
 WARNING: Sub-Space-Matrix is not hermitian in DAV            8
 -2.185424214835487E-005
 WARNING: Sub-Space-Matrix is not hermitian in DAV            8
 -2.185424214835487E-005
 WARNING: Sub-Space-Matrix is not hermitian in DAV            8
 -2.185424214835487E-005
 WARNING: Sub-Space-Matrix is not hermitian in DAV            8
 -2.185424214835487E-005
 WARNING: Sub-Space-Matrix is not hermitian in DAV            8
 -2.185424214835487E-005
 WARNING: Sub-Space-Matrix is not hermitian in DAV            8
 -2.185424214835487E-005
 WARNING: Sub-Space-Matrix is not hermitian in DAV            8
 -2.185424214835487E-005
 WARNING: Sub-Space-Matrix is not hermitian in DAV            8
 -2.185424214835487E-005
 WARNING: Sub-Space-Matrix is not hermitian in DAV            8
 -2.185424214835487E-005
 WARNING: Sub-Space-Matrix is not hermitian in DAV            8
 -2.185424214835487E-005
 WARNING: Sub-Space-Matrix is not hermitian in DAV            8
 -2.185424214835487E-005
 WARNING: Sub-Space-Matrix is not hermitian in DAV            8
 -2.185424214835487E-005
 WARNING: Sub-Space-Matrix is not hermitian in DAV            8
 -2.185424214835487E-005
 WARNING: Sub-Space-Matrix is not hermitian in DAV            8
 -2.185424214835487E-005
 WARNING: Sub-Space-Matrix is not hermitian in DAV            8
 -2.185424214835487E-005
 WARNING: Sub-Space-Matrix is not hermitian in DAV            8
 -2.185424214835487E-005
 WARNING: Sub-Space-Matrix is not hermitian in DAV            8
 -2.185424214835487E-005
 WARNING: Sub-Space-Matrix is not hermitian in DAV            8
 -2.185424214835487E-005
 WARNING: Sub-Space-Matrix is not hermitian in DAV            8
 -2.185424214835487E-005
 WARNING: Sub-Space-Matrix is not hermitian in DAV            8
 -2.185424214835487E-005
 WARNING: Sub-Space-Matrix is not hermitian in DAV            8
 -2.185424214835487E-005
 WARNING: Sub-Space-Matrix is not hermitian in DAV            8
 -2.185424214835487E-005
 WARNING: Sub-Space-Matrix is not hermitian in DAV            8
 -2.185424214835487E-005
 WARNING: Sub-Space-Matrix is not hermitian in DAV            8
 -2.185424214835487E-005
 WARNING: Sub-Space-Matrix is not hermitian in DAV            8
 -2.185424214835487E-005
 WARNING: Sub-Space-Matrix is not hermitian in DAV            8
 -2.185424214835487E-005
 WARNING: Sub-Space-Matrix is not hermitian in DAV            8
 -2.185424214835487E-005
 WARNING: Sub-Space-Matrix is not hermitian in DAV            8
 -2.185424214835487E-005
 WARNING: Sub-Space-Matrix is not hermitian in DAV            8
 -2.185424214835487E-005
 WARNING: Sub-Space-Matrix is not hermitian in DAV            8
 -2.185424214835487E-005
 WARNING: Sub-Space-Matrix is not hermitian in DAV            8
 -2.185424214835487E-005
 WARNING: Sub-Space-Matrix is not hermitian in DAV            8
 -2.185424214835487E-005
 WARNING: Sub-Space-Matrix is not hermitian in DAV           12
  1.395866543181080E-005
 WARNING: Sub-Space-Matrix is not hermitian in DAV           12
  1.395866543181080E-005
 WARNING: Sub-Space-Matrix is not hermitian in DAV           12
  1.395866543181080E-005
 WARNING: Sub-Space-Matrix is not hermitian in DAV           12
  1.395866543181080E-005
 WARNING: Sub-Space-Matrix is not hermitian in DAV           12
  1.395866543181080E-005
 WARNING: Sub-Space-Matrix is not hermitian in DAV           12
  1.395866543181080E-005
 WARNING: Sub-Space-Matrix is not hermitian in DAV           12
  1.395866543181080E-005
 WARNING: Sub-Space-Matrix is not hermitian in DAV           12
  1.395866543181080E-005
 WARNING: Sub-Space-Matrix is not hermitian in DAV           12
  1.395866543181080E-005
 WARNING: Sub-Space-Matrix is not hermitian in DAV           12
  1.395866543181080E-005
 WARNING: Sub-Space-Matrix is not hermitian in DAV           12
  1.395866543181080E-005
 WARNING: Sub-Space-Matrix is not hermitian in DAV           12
  1.395866543181080E-005
 WARNING: Sub-Space-Matrix is not hermitian in DAV           12
  1.395866543181080E-005
 WARNING: Sub-Space-Matrix is not hermitian in DAV           12
  1.395866543181080E-005
 WARNING: Sub-Space-Matrix is not hermitian in DAV           12
  1.395866543181080E-005
 WARNING: Sub-Space-Matrix is not hermitian in DAV           12
  1.395866543181080E-005
 WARNING: Sub-Space-Matrix is not hermitian in DAV           12
  1.395866543181080E-005
 WARNING: Sub-Space-Matrix is not hermitian in DAV           12
  1.395866543181080E-005
 WARNING: Sub-Space-Matrix is not hermitian in DAV           12
  1.395866543181080E-005
 WARNING: Sub-Space-Matrix is not hermitian in DAV           12
  1.395866543181080E-005
 WARNING: Sub-Space-Matrix is not hermitian in DAV           12
  1.395866543181080E-005
 WARNING: Sub-Space-Matrix is not hermitian in DAV           12
  1.395866543181080E-005
 WARNING: Sub-Space-Matrix is not hermitian in DAV           12
  1.395866543181080E-005
 WARNING: Sub-Space-Matrix is not hermitian in DAV           12
  1.395866543181080E-005
 WARNING: Sub-Space-Matrix is not hermitian in DAV           12
  1.395866543181080E-005
 WARNING: Sub-Space-Matrix is not hermitian in DAV           12
  1.395866543181080E-005
 WARNING: Sub-Space-Matrix is not hermitian in DAV           12
  1.395866543181080E-005
 WARNING: Sub-Space-Matrix is not hermitian in DAV           12
  1.395866543181080E-005
 WARNING: Sub-Space-Matrix is not hermitian in DAV           12
  1.395866543181080E-005
 WARNING: Sub-Space-Matrix is not hermitian in DAV           12
  1.395866543181080E-005
 WARNING: Sub-Space-Matrix is not hermitian in DAV           12
  1.395866543181080E-005
 WARNING: Sub-Space-Matrix is not hermitian in DAV           12
  1.395866543181080E-005
 WARNING: Sub-Space-Matrix is not hermitian in DAV           12
  1.395866543181080E-005
 WARNING: Sub-Space-Matrix is not hermitian in DAV           12
  1.395866543181080E-005
 WARNING: Sub-Space-Matrix is not hermitian in DAV           12
  1.395866543181080E-005
 WARNING: Sub-Space-Matrix is not hermitian in DAV           12
  1.395866543181080E-005
 WARNING: Sub-Space-Matrix is not hermitian in DAV           12
  1.395866543181080E-005
 WARNING: Sub-Space-Matrix is not hermitian in DAV           12
  1.395866543181080E-005
 WARNING: Sub-Space-Matrix is not hermitian in DAV           12
  1.395866543181080E-005
 WARNING: Sub-Space-Matrix is not hermitian in DAV           12
  1.395866543181080E-005
 WARNING: Sub-Space-Matrix is not hermitian in DAV           12
  1.395866543181080E-005
 WARNING: Sub-Space-Matrix is not hermitian in DAV           12
  1.395866543181080E-005
DAV: 149    -0.128520674908E+09   -0.97082E+08   -0.75123E+08  7680   0.394E+02BRMIX: very serious problems
 the old and the new charge density differ
 old charge density:   724.29496 new  710.36085
    0.666E+01
DAV: 150    -0.137047366580E+09   -0.85267E+07   -0.79698E+08  8316   0.386E+02
 -----------------------------------------------------------------------------
|                                                                             |
|           W    W    AA    RRRRR   N    N  II  N    N   GGGG   !!!           |
|           W    W   A  A   R    R  NN   N  II  NN   N  G    G  !!!           |
|           W    W  A    A  R    R  N N  N  II  N N  N  G       !!!           |
|           W WW W  AAAAAA  RRRRR   N  N N  II  N  N N  G  GGG   !            |
|           WW  WW  A    A  R   R   N   NN  II  N   NN  G    G                |
|           W    W  A    A  R    R  N    N  II  N    N   GGGG   !!!           |
|                                                                             |
|     The electronic self-consistency was not achieved in the given           |
|     number of steps (NELM). The forces and other quantities evaluated       |
|     might not be reliable so examine the results carefully. If you find     |
|     spurious results, we suggest increasing NELM, if you were close to      |
|     convergence or switching to a different ALGO or adjusting the           |
|     density mixing parameters otherwise.                                    |
|                                                                             |
 -----------------------------------------------------------------------------

 -----------------------------------------------------------------------------
|                                                                             |
|           W    W    AA    RRRRR   N    N  II  N    N   GGGG   !!!           |
|           W    W   A  A   R    R  NN   N  II  NN   N  G    G  !!!           |
|           W    W  A    A  R    R  N N  N  II  N N  N  G       !!!           |
|           W WW W  AAAAAA  RRRRR   N  N N  II  N  N N  G  GGG   !            |
|           WW  WW  A    A  R   R   N   NN  II  N   NN  G    G                |
|           W    W  A    A  R    R  N    N  II  N    N   GGGG   !!!           |
|                                                                             |
|     Your highest band is occupied at some k-points! Unless you are          |
|     performing a calculation for an insulator or semiconductor, without     |
|     unoccupied bands, you have included TOO FEW BANDS!! Please increase     |
|     the parameter NBANDS in file INCAR to ensure that the highest band      |
|     is unoccupied at all k-points. It is always recommended to include      |
|     a few unoccupied bands to accelerate the convergence of                 |
|     molecular-dynamics runs (even for insulators or semiconductors),        |
|     since the presence of unoccupied bands improves wavefunction            |
|     prediction and helps to suppress 'band-crossings'.                      |
|                                                                             |
 -----------------------------------------------------------------------------

BRMIX: very serious problems
 the old and the new charge density differ
 old charge density:   710.36085 new  727.40150
   1 F= -.13704740E+09 E0= -.13704740E+09  d E =-.443652E+01
 -----------------------------------------------------------------------------
|                                                                             |
|           W    W    AA    RRRRR   N    N  II  N    N   GGGG   !!!           |
|           W    W   A  A   R    R  NN   N  II  NN   N  G    G  !!!           |
|           W    W  A    A  R    R  N N  N  II  N N  N  G       !!!           |
|           W WW W  AAAAAA  RRRRR   N  N N  II  N  N N  G  GGG   !            |
|           WW  WW  A    A  R   R   N   NN  II  N   NN  G    G                |
|           W    W  A    A  R    R  N    N  II  N    N   GGGG   !!!           |
|                                                                             |
|     The minimum charge density times volume of the cell along the axis      |
|     of the dipole correction is larger 1E-1, which could mean that your     |
|     workfunction is not accurate as there is no field free region in        |
|     your cell. Please consider either increasing the size of your cell      |
|     along the dipole correction (vacuum dimension) or perhaps               |
|     increasing the precision of your calculation.                           |
|                                                                             |
 -----------------------------------------------------------------------------

