       N       E                     dE             d eps       ncg     rms          rms(c)
DAV:   1     0.328973053388E+04    0.32897E+04   -0.13063E+05  3564   0.109E+03
DAV:   2    -0.267138688814E+03   -0.35569E+04   -0.34110E+04  4896   0.228E+02
DAV:   3    -0.867359519862E+03   -0.60022E+03   -0.59467E+03  3912   0.101E+02
DAV:   4    -0.891626713414E+03   -0.24267E+02   -0.23939E+02  4152   0.218E+01
DAV:   5    -0.892398146871E+03   -0.77143E+00   -0.76619E+00  4596   0.345E+00    0.386E+01
DAV:   6    -0.823907026233E+03    0.68491E+02   -0.91013E+01  3864   0.135E+01    0.202E+01
DAV:   7    -0.807059700049E+03    0.16847E+02   -0.69930E+01  3924   0.112E+01    0.625E+00
DAV:   8    -0.806120323523E+03    0.93938E+00   -0.62202E+00  4116   0.436E+00    0.181E+00
DAV:   9    -0.805746925192E+03    0.37340E+00   -0.70758E-01  3936   0.130E+00    0.828E-01
DAV:  10    -0.805673309351E+03    0.73616E-01   -0.10240E-01  4224   0.476E-01    0.457E-01
DAV:  11    -0.805594360695E+03    0.78949E-01   -0.12885E-01  3912   0.390E-01    0.279E-01
DAV:  12    -0.805602976990E+03   -0.86163E-02   -0.33023E-02  4104   0.231E-01    0.203E-01
DAV:  13    -0.805622246441E+03   -0.19269E-01   -0.90358E-03  3612   0.152E-01    0.108E-01
DAV:  14    -0.805638330459E+03   -0.16084E-01   -0.57414E-03  3960   0.833E-02    0.639E-02
DAV:  15    -0.805652184792E+03   -0.13854E-01   -0.12244E-03  3888   0.388E-02    0.376E-02
DAV:  16    -0.805665224160E+03   -0.13039E-01   -0.15208E-03  3888   0.327E-02    0.191E-02
DAV:  17    -0.805669755685E+03   -0.45315E-02   -0.32546E-04  4032   0.155E-02    0.122E-02
DAV:  18    -0.805673480773E+03   -0.37251E-02   -0.38204E-04  3876   0.123E-02    0.613E-03
DAV:  19    -0.805674476691E+03   -0.99592E-03   -0.54788E-05  3816   0.510E-03    0.302E-03
DAV:  20    -0.805674931620E+03   -0.45493E-03   -0.14645E-05  3060   0.283E-03    0.162E-03
DAV:  21    -0.805675092329E+03   -0.16071E-03   -0.41214E-06  3096   0.161E-03    0.801E-04
DAV:  22    -0.805675133184E+03   -0.40854E-04   -0.56899E-07  3012   0.771E-04    0.326E-04
DAV:  23    -0.805675145474E+03   -0.12290E-04   -0.11890E-07  2796   0.366E-04    0.135E-04
DAV:  24    -0.805675148730E+03   -0.32555E-05   -0.27931E-08  2652   0.197E-04    0.594E-05
DAV:  25    -0.805675149453E+03   -0.72316E-06    0.48676E-09  2436   0.110E-04
   1 F= -.81835208E+03 E0= -.81835207E+03  d E =-.175585E-04
