 vasp.6.5.0 16Dec24 (build Jan 08 2025 16:17:04) complex                        
  
 executed on             LinuxIFC date 2026.02.02  02:54:02
 running   42 mpi-ranks, on    1 nodes
 distrk:  each k-point on   42 cores,    1 groups
 distr:  one band on NCORE=   7 cores,    6 groups


--------------------------------------------------------------------------------------------------------


 INCAR:
   SYSTEM = SCF
   PREC = Accurate
   LORBIT = 11
   ENCUT = 600
   LCHARG = .FALSE.
   LWAVE = .FALSE.
   ALGO = Normal
   NELM = 150
   EDIFF = 1E-6
   EDIFFG = -1E-3
   SIGMA = 0.1
   ISMEAR = 0
   NSW = 0
   IBRION = -1
   NCORE = 7
   LREAL = Auto
   GGA = PE
   IVDW = 12
   LDIPOL = .TRUE.
   IDIPOL = 3
   DIPOL = 0.5 0.5 0.154432

 POTCAR:    PAW_PBE B 06Sep2000                   
 POTCAR:    PAW_PBE H 15Jun2001                   
 POTCAR:    PAW_PBE B 06Sep2000                   
   SHA256 =  a32ced30f5ae56fd4d10b4325ff17eb3e4e38ee0f4288bc219fb012fddfa6e97 B/POTCAR              
   COPYR  = (c) Copyright 06Sep2000 Georg Kresse                                                    
   COPYR  = This file is part of the software VASP. Any use, copying, and all other rights are regul
   COPYR  = If you do not have a valid VASP license, you may not use, copy or distribute this file. 
   VRHFIN =B: s2p1                                                                                  
   LEXCH  = PE                                                                                      
   EATOM  =    71.1703 eV,    5.2309 Ry                                                             
                                                                                                    
   TITEL  = PAW_PBE B 06Sep2000                                                                     
   LULTRA =        F    use ultrasoft PP ?                                                          
   IUNSCR =        1    unscreen: 0-lin 1-nonlin 2-no                                               
   RPACOR =    1.200    partial core radius                                                         
   POMASS =   10.811; ZVAL   =    3.000    mass and valenz                                          
   RCORE  =    1.700    outmost cutoff radius                                                       
   RWIGS  =    1.710; RWIGS  =    0.905    wigner-seitz radius (au A)                               
   ENMAX  =  318.614; ENMIN  =  238.960 eV                                                          
   ICORE  =        2    local potential                                                             
   LCOR   =        T    correct aug charges                                                         
   LPAW   =        T    paw PP                                                                      
   EAUG   =  535.514                                                                                
   DEXC   =    0.000                                                                                
   RMAX   =    1.732    core radius for proj-oper                                                   
   RAUG   =    1.300    factor for augmentation sphere                                              
   RDEP   =    1.757    radius for radial grids                                                     
   RDEPT  =    1.436    core radius for aug-charge                                                  
                                                                                                    
   Atomic configuration                                                                             
    4 entries                                                                                       
     n  l   j            E        occ.                                                              
     1  0  0.50      -180.5896   2.0000                                                             
     2  0  0.50        -9.4431   2.0000                                                             
     2  1  0.50        -3.6068   1.0000                                                             
     3  2  1.50        -4.0817   0.0000                                                             
   Description                                                                                      
     l       E           TYP  RCUT    TYP  RCUT                                                     
     0     -9.4430752     23  1.500                                                                 
     0      0.8675899     23  1.500                                                                 
     1     -3.6067955     23  1.700                                                                 
     1      6.1086146     23  1.700                                                                 
     2     -4.0817478      7  1.700                                                                 
  local pseudopotential read in
  partial core-charges read in
  partial kinetic energy density read in
  atomic valenz-charges read in
  non local Contribution for L=           0  read in
    real space projection operators read in
  non local Contribution for L=           0  read in
    real space projection operators read in
  non local Contribution for L=           1  read in
    real space projection operators read in
  non local Contribution for L=           1  read in
    real space projection operators read in
    PAW grid and wavefunctions read in
 
   number of l-projection  operators is LMAX  =           4
   number of lm-projection operators is LMMAX =           8
 
 POTCAR:    PAW_PBE H 15Jun2001                   
   SHA256 =  030f79b5d3ab3cf0e668861823c8fb652ff669f3e15e46930bd03bfd63a607b6 H/POTCAR              
   COPYR  = (c) Copyright 15Jun2001 Georg Kresse                                                    
   COPYR  = This file is part of the software VASP. Any use, copying, and all other rights are regul
   COPYR  = If you do not have a valid VASP license, you may not use, copy or distribute this file. 
   VRHFIN =H: ultrasoft test                                                                        
   LEXCH  = PE                                                                                      
   EATOM  =    12.4884 eV,    0.9179 Ry                                                             
                                                                                                    
   TITEL  = PAW_PBE H 15Jun2001                                                                     
   LULTRA =        F    use ultrasoft PP ?                                                          
   IUNSCR =        0    unscreen: 0-lin 1-nonlin 2-no                                               
   RPACOR =    0.000    partial core radius                                                         
   POMASS =    1.000; ZVAL   =    1.000    mass and valenz                                          
   RCORE  =    1.100    outmost cutoff radius                                                       
   RWIGS  =    0.700; RWIGS  =    0.370    wigner-seitz radius (au A)                               
   ENMAX  =  250.000; ENMIN  =  200.000 eV                                                          
   RCLOC  =    0.701    cutoff for local pot                                                        
   LCOR   =        T    correct aug charges                                                         
   LPAW   =        T    paw PP                                                                      
   EAUG   =  400.000                                                                                
   RMAX   =    1.123    core radius for proj-oper                                                   
   RAUG   =    1.200    factor for augmentation sphere                                              
   RDEP   =    1.112    radius for radial grids                                                     
   RDEPT  =    0.926    core radius for aug-charge                                                  
                                                                                                    
   Atomic configuration                                                                             
    2 entries                                                                                       
     n  l   j            E        occ.                                                              
     1  0  0.50        -6.4927   1.0000                                                             
     2  1  0.50        -3.4015   0.0000                                                             
   Description                                                                                      
     l       E           TYP  RCUT    TYP  RCUT                                                     
     0     -6.4927494     23  1.100                                                                 
     0      6.8029130     23  1.100                                                                 
     1     -4.0817478     23  1.100                                                                 
  local pseudopotential read in
  atomic valenz-charges read in
  non local Contribution for L=           0  read in
    real space projection operators read in
  non local Contribution for L=           0  read in
    real space projection operators read in
  non local Contribution for L=           1  read in
    real space projection operators read in
    PAW grid and wavefunctions read in
 
   number of l-projection  operators is LMAX  =           3
   number of lm-projection operators is LMMAX =           5
 
 Optimization of the real space projectors (new method)

 maximal supplied QI-value         = 22.11
 optimisation between [QCUT,QGAM] = [ 12.38, 24.98] = [ 42.93,174.79] Ry 
 Optimized for a Real-space Cutoff    1.03 Angstroem

   l    n(q)    QCUT    max X(q) W(low)/X(q) W(high)/X(q)  e(spline) 
   0      8    12.381    53.033    0.22E-03    0.47E-03    0.92E-07
   0      8    12.381    34.740    0.21E-03    0.46E-03    0.93E-07
   1      7    12.381    30.949    0.11E-03    0.42E-03    0.70E-07
   1      7    12.381    19.518    0.10E-03    0.38E-03    0.67E-07
 Optimization of the real space projectors (new method)

 maximal supplied QI-value         = 34.20
 optimisation between [QCUT,QGAM] = [ 12.31, 24.97] = [ 42.46,174.58] Ry 
 Optimized for a Real-space Cutoff    1.13 Angstroem

   l    n(q)    QCUT    max X(q) W(low)/X(q) W(high)/X(q)  e(spline) 
   0      8    12.313    19.460    0.10E-03    0.25E-03    0.27E-06
   0      8    12.313    12.209    0.92E-04    0.23E-03    0.26E-06
   1      8    12.313     4.655    0.24E-03    0.28E-03    0.15E-06
  PAW_PBE B 06Sep2000                   :
 energy of atom  1       EATOM=  -71.1703
 kinetic energy error for atom=    0.0007 (will be added to EATOM!!)
  PAW_PBE H 15Jun2001                   :
 energy of atom  2       EATOM=  -12.4884
 kinetic energy error for atom=    0.0004 (will be added to EATOM!!)
 
 
 POSCAR: generated by phonopy
  positions in direct lattice
  No initial velocities read in
 IVDW         = 12
 VDW_S6       =    1.0000
 VDW_S8       =    0.7875
 VDW_A1       =    0.4289
 VDW_A2       =    4.4407
 VDW_RADIUS   =   50.2022 A
 VDW_CNRADIUS =   21.1671 A


 exchange-correlation table for PE
   RHO(1)=    0.500       N(1)  =     2000
   RHO(2)=  100.500       N(2)  =     4000
 


--------------------------------------------------------------------------------------------------------


 ion  position               nearest neighbor table
   1  0.166  0.219  0.154- 109 1.64  37 1.68  91 1.72  73 1.72 118 1.82  10 1.98
   2  0.500  0.219  0.154- 110 1.64  38 1.68  92 1.72  74 1.72 119 1.82  11 1.98
   3  0.833  0.219  0.154- 111 1.64  39 1.68  93 1.72  75 1.72 120 1.82  12 1.98
   4  0.166  0.552  0.154- 112 1.64  40 1.68  94 1.72  76 1.72 121 1.82  13 1.98
   5  0.500  0.552  0.154- 113 1.64  41 1.68  95 1.72  77 1.72 122 1.82  14 1.98
   6  0.833  0.552  0.154- 114 1.64  42 1.68  96 1.72  78 1.72 123 1.82  15 1.98
   7  0.166  0.886  0.154- 115 1.64  43 1.68  97 1.72  79 1.72 124 1.82  16 1.98
   8  0.500  0.886  0.154- 116 1.64  44 1.68  98 1.72  80 1.72 125 1.82  17 1.98
   9  0.833  0.886  0.154- 117 1.64  45 1.68  99 1.72  81 1.72 126 1.82  18 1.98
  10  0.167  0.114  0.154- 118 1.64  46 1.68  82 1.72 100 1.72 109 1.83   1 1.98
  11  0.500  0.114  0.154- 119 1.64  47 1.68  83 1.72 101 1.72 110 1.82   2 1.98
  12  0.834  0.114  0.154- 120 1.64  48 1.68  84 1.72 102 1.72 111 1.82   3 1.98
  13  0.167  0.448  0.154- 121 1.64  49 1.68  85 1.72 103 1.72 112 1.82   4 1.98
  14  0.500  0.448  0.154- 122 1.64  50 1.68  86 1.72 104 1.72 113 1.82   5 1.98
  15  0.834  0.448  0.154- 123 1.64  51 1.68  87 1.72 105 1.72 114 1.82   6 1.98
  16  0.167  0.781  0.154- 124 1.64  52 1.68  88 1.72 106 1.72 115 1.82   7 1.98
  17  0.500  0.781  0.154- 125 1.64  53 1.68  89 1.72 107 1.72 116 1.82   8 1.98
  18  0.834  0.781  0.154- 126 1.64  54 1.68  90 1.72 108 1.72 117 1.82   9 1.98
  19  0.327  0.214  0.154- 118 1.66  55 1.71 110 1.73  91 1.79  73 1.79  29 1.79
  20  0.660  0.214  0.154- 119 1.66  56 1.71 111 1.73  92 1.79  74 1.79  30 1.79
  21  0.994  0.214  0.154- 120 1.66  57 1.71 109 1.73  93 1.79  75 1.79  28 1.79
  22  0.327  0.547  0.154- 121 1.66  58 1.71 113 1.73  94 1.79  76 1.79  32 1.79
  23  0.660  0.547  0.154- 122 1.66  59 1.71 114 1.73  95 1.79  77 1.79  33 1.79
  24  0.994  0.547  0.154- 123 1.66  60 1.71 112 1.73  96 1.79  78 1.79  31 1.79
  25  0.327  0.880  0.154- 124 1.66  61 1.71 116 1.73  97 1.79  79 1.79  35 1.79
  26  0.660  0.880  0.154- 125 1.66  62 1.71 117 1.73  98 1.79  80 1.79  36 1.79
  27  0.994  0.880  0.154- 126 1.66  63 1.71 115 1.73  99 1.79  81 1.79  34 1.79
  28  0.006  0.120  0.154- 109 1.66  64 1.71 120 1.73  82 1.79 100 1.79  21 1.79
  29  0.340  0.120  0.154- 110 1.66  65 1.71 118 1.73  83 1.79 101 1.79  19 1.79
  30  0.673  0.120  0.154- 111 1.66  66 1.71 119 1.73  84 1.79 102 1.79  20 1.79
  31  0.006  0.453  0.154- 112 1.66  67 1.71 123 1.73  85 1.79 103 1.79  24 1.79
  32  0.340  0.453  0.154- 113 1.66  68 1.71 121 1.73  86 1.79 104 1.79  22 1.79
  33  0.673  0.453  0.154- 114 1.66  69 1.71 122 1.73  87 1.79 105 1.79  23 1.79
  34  0.006  0.786  0.154- 115 1.66  70 1.71 126 1.73  88 1.79 106 1.79  27 1.79
  35  0.340  0.786  0.154- 116 1.66  71 1.71 124 1.73  89 1.79 107 1.79  25 1.79
  36  0.673  0.786  0.154- 117 1.66  72 1.71 125 1.73  90 1.79 108 1.79  26 1.79
  37  0.201  0.303  0.154-  49 1.66   1 1.68  55 1.68  91 1.75  73 1.75
  38  0.535  0.303  0.154-  50 1.66   2 1.68  56 1.68  92 1.75  74 1.75
  39  0.868  0.303  0.154-  51 1.66   3 1.68  57 1.68  93 1.75  75 1.75
  40  0.201  0.636  0.154-  52 1.66   4 1.68  58 1.68  94 1.75  76 1.75
  41  0.535  0.636  0.154-  53 1.66   5 1.68  59 1.68  95 1.75  77 1.75
  42  0.868  0.636  0.154-  54 1.66   6 1.68  60 1.68  96 1.75  78 1.75
  43  0.201  0.969  0.154-  46 1.66   7 1.68  61 1.68  97 1.75  79 1.75
  44  0.535  0.969  0.154-  47 1.66   8 1.68  62 1.68  98 1.75  80 1.75
  45  0.868  0.969  0.154-  48 1.66   9 1.68  63 1.68  99 1.75  81 1.75
  46  0.132  0.031  0.154-  43 1.66  10 1.68  64 1.68  82 1.75 100 1.75
  47  0.465  0.031  0.154-  44 1.66  11 1.68  65 1.68  83 1.75 101 1.75
  48  0.799  0.031  0.154-  45 1.66  12 1.68  66 1.68  84 1.75 102 1.75
  49  0.132  0.364  0.154-  37 1.66  13 1.68  67 1.68  85 1.75 103 1.75
  50  0.465  0.364  0.154-  38 1.66  14 1.68  68 1.68  86 1.75 104 1.75
  51  0.799  0.364  0.154-  39 1.66  15 1.68  69 1.68  87 1.75 105 1.75
  52  0.132  0.697  0.154-  40 1.66  16 1.68  70 1.68  88 1.75 106 1.75
  53  0.465  0.697  0.154-  41 1.66  17 1.68  71 1.68  89 1.75 107 1.75
  54  0.799  0.697  0.154-  42 1.66  18 1.68  72 1.68  90 1.75 108 1.75
  55  0.300  0.300  0.154-  68 1.68  37 1.68  19 1.71  91 1.80  73 1.80
  56  0.633  0.300  0.154-  69 1.68  38 1.68  20 1.71  92 1.80  74 1.80
  57  0.966  0.300  0.154-  67 1.68  39 1.68  21 1.71  93 1.80  75 1.80
  58  0.300  0.634  0.154-  71 1.68  40 1.68  22 1.71  94 1.80  76 1.80
  59  0.633  0.634  0.154-  72 1.68  41 1.68  23 1.71  95 1.80  77 1.80
  60  0.966  0.634  0.154-  70 1.68  42 1.68  24 1.71  96 1.80  78 1.80
  61  0.300  0.967  0.154-  65 1.68  43 1.68  25 1.71  97 1.80  79 1.80
  62  0.633  0.967  0.154-  66 1.68  44 1.68  26 1.71  98 1.80  80 1.80
  63  0.966  0.967  0.154-  64 1.68  45 1.68  27 1.71  99 1.80  81 1.80
  64  0.034  0.033  0.154-  63 1.68  46 1.68  28 1.71  82 1.80 100 1.80
  65  0.367  0.033  0.154-  61 1.68  47 1.68  29 1.71  83 1.80 101 1.80
  66  0.700  0.033  0.154-  62 1.68  48 1.68  30 1.71  84 1.80 102 1.80
  67  0.034  0.366  0.154-  57 1.68  49 1.68  31 1.71  85 1.80 103 1.80
  68  0.367  0.366  0.154-  55 1.68  50 1.68  32 1.71  86 1.80 104 1.80
  69  0.700  0.366  0.154-  56 1.68  51 1.68  33 1.71  87 1.80 105 1.80
  70  0.034  0.700  0.154-  60 1.68  52 1.68  34 1.71  88 1.80 106 1.80
  71  0.367  0.700  0.154-  58 1.68  53 1.68  35 1.71  89 1.80 107 1.80
  72  0.700  0.700  0.154-  59 1.68  54 1.68  36 1.71  90 1.80 108 1.80
  73  0.245  0.238  0.193-   1 1.72  37 1.75  19 1.79 118 1.79  55 1.80  91 2.01
  74  0.579  0.238  0.193-   2 1.72  38 1.75  20 1.79 119 1.79  56 1.80  92 2.01
  75  0.912  0.238  0.193-   3 1.72  39 1.75  21 1.79 120 1.79  57 1.80  93 2.01
  76  0.245  0.572  0.193-   4 1.72  40 1.75  22 1.79 121 1.79  58 1.80  94 2.01
  77  0.579  0.572  0.193-   5 1.72  41 1.75  23 1.79 122 1.79  59 1.80  95 2.01
  78  0.912  0.572  0.193-   6 1.72  42 1.75  24 1.79 123 1.79  60 1.80  96 2.01
  79  0.245  0.905  0.193-   7 1.72  43 1.75  25 1.79 124 1.79  61 1.80  97 2.01
  80  0.579  0.905  0.193-   8 1.72  44 1.75  26 1.79 125 1.79  62 1.80  98 2.01
  81  0.912  0.905  0.193-   9 1.72  45 1.75  27 1.79 126 1.79  63 1.80  99 2.01
  82  0.088  0.095  0.116-  10 1.72  46 1.75  28 1.79  64 1.80 109 1.80 100 2.01
  83  0.421  0.095  0.116-  11 1.72  47 1.75  29 1.79 110 1.79  65 1.80 101 2.01
  84  0.755  0.095  0.116-  12 1.72  48 1.75  30 1.79 111 1.79  66 1.80 102 2.01
  85  0.088  0.428  0.116-  13 1.72  49 1.75  31 1.79 112 1.79  67 1.80 103 2.01
  86  0.421  0.428  0.116-  14 1.72  50 1.75  32 1.79 113 1.79  68 1.80 104 2.01
  87  0.755  0.428  0.116-  15 1.72  51 1.75  33 1.79 114 1.79  69 1.80 105 2.01
  88  0.088  0.762  0.116-  16 1.72  52 1.75  34 1.79 115 1.79  70 1.80 106 2.01
  89  0.421  0.762  0.116-  17 1.72  53 1.75  35 1.79 116 1.79  71 1.80 107 2.01
  90  0.755  0.762  0.116-  18 1.72  54 1.75  36 1.79 117 1.79  72 1.80 108 2.01
  91  0.245  0.238  0.116-   1 1.72  37 1.75  19 1.79 118 1.79  55 1.80  73 2.01
  92  0.579  0.238  0.116-   2 1.72  38 1.75  20 1.79 119 1.79  56 1.80  74 2.01
  93  0.912  0.238  0.116-   3 1.72  39 1.75  21 1.79 120 1.79  57 1.80  75 2.01
  94  0.245  0.572  0.116-   4 1.72  40 1.75  22 1.79 121 1.79  58 1.80  76 2.01
  95  0.579  0.572  0.116-   5 1.72  41 1.75  23 1.79 122 1.79  59 1.80  77 2.01
  96  0.912  0.572  0.116-   6 1.72  42 1.75  24 1.79 123 1.79  60 1.80  78 2.01
  97  0.245  0.905  0.116-   7 1.72  43 1.75  25 1.79 124 1.79  61 1.80  79 2.01
  98  0.579  0.905  0.116-   8 1.72  44 1.75  26 1.79 125 1.79  62 1.80  80 2.01
  99  0.912  0.905  0.116-   9 1.72  45 1.75  27 1.79 126 1.79  63 1.80  81 2.01
 100  0.088  0.095  0.193-  10 1.72  46 1.75  28 1.79  64 1.80 109 1.80  82 2.01
 101  0.421  0.095  0.193-  11 1.72  47 1.75  29 1.79 110 1.79  65 1.80  83 2.01
 102  0.755  0.095  0.193-  12 1.72  48 1.75  30 1.79 111 1.79  66 1.80  84 2.01
 103  0.088  0.428  0.193-  13 1.72  49 1.75  31 1.79 112 1.79  67 1.80  85 2.01
 104  0.421  0.428  0.193-  14 1.72  50 1.75  32 1.79 113 1.79  68 1.80  86 2.01
 105  0.755  0.428  0.193-  15 1.72  51 1.75  33 1.79 114 1.79  69 1.80  87 2.01
 106  0.088  0.762  0.193-  16 1.72  52 1.75  34 1.79 115 1.79  70 1.80  88 2.01
 107  0.421  0.762  0.193-  17 1.72  53 1.75  35 1.79 116 1.79  71 1.80  89 2.01
 108  0.755  0.762  0.193-  18 1.72  54 1.75  36 1.79 117 1.79  72 1.80  90 2.01
 109  0.084  0.174  0.154-   1 1.64  28 1.66  21 1.73  82 1.80 100 1.80  10 1.83
 110  0.417  0.173  0.154-   2 1.64  29 1.66  19 1.73  83 1.79 101 1.79  11 1.82
 111  0.751  0.173  0.154-   3 1.64  30 1.66  20 1.73  84 1.79 102 1.79  12 1.82
 112  0.084  0.507  0.154-   4 1.64  31 1.66  24 1.73  85 1.79 103 1.79  13 1.82
 113  0.417  0.507  0.154-   5 1.64  32 1.66  22 1.73  86 1.79 104 1.79  14 1.82
 114  0.751  0.507  0.154-   6 1.64  33 1.66  23 1.73  87 1.79 105 1.79  15 1.82
 115  0.084  0.840  0.154-   7 1.64  34 1.66  27 1.73  88 1.79 106 1.79  16 1.82
 116  0.417  0.840  0.154-   8 1.64  35 1.66  25 1.73  89 1.79 107 1.79  17 1.82
 117  0.751  0.840  0.154-   9 1.64  36 1.66  26 1.73  90 1.79 108 1.79  18 1.82
 118  0.249  0.160  0.154-  10 1.64  19 1.66  29 1.73  91 1.79  73 1.79   1 1.82
 119  0.583  0.160  0.154-  11 1.64  20 1.66  30 1.73  92 1.79  74 1.79   2 1.82
 120  0.916  0.160  0.154-  12 1.64  21 1.66  28 1.73  93 1.79  75 1.79   3 1.82
 121  0.249  0.493  0.154-  13 1.64  22 1.66  32 1.73  94 1.79  76 1.79   4 1.82
 122  0.583  0.493  0.154-  14 1.64  23 1.66  33 1.73  95 1.79  77 1.79   5 1.82
 123  0.916  0.493  0.154-  15 1.64  24 1.66  31 1.73  96 1.79  78 1.79   6 1.82
 124  0.249  0.827  0.154-  16 1.64  25 1.66  35 1.73  97 1.79  79 1.79   7 1.82
 125  0.583  0.827  0.154-  17 1.64  26 1.66  36 1.73  98 1.79  80 1.79   8 1.82
 126  0.916  0.827  0.154-  18 1.64  27 1.66  34 1.73  99 1.79  81 1.79   9 1.82
 127  0.167  0.167  0.094-
 128  0.500  0.167  0.094-
 129  0.833  0.167  0.094-
 130  0.167  0.500  0.094-
 131  0.500  0.500  0.094-
 132  0.833  0.500  0.094-
 133  0.167  0.833  0.094-
 134  0.500  0.833  0.094-
 135  0.833  0.833  0.094-
 136  0.167  0.167  0.215-
 137  0.500  0.167  0.215-
 138  0.833  0.167  0.215-
 139  0.167  0.500  0.215-
 140  0.500  0.500  0.215-
 141  0.833  0.500  0.215-
 142  0.167  0.833  0.215-
 143  0.500  0.833  0.215-
 144  0.833  0.833  0.215-
 
  LATTYP: Found a simple monoclinic cell.
 ALAT       =    17.0991657483
 B/A-ratio  =     1.5231186263
 C/A-ratio  =     1.1025852060
 COS(beta)  =    -0.0130771663
  
  Lattice vectors:
  
 A1 = (  17.0988253201,  -0.1078979226,   0.0000000000)
 A2 = (   0.0000000000,   0.0000000000, -26.0440578461)
 A3 = (  -0.1275861832,  18.8528554762,   0.0000000000)


Analysis of symmetry for initial positions (statically):
=====================================================================
 Subroutine PRICEL returns:
 Original cell was already a primitive cell.
 

 Routine SETGRP: Setting up the symmetry group for a 
 simple monoclinic supercell.


 Subroutine GETGRP returns: Found  2 space group operations
 (whereof  1 operations were pure point group operations)
 out of a pool of  4 trial point group operations.


The static configuration has the point symmetry C_1 .
 The point group associated with its full space group is C_1h.


Analysis of symmetry for dynamics (positions and initial velocities):
=====================================================================
 Subroutine PRICEL returns:
 Original cell was already a primitive cell.
 

 Routine SETGRP: Setting up the symmetry group for a 
 simple monoclinic supercell.


 Subroutine GETGRP returns: Found  2 space group operations
 (whereof  1 operations were pure point group operations)
 out of a pool of  4 trial point group operations.


The dynamic configuration has the point symmetry C_1 .
 The point group associated with its full space group is C_1h.


 Subroutine INISYM returns: Found  2 space group operations
 (whereof  1 operations are pure point group operations),
 and found     1 'primitive' translations


----------------------------------------------------------------------------------------

                                     Primitive cell                                     

  volume of cell :    8395.2478

  direct lattice vectors                    reciprocal lattice vectors
    17.098825320 -0.107897923  0.000000000     0.058486047  0.000395803  0.000000000
    -0.127586183 18.852855476  0.000000000     0.000334725  0.053044628  0.000000000
     0.000000000  0.000000000 26.044057846     0.000000000  0.000000000  0.038396474

  length of vectors
    17.099165748 18.853287189 26.044057846     0.058487387  0.053045684  0.038396474

  position of ions in fractional coordinates (direct lattice)
     0.166191712  0.219119530  0.154431738
     0.499525045  0.219119530  0.154431738
     0.832858379  0.219119530  0.154431738
     0.166191712  0.552452863  0.154431738
     0.499525045  0.552452863  0.154431738
     0.832858379  0.552452863  0.154431738
     0.166191712  0.885786196  0.154431738
     0.499525045  0.885786196  0.154431738
     0.832858379  0.885786196  0.154431738
     0.167141621  0.114213804  0.154431738
     0.500474955  0.114213804  0.154431738
     0.833808288  0.114213804  0.154431738
     0.167141621  0.447547137  0.154431738
     0.500474955  0.447547137  0.154431738
     0.833808288  0.447547137  0.154431738
     0.167141621  0.780880470  0.154431738
     0.500474955  0.780880470  0.154431738
     0.833808288  0.780880470  0.154431738
     0.326837303  0.213757157  0.154431738
     0.660170636  0.213757157  0.154431738
     0.993503970  0.213757157  0.154431738
     0.326837303  0.547090491  0.154431738
     0.660170636  0.547090491  0.154431738
     0.993503970  0.547090491  0.154431738
     0.326837303  0.880423824  0.154431738
     0.660170636  0.880423824  0.154431738
     0.993503970  0.880423824  0.154431738
     0.006496030  0.119576176  0.154431738
     0.339829364  0.119576176  0.154431738
     0.673162697  0.119576176  0.154431738
     0.006496030  0.452909509  0.154431738
     0.339829364  0.452909509  0.154431738
     0.673162697  0.452909509  0.154431738
     0.006496030  0.786242843  0.154431738
     0.339829364  0.786242843  0.154431738
     0.673162697  0.786242843  0.154431738
     0.201339746  0.302770269  0.154431738
     0.534673079  0.302770269  0.154431738
     0.868006413  0.302770269  0.154431738
     0.201339746  0.636103602  0.154431738
     0.534673079  0.636103602  0.154431738
     0.868006413  0.636103602  0.154431738
     0.201339746  0.969436935  0.154431738
     0.534673079  0.969436935  0.154431738
     0.868006413  0.969436935  0.154431738
     0.131993587  0.030563062  0.154431738
     0.465326921  0.030563062  0.154431738
     0.798660254  0.030563062  0.154431738
     0.131993587  0.363896395  0.154431738
     0.465326921  0.363896395  0.154431738
     0.798660254  0.363896395  0.154431738
     0.131993587  0.697229729  0.154431738
     0.465326921  0.697229729  0.154431738
     0.798660254  0.697229729  0.154431738
     0.299712086  0.300464012  0.154431738
     0.633045419  0.300464012  0.154431738
     0.966378752  0.300464012  0.154431738
     0.299712086  0.633797346  0.154431738
     0.633045419  0.633797346  0.154431738
     0.966378752  0.633797346  0.154431738
     0.299712086  0.967130679  0.154431738
     0.633045419  0.967130679  0.154431738
     0.966378752  0.967130679  0.154431738
     0.033621248  0.032869318  0.154431738
     0.366954581  0.032869318  0.154431738
     0.700287914  0.032869318  0.154431738
     0.033621248  0.366202652  0.154431738
     0.366954581  0.366202652  0.154431738
     0.700287914  0.366202652  0.154431738
     0.033621248  0.699535985  0.154431738
     0.366954581  0.699535985  0.154431738
     0.700287914  0.699535985  0.154431738
     0.245201909  0.238211757  0.193022715
     0.578535242  0.238211757  0.193022715
     0.911868576  0.238211757  0.193022715
     0.245201909  0.571545090  0.193022715
     0.578535242  0.571545090  0.193022715
     0.911868576  0.571545090  0.193022715
     0.245201909  0.904878423  0.193022715
     0.578535242  0.904878423  0.193022715
     0.911868576  0.904878423  0.193022715
     0.088131424  0.095121577  0.115840764
     0.421464758  0.095121577  0.115840764
     0.754798091  0.095121577  0.115840764
     0.088131424  0.428454910  0.115840764
     0.421464758  0.428454910  0.115840764
     0.754798091  0.428454910  0.115840764
     0.088131424  0.761788243  0.115840764
     0.421464758  0.761788243  0.115840764
     0.754798091  0.761788243  0.115840764
     0.245201909  0.238211757  0.115840764
     0.578535242  0.238211757  0.115840764
     0.911868576  0.238211757  0.115840764
     0.245201909  0.571545090  0.115840764
     0.578535242  0.571545090  0.115840764
     0.911868576  0.571545090  0.115840764
     0.245201909  0.904878423  0.115840764
     0.578535242  0.904878423  0.115840764
     0.911868576  0.904878423  0.115840764
     0.088131424  0.095121577  0.193022715
     0.421464758  0.095121577  0.193022715
     0.754798091  0.095121577  0.193022715
     0.088131424  0.428454910  0.193022715
     0.421464758  0.428454910  0.193022715
     0.754798091  0.428454910  0.193022715
     0.088131424  0.761788243  0.193022715
     0.421464758  0.761788243  0.193022715
     0.754798091  0.761788243  0.193022715
     0.083868329  0.173979298  0.154431738
     0.417201663  0.173448887  0.154431738
     0.750534996  0.173448887  0.154431738
     0.083868329  0.506782220  0.154431738
     0.417201663  0.506782220  0.154431738
     0.750534996  0.506782220  0.154431738
     0.083868329  0.840115553  0.154431738
     0.417201663  0.840115553  0.154431738
     0.750534996  0.840115553  0.154431738
     0.249465004  0.159884437  0.154431738
     0.582798337  0.159884437  0.154431738
     0.916131671  0.159884437  0.154431738
     0.249465004  0.493217770  0.154431738
     0.582798337  0.493217770  0.154431738
     0.916131671  0.493217770  0.154431738
     0.249465004  0.826551103  0.154431738
     0.582798337  0.826551103  0.154431738
     0.916131671  0.826551103  0.154431738
     0.166666667  0.166666667  0.093668326
     0.500000000  0.166666667  0.093668326
     0.833333333  0.166666667  0.093668326
     0.166666667  0.500000000  0.093668326
     0.500000000  0.500000000  0.093668326
     0.833333333  0.500000000  0.093668326
     0.166666667  0.833333333  0.093668326
     0.500000000  0.833333333  0.093668326
     0.833333333  0.833333333  0.093668326
     0.166666667  0.166666667  0.215195152
     0.500000000  0.166666667  0.215195152
     0.833333333  0.166666667  0.215195152
     0.166666667  0.500000000  0.215195152
     0.500000000  0.500000000  0.215195152
     0.833333333  0.500000000  0.215195152
     0.166666667  0.833333333  0.215195152
     0.500000000  0.833333333  0.215195152
     0.833333333  0.833333333  0.215195152

  ion indices of the primitive-cell ions
   primitive index   ion index
                 1           1
                 2           2
                 3           3
                 4           4
                 5           5
                 6           6
                 7           7
                 8           8
                 9           9
                10          10
                11          11
                12          12
                13          13
                14          14
                15          15
                16          16
                17          17
                18          18
                19          19
                20          20
                21          21
                22          22
                23          23
                24          24
                25          25
                26          26
                27          27
                28          28
                29          29
                30          30
                31          31
                32          32
                33          33
                34          34
                35          35
                36          36
                37          37
                38          38
                39          39
                40          40
                41          41
                42          42
                43          43
                44          44
                45          45
                46          46
                47          47
                48          48
                49          49
                50          50
                51          51
                52          52
                53          53
                54          54
                55          55
                56          56
                57          57
                58          58
                59          59
                60          60
                61          61
                62          62
                63          63
                64          64
                65          65
                66          66
                67          67
                68          68
                69          69
                70          70
                71          71
                72          72
                73          73
                74          74
                75          75
                76          76
                77          77
                78          78
                79          79
                80          80
                81          81
                82          82
                83          83
                84          84
                85          85
                86          86
                87          87
                88          88
                89          89
                90          90
                91          91
                92          92
                93          93
                94          94
                95          95
                96          96
                97          97
                98          98
                99          99
               100         100
               101         101
               102         102
               103         103
               104         104
               105         105
               106         106
               107         107
               108         108
               109         109
               110         110
               111         111
               112         112
               113         113
               114         114
               115         115
               116         116
               117         117
               118         118
               119         119
               120         120
               121         121
               122         122
               123         123
               124         124
               125         125
               126         126
               127         127
               128         128
               129         129
               130         130
               131         131
               132         132
               133         133
               134         134
               135         135
               136         136
               137         137
               138         138
               139         139
               140         140
               141         141
               142         142
               143         143
               144         144

----------------------------------------------------------------------------------------

 
 
 KPOINTS: k-points                                

Automatic generation of k-mesh.
 Grid dimensions read from file:
 generate k-points for:    4    3    1

 Generating k-lattice:

  Cartesian coordinates                     Fractional coordinates (reciprocal lattice)
     0.014621512  0.000098951  0.000000000     0.250000000  0.000000000  0.000000000
     0.000111575  0.017681543  0.000000000    -0.000000000  0.333333333  0.000000000
     0.000000000  0.000000000  0.038396474     0.000000000  0.000000000  1.000000000

  Length of vectors
     0.014621847  0.017681895  0.038396474

  Shift w.r.t. Gamma in fractional coordinates (k-lattice)
     0.500000000  0.000000000  0.000000000

 
 Subroutine IBZKPT returns following result:
 ===========================================
 
 Found      6 irreducible k-points:
 
 Following reciprocal coordinates:
            Coordinates               Weight
  0.125000  0.000000  0.000000      2.000000
  0.375000  0.000000  0.000000      2.000000
  0.125000  0.333333  0.000000      2.000000
  0.375000  0.333333  0.000000      2.000000
 -0.375000  0.333333  0.000000      2.000000
 -0.125000  0.333333  0.000000      2.000000
 
 Following cartesian coordinates:
            Coordinates               Weight
  0.007311  0.000049  0.000000      2.000000
  0.021932  0.000148  0.000000      2.000000
  0.007422  0.017731  0.000000      2.000000
  0.022044  0.017830  0.000000      2.000000
 -0.021821  0.017533  0.000000      2.000000
 -0.007199  0.017632  0.000000      2.000000
 


--------------------------------------------------------------------------------------------------------




 Dimension of arrays:
   k-points           NKPTS =      6   k-points in BZ     NKDIM =      6   number of bands    NBANDS=    276
   number of dos      NEDOS =    301   number of ions     NIONS =    144
   non local maximal  LDIM  =      4   non local SUM 2l+1 LMDIM =      8
   total plane-waves  NPLWV = ******
   max r-space proj   IRMAX =   3411   max aug-charges    IRDMAX=   8936
   dimension x,y,z NGX =   140 NGY =  160 NGZ =  210
   dimension x,y,z NGXF=   280 NGYF=  320 NGZF=  420
   support grid    NGXF=   280 NGYF=  320 NGZF=  420
   ions per type =             126  18
   NGX,Y,Z   is equivalent  to a cutoff of  13.61, 14.11, 13.40 a.u.
   NGXF,Y,Z  is equivalent  to a cutoff of  27.22, 28.22, 26.81 a.u.

 SYSTEM =  SCF                                     
 POSCAR =  generated by phonopy                    

 Startparameter for this run:
   NWRITE =      2    write-flag & timer
   PREC   = accura    normal or accurate (medium, high low for compatibility)
   ISTART =      0    job   : 0-new  1-cont  2-samecut
   ICHARG =      2    charge: 1-file 2-atom 10-const
   ISPIN  =      1    spin polarized calculation?
   LNONCOLLINEAR =      F non collinear calculations
   LSORBIT =      F    spin-orbit coupling
   INIWAV =      1    electr: 0-lowe 1-rand  2-diag
   LASPH  =      F    aspherical Exc in radial PAW
 Electronic Relaxation 1
   ENCUT  =  600.0 eV  44.10 Ry    6.64 a.u.  34.15 37.65 52.02*2*pi/ulx,y,z
   ENINI  =  600.0     initial cutoff
   ENAUG  =  535.5 eV  augmentation charge cutoff
   NELM   =    150;   NELMIN=  2; NELMDL= -5     # of ELM steps 
   EDIFF  = 0.1E-05   stopping-criterion for ELM
   LREAL  =      T    real-space projection
   NLSPLINE    = F    spline interpolate recip. space projectors
   LCOMPAT=      F    compatible to vasp.4.4
   GGA_COMPAT  = T    GGA compatible to vasp.4.4-vasp.4.6
   LMAXPAW     = -100 max onsite density
   LMAXMIX     =    2 max onsite mixed and CHGCAR
   VOSKOWN=      0    Vosko Wilk Nusair interpolation
   ROPT   =   -0.00025  -0.00025
 Ionic relaxation
   EDIFFG = -.1E-02   stopping-criterion for IOM
   NSW    =      0    number of steps for IOM
   NBLOCK =      1;   KBLOCK =      1    inner block; outer block 
   IBRION =     -1    ionic relax: 0-MD 1-quasi-New 2-CG
   NFREE  =      0    steps in history (QN), initial steepest desc. (CG)
   ISIF   =      2    stress and relaxation
   IWAVPR =     10    prediction:  0-non 1-charg 2-wave 3-comb
   ISYM   =      2    0-nonsym 1-usesym 2-fastsym
   LCORR  =      T    Harris-Foulkes like correction to forces

   POTIM  = 0.5000    time-step for ionic-motion
   TEIN   =    0.0    initial temperature
   TEBEG  =    0.0;   TEEND  =   0.0 temperature during run
   SMASS  =  -3.00    Nose mass-parameter (am)
   estimated Nose-frequenzy (Omega)   =  0.10E-29 period in steps = 0.13E+47 mass=  -0.668E-26a.u.
   SCALEE = 1.0000    scale energy and forces
   NPACO  =    256;   APACO  = 10.0  distance and # of slots for P.C.
   PSTRESS=    0.0 pullay stress

  Mass of Ions in am
   POMASS =  10.81  1.00
  Ionic Valenz
   ZVAL   =   3.00  1.00
  Atomic Wigner-Seitz radii
   RWIGS  =  -1.00 -1.00
  virtual crystal weights 
   VCA    =   1.00  1.00
   NELECT =     396.0000    total number of electrons
   NUPDOWN=      -1.0000    fix difference up-down

 DOS related values:
   EMIN   =  10.00;   EMAX   =-10.00  energy-range for DOS
   EFERMI =   0.00;   METHOD = LEGACY      
   ISMEAR =     0;   SIGMA  =   0.10  broadening in eV -4-tet -1-fermi 0-gaus
   EFERMI_NEDOS =   21; number of points for ismear=-14 and -15

 Electronic relaxation 2 (details)
   IALGO  =     38    algorithm
   LDIAG  =      T    sub-space diagonalisation (order eigenvalues)
   LSUBROT=      F    optimize rotation matrix (better conditioning)
   TURBO    =      0    0=normal 1=particle mesh
   IRESTART =      0    0=no restart 2=restart with 2 vectors
   NREBOOT  =      0    no. of reboots
   NMIN     =      0    reboot dimension
   EREF     =   0.00    reference energy to select bands
   IMIX   =      4    mixing-type and parameters
     AMIX     =   0.40;   BMIX     =  1.00
     AMIX_MAG =   1.60;   BMIX_MAG =  1.00
     AMIN     =   0.10
     WC   =   100.;   INIMIX=   1;  MIXPRE=   1;  MAXMIX= -45

 Intra band minimization:
   WEIMIN = 0.0000     energy-eigenvalue tresh-hold
   EBREAK =  0.91E-09  absolut break condition
   DEPER  =   0.30     relativ break condition  

   TIME   =   0.40     timestep for ELM

  volume/ion in A,a.u.               =      58.30       393.43
  Fermi-wavevector in a.u.,A,eV,Ry     =   0.591510  1.117792  4.760461  0.349884
  Thomas-Fermi vector in A             =   1.639966
 
 Write flags
   LWAVE        =      F    write WAVECAR
   LDOWNSAMPLE  =      F    k-point downsampling of WAVECAR
   LCHARG       =      F    write CHGCAR
   LVTOT        =      F    write LOCPOT, total local potential
   LVHAR        =      F    write LOCPOT, Hartree potential only
   WRT_POTENTIAL= false  ! write potential to hdf5 file
   LELF         =      F    write electronic localiz. function (ELF)
   LORBIT       =     11    0 simple, 1 ext, 2 COOP (PROOUT), +10 PAW based schemes


 Python interface
   PLUGINS active      =      F    recompile with -DPLUGINS to activate
 
 Dipole corrections
   LMONO      =      F    monopole corrections only (constant potential shift)
   LDIPOL     =      T    correct potential (dipole corrections)
   IDIPOL     =      3    1-x, 2-y, 3-z, 4-all directions 
   EPSILON    =  1.0000000 bulk dielectric constant
   LVACPOTAV  =      F  vacuum potentials using an averaging scheme for the charge density
   VACPOTFLAT =  0.1000000 required flatness to determine vacuum potential
 
Coulomb truncation method
  LTRUNCATE          =      F  Coulomb kernel truncation to be used
  IDIMENSIONALITY    =      3  Dimensionality of cutoff (0 molecules / 2 surfaces)
  ISURFACE           =     -1  Direction of surface normal
  LCOARSEN           =      F  Coarsen the charge grid before padding, preferred

 
 Exchange correlation treatment:
   GGA     = PE    functional components
   XC_C    = 1    coefficients multiplying the functional components
   LIBXC   =     F    Libxc                    
   VOSKOWN =     0    Vosko Wilk Nusair interpolation
   LHFCALC =     F    Hartree Fock is set to
   LHFONE  =     F    Hartree Fock one center treatment
   AEXX    =    0.0000 exact exchange contribution

 Parameters of functionals:
   PE:
     No parameter
 
 Van der Waals corrections
   IVDW    =    12    specifies the selected vdW correction

 Linear response parameters
   LEPSILON=     F    determine dielectric tensor
   LRPA    =     F    only Hartree local field effects (RPA)
   LNABLA  =     F    use nabla operator in PAW spheres
   LVEL    =     F    velocity operator in full k-point grid
   CSHIFT  =0.1000    complex shift for real part using Kramers Kronig
   OMEGAMAX=  -1.0    maximum frequency
   DEG_THRESHOLD= 0.2000000E-02 threshold for treating states as degnerate
   RTIME   =   -0.100 relaxation time in fs
  (WPLASMAI=    0.000 imaginary part of plasma frequency in eV, 0.658/RTIME)
   DFIELD  = 0.0000000 0.0000000 0.0000000 field for delta impulse in time
 
  Optional k-point grid parameters
   LKPOINTS_OPT  =     F    use optional k-point grid
   KPOINTS_OPT_MODE=     1    mode for optional k-point grid
 
 Orbital magnetization related:
   ORBITALMAG=     F  switch on orbital magnetization
   LCHIMAG   =     F  perturbation theory with respect to B field
   DQ        =  0.001000  dq finite difference perturbation B field
   LLRAUG    =     F  two centre corrections for induced B field
   LBONE     =     F  B-component reconstruction in AE one-centre
   LVGVCALC  =     T  calculate vGv susceptibility
   LVGVAPPL  =     F  apply vGv susceptibility instead of pGv for G=0

 Random number generation:
   RANDOM_GENERATOR = DEFAULT
   PCG_SEED         = not used


--------------------------------------------------------------------------------------------------------


 Static calculation
 charge density and potential will be updated during run
 non-spin polarized calculation
 Variant of blocked Davidson
 Davidson routine will perform the subspace rotation
 perform sub-space diagonalisation
    after iterative eigenvector-optimisation
 modified Broyden-mixing scheme, WC =      100.0
 initial mixing is a Kerker type mixing with AMIX =  0.4000 and BMIX =      1.0000
 Hartree-type preconditioning will be used
 using additional bands           78
 real space projection scheme for non local part
 use partial core corrections
 calculate Harris-corrections to forces 
   (improved forces if not selfconsistent)
 use gradient corrections 
 use of overlap-Matrix (Vanderbilt PP)
 Gauss-broadening in eV      SIGMA  =   0.10


--------------------------------------------------------------------------------------------------------


  energy-cutoff  :      600.00
  volume of cell :     8395.25
      direct lattice vectors                 reciprocal lattice vectors
    17.098825320 -0.107897923  0.000000000     0.058486047  0.000395803  0.000000000
    -0.127586183 18.852855476  0.000000000     0.000334725  0.053044628  0.000000000
     0.000000000  0.000000000 26.044057846     0.000000000  0.000000000  0.038396474

  length of vectors
    17.099165748 18.853287189 26.044057846     0.058487387  0.053045684  0.038396474


 
 k-points in units of 2pi/SCALE and weight: k-points                                
   0.00731076  0.00004948  0.00000000       0.167
   0.02193227  0.00014843  0.00000000       0.167
   0.00742233  0.01773102  0.00000000       0.167
   0.02204384  0.01782997  0.00000000       0.167
  -0.02182069  0.01753312  0.00000000       0.167
  -0.00719918  0.01763207  0.00000000       0.167
 
 k-points in reciprocal lattice and weights: k-points                                
   0.12500000  0.00000000  0.00000000       0.167
   0.37500000  0.00000000  0.00000000       0.167
   0.12500000  0.33333333  0.00000000       0.167
   0.37500000  0.33333333  0.00000000       0.167
  -0.37500000  0.33333333  0.00000000       0.167
  -0.12500000  0.33333333  0.00000000       0.167
 
 position of ions in fractional coordinates (direct lattice) 
   0.16619171  0.21911953  0.15443174
   0.49952505  0.21911953  0.15443174
   0.83285838  0.21911953  0.15443174
   0.16619171  0.55245286  0.15443174
   0.49952505  0.55245286  0.15443174
   0.83285838  0.55245286  0.15443174
   0.16619171  0.88578620  0.15443174
   0.49952505  0.88578620  0.15443174
   0.83285838  0.88578620  0.15443174
   0.16714162  0.11421380  0.15443174
   0.50047495  0.11421380  0.15443174
   0.83380829  0.11421380  0.15443174
   0.16714162  0.44754714  0.15443174
   0.50047495  0.44754714  0.15443174
   0.83380829  0.44754714  0.15443174
   0.16714162  0.78088047  0.15443174
   0.50047495  0.78088047  0.15443174
   0.83380829  0.78088047  0.15443174
   0.32683730  0.21375716  0.15443174
   0.66017064  0.21375716  0.15443174
   0.99350397  0.21375716  0.15443174
   0.32683730  0.54709049  0.15443174
   0.66017064  0.54709049  0.15443174
   0.99350397  0.54709049  0.15443174
   0.32683730  0.88042382  0.15443174
   0.66017064  0.88042382  0.15443174
   0.99350397  0.88042382  0.15443174
   0.00649603  0.11957618  0.15443174
   0.33982936  0.11957618  0.15443174
   0.67316270  0.11957618  0.15443174
   0.00649603  0.45290951  0.15443174
   0.33982936  0.45290951  0.15443174
   0.67316270  0.45290951  0.15443174
   0.00649603  0.78624284  0.15443174
   0.33982936  0.78624284  0.15443174
   0.67316270  0.78624284  0.15443174
   0.20133975  0.30277027  0.15443174
   0.53467308  0.30277027  0.15443174
   0.86800641  0.30277027  0.15443174
   0.20133975  0.63610360  0.15443174
   0.53467308  0.63610360  0.15443174
   0.86800641  0.63610360  0.15443174
   0.20133975  0.96943694  0.15443174
   0.53467308  0.96943694  0.15443174
   0.86800641  0.96943694  0.15443174
   0.13199359  0.03056306  0.15443174
   0.46532692  0.03056306  0.15443174
   0.79866025  0.03056306  0.15443174
   0.13199359  0.36389640  0.15443174
   0.46532692  0.36389640  0.15443174
   0.79866025  0.36389640  0.15443174
   0.13199359  0.69722973  0.15443174
   0.46532692  0.69722973  0.15443174
   0.79866025  0.69722973  0.15443174
   0.29971209  0.30046401  0.15443174
   0.63304542  0.30046401  0.15443174
   0.96637875  0.30046401  0.15443174
   0.29971209  0.63379735  0.15443174
   0.63304542  0.63379735  0.15443174
   0.96637875  0.63379735  0.15443174
   0.29971209  0.96713068  0.15443174
   0.63304542  0.96713068  0.15443174
   0.96637875  0.96713068  0.15443174
   0.03362125  0.03286932  0.15443174
   0.36695458  0.03286932  0.15443174
   0.70028791  0.03286932  0.15443174
   0.03362125  0.36620265  0.15443174
   0.36695458  0.36620265  0.15443174
   0.70028791  0.36620265  0.15443174
   0.03362125  0.69953599  0.15443174
   0.36695458  0.69953599  0.15443174
   0.70028791  0.69953599  0.15443174
   0.24520191  0.23821176  0.19302271
   0.57853524  0.23821176  0.19302271
   0.91186858  0.23821176  0.19302271
   0.24520191  0.57154509  0.19302271
   0.57853524  0.57154509  0.19302271
   0.91186858  0.57154509  0.19302271
   0.24520191  0.90487842  0.19302271
   0.57853524  0.90487842  0.19302271
   0.91186858  0.90487842  0.19302271
   0.08813142  0.09512158  0.11584076
   0.42146476  0.09512158  0.11584076
   0.75479809  0.09512158  0.11584076
   0.08813142  0.42845491  0.11584076
   0.42146476  0.42845491  0.11584076
   0.75479809  0.42845491  0.11584076
   0.08813142  0.76178824  0.11584076
   0.42146476  0.76178824  0.11584076
   0.75479809  0.76178824  0.11584076
   0.24520191  0.23821176  0.11584076
   0.57853524  0.23821176  0.11584076
   0.91186858  0.23821176  0.11584076
   0.24520191  0.57154509  0.11584076
   0.57853524  0.57154509  0.11584076
   0.91186858  0.57154509  0.11584076
   0.24520191  0.90487842  0.11584076
   0.57853524  0.90487842  0.11584076
   0.91186858  0.90487842  0.11584076
   0.08813142  0.09512158  0.19302271
   0.42146476  0.09512158  0.19302271
   0.75479809  0.09512158  0.19302271
   0.08813142  0.42845491  0.19302271
   0.42146476  0.42845491  0.19302271
   0.75479809  0.42845491  0.19302271
   0.08813142  0.76178824  0.19302271
   0.42146476  0.76178824  0.19302271
   0.75479809  0.76178824  0.19302271
   0.08386833  0.17397930  0.15443174
   0.41720166  0.17344889  0.15443174
   0.75053500  0.17344889  0.15443174
   0.08386833  0.50678222  0.15443174
   0.41720166  0.50678222  0.15443174
   0.75053500  0.50678222  0.15443174
   0.08386833  0.84011555  0.15443174
   0.41720166  0.84011555  0.15443174
   0.75053500  0.84011555  0.15443174
   0.24946500  0.15988444  0.15443174
   0.58279834  0.15988444  0.15443174
   0.91613167  0.15988444  0.15443174
   0.24946500  0.49321777  0.15443174
   0.58279834  0.49321777  0.15443174
   0.91613167  0.49321777  0.15443174
   0.24946500  0.82655110  0.15443174
   0.58279834  0.82655110  0.15443174
   0.91613167  0.82655110  0.15443174
   0.16666667  0.16666667  0.09366833
   0.50000000  0.16666667  0.09366833
   0.83333333  0.16666667  0.09366833
   0.16666667  0.50000000  0.09366833
   0.50000000  0.50000000  0.09366833
   0.83333333  0.50000000  0.09366833
   0.16666667  0.83333333  0.09366833
   0.50000000  0.83333333  0.09366833
   0.83333333  0.83333333  0.09366833
   0.16666667  0.16666667  0.21519515
   0.50000000  0.16666667  0.21519515
   0.83333333  0.16666667  0.21519515
   0.16666667  0.50000000  0.21519515
   0.50000000  0.50000000  0.21519515
   0.83333333  0.50000000  0.21519515
   0.16666667  0.83333333  0.21519515
   0.50000000  0.83333333  0.21519515
   0.83333333  0.83333333  0.21519515
 
 position of ions in cartesian coordinates  (Angst):
   2.81372643  4.11309708  4.02202912
   8.51333487  4.07713111  4.02202912
  14.21294331  4.04116513  4.02202912
   2.77119770 10.39738224  4.02202912
   8.47080614 10.36141627  4.02202912
  14.17041458 10.32545029  4.02202912
   2.72866897 16.68166740  4.02202912
   8.42827741 16.64570142  4.02202912
  14.12788585 16.60973545  4.02202912
   2.84335329  2.13522210  4.02202912
   8.54296173  2.09925613  4.02202912
  14.24257017  2.06329015  4.02202912
   2.80082456  8.41950726  4.02202912
   8.50043300  8.38354129  4.02202912
  14.20004144  8.34757531  4.02202912
   2.75829583 14.70379242  4.02202912
   8.45790427 14.66782645  4.02202912
  14.15751271 14.63186047  4.02202912
   5.56126149  3.99466773  4.02202912
  11.26086993  3.95870175  4.02202912
  16.96047837  3.92273578  4.02202912
   5.51873277 10.27895289  4.02202912
  11.21834121 10.24298691  4.02202912
  16.91794965 10.20702094  4.02202912
   5.47620404 16.56323804  4.02202912
  11.17581248 16.52727207  4.02202912
  16.87542092 16.49130610  4.02202912
   0.09581822  2.25365146  4.02202912
   5.79542666  2.21768548  4.02202912
  11.49503510  2.18171951  4.02202912
   0.05328949  8.53793662  4.02202912
   5.75289793  8.50197064  4.02202912
  11.45250637  8.46600467  4.02202912
   0.01076076 14.82222177  4.02202912
   5.71036920 14.78625580  4.02202912
  11.40997764 14.75028983  4.02202912
   3.40404384  5.68635998  4.02202912
   9.10365228  5.65039400  4.02202912
  14.80326072  5.61442803  4.02202912
   3.36151512 11.97064514  4.02202912
   9.06112356 11.93467916  4.02202912
  14.76073200 11.89871319  4.02202912
   3.31898639 18.25493030  4.02202912
   9.01859483 18.21896432  4.02202912
  14.71820327 18.18299835  4.02202912
   2.25303587  0.56195916  4.02202912
   7.95264431  0.52599319  4.02202912
  13.65225275  0.49002721  4.02202912
   2.21050714  6.84624432  4.02202912
   7.91011558  6.81027834  4.02202912
  13.60972402  6.77431237  4.02202912
   2.16797841 13.13052948  4.02202912
   7.86758685 13.09456350  4.02202912
  13.56719529 13.05859753  4.02202912
   5.08638954  5.63226629  4.02202912
  10.78599798  5.59630032  4.02202912
  16.48560642  5.56033434  4.02202912
   5.04386081 11.91655145  4.02202912
  10.74346925 11.88058548  4.02202912
  16.44307769 11.84461950  4.02202912
   5.00133209 18.20083661  4.02202912
  10.70094053 18.16487063  4.02202912
  16.40054897 18.12890466  4.02202912
   0.57069017  0.61605285  4.02202912
   6.27029861  0.58008687  4.02202912
  11.96990705  0.54412090  4.02202912
   0.52816144  6.90033801  4.02202912
   6.22776988  6.86437203  4.02202912
  11.92737832  6.82840606  4.02202912
   0.48563272 13.18462316  4.02202912
   6.18524116 13.14865719  4.02202912
  11.88484960 13.11269122  4.02202912
   4.16227208  4.46451504  5.02709474
   9.86188052  4.42854907  5.02709474
  15.56148896  4.39258310  5.02709474
   4.11974335 10.74880020  5.02709474
   9.81935179 10.71283423  5.02709474
  15.51896023 10.67686826  5.02709474
   4.07721462 17.03308536  5.02709474
   9.77682306 16.99711939  5.02709474
  15.47643150 16.96115341  5.02709474
   1.49480763  1.78380414  3.01696356
   7.19441607  1.74783817  3.01696356
  12.89402451  1.71187219  3.01696356
   1.45227890  8.06808930  3.01696356
   7.15188734  8.03212332  3.01696356
  12.85149578  7.99615735  3.01696356
   1.40975018 14.35237446  3.01696356
   7.10935862 14.31640848  3.01696356
  12.80896706 14.28044251  3.01696356
   4.16227208  4.46451504  3.01696356
   9.86188052  4.42854907  3.01696356
  15.56148896  4.39258310  3.01696356
   4.11974335 10.74880020  3.01696356
   9.81935179 10.71283423  3.01696356
  15.51896023 10.67686826  3.01696356
   4.07721462 17.03308536  3.01696356
   9.77682306 16.99711939  3.01696356
  15.47643150 16.96115341  3.01696356
   1.49480763  1.78380414  5.02709474
   7.19441607  1.74783817  5.02709474
  12.89402451  1.71187219  5.02709474
   1.45227890  8.06808930  5.02709474
   7.15188734  8.03212332  5.02709474
  12.85149578  7.99615735  5.02709474
   1.40975018 14.35237446  5.02709474
   7.10935862 14.31640848  5.02709474
  12.80896706 14.28044251  5.02709474
   1.41185256  3.27095734  4.02202912
   7.11152867  3.22499160  4.02202912
  12.81113711  3.18902563  4.02202912
   1.36939150  9.54524273  4.02202912
   7.06899994  9.50927676  4.02202912
  12.76860838  9.47331078  4.02202912
   1.32686277 15.82952789  4.02202912
   7.02647121 15.79356192  4.02202912
  12.72607965 15.75759594  4.02202912
   4.24515948  2.98736142  4.02202912
   9.94476792  2.95139545  4.02202912
  15.64437636  2.91542948  4.02202912
   4.20263076  9.27164658  4.02202912
   9.90223920  9.23568061  4.02202912
  15.60184764  9.19971463  4.02202912
   4.16010203 15.55593174  4.02202912
   9.85971047 15.51996577  4.02202912
  15.55931891 15.48399979  4.02202912
   2.82853986  3.12415959  2.43950331
   8.52814830  3.08819362  2.43950331
  14.22775674  3.05222764  2.43950331
   2.78601113  9.40844475  2.43950331
   8.48561957  9.37247878  2.43950331
  14.18522801  9.33651280  2.43950331
   2.74348240 15.69272991  2.43950331
   8.44309084 15.65676394  2.43950331
  14.14269928 15.62079796  2.43950331
   2.82853986  3.12415959  5.60455500
   8.52814830  3.08819362  5.60455500
  14.22775674  3.05222764  5.60455500
   2.78601113  9.40844475  5.60455500
   8.48561957  9.37247878  5.60455500
  14.18522801  9.33651280  5.60455500
   2.74348240 15.69272991  5.60455500
   8.44309084 15.65676394  5.60455500
  14.14269928 15.62079796  5.60455500
 


--------------------------------------------------------------------------------------------------------


 k-point     1 :   0.1250 0.0000 0.0000  plane waves:  280158
 k-point     2 :   0.3750 0.0000 0.0000  plane waves:  280185
 k-point     3 :   0.1250 0.3333 0.0000  plane waves:  280065
 k-point     4 :   0.3750 0.3333 0.0000  plane waves:  280150
 k-point     5 :  -0.3750 0.3333 0.0000  plane waves:  280104
 k-point     6 :  -0.1250 0.3333 0.0000  plane waves:  280165

 maximum and minimum number of plane-waves per node :     40114    39957

 maximum number of plane-waves:    280185
 maximum index in each direction: 
   IXMAX=   34   IYMAX=   37   IZMAX=   52
   IXMIN=  -34   IYMIN=  -37   IZMIN=  -52


 real space projection operators:
  total allocation   :      21986.19 KBytes
  max/ min on nodes  :       3149.41       3131.13


 parallel 3D FFT for wavefunctions:
    minimum data exchange during FFTs selected (reduces bandwidth)
 parallel 3D FFT for charge:
    minimum data exchange during FFTs selected (reduces bandwidth)


 total amount of memory used by VASP MPI-rank0   350913. kBytes
=======================================================================

   base                                    :      30000. kBytes
   nonlr-proj                              :      12165. kBytes
   fftplans                                :      51260. kBytes
   grid                                    :      79795. kBytes
   one-center                              :         64. kBytes
   wavefun                                 :     177629. kBytes
 
     INWAV:  cpu time      0.0000: real time      0.0000
 Broyden mixing: mesh for mixing (old mesh)
   NGX = 69   NGY = 75   NGZ =105
  (NGX  =280   NGY  =320   NGZ  =420)
  gives a total of 543375 points

 initial charge density was supplied:
 charge density of overlapping atoms calculated
 number of electron     396.0000000 magnetization 
 keeping initial charge density in first step


--------------------------------------------------------------------------------------------------------


 Maximum index for non-local projection operator          492
 Maximum index for augmentation-charges          510 (set IRDMAX)


--------------------------------------------------------------------------------------------------------


 First call to EWALD:  gamma=   0.087
 Maximum number of real-space cells   3x   3x   2
 Maximum number of reciprocal cells   2x   3x   3

    FEWALD:  cpu time      0.0104: real time      0.0104


--------------------------------------- Ionic step        1  -------------------------------------------




--------------------------------------- Iteration      1(   1)  ---------------------------------------


    POTLOK:  cpu time      0.9579: real time      0.9675
    SETDIJ:  cpu time      0.0091: real time      0.0092
     EDDAV:  cpu time    103.5366: real time    104.7738
       DOS:  cpu time      0.0005: real time      0.0005
    --------------------------------------------
      LOOP:  cpu time    104.5045: real time    105.7513

 eigenvalue-minimisations  :  3564
 total energy-change (2. order) : 0.3289731E+04  (-0.1306344E+05)
 number of electron     396.0000000 magnetization 
 augmentation part      396.0000000 magnetization 

 DIPCOR: dipole corrections for dipol
 direction  3 min pos   275,
 dipolmoment           0.000000      0.000000     -0.000046 electrons x Angstroem
 Tr[quadrupol]    -21716.202795

 energy correction for charged system         0.000000 eV
 dipol+quadrupol energy correction           -0.000000 eV
 added-field ion interaction          0.000021 eV  (added to PSCEN)


 Free energy of the ion-electron system (eV)
  ---------------------------------------------------
  alpha Z        PSCENC =       138.35985097
  Ewald energy   TEWEN  =     69624.37741731
  -Hartree energ DENC   =    -75099.99944784
  -exchange      EXHF   =         0.00000000
  -V(xc)+E(xc)   XCENC  =       913.58365556
  PAW double counting   =      5519.39554754    -5411.78503430
  entropy T*S    EENTRO =        -0.25394171
  eigenvalues    EBANDS =     -1586.10100027
  atomic energy  EATOM  =      9192.15348662
  Solvation  Ediel_sol  =         0.00000000
  ---------------------------------------------------
  free energy    TOTEN  =      3289.73053388 eV

  energy without entropy =     3289.98447559  energy(sigma->0) =     3289.85750473


--------------------------------------------------------------------------------------------------------




--------------------------------------- Iteration      1(   2)  ---------------------------------------


     EDDAV:  cpu time    132.8085: real time    134.4201
       DOS:  cpu time      0.0003: real time      0.0003
    --------------------------------------------
      LOOP:  cpu time    132.8091: real time    134.4206

 eigenvalue-minimisations  :  4896
 total energy-change (2. order) :-0.3556869E+04  (-0.3410988E+04)
 number of electron     396.0000000 magnetization 
 augmentation part      396.0000000 magnetization 

 DIPCOR: dipole corrections for dipol
 direction  3 min pos   275,
 dipolmoment           0.000000      0.000000     -0.000046 electrons x Angstroem
 Tr[quadrupol]    -21716.202795

 energy correction for charged system         0.000000 eV
 dipol+quadrupol energy correction           -0.000000 eV
 added-field ion interaction          0.000021 eV  (added to PSCEN)


 Free energy of the ion-electron system (eV)
  ---------------------------------------------------
  alpha Z        PSCENC =       138.35985097
  Ewald energy   TEWEN  =     69624.37741731
  -Hartree energ DENC   =    -75099.99944784
  -exchange      EXHF   =         0.00000000
  -V(xc)+E(xc)   XCENC  =       913.58365556
  PAW double counting   =      5519.39554754    -5411.78503430
  entropy T*S    EENTRO =        -0.00000000
  eigenvalues    EBANDS =     -5143.22416468
  atomic energy  EATOM  =      9192.15348662
  Solvation  Ediel_sol  =         0.00000000
  ---------------------------------------------------
  free energy    TOTEN  =      -267.13868881 eV

  energy without entropy =     -267.13868881  energy(sigma->0) =     -267.13868881


--------------------------------------------------------------------------------------------------------




--------------------------------------- Iteration      1(   3)  ---------------------------------------


     EDDAV:  cpu time    111.1849: real time    112.5012
       DOS:  cpu time      0.0011: real time      0.0011
    --------------------------------------------
      LOOP:  cpu time    111.1858: real time    112.5022

 eigenvalue-minimisations  :  3912
 total energy-change (2. order) :-0.6002208E+03  (-0.5946728E+03)
 number of electron     396.0000000 magnetization 
 augmentation part      396.0000000 magnetization 

 DIPCOR: dipole corrections for dipol
 direction  3 min pos   275,
 dipolmoment           0.000000      0.000000     -0.000046 electrons x Angstroem
 Tr[quadrupol]    -21716.202795

 energy correction for charged system         0.000000 eV
 dipol+quadrupol energy correction           -0.000000 eV
 added-field ion interaction          0.000021 eV  (added to PSCEN)


 Free energy of the ion-electron system (eV)
  ---------------------------------------------------
  alpha Z        PSCENC =       138.35985097
  Ewald energy   TEWEN  =     69624.37741731
  -Hartree energ DENC   =    -75099.99944784
  -exchange      EXHF   =         0.00000000
  -V(xc)+E(xc)   XCENC  =       913.58365556
  PAW double counting   =      5519.39554754    -5411.78503430
  entropy T*S    EENTRO =        -0.00034907
  eigenvalues    EBANDS =     -5743.44464665
  atomic energy  EATOM  =      9192.15348662
  Solvation  Ediel_sol  =         0.00000000
  ---------------------------------------------------
  free energy    TOTEN  =      -867.35951986 eV

  energy without entropy =     -867.35917079  energy(sigma->0) =     -867.35934533


--------------------------------------------------------------------------------------------------------




--------------------------------------- Iteration      1(   4)  ---------------------------------------


     EDDAV:  cpu time    116.4520: real time    117.8759
       DOS:  cpu time      0.0004: real time      0.0004
    --------------------------------------------
      LOOP:  cpu time    116.4523: real time    117.8763

 eigenvalue-minimisations  :  4152
 total energy-change (2. order) :-0.2426719E+02  (-0.2393884E+02)
 number of electron     396.0000000 magnetization 
 augmentation part      396.0000000 magnetization 

 DIPCOR: dipole corrections for dipol
 direction  3 min pos   275,
 dipolmoment           0.000000      0.000000     -0.000046 electrons x Angstroem
 Tr[quadrupol]    -21716.202795

 energy correction for charged system         0.000000 eV
 dipol+quadrupol energy correction           -0.000000 eV
 added-field ion interaction          0.000021 eV  (added to PSCEN)


 Free energy of the ion-electron system (eV)
  ---------------------------------------------------
  alpha Z        PSCENC =       138.35985097
  Ewald energy   TEWEN  =     69624.37741731
  -Hartree energ DENC   =    -75099.99944784
  -exchange      EXHF   =         0.00000000
  -V(xc)+E(xc)   XCENC  =       913.58365556
  PAW double counting   =      5519.39554754    -5411.78503430
  entropy T*S    EENTRO =        -0.01078479
  eigenvalues    EBANDS =     -5767.70140448
  atomic energy  EATOM  =      9192.15348662
  Solvation  Ediel_sol  =         0.00000000
  ---------------------------------------------------
  free energy    TOTEN  =      -891.62671341 eV

  energy without entropy =     -891.61592862  energy(sigma->0) =     -891.62132102


--------------------------------------------------------------------------------------------------------




--------------------------------------- Iteration      1(   5)  ---------------------------------------


     EDDAV:  cpu time    126.4129: real time    127.8810
       DOS:  cpu time      0.0008: real time      0.0008
    CHARGE:  cpu time      7.3336: real time      7.4280
    MIXING:  cpu time      0.0262: real time      0.0265
    --------------------------------------------
      LOOP:  cpu time    133.7734: real time    135.3361

 eigenvalue-minimisations  :  4596
 total energy-change (2. order) :-0.7714335E+00  (-0.7661873E+00)
 number of electron     395.9999995 magnetization 
 augmentation part       -0.8626008 magnetization 

 DIPCOR: dipole corrections for dipol
 direction  3 min pos   275,
 dipolmoment           0.000000      0.000000     -0.000046 electrons x Angstroem
 Tr[quadrupol]    -21716.202795

 energy correction for charged system         0.000000 eV
 dipol+quadrupol energy correction           -0.000000 eV
 added-field ion interaction          0.000021 eV  (added to PSCEN)


 Broyden mixing:
  rms(total) = 0.38600E+01    rms(broyden)= 0.38600E+01
  rms(prec ) = 0.42018E+01
  weight for this iteration     100.00

 Free energy of the ion-electron system (eV)
  ---------------------------------------------------
  alpha Z        PSCENC =       138.35985097
  Ewald energy   TEWEN  =     69624.37741731
  -Hartree energ DENC   =    -75099.99944784
  -exchange      EXHF   =         0.00000000
  -V(xc)+E(xc)   XCENC  =       913.58365556
  PAW double counting   =      5519.39554754    -5411.78503430
  entropy T*S    EENTRO =        -0.01303669
  eigenvalues    EBANDS =     -5768.47058604
  atomic energy  EATOM  =      9192.15348662
  Solvation  Ediel_sol  =         0.00000000
  ---------------------------------------------------
  free energy    TOTEN  =      -892.39814687 eV

  energy without entropy =     -892.38511018  energy(sigma->0) =     -892.39162853


--------------------------------------------------------------------------------------------------------




--------------------------------------- Iteration      1(   6)  ---------------------------------------


    POTLOK:  cpu time      0.9478: real time      0.9575
    SETDIJ:  cpu time      0.0054: real time      0.0054
     EDDAV:  cpu time    110.0329: real time    111.3676
       DOS:  cpu time      0.0004: real time      0.0004
    CHARGE:  cpu time      7.2077: real time      7.2761
    MIXING:  cpu time      0.0237: real time      0.0240
    --------------------------------------------
      LOOP:  cpu time    118.2180: real time    119.6310

 eigenvalue-minimisations  :  3864
 total energy-change (2. order) : 0.6849112E+02  (-0.9101261E+01)
 number of electron     395.9999994 magnetization 
 augmentation part       -1.1177270 magnetization 

 DIPCOR: dipole corrections for dipol
 direction  3 min pos   275,
 dipolmoment           0.000000      0.000000     -0.004050 electrons x Angstroem
 Tr[quadrupol]    -21726.552745

 energy correction for charged system         0.000000 eV
 dipol+quadrupol energy correction           -0.000000 eV
 added-field ion interaction          0.001863 eV  (added to PSCEN)


 Broyden mixing:
  rms(total) = 0.20244E+01    rms(broyden)= 0.20244E+01
  rms(prec ) = 0.21708E+01
  weight for this iteration     100.00

 eigenvalues of (default mixing * dielectric matrix)
  average eigenvalue GAMMA=   1.8832
  1.8832

 Free energy of the ion-electron system (eV)
  ---------------------------------------------------
  alpha Z        PSCENC =       138.36169247
  Ewald energy   TEWEN  =     69624.37741731
  -Hartree energ DENC   =    -75682.37547785
  -exchange      EXHF   =         0.00000000
  -V(xc)+E(xc)   XCENC  =       926.91944095
  PAW double counting   =     13823.53946443   -13721.74228578
  entropy T*S    EENTRO =        -0.00000000
  eigenvalues    EBANDS =     -5125.14076439
  atomic energy  EATOM  =      9192.15348662
  Solvation  Ediel_sol  =         0.00000000
  ---------------------------------------------------
  free energy    TOTEN  =      -823.90702623 eV

  energy without entropy =     -823.90702623  energy(sigma->0) =     -823.90702623


--------------------------------------------------------------------------------------------------------




--------------------------------------- Iteration      1(   7)  ---------------------------------------


    POTLOK:  cpu time      0.9595: real time      0.9709
    SETDIJ:  cpu time      0.0050: real time      0.0050
     EDDAV:  cpu time    111.3963: real time    112.7524
       DOS:  cpu time      0.0004: real time      0.0004
    CHARGE:  cpu time      7.3673: real time      7.4285
    MIXING:  cpu time      0.0274: real time      0.0276
    --------------------------------------------
      LOOP:  cpu time    119.7558: real time    121.1849

 eigenvalue-minimisations  :  3924
 total energy-change (2. order) : 0.1684733E+02  (-0.6992976E+01)
 number of electron     395.9999994 magnetization 
 augmentation part       -1.3520477 magnetization 

 DIPCOR: dipole corrections for dipol
 direction  3 min pos   275,
 dipolmoment           0.000000      0.000000     -0.005759 electrons x Angstroem
 Tr[quadrupol]    -21738.681268

 energy correction for charged system         0.000000 eV
 dipol+quadrupol energy correction           -0.000000 eV
 added-field ion interaction          0.002649 eV  (added to PSCEN)


 Broyden mixing:
  rms(total) = 0.62528E+00    rms(broyden)= 0.62528E+00
  rms(prec ) = 0.67081E+00
  weight for this iteration     100.00

 eigenvalues of (default mixing * dielectric matrix)
  average eigenvalue GAMMA=   1.9527
  1.7220  2.1833

 Free energy of the ion-electron system (eV)
  ---------------------------------------------------
  alpha Z        PSCENC =       138.36247825
  Ewald energy   TEWEN  =     69624.37741731
  -Hartree energ DENC   =    -76277.50404917
  -exchange      EXHF   =         0.00000000
  -V(xc)+E(xc)   XCENC  =       943.00929273
  PAW double counting   =     27706.47051358   -27609.33292524
  entropy T*S    EENTRO =        -0.00000174
  eigenvalues    EBANDS =     -4524.59591239
  atomic energy  EATOM  =      9192.15348662
  Solvation  Ediel_sol  =         0.00000000
  ---------------------------------------------------
  free energy    TOTEN  =      -807.05970005 eV

  energy without entropy =     -807.05969831  energy(sigma->0) =     -807.05969918


--------------------------------------------------------------------------------------------------------




--------------------------------------- Iteration      1(   8)  ---------------------------------------


    POTLOK:  cpu time      0.9312: real time      0.9524
    SETDIJ:  cpu time      0.0157: real time      0.0157
     EDDAV:  cpu time    115.7143: real time    117.0722
       DOS:  cpu time      0.0006: real time      0.0006
    CHARGE:  cpu time      7.3479: real time      7.4272
    MIXING:  cpu time      0.0269: real time      0.0271
    --------------------------------------------
      LOOP:  cpu time    124.0366: real time    125.4953

 eigenvalue-minimisations  :  4116
 total energy-change (2. order) : 0.9393765E+00  (-0.6220159E+00)
 number of electron     395.9999994 magnetization 
 augmentation part       -1.4584739 magnetization 

 DIPCOR: dipole corrections for dipol
 direction  3 min pos   275,
 dipolmoment           0.000000      0.000000     -0.002734 electrons x Angstroem
 Tr[quadrupol]    -21744.946831

 energy correction for charged system         0.000000 eV
 dipol+quadrupol energy correction           -0.000000 eV
 added-field ion interaction          0.001257 eV  (added to PSCEN)


 Broyden mixing:
  rms(total) = 0.18077E+00    rms(broyden)= 0.18077E+00
  rms(prec ) = 0.23020E+00
  weight for this iteration     100.00

 eigenvalues of (default mixing * dielectric matrix)
  average eigenvalue GAMMA=   1.8105
  2.5772  1.4271  1.4271

 Free energy of the ion-electron system (eV)
  ---------------------------------------------------
  alpha Z        PSCENC =       138.36108723
  Ewald energy   TEWEN  =     69624.37741731
  -Hartree energ DENC   =    -76422.32387189
  -exchange      EXHF   =         0.00000000
  -V(xc)+E(xc)   XCENC  =       947.42600886
  PAW double counting   =     32713.47741542   -32616.35155128
  entropy T*S    EENTRO =        -0.00000036
  eigenvalues    EBANDS =     -4383.24031543
  atomic energy  EATOM  =      9192.15348662
  Solvation  Ediel_sol  =         0.00000000
  ---------------------------------------------------
  free energy    TOTEN  =      -806.12032352 eV

  energy without entropy =     -806.12032316  energy(sigma->0) =     -806.12032334


--------------------------------------------------------------------------------------------------------




--------------------------------------- Iteration      1(   9)  ---------------------------------------


    POTLOK:  cpu time      0.9375: real time      0.9453
    SETDIJ:  cpu time      0.0168: real time      0.0169
     EDDAV:  cpu time    111.6342: real time    112.9559
       DOS:  cpu time      0.0004: real time      0.0004
    CHARGE:  cpu time      7.3607: real time      7.4365
    MIXING:  cpu time      0.0247: real time      0.0248
    --------------------------------------------
      LOOP:  cpu time    119.9742: real time    121.3798

 eigenvalue-minimisations  :  3936
 total energy-change (2. order) : 0.3733983E+00  (-0.7075751E-01)
 number of electron     395.9999994 magnetization 
 augmentation part       -1.4619319 magnetization 

 DIPCOR: dipole corrections for dipol
 direction  3 min pos   275,
 dipolmoment           0.000000      0.000000     -0.000308 electrons x Angstroem
 Tr[quadrupol]    -21749.027695

 energy correction for charged system         0.000000 eV
 dipol+quadrupol energy correction           -0.000000 eV
 added-field ion interaction          0.000142 eV  (added to PSCEN)


 Broyden mixing:
  rms(total) = 0.82832E-01    rms(broyden)= 0.82831E-01
  rms(prec ) = 0.12452E+00
  weight for this iteration     100.00

 eigenvalues of (default mixing * dielectric matrix)
  average eigenvalue GAMMA=   1.6998
  1.1966  1.1966  2.2558  2.1503

 Free energy of the ion-electron system (eV)
  ---------------------------------------------------
  alpha Z        PSCENC =       138.35997167
  Ewald energy   TEWEN  =     69624.37741731
  -Hartree energ DENC   =    -76533.44302021
  -exchange      EXHF   =         0.00000000
  -V(xc)+E(xc)   XCENC  =       949.97210428
  PAW double counting   =     34032.50844555   -33935.53255499
  entropy T*S    EENTRO =        -0.00000360
  eigenvalues    EBANDS =     -4274.14277181
  atomic energy  EATOM  =      9192.15348662
  Solvation  Ediel_sol  =         0.00000000
  ---------------------------------------------------
  free energy    TOTEN  =      -805.74692519 eV

  energy without entropy =     -805.74692159  energy(sigma->0) =     -805.74692339


--------------------------------------------------------------------------------------------------------




--------------------------------------- Iteration      1(  10)  ---------------------------------------


    POTLOK:  cpu time      0.9520: real time      0.9604
    SETDIJ:  cpu time      0.0049: real time      0.0050
     EDDAV:  cpu time    118.4822: real time    119.9256
       DOS:  cpu time      0.0004: real time      0.0004
    CHARGE:  cpu time      7.1466: real time      7.2267
    MIXING:  cpu time      0.0322: real time      0.0324
    --------------------------------------------
      LOOP:  cpu time    126.6183: real time    128.1505

 eigenvalue-minimisations  :  4224
 total energy-change (2. order) : 0.7361584E-01  (-0.1024015E-01)
 number of electron     395.9999994 magnetization 
 augmentation part       -1.4637693 magnetization 

 DIPCOR: dipole corrections for dipol
 direction  3 min pos   275,
 dipolmoment           0.000000      0.000000      0.002484 electrons x Angstroem
 Tr[quadrupol]    -21751.871155

 energy correction for charged system         0.000000 eV
 dipol+quadrupol energy correction           -0.000000 eV
 added-field ion interaction         -0.001143 eV  (added to PSCEN)


 Broyden mixing:
  rms(total) = 0.45726E-01    rms(broyden)= 0.45726E-01
  rms(prec ) = 0.84962E-01
  weight for this iteration     100.00

 eigenvalues of (default mixing * dielectric matrix)
  average eigenvalue GAMMA=   1.7548
  2.5535  2.5535  1.0803  1.2934  1.2934

 Free energy of the ion-electron system (eV)
  ---------------------------------------------------
  alpha Z        PSCENC =       138.35868728
  Ewald energy   TEWEN  =     69624.37741731
  -Hartree energ DENC   =    -76586.03972375
  -exchange      EXHF   =         0.00000000
  -V(xc)+E(xc)   XCENC  =       950.60669401
  PAW double counting   =     33641.54487156   -33544.35353580
  entropy T*S    EENTRO =        -0.00000337
  eigenvalues    EBANDS =     -4222.32120322
  atomic energy  EATOM  =      9192.15348662
  Solvation  Ediel_sol  =         0.00000000
  ---------------------------------------------------
  free energy    TOTEN  =      -805.67330935 eV

  energy without entropy =     -805.67330598  energy(sigma->0) =     -805.67330767


--------------------------------------------------------------------------------------------------------




--------------------------------------- Iteration      1(  11)  ---------------------------------------


    POTLOK:  cpu time      0.9616: real time      0.9700
    SETDIJ:  cpu time      0.0049: real time      0.0049
     EDDAV:  cpu time    111.5175: real time    112.8477
       DOS:  cpu time      0.0005: real time      0.0005
    CHARGE:  cpu time      7.2671: real time      7.3643
    MIXING:  cpu time      0.0253: real time      0.0255
    --------------------------------------------
      LOOP:  cpu time    119.7768: real time    121.2128

 eigenvalue-minimisations  :  3912
 total energy-change (2. order) : 0.7894866E-01  (-0.1288487E-01)
 number of electron     395.9999994 magnetization 
 augmentation part       -1.4655142 magnetization 

 DIPCOR: dipole corrections for dipol
 direction  3 min pos   275,
 dipolmoment           0.000000      0.000000      0.007163 electrons x Angstroem
 Tr[quadrupol]    -21756.698441

 energy correction for charged system         0.000000 eV
 dipol+quadrupol energy correction           -0.000001 eV
 added-field ion interaction         -0.003294 eV  (added to PSCEN)


 Broyden mixing:
  rms(total) = 0.27915E-01    rms(broyden)= 0.27914E-01
  rms(prec ) = 0.47641E-01
  weight for this iteration     100.00

 eigenvalues of (default mixing * dielectric matrix)
  average eigenvalue GAMMA=   1.8021
  3.2413  2.5348  1.7346  1.2315  1.2315  0.8389

 Free energy of the ion-electron system (eV)
  ---------------------------------------------------
  alpha Z        PSCENC =       138.35653493
  Ewald energy   TEWEN  =     69624.37741731
  -Hartree energ DENC   =    -76685.02523349
  -exchange      EXHF   =         0.00000000
  -V(xc)+E(xc)   XCENC  =       951.93374913
  PAW double counting   =     33609.64973935   -33512.34109010
  entropy T*S    EENTRO =        -0.00000881
  eigenvalues    EBANDS =     -4124.69895564
  atomic energy  EATOM  =      9192.15348662
  Solvation  Ediel_sol  =         0.00000000
  ---------------------------------------------------
  free energy    TOTEN  =      -805.59436070 eV

  energy without entropy =     -805.59435188  energy(sigma->0) =     -805.59435629


--------------------------------------------------------------------------------------------------------




--------------------------------------- Iteration      1(  12)  ---------------------------------------


    POTLOK:  cpu time      0.9580: real time      0.9669
    SETDIJ:  cpu time      0.0078: real time      0.0079
     EDDAV:  cpu time    115.4846: real time    116.8448
       DOS:  cpu time      0.0006: real time      0.0006
    CHARGE:  cpu time      7.3506: real time      7.4602
    MIXING:  cpu time      0.0273: real time      0.0275
    --------------------------------------------
      LOOP:  cpu time    123.8289: real time    125.3079

 eigenvalue-minimisations  :  4104
 total energy-change (2. order) :-0.8616295E-02  (-0.3302319E-02)
 number of electron     395.9999994 magnetization 
 augmentation part       -1.4693073 magnetization 

 DIPCOR: dipole corrections for dipol
 direction  3 min pos   275,
 dipolmoment           0.000000      0.000000      0.009766 electrons x Angstroem
 Tr[quadrupol]    -21759.095009

 energy correction for charged system         0.000000 eV
 dipol+quadrupol energy correction           -0.000001 eV
 added-field ion interaction         -0.004491 eV  (added to PSCEN)


 Broyden mixing:
  rms(total) = 0.20340E-01    rms(broyden)= 0.20340E-01
  rms(prec ) = 0.31901E-01
  weight for this iteration     100.00

 eigenvalues of (default mixing * dielectric matrix)
  average eigenvalue GAMMA=   1.9708
  4.3605  2.5875  1.7649  1.7649  0.9644  1.1765  1.1765

 Free energy of the ion-electron system (eV)
  ---------------------------------------------------
  alpha Z        PSCENC =       138.35533752
  Ewald energy   TEWEN  =     69624.37741731
  -Hartree energ DENC   =    -76732.45040929
  -exchange      EXHF   =         0.00000000
  -V(xc)+E(xc)   XCENC  =       952.35176345
  PAW double counting   =     33540.54105786   -33443.22270105
  entropy T*S    EENTRO =        -0.00001570
  eigenvalues    EBANDS =     -4077.70891371
  atomic energy  EATOM  =      9192.15348662
  Solvation  Ediel_sol  =         0.00000000
  ---------------------------------------------------
  free energy    TOTEN  =      -805.60297699 eV

  energy without entropy =     -805.60296129  energy(sigma->0) =     -805.60296914


--------------------------------------------------------------------------------------------------------




--------------------------------------- Iteration      1(  13)  ---------------------------------------


    POTLOK:  cpu time      0.9536: real time      0.9635
    SETDIJ:  cpu time      0.0085: real time      0.0085
     EDDAV:  cpu time    108.8051: real time    110.0925
       DOS:  cpu time      0.0004: real time      0.0004
    CHARGE:  cpu time      7.7408: real time      7.8125
    MIXING:  cpu time      0.0307: real time      0.0311
    --------------------------------------------
      LOOP:  cpu time    117.5390: real time    118.9086

 eigenvalue-minimisations  :  3612
 total energy-change (2. order) :-0.1926945E-01  (-0.9035768E-03)
 number of electron     395.9999994 magnetization 
 augmentation part       -1.4706909 magnetization 

 DIPCOR: dipole corrections for dipol
 direction  3 min pos   275,
 dipolmoment           0.000000      0.000000      0.011776 electrons x Angstroem
 Tr[quadrupol]    -21761.004678

 energy correction for charged system         0.000000 eV
 dipol+quadrupol energy correction           -0.000002 eV
 added-field ion interaction         -0.005416 eV  (added to PSCEN)


 Broyden mixing:
  rms(total) = 0.10813E-01    rms(broyden)= 0.10813E-01
  rms(prec ) = 0.17367E-01
  weight for this iteration     100.00

 eigenvalues of (default mixing * dielectric matrix)
  average eigenvalue GAMMA=   2.1542
  5.5902  3.0343  2.5411  1.5406  1.2383  1.2383  1.0254  1.0254

 Free energy of the ion-electron system (eV)
  ---------------------------------------------------
  alpha Z        PSCENC =       138.35441241
  Ewald energy   TEWEN  =     69624.37741731
  -Hartree energ DENC   =    -76765.67011636
  -exchange      EXHF   =         0.00000000
  -V(xc)+E(xc)   XCENC  =       952.42986982
  PAW double counting   =     33480.90527544   -33383.57212269
  entropy T*S    EENTRO =        -0.00001554
  eigenvalues    EBANDS =     -4044.60045344
  atomic energy  EATOM  =      9192.15348662
  Solvation  Ediel_sol  =         0.00000000
  ---------------------------------------------------
  free energy    TOTEN  =      -805.62224644 eV

  energy without entropy =     -805.62223090  energy(sigma->0) =     -805.62223867


--------------------------------------------------------------------------------------------------------




--------------------------------------- Iteration      1(  14)  ---------------------------------------


    POTLOK:  cpu time      0.9745: real time      0.9962
    SETDIJ:  cpu time      0.0085: real time      0.0085
     EDDAV:  cpu time    101.5694: real time    102.7657
       DOS:  cpu time      0.0010: real time      0.0010
    CHARGE:  cpu time      7.3631: real time      7.4401
    MIXING:  cpu time      0.0308: real time      0.0311
    --------------------------------------------
      LOOP:  cpu time    109.9473: real time    111.2427

 eigenvalue-minimisations  :  3960
 total energy-change (2. order) :-0.1608402E-01  (-0.5741376E-03)
 number of electron     395.9999994 magnetization 
 augmentation part       -1.4710443 magnetization 

 DIPCOR: dipole corrections for dipol
 direction  3 min pos   275,
 dipolmoment           0.000000      0.000000      0.012104 electrons x Angstroem
 Tr[quadrupol]    -21762.105543

 energy correction for charged system         0.000000 eV
 dipol+quadrupol energy correction           -0.000002 eV
 added-field ion interaction         -0.005567 eV  (added to PSCEN)


 Broyden mixing:
  rms(total) = 0.63931E-02    rms(broyden)= 0.63931E-02
  rms(prec ) = 0.92461E-02
  weight for this iteration     100.00

 eigenvalues of (default mixing * dielectric matrix)
  average eigenvalue GAMMA=   2.1621
  6.1238  3.1640  2.4945  1.6675  1.6675  1.2050  1.2050  0.9658  0.9658

 Free energy of the ion-electron system (eV)
  ---------------------------------------------------
  alpha Z        PSCENC =       138.35426145
  Ewald energy   TEWEN  =     69624.37741731
  -Hartree energ DENC   =    -76787.59140206
  -exchange      EXHF   =         0.00000000
  -V(xc)+E(xc)   XCENC  =       952.43317414
  PAW double counting   =     33515.98484046   -33418.68426403
  entropy T*S    EENTRO =        -0.00001691
  eigenvalues    EBANDS =     -4022.66582744
  atomic energy  EATOM  =      9192.15348662
  Solvation  Ediel_sol  =         0.00000000
  ---------------------------------------------------
  free energy    TOTEN  =      -805.63833046 eV

  energy without entropy =     -805.63831355  energy(sigma->0) =     -805.63832200


--------------------------------------------------------------------------------------------------------




--------------------------------------- Iteration      1(  15)  ---------------------------------------


    POTLOK:  cpu time      0.9456: real time      0.9542
    SETDIJ:  cpu time      0.0133: real time      0.0133
     EDDAV:  cpu time    110.6763: real time    111.9795
       DOS:  cpu time      0.0004: real time      0.0004
    CHARGE:  cpu time      7.3306: real time      7.4254
    MIXING:  cpu time      0.0314: real time      0.0317
    --------------------------------------------
      LOOP:  cpu time    118.9975: real time    120.4044

 eigenvalue-minimisations  :  3888
 total energy-change (2. order) :-0.1385433E-01  (-0.1224396E-03)
 number of electron     395.9999994 magnetization 
 augmentation part       -1.4714076 magnetization 

 DIPCOR: dipole corrections for dipol
 direction  3 min pos   275,
 dipolmoment           0.000000      0.000000      0.010727 electrons x Angstroem
 Tr[quadrupol]    -21762.291829

 energy correction for charged system         0.000000 eV
 dipol+quadrupol energy correction           -0.000001 eV
 added-field ion interaction         -0.004933 eV  (added to PSCEN)


 Broyden mixing:
  rms(total) = 0.37614E-02    rms(broyden)= 0.37614E-02
  rms(prec ) = 0.58154E-02
  weight for this iteration     100.00

 eigenvalues of (default mixing * dielectric matrix)
  average eigenvalue GAMMA=   2.2775
  6.7096  3.8084  2.7163  2.3350  1.5645  1.2913  1.2913  0.9564  1.0510  1.0510

 Free energy of the ion-electron system (eV)
  ---------------------------------------------------
  alpha Z        PSCENC =       138.35489541
  Ewald energy   TEWEN  =     69624.37741731
  -Hartree energ DENC   =    -76793.56570675
  -exchange      EXHF   =         0.00000000
  -V(xc)+E(xc)   XCENC  =       952.44213646
  PAW double counting   =     33513.52474803   -33416.21814335
  entropy T*S    EENTRO =        -0.00001711
  eigenvalues    EBANDS =     -4016.72100142
  atomic energy  EATOM  =      9192.15348662
  Solvation  Ediel_sol  =         0.00000000
  ---------------------------------------------------
  free energy    TOTEN  =      -805.65218479 eV

  energy without entropy =     -805.65216768  energy(sigma->0) =     -805.65217624


--------------------------------------------------------------------------------------------------------




--------------------------------------- Iteration      1(  16)  ---------------------------------------


    POTLOK:  cpu time      0.9518: real time      0.9619
    SETDIJ:  cpu time      0.0057: real time      0.0057
     EDDAV:  cpu time    109.8158: real time    111.2471
       DOS:  cpu time      0.0004: real time      0.0004
    CHARGE:  cpu time      7.3540: real time      7.4498
    MIXING:  cpu time      0.0287: real time      0.0292
    --------------------------------------------
      LOOP:  cpu time    118.1564: real time    119.6941

 eigenvalue-minimisations  :  3888
 total energy-change (2. order) :-0.1303937E-01  (-0.1520845E-03)
 number of electron     395.9999994 magnetization 
 augmentation part       -1.4715490 magnetization 

 DIPCOR: dipole corrections for dipol
 direction  3 min pos   275,
 dipolmoment           0.000000      0.000000      0.008158 electrons x Angstroem
 Tr[quadrupol]    -21762.343073

 energy correction for charged system         0.000000 eV
 dipol+quadrupol energy correction           -0.000001 eV
 added-field ion interaction         -0.003752 eV  (added to PSCEN)


 Broyden mixing:
  rms(total) = 0.19059E-02    rms(broyden)= 0.19059E-02
  rms(prec ) = 0.28865E-02
  weight for this iteration     100.00

 eigenvalues of (default mixing * dielectric matrix)
  average eigenvalue GAMMA=   2.3160
  7.4912  4.2251  2.5993  2.5993  1.6910  1.2037  1.2037  1.2538  1.2538  0.9775
  0.9775

 Free energy of the ion-electron system (eV)
  ---------------------------------------------------
  alpha Z        PSCENC =       138.35607704
  Ewald energy   TEWEN  =     69624.37741731
  -Hartree energ DENC   =    -76797.93312484
  -exchange      EXHF   =         0.00000000
  -V(xc)+E(xc)   XCENC  =       952.43531399
  PAW double counting   =     33521.73603318   -33424.42521358
  entropy T*S    EENTRO =        -0.00001715
  eigenvalues    EBANDS =     -4012.36519675
  atomic energy  EATOM  =      9192.15348662
  Solvation  Ediel_sol  =         0.00000000
  ---------------------------------------------------
  free energy    TOTEN  =      -805.66522416 eV

  energy without entropy =     -805.66520701  energy(sigma->0) =     -805.66521559


--------------------------------------------------------------------------------------------------------




--------------------------------------- Iteration      1(  17)  ---------------------------------------


    POTLOK:  cpu time      0.9431: real time      0.9556
    SETDIJ:  cpu time      0.0071: real time      0.0072
     EDDAV:  cpu time    113.9540: real time    115.3428
       DOS:  cpu time      0.0025: real time      0.0025
    CHARGE:  cpu time      7.2860: real time      7.3624
    MIXING:  cpu time      0.0304: real time      0.0306
    --------------------------------------------
      LOOP:  cpu time    122.2231: real time    123.7012

 eigenvalue-minimisations  :  4032
 total energy-change (2. order) :-0.4531524E-02  (-0.3254557E-04)
 number of electron     395.9999994 magnetization 
 augmentation part       -1.4714817 magnetization 

 DIPCOR: dipole corrections for dipol
 direction  3 min pos   275,
 dipolmoment           0.000000      0.000000      0.006151 electrons x Angstroem
 Tr[quadrupol]    -21762.297407

 energy correction for charged system         0.000000 eV
 dipol+quadrupol energy correction           -0.000000 eV
 added-field ion interaction         -0.002829 eV  (added to PSCEN)


 Broyden mixing:
  rms(total) = 0.12175E-02    rms(broyden)= 0.12175E-02
  rms(prec ) = 0.17985E-02
  weight for this iteration     100.00

 eigenvalues of (default mixing * dielectric matrix)
  average eigenvalue GAMMA=   2.4187
  7.8814  5.0590  2.8983  2.5660  2.0237  1.8005  0.9730  1.0246  1.2445  1.2445
  1.1541  1.1541

 Free energy of the ion-electron system (eV)
  ---------------------------------------------------
  alpha Z        PSCENC =       138.35700064
  Ewald energy   TEWEN  =     69624.37741731
  -Hartree energ DENC   =    -76799.21112257
  -exchange      EXHF   =         0.00000000
  -V(xc)+E(xc)   XCENC  =       952.42575444
  PAW double counting   =     33512.33246936   -33415.02012272
  entropy T*S    EENTRO =        -0.00001737
  eigenvalues    EBANDS =     -4011.08462140
  atomic energy  EATOM  =      9192.15348662
  Solvation  Ediel_sol  =         0.00000000
  ---------------------------------------------------
  free energy    TOTEN  =      -805.66975568 eV

  energy without entropy =     -805.66973832  energy(sigma->0) =     -805.66974700


--------------------------------------------------------------------------------------------------------




--------------------------------------- Iteration      1(  18)  ---------------------------------------


    POTLOK:  cpu time      0.9413: real time      0.9492
    SETDIJ:  cpu time      0.0162: real time      0.0164
     EDDAV:  cpu time    110.6843: real time    111.9791
       DOS:  cpu time      0.0010: real time      0.0010
    CHARGE:  cpu time      7.3736: real time      7.4508
    MIXING:  cpu time      0.0324: real time      0.0326
    --------------------------------------------
      LOOP:  cpu time    119.0488: real time    120.4290

 eigenvalue-minimisations  :  3876
 total energy-change (2. order) :-0.3725088E-02  (-0.3820376E-04)
 number of electron     395.9999994 magnetization 
 augmentation part       -1.4714371 magnetization 

 DIPCOR: dipole corrections for dipol
 direction  3 min pos   275,
 dipolmoment           0.000000      0.000000      0.003373 electrons x Angstroem
 Tr[quadrupol]    -21762.200755

 energy correction for charged system         0.000000 eV
 dipol+quadrupol energy correction           -0.000000 eV
 added-field ion interaction         -0.001551 eV  (added to PSCEN)


 Broyden mixing:
  rms(total) = 0.61309E-03    rms(broyden)= 0.61309E-03
  rms(prec ) = 0.82815E-03
  weight for this iteration     100.00

 eigenvalues of (default mixing * dielectric matrix)
  average eigenvalue GAMMA=   2.4617
  8.4549  5.4988  3.3281  2.5810  2.5000  1.5618  1.3821  1.3821  1.1309  1.1309
  1.0162  1.0162  1.0193

 Free energy of the ion-electron system (eV)
  ---------------------------------------------------
  alpha Z        PSCENC =       138.35827860
  Ewald energy   TEWEN  =     69624.37741731
  -Hartree energ DENC   =    -76800.08513491
  -exchange      EXHF   =         0.00000000
  -V(xc)+E(xc)   XCENC  =       952.42770314
  PAW double counting   =     33513.35977759   -33416.04722642
  entropy T*S    EENTRO =        -0.00001745
  eigenvalues    EBANDS =     -4010.21776526
  atomic energy  EATOM  =      9192.15348662
  Solvation  Ediel_sol  =         0.00000000
  ---------------------------------------------------
  free energy    TOTEN  =      -805.67348077 eV

  energy without entropy =     -805.67346332  energy(sigma->0) =     -805.67347205


--------------------------------------------------------------------------------------------------------




--------------------------------------- Iteration      1(  19)  ---------------------------------------


    POTLOK:  cpu time      0.8975: real time      0.9051
    SETDIJ:  cpu time      0.0058: real time      0.0058
     EDDAV:  cpu time    109.4433: real time    110.8014
       DOS:  cpu time      0.0020: real time      0.0021
    CHARGE:  cpu time      7.3951: real time      7.4736
    MIXING:  cpu time      0.0327: real time      0.0329
    --------------------------------------------
      LOOP:  cpu time    117.7764: real time    119.2209

 eigenvalue-minimisations  :  3816
 total energy-change (2. order) :-0.9959178E-03  (-0.5478784E-05)
 number of electron     395.9999994 magnetization 
 augmentation part       -1.4714807 magnetization 

 DIPCOR: dipole corrections for dipol
 direction  3 min pos   275,
 dipolmoment           0.000000      0.000000      0.001999 electrons x Angstroem
 Tr[quadrupol]    -21762.151090

 energy correction for charged system         0.000000 eV
 dipol+quadrupol energy correction           -0.000000 eV
 added-field ion interaction         -0.000920 eV  (added to PSCEN)


 Broyden mixing:
  rms(total) = 0.30184E-03    rms(broyden)= 0.30184E-03
  rms(prec ) = 0.41204E-03
  weight for this iteration     100.00

 eigenvalues of (default mixing * dielectric matrix)
  average eigenvalue GAMMA=   2.5118
  8.6076  6.2201  3.5640  2.6629  2.6629  1.9894  1.6805  1.3135  1.3135  1.1076
  1.1076  0.9639  0.9859  0.9859

 Free energy of the ion-electron system (eV)
  ---------------------------------------------------
  alpha Z        PSCENC =       138.35891036
  Ewald energy   TEWEN  =     69624.37741731
  -Hartree energ DENC   =    -76800.24041334
  -exchange      EXHF   =         0.00000000
  -V(xc)+E(xc)   XCENC  =       952.42549050
  PAW double counting   =     33512.88180714   -33415.56987984
  entropy T*S    EENTRO =        -0.00001755
  eigenvalues    EBANDS =     -4010.06127789
  atomic energy  EATOM  =      9192.15348662
  Solvation  Ediel_sol  =         0.00000000
  ---------------------------------------------------
  free energy    TOTEN  =      -805.67447669 eV

  energy without entropy =     -805.67445914  energy(sigma->0) =     -805.67446791


--------------------------------------------------------------------------------------------------------




--------------------------------------- Iteration      1(  20)  ---------------------------------------


    POTLOK:  cpu time      0.9508: real time      0.9596
    SETDIJ:  cpu time      0.0086: real time      0.0087
     EDDAV:  cpu time     92.8796: real time     93.9610
       DOS:  cpu time      0.0025: real time      0.0025
    CHARGE:  cpu time      7.3540: real time      7.4321
    MIXING:  cpu time      0.0328: real time      0.0330
    --------------------------------------------
      LOOP:  cpu time    101.2282: real time    102.3969

 eigenvalue-minimisations  :  3060
 total energy-change (2. order) :-0.4549293E-03  (-0.1464478E-05)
 number of electron     395.9999994 magnetization 
 augmentation part       -1.4714938 magnetization 

 DIPCOR: dipole corrections for dipol
 direction  3 min pos   275,
 dipolmoment           0.000000      0.000000      0.000975 electrons x Angstroem
 Tr[quadrupol]    -21762.120317

 energy correction for charged system         0.000000 eV
 dipol+quadrupol energy correction           -0.000000 eV
 added-field ion interaction         -0.000448 eV  (added to PSCEN)


 Broyden mixing:
  rms(total) = 0.16165E-03    rms(broyden)= 0.16165E-03
  rms(prec ) = 0.20571E-03
  weight for this iteration     100.00

 eigenvalues of (default mixing * dielectric matrix)
  average eigenvalue GAMMA=   2.5481
  8.7734  6.7671  3.9574  3.0549  2.5441  2.2064  1.6445  1.4317  1.4317  1.1322
  1.1322  0.9863  1.0018  1.0789  1.0789

 Free energy of the ion-electron system (eV)
  ---------------------------------------------------
  alpha Z        PSCENC =       138.35938154
  Ewald energy   TEWEN  =     69624.37741731
  -Hartree energ DENC   =    -76800.34117039
  -exchange      EXHF   =         0.00000000
  -V(xc)+E(xc)   XCENC  =       952.42489722
  PAW double counting   =     33513.60614490   -33416.29443736
  entropy T*S    EENTRO =        -0.00001758
  eigenvalues    EBANDS =     -4009.96063387
  atomic energy  EATOM  =      9192.15348662
  Solvation  Ediel_sol  =         0.00000000
  ---------------------------------------------------
  free energy    TOTEN  =      -805.67493162 eV

  energy without entropy =     -805.67491404  energy(sigma->0) =     -805.67492283


--------------------------------------------------------------------------------------------------------




--------------------------------------- Iteration      1(  21)  ---------------------------------------


    POTLOK:  cpu time      0.9342: real time      0.9421
    SETDIJ:  cpu time      0.0143: real time      0.0145
     EDDAV:  cpu time     93.7742: real time     94.8613
       DOS:  cpu time      0.0011: real time      0.0011
    CHARGE:  cpu time      7.3624: real time      7.4685
    MIXING:  cpu time      0.0332: real time      0.0334
    --------------------------------------------
      LOOP:  cpu time    102.1193: real time    103.3210

 eigenvalue-minimisations  :  3096
 total energy-change (2. order) :-0.1607095E-03  (-0.4121443E-06)
 number of electron     395.9999994 magnetization 
 augmentation part       -1.4714855 magnetization 

 DIPCOR: dipole corrections for dipol
 direction  3 min pos   275,
 dipolmoment           0.000000      0.000000      0.000406 electrons x Angstroem
 Tr[quadrupol]    -21762.104735

 energy correction for charged system         0.000000 eV
 dipol+quadrupol energy correction           -0.000000 eV
 added-field ion interaction         -0.000187 eV  (added to PSCEN)


 Broyden mixing:
  rms(total) = 0.80112E-04    rms(broyden)= 0.80112E-04
  rms(prec ) = 0.92833E-04
  weight for this iteration     100.00

 eigenvalues of (default mixing * dielectric matrix)
  average eigenvalue GAMMA=   2.5458
  8.9880  6.9041  4.2466  3.0859  2.6200  2.5370  1.8417  1.5817  1.3041  1.3041
  1.1216  1.1216  1.0030  1.0030  1.0349  1.0349

 Free energy of the ion-electron system (eV)
  ---------------------------------------------------
  alpha Z        PSCENC =       138.35964346
  Ewald energy   TEWEN  =     69624.37741731
  -Hartree energ DENC   =    -76800.35375631
  -exchange      EXHF   =         0.00000000
  -V(xc)+E(xc)   XCENC  =       952.42390258
  PAW double counting   =     33513.28401206   -33415.97220224
  entropy T*S    EENTRO =        -0.00001756
  eigenvalues    EBANDS =     -4009.94757825
  atomic energy  EATOM  =      9192.15348662
  Solvation  Ediel_sol  =         0.00000000
  ---------------------------------------------------
  free energy    TOTEN  =      -805.67509233 eV

  energy without entropy =     -805.67507477  energy(sigma->0) =     -805.67508355


--------------------------------------------------------------------------------------------------------




--------------------------------------- Iteration      1(  22)  ---------------------------------------


    POTLOK:  cpu time      0.9524: real time      0.9617
    SETDIJ:  cpu time      0.0069: real time      0.0070
     EDDAV:  cpu time     91.7704: real time     92.7915
       DOS:  cpu time      0.0011: real time      0.0011
    CHARGE:  cpu time      7.3790: real time      7.4504
    MIXING:  cpu time      0.0394: real time      0.0396
    --------------------------------------------
      LOOP:  cpu time    100.1491: real time    101.2514

 eigenvalue-minimisations  :  3012
 total energy-change (2. order) :-0.4085436E-04  (-0.5689876E-07)
 number of electron     395.9999994 magnetization 
 augmentation part       -1.4714877 magnetization 

 DIPCOR: dipole corrections for dipol
 direction  3 min pos   275,
 dipolmoment           0.000000      0.000000      0.000179 electrons x Angstroem
 Tr[quadrupol]    -21762.099057

 energy correction for charged system         0.000000 eV
 dipol+quadrupol energy correction           -0.000000 eV
 added-field ion interaction         -0.000083 eV  (added to PSCEN)


 Broyden mixing:
  rms(total) = 0.32621E-04    rms(broyden)= 0.32621E-04
  rms(prec ) = 0.38570E-04
  weight for this iteration     100.00

 eigenvalues of (default mixing * dielectric matrix)
  average eigenvalue GAMMA=   2.5413
  9.0728  6.9695  4.5251  3.2160  2.6138  2.6138  2.0862  1.7367  1.5307  1.2435
  1.2435  1.1083  1.1083  1.2060  0.9600  0.9838  0.9838

 Free energy of the ion-electron system (eV)
  ---------------------------------------------------
  alpha Z        PSCENC =       138.35974745
  Ewald energy   TEWEN  =     69624.37741731
  -Hartree energ DENC   =    -76800.35073779
  -exchange      EXHF   =         0.00000000
  -V(xc)+E(xc)   XCENC  =       952.42380870
  PAW double counting   =     33513.28475051   -33415.97281970
  entropy T*S    EENTRO =        -0.00001756
  eigenvalues    EBANDS =     -4009.95076873
  atomic energy  EATOM  =      9192.15348662
  Solvation  Ediel_sol  =         0.00000000
  ---------------------------------------------------
  free energy    TOTEN  =      -805.67513318 eV

  energy without entropy =     -805.67511563  energy(sigma->0) =     -805.67512440


--------------------------------------------------------------------------------------------------------




--------------------------------------- Iteration      1(  23)  ---------------------------------------


    POTLOK:  cpu time      0.9030: real time      0.9101
    SETDIJ:  cpu time      0.0068: real time      0.0068
     EDDAV:  cpu time     87.3274: real time     88.3542
       DOS:  cpu time      0.0004: real time      0.0004
    CHARGE:  cpu time      7.3671: real time      7.4290
    MIXING:  cpu time      0.0307: real time      0.0309
    --------------------------------------------
      LOOP:  cpu time     95.6354: real time     96.7314

 eigenvalue-minimisations  :  2796
 total energy-change (2. order) :-0.1229046E-04  (-0.1189020E-07)
 number of electron     395.9999994 magnetization 
 augmentation part       -1.4714862 magnetization 

 DIPCOR: dipole corrections for dipol
 direction  3 min pos   275,
 dipolmoment           0.000000      0.000000      0.000080 electrons x Angstroem
 Tr[quadrupol]    -21762.096923

 energy correction for charged system         0.000000 eV
 dipol+quadrupol energy correction           -0.000000 eV
 added-field ion interaction         -0.000037 eV  (added to PSCEN)


 Broyden mixing:
  rms(total) = 0.13543E-04    rms(broyden)= 0.13543E-04
  rms(prec ) = 0.16348E-04
  weight for this iteration     100.00

 eigenvalues of (default mixing * dielectric matrix)
  average eigenvalue GAMMA=   2.5206
  9.1323  7.0089  4.7506  3.3813  2.8503  2.6160  2.3260  1.7513  1.4103  1.4103
  1.2455  1.2455  1.1215  1.1215  0.9716  1.0077  1.0106  1.0106

 Free energy of the ion-electron system (eV)
  ---------------------------------------------------
  alpha Z        PSCENC =       138.35979331
  Ewald energy   TEWEN  =     69624.37741731
  -Hartree energ DENC   =    -76800.35960221
  -exchange      EXHF   =         0.00000000
  -V(xc)+E(xc)   XCENC  =       952.42391573
  PAW double counting   =     33513.26640342   -33415.95448259
  entropy T*S    EENTRO =        -0.00001756
  eigenvalues    EBANDS =     -4009.94205950
  atomic energy  EATOM  =      9192.15348662
  Solvation  Ediel_sol  =         0.00000000
  ---------------------------------------------------
  free energy    TOTEN  =      -805.67514547 eV

  energy without entropy =     -805.67512792  energy(sigma->0) =     -805.67513669


--------------------------------------------------------------------------------------------------------




--------------------------------------- Iteration      1(  24)  ---------------------------------------


    POTLOK:  cpu time      0.9914: real time      0.9992
    SETDIJ:  cpu time      0.0054: real time      0.0055
     EDDAV:  cpu time     83.8627: real time     84.8076
       DOS:  cpu time      0.0006: real time      0.0006
    CHARGE:  cpu time      7.4346: real time      7.5174
    MIXING:  cpu time      0.0380: real time      0.0386
    --------------------------------------------
      LOOP:  cpu time     92.3327: real time     93.3688

 eigenvalue-minimisations  :  2652
 total energy-change (2. order) :-0.3255482E-05  (-0.2793067E-08)
 number of electron     395.9999994 magnetization 
 augmentation part       -1.4714854 magnetization 

 DIPCOR: dipole corrections for dipol
 direction  3 min pos   275,
 dipolmoment           0.000000      0.000000      0.000039 electrons x Angstroem
 Tr[quadrupol]    -21762.095605

 energy correction for charged system         0.000000 eV
 dipol+quadrupol energy correction           -0.000000 eV
 added-field ion interaction         -0.000018 eV  (added to PSCEN)


 Broyden mixing:
  rms(total) = 0.59374E-05    rms(broyden)= 0.59374E-05
  rms(prec ) = 0.75234E-05
  weight for this iteration     100.00

 eigenvalues of (default mixing * dielectric matrix)
  average eigenvalue GAMMA=   2.5208
  9.1464  7.0070  4.8662  3.5018  2.8847  2.4324  2.4324  2.3257  1.8167  1.5667
  1.2813  1.2813  1.1162  1.1162  0.9943  0.9943  0.9730  1.1034  1.0550

 Free energy of the ion-electron system (eV)
  ---------------------------------------------------
  alpha Z        PSCENC =       138.35981199
  Ewald energy   TEWEN  =     69624.37741731
  -Hartree energ DENC   =    -76800.35829467
  -exchange      EXHF   =         0.00000000
  -V(xc)+E(xc)   XCENC  =       952.42393706
  PAW double counting   =     33513.27568401   -33415.96377112
  entropy T*S    EENTRO =        -0.00001756
  eigenvalues    EBANDS =     -4009.94340237
  atomic energy  EATOM  =      9192.15348662
  Solvation  Ediel_sol  =         0.00000000
  ---------------------------------------------------
  free energy    TOTEN  =      -805.67514873 eV

  energy without entropy =     -805.67513117  energy(sigma->0) =     -805.67513995


--------------------------------------------------------------------------------------------------------




--------------------------------------- Iteration      1(  25)  ---------------------------------------


    POTLOK:  cpu time      0.9538: real time      0.9647
    SETDIJ:  cpu time      0.0059: real time      0.0059
     EDDAV:  cpu time     78.9799: real time     79.9174
       DOS:  cpu time      0.0007: real time      0.0007
    --------------------------------------------
      LOOP:  cpu time     79.9404: real time     80.8889

 eigenvalue-minimisations  :  2436
 total energy-change (2. order) :-0.7231647E-06  ( 0.4867565E-09)
 number of electron     395.9999994 magnetization 
 augmentation part       -1.4714854 magnetization 

 DIPCOR: dipole corrections for dipol
 direction  3 min pos   275,
 dipolmoment           0.000000      0.000000      0.000019 electrons x Angstroem
 Tr[quadrupol]    -21762.094539

 energy correction for charged system         0.000000 eV
 dipol+quadrupol energy correction           -0.000000 eV
 added-field ion interaction         -0.000009 eV  (added to PSCEN)


 Free energy of the ion-electron system (eV)
  ---------------------------------------------------
  alpha Z        PSCENC =       138.35982113
  Ewald energy   TEWEN  =     69624.37741731
  -Hartree energ DENC   =    -76800.35686780
  -exchange      EXHF   =         0.00000000
  -V(xc)+E(xc)   XCENC  =       952.42395131
  PAW double counting   =     33513.29339459   -33415.98148887
  entropy T*S    EENTRO =        -0.00001756
  eigenvalues    EBANDS =     -4009.94484619
  atomic energy  EATOM  =      9192.15348662
  Solvation  Ediel_sol  =         0.00000000
  ---------------------------------------------------
  free energy    TOTEN  =      -805.67514945 eV

  energy without entropy =     -805.67513189  energy(sigma->0) =     -805.67514067


--------------------------------------------------------------------------------------------------------




 average (electrostatic) potential at core
  the test charge radii are     0.7672  0.5201
  (the norm of the test charge is              1.0000)
       1 -36.7441       2 -36.7538       3 -36.7538       4 -36.7540       5 -36.7539
       6 -36.7542       7 -36.7556       8 -36.7548       9 -36.7553      10 -36.7584
      11 -36.7540      12 -36.7548      13 -36.7539      14 -36.7537      15 -36.7540
      16 -36.7552      17 -36.7549      18 -36.7551      19 -36.7711      20 -36.7723
      21 -36.7641      22 -36.7722      23 -36.7723      24 -36.7724      25 -36.7737
      26 -36.7730      27 -36.7737      28 -36.7783      29 -36.7723      30 -36.7725
      31 -36.7722      32 -36.7719      33 -36.7722      34 -36.7734      35 -36.7734
      36 -36.7731      37 -35.5182      38 -35.5205      39 -35.5196      40 -35.5208
      41 -35.5207      42 -35.5209      43 -35.5238      44 -35.5211      45 -35.5219
      46 -35.5261      47 -35.5207      48 -35.5210      49 -35.5198      50 -35.5201
      51 -35.5205      52 -35.5214      53 -35.5213      54 -35.5213      55 -35.5954
      56 -35.5990      57 -35.5991      58 -35.5993      59 -35.5992      60 -35.5994
      61 -35.6006      62 -35.5997      63 -35.6017      64 -35.6047      65 -35.5993
      66 -35.5994      67 -35.5985      68 -35.5982      69 -35.5990      70 -35.5999
      71 -35.5997      72 -35.5998      73 -36.6678      74 -36.6715      75 -36.6713
      76 -36.6715      77 -36.6714      78 -36.6717      79 -36.6730      80 -36.6722
      81 -36.6728      82 -36.6735      83 -36.6715      84 -36.6717      85 -36.6714
      86 -36.6712      87 -36.6716      88 -36.6726      89 -36.6723      90 -36.6725
      91 -36.6678      92 -36.6715      93 -36.6712      94 -36.6715      95 -36.6714
      96 -36.6717      97 -36.6730      98 -36.6722      99 -36.6728     100 -36.6735
     101 -36.6715     102 -36.6717     103 -36.6714     104 -36.6712     105 -36.6716
     106 -36.6726     107 -36.6723     108 -36.6725     109 -36.2851     110 -36.2737
     111 -36.2740     112 -36.2735     113 -36.2734     114 -36.2737     115 -36.2749
     116 -36.2746     117 -36.2745     118 -36.2720     119 -36.2737     120 -36.2747
     121 -36.2736     122 -36.2736     123 -36.2738     124 -36.2753     125 -36.2744
     126 -36.2750     127 -41.8069     128 -41.8104     129 -41.8106     130 -41.8103
     131 -41.8102     132 -41.8105     133 -41.8117     134 -41.8112     135 -41.8115
     136 -41.8069     137 -41.8104     138 -41.8106     139 -41.8103     140 -41.8102
     141 -41.8105     142 -41.8117     143 -41.8112     144 -41.8115
 
 
 
 E-fermi :  -3.2020     XC(G=0):  -1.9762     alpha+bet : -1.7250

 val. band max:       -3.4686690774   @ k =  -0.1250   0.3333   0.0000
 cond. band min:      -2.9304357487   @ k =   0.1250   0.0000   0.0000
 fundamental gap:      0.5382333287
 Fermi energy:        -3.2019621476

 k-point     1 :       0.1250    0.0000    0.0000
  band No.  band energies     occupation 
      1     -20.0329      2.00000
      2     -19.9815      2.00000
      3     -19.9787      2.00000
      4     -19.8855      2.00000
      5     -19.8483      2.00000
      6     -19.8410      2.00000
      7     -19.8012      2.00000
      8     -19.7730      2.00000
      9     -19.7650      2.00000
     10     -19.3678      2.00000
     11     -19.3568      2.00000
     12     -19.3466      2.00000
     13     -19.2829      2.00000
     14     -19.2711      2.00000
     15     -19.2400      2.00000
     16     -19.1192      2.00000
     17     -19.1153      2.00000
     18     -19.0299      2.00000
     19     -15.7210      2.00000
     20     -15.7134      2.00000
     21     -15.6388      2.00000
     22     -15.6339      2.00000
     23     -15.6022      2.00000
     24     -15.5726      2.00000
     25     -15.5470      2.00000
     26     -15.5342      2.00000
     27     -15.4911      2.00000
     28     -15.4535      2.00000
     29     -15.3682      2.00000
     30     -15.3427      2.00000
     31     -15.2701      2.00000
     32     -15.2555      2.00000
     33     -15.2544      2.00000
     34     -15.2470      2.00000
     35     -15.1013      2.00000
     36     -15.0640      2.00000
     37     -13.6234      2.00000
     38     -13.5535      2.00000
     39     -13.2725      2.00000
     40     -13.2552      2.00000
     41     -13.1752      2.00000
     42     -13.0367      2.00000
     43     -12.9793      2.00000
     44     -12.9685      2.00000
     45     -12.9566      2.00000
     46     -12.8490      2.00000
     47     -12.8240      2.00000
     48     -12.7502      2.00000
     49     -12.7363      2.00000
     50     -12.5955      2.00000
     51     -12.5328      2.00000
     52     -12.4561      2.00000
     53     -12.3894      2.00000
     54     -12.3866      2.00000
     55     -12.3628      2.00000
     56     -12.2992      2.00000
     57     -12.2476      2.00000
     58     -12.2363      2.00000
     59     -12.2280      2.00000
     60     -12.1978      2.00000
     61     -12.1821      2.00000
     62     -12.1723      2.00000
     63     -12.1472      2.00000
     64     -11.4381      2.00000
     65     -11.3590      2.00000
     66     -11.3392      2.00000
     67     -11.2735      2.00000
     68     -11.2386      2.00000
     69     -11.2020      2.00000
     70     -11.1373      2.00000
     71     -10.7720      2.00000
     72     -10.7257      2.00000
     73     -10.6236      2.00000
     74     -10.5349      2.00000
     75     -10.5028      2.00000
     76     -10.4683      2.00000
     77     -10.4314      2.00000
     78     -10.3332      2.00000
     79     -10.3309      2.00000
     80     -10.3231      2.00000
     81     -10.2668      2.00000
     82     -10.2506      2.00000
     83     -10.1661      2.00000
     84     -10.1520      2.00000
     85     -10.1311      2.00000
     86     -10.0989      2.00000
     87     -10.0508      2.00000
     88      -9.9087      2.00000
     89      -9.7480      2.00000
     90      -9.7093      2.00000
     91      -9.7058      2.00000
     92      -9.6923      2.00000
     93      -9.6693      2.00000
     94      -9.6095      2.00000
     95      -9.5391      2.00000
     96      -9.3967      2.00000
     97      -9.3748      2.00000
     98      -9.3282      2.00000
     99      -9.1806      2.00000
    100      -9.0738      2.00000
    101      -8.7460      2.00000
    102      -8.7203      2.00000
    103      -8.7120      2.00000
    104      -8.7096      2.00000
    105      -8.6243      2.00000
    106      -8.5930      2.00000
    107      -8.5645      2.00000
    108      -8.5143      2.00000
    109      -8.5008      2.00000
    110      -8.3932      2.00000
    111      -8.3340      2.00000
    112      -8.3123      2.00000
    113      -8.2887      2.00000
    114      -8.2786      2.00000
    115      -8.1871      2.00000
    116      -8.1581      2.00000
    117      -8.1131      2.00000
    118      -8.0797      2.00000
    119      -7.9904      2.00000
    120      -7.7889      2.00000
    121      -7.7765      2.00000
    122      -7.7238      2.00000
    123      -7.7021      2.00000
    124      -7.6570      2.00000
    125      -7.6347      2.00000
    126      -7.5986      2.00000
    127      -7.5844      2.00000
    128      -7.5516      2.00000
    129      -7.5436      2.00000
    130      -7.5345      2.00000
    131      -7.5131      2.00000
    132      -7.5082      2.00000
    133      -7.4925      2.00000
    134      -7.4821      2.00000
    135      -7.4370      2.00000
    136      -7.3880      2.00000
    137      -7.3165      2.00000
    138      -7.2264      2.00000
    139      -7.2238      2.00000
    140      -7.2058      2.00000
    141      -7.2054      2.00000
    142      -7.0346      2.00000
    143      -7.0333      2.00000
    144      -6.9596      2.00000
    145      -6.8302      2.00000
    146      -6.7942      2.00000
    147      -6.7287      2.00000
    148      -6.5776      2.00000
    149      -6.5733      2.00000
    150      -6.3308      2.00000
    151      -6.2730      2.00000
    152      -6.2522      2.00000
    153      -6.2420      2.00000
    154      -6.2419      2.00000
    155      -6.2377      2.00000
    156      -6.2095      2.00000
    157      -6.2080      2.00000
    158      -6.2052      2.00000
    159      -6.1904      2.00000
    160      -6.1711      2.00000
    161      -6.1666      2.00000
    162      -6.1570      2.00000
    163      -6.1543      2.00000
    164      -6.1460      2.00000
    165      -6.1433      2.00000
    166      -6.1368      2.00000
    167      -6.1244      2.00000
    168      -6.1131      2.00000
    169      -6.0824      2.00000
    170      -6.0740      2.00000
    171      -6.0684      2.00000
    172      -6.0149      2.00000
    173      -5.9209      2.00000
    174      -5.9131      2.00000
    175      -5.8892      2.00000
    176      -5.8374      2.00000
    177      -5.7117      2.00000
    178      -5.7036      2.00000
    179      -5.6899      2.00000
    180      -5.6661      2.00000
    181      -5.5834      2.00000
    182      -5.5639      2.00000
    183      -5.4910      2.00000
    184      -5.4522      2.00000
    185      -5.3280      2.00000
    186      -5.2959      2.00000
    187      -5.1539      2.00000
    188      -4.5706      2.00000
    189      -4.5401      2.00000
    190      -4.5233      2.00000
    191      -4.5184      2.00000
    192      -4.5166      2.00000
    193      -4.5040      2.00000
    194      -4.4590      2.00000
    195      -4.4186      2.00000
    196      -4.4115      2.00000
    197      -3.7653      2.00000
    198      -3.6966      2.00000
    199      -2.9304      0.00012
    200      -2.6189      0.00000
    201      -2.5680      0.00000
    202      -2.4941      0.00000
    203      -2.4796      0.00000
    204      -2.4386      0.00000
    205      -2.4124      0.00000
    206      -2.3353      0.00000
    207      -2.3122      0.00000
    208      -2.2800      0.00000
    209      -2.2322      0.00000
    210      -2.1187      0.00000
    211      -2.1011      0.00000
    212      -2.0620      0.00000
    213      -2.0213      0.00000
    214      -2.0010      0.00000
    215      -1.9685      0.00000
    216      -1.9485      0.00000
    217      -1.9442      0.00000
    218      -1.9287      0.00000
    219      -1.9277      0.00000
    220      -1.7060      0.00000
    221      -1.6325      0.00000
    222      -1.5151      0.00000
    223      -1.4233      0.00000
    224      -1.3929      0.00000
    225      -1.3144      0.00000
    226      -1.3016      0.00000
    227      -1.2677      0.00000
    228      -1.2656      0.00000
    229      -1.2132      0.00000
    230      -1.1688      0.00000
    231      -1.0977      0.00000
    232      -1.0820      0.00000
    233      -1.0701      0.00000
    234      -1.0224      0.00000
    235      -0.9998      0.00000
    236      -0.9638      0.00000
    237      -0.8517      0.00000
    238      -0.8360      0.00000
    239      -0.8358      0.00000
    240      -0.8233      0.00000
    241      -0.8191      0.00000
    242      -0.7463      0.00000
    243      -0.7214      0.00000
    244      -0.7207      0.00000
    245      -0.7183      0.00000
    246      -0.5572      0.00000
    247      -0.4739      0.00000
    248      -0.4617      0.00000
    249      -0.4598      0.00000
    250      -0.4577      0.00000
    251      -0.2865      0.00000
    252      -0.2344      0.00000
    253      -0.2284      0.00000
    254      -0.2172      0.00000
    255      -0.1426      0.00000
    256      -0.0473      0.00000
    257      -0.0351      0.00000
    258       0.0584      0.00000
    259       0.0900      0.00000
    260       0.1522      0.00000
    261       0.2147      0.00000
    262       0.2975      0.00000
    263       0.3957      0.00000
    264       0.4271      0.00000
    265       0.4604      0.00000
    266       0.5014      0.00000
    267       0.6485      0.00000
    268       0.7320      0.00000
    269       0.7531      0.00000
    270       0.8306      0.00000
    271       0.9189      0.00000
    272       0.9881      0.00000
    273       1.0237      0.00000
    274       1.1146      0.00000
    275       1.1765      0.00000
    276       1.2046      0.00000

 k-point     2 :       0.3750    0.0000    0.0000
  band No.  band energies     occupation 
      1     -20.0070      2.00000
      2     -19.9585      2.00000
      3     -19.9569      2.00000
      4     -19.9535      2.00000
      5     -19.9125      2.00000
      6     -19.9067      2.00000
      7     -19.7277      2.00000
      8     -19.7078      2.00000
      9     -19.7026      2.00000
     10     -19.4356      2.00000
     11     -19.4332      2.00000
     12     -19.4281      2.00000
     13     -19.2065      2.00000
     14     -19.1962      2.00000
     15     -19.1499      2.00000
     16     -19.1440      2.00000
     17     -19.1408      2.00000
     18     -19.0692      2.00000
     19     -15.6899      2.00000
     20     -15.6680      2.00000
     21     -15.6317      2.00000
     22     -15.6160      2.00000
     23     -15.6111      2.00000
     24     -15.5919      2.00000
     25     -15.5698      2.00000
     26     -15.5684      2.00000
     27     -15.5298      2.00000
     28     -15.4762      2.00000
     29     -15.4556      2.00000
     30     -15.2883      2.00000
     31     -15.2524      2.00000
     32     -15.2508      2.00000
     33     -15.2397      2.00000
     34     -15.1596      2.00000
     35     -15.1385      2.00000
     36     -15.0715      2.00000
     37     -13.5854      2.00000
     38     -13.4502      2.00000
     39     -13.3953      2.00000
     40     -13.3222      2.00000
     41     -13.1831      2.00000
     42     -13.0615      2.00000
     43     -13.0408      2.00000
     44     -12.9929      2.00000
     45     -12.8197      2.00000
     46     -12.8161      2.00000
     47     -12.7280      2.00000
     48     -12.7040      2.00000
     49     -12.6365      2.00000
     50     -12.6036      2.00000
     51     -12.5284      2.00000
     52     -12.5062      2.00000
     53     -12.4264      2.00000
     54     -12.4016      2.00000
     55     -12.3710      2.00000
     56     -12.3632      2.00000
     57     -12.3567      2.00000
     58     -12.3130      2.00000
     59     -12.3033      2.00000
     60     -12.2966      2.00000
     61     -12.1818      2.00000
     62     -12.1379      2.00000
     63     -12.1336      2.00000
     64     -11.4169      2.00000
     65     -11.3546      2.00000
     66     -11.1908      2.00000
     67     -11.0799      2.00000
     68     -11.0690      2.00000
     69     -10.9894      2.00000
     70     -10.9518      2.00000
     71     -10.9265      2.00000
     72     -10.7983      2.00000
     73     -10.6824      2.00000
     74     -10.6063      2.00000
     75     -10.6005      2.00000
     76     -10.5872      2.00000
     77     -10.5637      2.00000
     78     -10.4982      2.00000
     79     -10.3120      2.00000
     80     -10.2999      2.00000
     81     -10.2061      2.00000
     82     -10.2038      2.00000
     83     -10.1919      2.00000
     84     -10.1210      2.00000
     85     -10.1053      2.00000
     86     -10.1049      2.00000
     87     -10.0410      2.00000
     88     -10.0024      2.00000
     89      -9.8927      2.00000
     90      -9.8645      2.00000
     91      -9.7663      2.00000
     92      -9.7579      2.00000
     93      -9.5866      2.00000
     94      -9.5367      2.00000
     95      -9.4830      2.00000
     96      -9.4005      2.00000
     97      -9.2753      2.00000
     98      -9.0782      2.00000
     99      -9.0618      2.00000
    100      -8.9852      2.00000
    101      -8.8203      2.00000
    102      -8.7776      2.00000
    103      -8.7632      2.00000
    104      -8.7185      2.00000
    105      -8.6439      2.00000
    106      -8.6070      2.00000
    107      -8.5794      2.00000
    108      -8.4914      2.00000
    109      -8.4844      2.00000
    110      -8.4475      2.00000
    111      -8.3344      2.00000
    112      -8.3270      2.00000
    113      -8.3248      2.00000
    114      -8.3179      2.00000
    115      -8.0818      2.00000
    116      -8.0632      2.00000
    117      -8.0479      2.00000
    118      -8.0470      2.00000
    119      -8.0113      2.00000
    120      -7.9185      2.00000
    121      -7.8923      2.00000
    122      -7.8791      2.00000
    123      -7.8494      2.00000
    124      -7.7086      2.00000
    125      -7.6299      2.00000
    126      -7.5968      2.00000
    127      -7.5892      2.00000
    128      -7.5773      2.00000
    129      -7.5721      2.00000
    130      -7.5657      2.00000
    131      -7.5259      2.00000
    132      -7.4374      2.00000
    133      -7.4207      2.00000
    134      -7.3940      2.00000
    135      -7.3631      2.00000
    136      -7.3287      2.00000
    137      -7.2409      2.00000
    138      -7.1962      2.00000
    139      -7.1723      2.00000
    140      -7.0568      2.00000
    141      -7.0489      2.00000
    142      -7.0263      2.00000
    143      -7.0104      2.00000
    144      -6.9281      2.00000
    145      -6.7665      2.00000
    146      -6.7503      2.00000
    147      -6.6131      2.00000
    148      -6.6103      2.00000
    149      -6.4478      2.00000
    150      -6.4147      2.00000
    151      -6.3737      2.00000
    152      -6.3553      2.00000
    153      -6.3392      2.00000
    154      -6.3273      2.00000
    155      -6.3150      2.00000
    156      -6.2951      2.00000
    157      -6.2587      2.00000
    158      -6.2242      2.00000
    159      -6.2153      2.00000
    160      -6.2145      2.00000
    161      -6.2099      2.00000
    162      -6.2023      2.00000
    163      -6.1976      2.00000
    164      -6.1815      2.00000
    165      -6.1811      2.00000
    166      -6.1685      2.00000
    167      -6.1231      2.00000
    168      -6.1156      2.00000
    169      -6.0625      2.00000
    170      -6.0564      2.00000
    171      -6.0400      2.00000
    172      -6.0324      2.00000
    173      -5.9701      2.00000
    174      -5.8810      2.00000
    175      -5.8405      2.00000
    176      -5.8306      2.00000
    177      -5.7942      2.00000
    178      -5.7680      2.00000
    179      -5.7302      2.00000
    180      -5.7279      2.00000
    181      -5.6320      2.00000
    182      -5.5752      2.00000
    183      -5.5142      2.00000
    184      -5.4507      2.00000
    185      -5.3690      2.00000
    186      -4.7505      2.00000
    187      -4.5908      2.00000
    188      -4.5704      2.00000
    189      -4.5444      2.00000
    190      -4.5274      2.00000
    191      -4.5163      2.00000
    192      -4.5154      2.00000
    193      -4.4770      2.00000
    194      -4.4512      2.00000
    195      -4.4421      2.00000
    196      -4.4061      2.00000
    197      -4.1551      2.00000
    198      -4.0387      2.00000
    199      -2.8994      0.00002
    200      -2.7980      0.00000
    201      -2.5887      0.00000
    202      -2.5548      0.00000
    203      -2.4091      0.00000
    204      -2.3829      0.00000
    205      -2.3557      0.00000
    206      -2.2733      0.00000
    207      -2.2686      0.00000
    208      -2.2116      0.00000
    209      -2.1421      0.00000
    210      -2.0778      0.00000
    211      -2.0706      0.00000
    212      -2.0496      0.00000
    213      -2.0432      0.00000
    214      -2.0099      0.00000
    215      -2.0052      0.00000
    216      -1.9006      0.00000
    217      -1.8339      0.00000
    218      -1.8242      0.00000
    219      -1.8107      0.00000
    220      -1.6464      0.00000
    221      -1.6349      0.00000
    222      -1.6229      0.00000
    223      -1.6109      0.00000
    224      -1.4707      0.00000
    225      -1.3967      0.00000
    226      -1.3826      0.00000
    227      -1.3238      0.00000
    228      -1.2519      0.00000
    229      -1.1637      0.00000
    230      -1.1483      0.00000
    231      -1.1270      0.00000
    232      -1.1104      0.00000
    233      -1.0675      0.00000
    234      -1.0490      0.00000
    235      -1.0432      0.00000
    236      -1.0153      0.00000
    237      -0.9653      0.00000
    238      -0.9203      0.00000
    239      -0.8667      0.00000
    240      -0.7022      0.00000
    241      -0.6685      0.00000
    242      -0.6638      0.00000
    243      -0.6218      0.00000
    244      -0.6150      0.00000
    245      -0.5903      0.00000
    246      -0.5532      0.00000
    247      -0.5018      0.00000
    248      -0.4394      0.00000
    249      -0.4099      0.00000
    250      -0.3224      0.00000
    251      -0.2971      0.00000
    252      -0.2418      0.00000
    253      -0.2410      0.00000
    254      -0.2294      0.00000
    255      -0.2055      0.00000
    256      -0.0401      0.00000
    257       0.0473      0.00000
    258       0.1319      0.00000
    259       0.1895      0.00000
    260       0.2275      0.00000
    261       0.2652      0.00000
    262       0.3137      0.00000
    263       0.3420      0.00000
    264       0.4438      0.00000
    265       0.4466      0.00000
    266       0.4658      0.00000
    267       0.4740      0.00000
    268       0.5004      0.00000
    269       0.6366      0.00000
    270       0.7516      0.00000
    271       0.8832      0.00000
    272       0.9265      0.00000
    273       0.9605      0.00000
    274       1.0675      0.00000
    275       1.0860      0.00000
    276       1.1571      0.00000

 k-point     3 :       0.1250    0.3333    0.0000
  band No.  band energies     occupation 
      1     -20.0249      2.00000
      2     -20.0054      2.00000
      3     -19.9625      2.00000
      4     -19.8817      2.00000
      5     -19.8601      2.00000
      6     -19.8329      2.00000
      7     -19.7943      2.00000
      8     -19.7876      2.00000
      9     -19.7573      2.00000
     10     -19.3698      2.00000
     11     -19.3531      2.00000
     12     -19.3484      2.00000
     13     -19.2868      2.00000
     14     -19.2658      2.00000
     15     -19.2414      2.00000
     16     -19.1450      2.00000
     17     -19.0758      2.00000
     18     -19.0439      2.00000
     19     -15.7233      2.00000
     20     -15.7008      2.00000
     21     -15.6515      2.00000
     22     -15.6064      2.00000
     23     -15.5948      2.00000
     24     -15.5847      2.00000
     25     -15.5723      2.00000
     26     -15.5419      2.00000
     27     -15.4806      2.00000
     28     -15.4720      2.00000
     29     -15.3384      2.00000
     30     -15.3243      2.00000
     31     -15.3088      2.00000
     32     -15.2868      2.00000
     33     -15.2445      2.00000
     34     -15.2014      2.00000
     35     -15.1466      2.00000
     36     -15.0259      2.00000
     37     -13.7261      2.00000
     38     -13.3939      2.00000
     39     -13.3408      2.00000
     40     -13.2487      2.00000
     41     -13.1006      2.00000
     42     -13.0616      2.00000
     43     -13.0571      2.00000
     44     -13.0515      2.00000
     45     -12.9966      2.00000
     46     -12.8921      2.00000
     47     -12.6658      2.00000
     48     -12.5728      2.00000
     49     -12.5663      2.00000
     50     -12.5611      2.00000
     51     -12.5060      2.00000
     52     -12.4454      2.00000
     53     -12.4353      2.00000
     54     -12.4264      2.00000
     55     -12.4208      2.00000
     56     -12.3900      2.00000
     57     -12.3658      2.00000
     58     -12.2943      2.00000
     59     -12.2623      2.00000
     60     -12.2263      2.00000
     61     -12.2171      2.00000
     62     -12.2056      2.00000
     63     -12.1594      2.00000
     64     -11.4243      2.00000
     65     -11.3761      2.00000
     66     -11.2734      2.00000
     67     -11.1530      2.00000
     68     -11.0397      2.00000
     69     -11.0093      2.00000
     70     -10.9581      2.00000
     71     -10.9443      2.00000
     72     -10.9413      2.00000
     73     -10.7567      2.00000
     74     -10.5242      2.00000
     75     -10.5181      2.00000
     76     -10.4804      2.00000
     77     -10.4641      2.00000
     78     -10.4409      2.00000
     79     -10.4070      2.00000
     80     -10.3871      2.00000
     81     -10.2943      2.00000
     82     -10.2514      2.00000
     83     -10.2088      2.00000
     84     -10.1851      2.00000
     85     -10.1568      2.00000
     86     -10.0240      2.00000
     87      -9.9435      2.00000
     88      -9.8437      2.00000
     89      -9.8368      2.00000
     90      -9.8362      2.00000
     91      -9.7582      2.00000
     92      -9.6059      2.00000
     93      -9.5647      2.00000
     94      -9.4465      2.00000
     95      -9.3936      2.00000
     96      -9.3795      2.00000
     97      -9.2923      2.00000
     98      -9.2663      2.00000
     99      -9.1936      2.00000
    100      -8.9154      2.00000
    101      -8.8492      2.00000
    102      -8.7861      2.00000
    103      -8.6585      2.00000
    104      -8.6407      2.00000
    105      -8.6348      2.00000
    106      -8.6169      2.00000
    107      -8.6101      2.00000
    108      -8.5990      2.00000
    109      -8.5405      2.00000
    110      -8.5357      2.00000
    111      -8.5105      2.00000
    112      -8.4719      2.00000
    113      -8.3689      2.00000
    114      -8.3167      2.00000
    115      -8.1931      2.00000
    116      -8.1391      2.00000
    117      -8.0365      2.00000
    118      -7.9787      2.00000
    119      -7.9427      2.00000
    120      -7.8029      2.00000
    121      -7.7778      2.00000
    122      -7.7767      2.00000
    123      -7.7383      2.00000
    124      -7.6651      2.00000
    125      -7.6450      2.00000
    126      -7.6134      2.00000
    127      -7.5885      2.00000
    128      -7.5785      2.00000
    129      -7.5687      2.00000
    130      -7.5442      2.00000
    131      -7.5257      2.00000
    132      -7.4901      2.00000
    133      -7.4773      2.00000
    134      -7.4189      2.00000
    135      -7.3792      2.00000
    136      -7.3704      2.00000
    137      -7.2880      2.00000
    138      -7.1721      2.00000
    139      -7.0676      2.00000
    140      -7.0212      2.00000
    141      -6.9995      2.00000
    142      -6.9782      2.00000
    143      -6.9731      2.00000
    144      -6.9499      2.00000
    145      -6.7733      2.00000
    146      -6.7347      2.00000
    147      -6.7087      2.00000
    148      -6.5110      2.00000
    149      -6.4979      2.00000
    150      -6.4478      2.00000
    151      -6.4407      2.00000
    152      -6.4024      2.00000
    153      -6.4008      2.00000
    154      -6.3670      2.00000
    155      -6.3609      2.00000
    156      -6.2830      2.00000
    157      -6.2758      2.00000
    158      -6.2757      2.00000
    159      -6.2471      2.00000
    160      -6.2422      2.00000
    161      -6.2366      2.00000
    162      -6.1879      2.00000
    163      -6.1683      2.00000
    164      -6.1661      2.00000
    165      -6.1530      2.00000
    166      -6.1459      2.00000
    167      -6.1420      2.00000
    168      -6.1379      2.00000
    169      -6.1294      2.00000
    170      -6.1107      2.00000
    171      -5.9900      2.00000
    172      -5.9427      2.00000
    173      -5.8950      2.00000
    174      -5.8555      2.00000
    175      -5.8336      2.00000
    176      -5.7631      2.00000
    177      -5.7599      2.00000
    178      -5.7126      2.00000
    179      -5.6508      2.00000
    180      -5.6285      2.00000
    181      -5.5948      2.00000
    182      -5.5560      2.00000
    183      -5.5366      2.00000
    184      -5.2951      2.00000
    185      -5.2882      2.00000
    186      -5.2871      2.00000
    187      -4.8435      2.00000
    188      -4.5575      2.00000
    189      -4.5315      2.00000
    190      -4.5233      2.00000
    191      -4.5131      2.00000
    192      -4.4991      2.00000
    193      -4.4884      2.00000
    194      -4.4769      2.00000
    195      -4.4636      2.00000
    196      -4.3999      2.00000
    197      -4.1714      2.00000
    198      -3.5048      1.99998
    199      -2.8209      0.00000
    200      -2.7008      0.00000
    201      -2.6790      0.00000
    202      -2.4945      0.00000
    203      -2.4252      0.00000
    204      -2.4052      0.00000
    205      -2.3609      0.00000
    206      -2.3575      0.00000
    207      -2.3183      0.00000
    208      -2.3001      0.00000
    209      -2.1608      0.00000
    210      -2.0875      0.00000
    211      -2.0742      0.00000
    212      -2.0714      0.00000
    213      -2.0578      0.00000
    214      -2.0532      0.00000
    215      -1.9611      0.00000
    216      -1.9571      0.00000
    217      -1.9505      0.00000
    218      -1.9311      0.00000
    219      -1.9154      0.00000
    220      -1.6753      0.00000
    221      -1.5896      0.00000
    222      -1.4371      0.00000
    223      -1.4238      0.00000
    224      -1.3971      0.00000
    225      -1.3945      0.00000
    226      -1.3033      0.00000
    227      -1.2666      0.00000
    228      -1.2630      0.00000
    229      -1.2545      0.00000
    230      -1.2538      0.00000
    231      -1.2018      0.00000
    232      -1.1167      0.00000
    233      -1.0195      0.00000
    234      -1.0103      0.00000
    235      -1.0084      0.00000
    236      -0.9813      0.00000
    237      -0.9796      0.00000
    238      -0.8723      0.00000
    239      -0.8139      0.00000
    240      -0.7974      0.00000
    241      -0.7914      0.00000
    242      -0.7843      0.00000
    243      -0.7772      0.00000
    244      -0.7481      0.00000
    245      -0.6326      0.00000
    246      -0.5867      0.00000
    247      -0.5254      0.00000
    248      -0.3902      0.00000
    249      -0.3510      0.00000
    250      -0.3124      0.00000
    251      -0.3081      0.00000
    252      -0.2858      0.00000
    253      -0.2788      0.00000
    254      -0.0963      0.00000
    255       0.0340      0.00000
    256       0.0781      0.00000
    257       0.0935      0.00000
    258       0.0953      0.00000
    259       0.1641      0.00000
    260       0.1999      0.00000
    261       0.2757      0.00000
    262       0.3005      0.00000
    263       0.3404      0.00000
    264       0.3571      0.00000
    265       0.3666      0.00000
    266       0.4045      0.00000
    267       0.4303      0.00000
    268       0.5263      0.00000
    269       0.8368      0.00000
    270       0.8473      0.00000
    271       0.8544      0.00000
    272       0.9674      0.00000
    273       1.0309      0.00000
    274       1.0576      0.00000
    275       1.1369      0.00000
    276       1.1374      0.00000

 k-point     4 :       0.3750    0.3333    0.0000
  band No.  band energies     occupation 
      1     -19.9987      2.00000
      2     -19.9816      2.00000
      3     -19.9515      2.00000
      4     -19.9388      2.00000
      5     -19.9288      2.00000
      6     -19.8953      2.00000
      7     -19.7231      2.00000
      8     -19.7175      2.00000
      9     -19.6974      2.00000
     10     -19.4358      2.00000
     11     -19.4328      2.00000
     12     -19.4283      2.00000
     13     -19.2182      2.00000
     14     -19.1796      2.00000
     15     -19.1716      2.00000
     16     -19.1477      2.00000
     17     -19.1069      2.00000
     18     -19.0829      2.00000
     19     -15.6804      2.00000
     20     -15.6771      2.00000
     21     -15.6394      2.00000
     22     -15.6262      2.00000
     23     -15.5947      2.00000
     24     -15.5850      2.00000
     25     -15.5724      2.00000
     26     -15.5661      2.00000
     27     -15.5652      2.00000
     28     -15.4659      2.00000
     29     -15.3810      2.00000
     30     -15.3496      2.00000
     31     -15.2650      2.00000
     32     -15.2640      2.00000
     33     -15.1851      2.00000
     34     -15.1748      2.00000
     35     -15.1219      2.00000
     36     -15.1004      2.00000
     37     -13.5424      2.00000
     38     -13.4447      2.00000
     39     -13.3622      2.00000
     40     -13.2945      2.00000
     41     -13.1901      2.00000
     42     -13.1172      2.00000
     43     -13.0965      2.00000
     44     -13.0013      2.00000
     45     -12.9697      2.00000
     46     -12.8457      2.00000
     47     -12.6887      2.00000
     48     -12.6750      2.00000
     49     -12.6318      2.00000
     50     -12.6067      2.00000
     51     -12.4535      2.00000
     52     -12.4224      2.00000
     53     -12.4157      2.00000
     54     -12.4145      2.00000
     55     -12.3941      2.00000
     56     -12.3647      2.00000
     57     -12.3376      2.00000
     58     -12.3320      2.00000
     59     -12.2903      2.00000
     60     -12.1910      2.00000
     61     -12.1735      2.00000
     62     -12.1590      2.00000
     63     -12.1208      2.00000
     64     -11.4688      2.00000
     65     -11.4430      2.00000
     66     -11.3475      2.00000
     67     -11.2517      2.00000
     68     -11.1352      2.00000
     69     -10.8864      2.00000
     70     -10.7862      2.00000
     71     -10.7261      2.00000
     72     -10.6219      2.00000
     73     -10.6165      2.00000
     74     -10.6089      2.00000
     75     -10.5826      2.00000
     76     -10.5787      2.00000
     77     -10.5766      2.00000
     78     -10.5720      2.00000
     79     -10.4858      2.00000
     80     -10.3064      2.00000
     81     -10.2888      2.00000
     82     -10.2536      2.00000
     83     -10.2504      2.00000
     84     -10.1482      2.00000
     85     -10.0802      2.00000
     86     -10.0113      2.00000
     87      -9.9866      2.00000
     88      -9.9807      2.00000
     89      -9.8582      2.00000
     90      -9.8171      2.00000
     91      -9.7953      2.00000
     92      -9.7146      2.00000
     93      -9.7035      2.00000
     94      -9.5344      2.00000
     95      -9.4500      2.00000
     96      -9.4437      2.00000
     97      -9.2249      2.00000
     98      -9.2026      2.00000
     99      -8.9917      2.00000
    100      -8.9556      2.00000
    101      -8.9013      2.00000
    102      -8.7339      2.00000
    103      -8.7199      2.00000
    104      -8.6996      2.00000
    105      -8.6440      2.00000
    106      -8.6100      2.00000
    107      -8.5903      2.00000
    108      -8.4424      2.00000
    109      -8.4323      2.00000
    110      -8.4039      2.00000
    111      -8.3712      2.00000
    112      -8.3613      2.00000
    113      -8.3169      2.00000
    114      -8.2963      2.00000
    115      -8.2494      2.00000
    116      -8.2213      2.00000
    117      -8.1200      2.00000
    118      -8.0873      2.00000
    119      -8.0854      2.00000
    120      -7.9953      2.00000
    121      -7.7850      2.00000
    122      -7.7210      2.00000
    123      -7.6990      2.00000
    124      -7.6879      2.00000
    125      -7.6845      2.00000
    126      -7.6700      2.00000
    127      -7.6667      2.00000
    128      -7.6613      2.00000
    129      -7.6602      2.00000
    130      -7.5145      2.00000
    131      -7.4754      2.00000
    132      -7.3723      2.00000
    133      -7.3512      2.00000
    134      -7.2626      2.00000
    135      -7.2506      2.00000
    136      -7.2182      2.00000
    137      -7.1893      2.00000
    138      -7.1637      2.00000
    139      -7.1555      2.00000
    140      -7.1141      2.00000
    141      -7.0438      2.00000
    142      -6.9523      2.00000
    143      -6.8881      2.00000
    144      -6.8766      2.00000
    145      -6.8509      2.00000
    146      -6.8349      2.00000
    147      -6.5310      2.00000
    148      -6.5280      2.00000
    149      -6.4879      2.00000
    150      -6.4811      2.00000
    151      -6.4763      2.00000
    152      -6.4300      2.00000
    153      -6.3892      2.00000
    154      -6.3803      2.00000
    155      -6.3592      2.00000
    156      -6.3085      2.00000
    157      -6.2946      2.00000
    158      -6.2353      2.00000
    159      -6.2296      2.00000
    160      -6.2176      2.00000
    161      -6.2150      2.00000
    162      -6.1815      2.00000
    163      -6.1775      2.00000
    164      -6.1766      2.00000
    165      -6.1739      2.00000
    166      -6.1504      2.00000
    167      -6.1493      2.00000
    168      -6.1426      2.00000
    169      -6.1040      2.00000
    170      -6.0778      2.00000
    171      -6.0560      2.00000
    172      -6.0533      2.00000
    173      -5.9999      2.00000
    174      -5.9662      2.00000
    175      -5.9607      2.00000
    176      -5.9597      2.00000
    177      -5.8496      2.00000
    178      -5.8071      2.00000
    179      -5.7573      2.00000
    180      -5.6816      2.00000
    181      -5.6667      2.00000
    182      -5.4914      2.00000
    183      -5.4712      2.00000
    184      -5.0711      2.00000
    185      -4.9639      2.00000
    186      -4.8704      2.00000
    187      -4.6683      2.00000
    188      -4.5666      2.00000
    189      -4.5491      2.00000
    190      -4.5254      2.00000
    191      -4.5184      2.00000
    192      -4.5028      2.00000
    193      -4.4906      2.00000
    194      -4.4533      2.00000
    195      -4.4348      2.00000
    196      -4.4091      2.00000
    197      -4.3349      2.00000
    198      -4.0080      2.00000
    199      -2.8459      0.00000
    200      -2.7689      0.00000
    201      -2.7625      0.00000
    202      -2.5195      0.00000
    203      -2.3976      0.00000
    204      -2.3227      0.00000
    205      -2.3196      0.00000
    206      -2.3181      0.00000
    207      -2.2558      0.00000
    208      -2.1726      0.00000
    209      -2.1102      0.00000
    210      -2.0968      0.00000
    211      -2.0860      0.00000
    212      -2.0848      0.00000
    213      -2.0215      0.00000
    214      -2.0170      0.00000
    215      -1.9800      0.00000
    216      -1.9188      0.00000
    217      -1.8518      0.00000
    218      -1.8253      0.00000
    219      -1.8064      0.00000
    220      -1.6483      0.00000
    221      -1.6397      0.00000
    222      -1.5899      0.00000
    223      -1.5858      0.00000
    224      -1.4722      0.00000
    225      -1.3853      0.00000
    226      -1.3764      0.00000
    227      -1.2884      0.00000
    228      -1.2780      0.00000
    229      -1.2429      0.00000
    230      -1.1959      0.00000
    231      -1.1421      0.00000
    232      -1.1352      0.00000
    233      -1.0737      0.00000
    234      -1.0689      0.00000
    235      -1.0181      0.00000
    236      -1.0166      0.00000
    237      -0.9830      0.00000
    238      -0.9356      0.00000
    239      -0.9201      0.00000
    240      -0.6732      0.00000
    241      -0.6707      0.00000
    242      -0.6504      0.00000
    243      -0.6246      0.00000
    244      -0.5972      0.00000
    245      -0.5921      0.00000
    246      -0.5383      0.00000
    247      -0.4877      0.00000
    248      -0.4099      0.00000
    249      -0.4062      0.00000
    250      -0.3892      0.00000
    251      -0.3819      0.00000
    252      -0.3580      0.00000
    253      -0.2162      0.00000
    254      -0.0248      0.00000
    255       0.0911      0.00000
    256       0.1152      0.00000
    257       0.1226      0.00000
    258       0.1341      0.00000
    259       0.1770      0.00000
    260       0.2290      0.00000
    261       0.2297      0.00000
    262       0.2716      0.00000
    263       0.2987      0.00000
    264       0.3107      0.00000
    265       0.3515      0.00000
    266       0.4191      0.00000
    267       0.4356      0.00000
    268       0.5924      0.00000
    269       0.7313      0.00000
    270       0.7850      0.00000
    271       0.8886      0.00000
    272       0.8911      0.00000
    273       0.9744      0.00000
    274       0.9915      0.00000
    275       1.0273      0.00000
    276       1.0395      0.00000

 k-point     5 :      -0.3750    0.3333    0.0000
  band No.  band energies     occupation 
      1     -20.0006      2.00000
      2     -19.9784      2.00000
      3     -19.9484      2.00000
      4     -19.9402      2.00000
      5     -19.9340      2.00000
      6     -19.8932      2.00000
      7     -19.7258      2.00000
      8     -19.7131      2.00000
      9     -19.6991      2.00000
     10     -19.4361      2.00000
     11     -19.4322      2.00000
     12     -19.4287      2.00000
     13     -19.2222      2.00000
     14     -19.1701      2.00000
     15     -19.1678      2.00000
     16     -19.1544      2.00000
     17     -19.1142      2.00000
     18     -19.0783      2.00000
     19     -15.7001      2.00000
     20     -15.6730      2.00000
     21     -15.6472      2.00000
     22     -15.6240      2.00000
     23     -15.6089      2.00000
     24     -15.5608      2.00000
     25     -15.5464      2.00000
     26     -15.5456      2.00000
     27     -15.5318      2.00000
     28     -15.5094      2.00000
     29     -15.4471      2.00000
     30     -15.3024      2.00000
     31     -15.2814      2.00000
     32     -15.2240      2.00000
     33     -15.2133      2.00000
     34     -15.1937      2.00000
     35     -15.1377      2.00000
     36     -15.0652      2.00000
     37     -13.6147      2.00000
     38     -13.4351      2.00000
     39     -13.2860      2.00000
     40     -13.2453      2.00000
     41     -13.2220      2.00000
     42     -13.1895      2.00000
     43     -12.9614      2.00000
     44     -12.9349      2.00000
     45     -12.9046      2.00000
     46     -12.8103      2.00000
     47     -12.8022      2.00000
     48     -12.7694      2.00000
     49     -12.7418      2.00000
     50     -12.7282      2.00000
     51     -12.5511      2.00000
     52     -12.4186      2.00000
     53     -12.3875      2.00000
     54     -12.3584      2.00000
     55     -12.3573      2.00000
     56     -12.3425      2.00000
     57     -12.3399      2.00000
     58     -12.2863      2.00000
     59     -12.2800      2.00000
     60     -12.1762      2.00000
     61     -12.1547      2.00000
     62     -12.1224      2.00000
     63     -12.0614      2.00000
     64     -11.4647      2.00000
     65     -11.3342      2.00000
     66     -11.3316      2.00000
     67     -11.2922      2.00000
     68     -11.1946      2.00000
     69     -10.9767      2.00000
     70     -10.9464      2.00000
     71     -10.8649      2.00000
     72     -10.7792      2.00000
     73     -10.6014      2.00000
     74     -10.5934      2.00000
     75     -10.5625      2.00000
     76     -10.5455      2.00000
     77     -10.4045      2.00000
     78     -10.3935      2.00000
     79     -10.3332      2.00000
     80     -10.3292      2.00000
     81     -10.3267      2.00000
     82     -10.2231      2.00000
     83     -10.1720      2.00000
     84     -10.1180      2.00000
     85     -10.1018      2.00000
     86     -10.0875      2.00000
     87     -10.0258      2.00000
     88      -9.9679      2.00000
     89      -9.8903      2.00000
     90      -9.7610      2.00000
     91      -9.7602      2.00000
     92      -9.7502      2.00000
     93      -9.6575      2.00000
     94      -9.5513      2.00000
     95      -9.5424      2.00000
     96      -9.4973      2.00000
     97      -9.2804      2.00000
     98      -9.1504      2.00000
     99      -8.9899      2.00000
    100      -8.9655      2.00000
    101      -8.8758      2.00000
    102      -8.7445      2.00000
    103      -8.7413      2.00000
    104      -8.7308      2.00000
    105      -8.6919      2.00000
    106      -8.6234      2.00000
    107      -8.5681      2.00000
    108      -8.5179      2.00000
    109      -8.5073      2.00000
    110      -8.4652      2.00000
    111      -8.3462      2.00000
    112      -8.3313      2.00000
    113      -8.2509      2.00000
    114      -8.2081      2.00000
    115      -8.1958      2.00000
    116      -8.0943      2.00000
    117      -8.0669      2.00000
    118      -8.0561      2.00000
    119      -8.0094      2.00000
    120      -7.8692      2.00000
    121      -7.8670      2.00000
    122      -7.8551      2.00000
    123      -7.8447      2.00000
    124      -7.8326      2.00000
    125      -7.7227      2.00000
    126      -7.5846      2.00000
    127      -7.5522      2.00000
    128      -7.5332      2.00000
    129      -7.5279      2.00000
    130      -7.5224      2.00000
    131      -7.4857      2.00000
    132      -7.4808      2.00000
    133      -7.4709      2.00000
    134      -7.3978      2.00000
    135      -7.2628      2.00000
    136      -7.2323      2.00000
    137      -7.1986      2.00000
    138      -7.1656      2.00000
    139      -7.1249      2.00000
    140      -7.0793      2.00000
    141      -7.0744      2.00000
    142      -7.0460      2.00000
    143      -6.9776      2.00000
    144      -6.7601      2.00000
    145      -6.7202      2.00000
    146      -6.6302      2.00000
    147      -6.6006      2.00000
    148      -6.5572      2.00000
    149      -6.4864      2.00000
    150      -6.4847      2.00000
    151      -6.4727      2.00000
    152      -6.4468      2.00000
    153      -6.4066      2.00000
    154      -6.3901      2.00000
    155      -6.3411      2.00000
    156      -6.2674      2.00000
    157      -6.2342      2.00000
    158      -6.2305      2.00000
    159      -6.2196      2.00000
    160      -6.2104      2.00000
    161      -6.2094      2.00000
    162      -6.2061      2.00000
    163      -6.1929      2.00000
    164      -6.1781      2.00000
    165      -6.1659      2.00000
    166      -6.1574      2.00000
    167      -6.1468      2.00000
    168      -6.1302      2.00000
    169      -6.1222      2.00000
    170      -6.1139      2.00000
    171      -6.0847      2.00000
    172      -6.0495      2.00000
    173      -6.0353      2.00000
    174      -6.0185      2.00000
    175      -5.9970      2.00000
    176      -5.9597      2.00000
    177      -5.8923      2.00000
    178      -5.8007      2.00000
    179      -5.7950      2.00000
    180      -5.6499      2.00000
    181      -5.5692      2.00000
    182      -5.5302      2.00000
    183      -5.4062      2.00000
    184      -5.1751      2.00000
    185      -4.9155      2.00000
    186      -4.7212      2.00000
    187      -4.6971      2.00000
    188      -4.5796      2.00000
    189      -4.5336      2.00000
    190      -4.5294      2.00000
    191      -4.5146      2.00000
    192      -4.5047      2.00000
    193      -4.4989      2.00000
    194      -4.4929      2.00000
    195      -4.4365      2.00000
    196      -4.4290      2.00000
    197      -4.3871      2.00000
    198      -3.9613      2.00000
    199      -2.9084      0.00003
    200      -2.7713      0.00000
    201      -2.6721      0.00000
    202      -2.5764      0.00000
    203      -2.3745      0.00000
    204      -2.3609      0.00000
    205      -2.3189      0.00000
    206      -2.2909      0.00000
    207      -2.2542      0.00000
    208      -2.1652      0.00000
    209      -2.1542      0.00000
    210      -2.1062      0.00000
    211      -2.0965      0.00000
    212      -2.0372      0.00000
    213      -2.0302      0.00000
    214      -1.9809      0.00000
    215      -1.9737      0.00000
    216      -1.9511      0.00000
    217      -1.8366      0.00000
    218      -1.8226      0.00000
    219      -1.8142      0.00000
    220      -1.6522      0.00000
    221      -1.6237      0.00000
    222      -1.6055      0.00000
    223      -1.5725      0.00000
    224      -1.5276      0.00000
    225      -1.4565      0.00000
    226      -1.3487      0.00000
    227      -1.3308      0.00000
    228      -1.2842      0.00000
    229      -1.2739      0.00000
    230      -1.2450      0.00000
    231      -1.1797      0.00000
    232      -1.1024      0.00000
    233      -0.9846      0.00000
    234      -0.9410      0.00000
    235      -0.9125      0.00000
    236      -0.9098      0.00000
    237      -0.8984      0.00000
    238      -0.8482      0.00000
    239      -0.8326      0.00000
    240      -0.7747      0.00000
    241      -0.7319      0.00000
    242      -0.7108      0.00000
    243      -0.6966      0.00000
    244      -0.6213      0.00000
    245      -0.5921      0.00000
    246      -0.5779      0.00000
    247      -0.5083      0.00000
    248      -0.4843      0.00000
    249      -0.4829      0.00000
    250      -0.4558      0.00000
    251      -0.3011      0.00000
    252      -0.2338      0.00000
    253      -0.2011      0.00000
    254      -0.0940      0.00000
    255      -0.0738      0.00000
    256       0.0140      0.00000
    257       0.0314      0.00000
    258       0.1864      0.00000
    259       0.2427      0.00000
    260       0.2610      0.00000
    261       0.3025      0.00000
    262       0.3164      0.00000
    263       0.3597      0.00000
    264       0.3738      0.00000
    265       0.3785      0.00000
    266       0.3845      0.00000
    267       0.4667      0.00000
    268       0.4963      0.00000
    269       0.5731      0.00000
    270       0.7633      0.00000
    271       0.8367      0.00000
    272       0.9021      0.00000
    273       1.0327      0.00000
    274       1.0409      0.00000
    275       1.0923      0.00000
    276       1.1227      0.00000

 k-point     6 :      -0.1250    0.3333    0.0000
  band No.  band energies     occupation 
      1     -20.0256      2.00000
      2     -20.0043      2.00000
      3     -19.9630      2.00000
      4     -19.8775      2.00000
      5     -19.8671      2.00000
      6     -19.8300      2.00000
      7     -19.7989      2.00000
      8     -19.7800      2.00000
      9     -19.7603      2.00000
     10     -19.3657      2.00000
     11     -19.3605      2.00000
     12     -19.3452      2.00000
     13     -19.2915      2.00000
     14     -19.2539      2.00000
     15     -19.2488      2.00000
     16     -19.1440      2.00000
     17     -19.0784      2.00000
     18     -19.0422      2.00000
     19     -15.7307      2.00000
     20     -15.6920      2.00000
     21     -15.6789      2.00000
     22     -15.6066      2.00000
     23     -15.5647      2.00000
     24     -15.5634      2.00000
     25     -15.5517      2.00000
     26     -15.5474      2.00000
     27     -15.5183      2.00000
     28     -15.4405      2.00000
     29     -15.4017      2.00000
     30     -15.3444      2.00000
     31     -15.3048      2.00000
     32     -15.2439      2.00000
     33     -15.2178      2.00000
     34     -15.1980      2.00000
     35     -15.1874      2.00000
     36     -15.0103      2.00000
     37     -13.7521      2.00000
     38     -13.3663      2.00000
     39     -13.3403      2.00000
     40     -13.2966      2.00000
     41     -13.1404      2.00000
     42     -13.0381      2.00000
     43     -12.9662      2.00000
     44     -12.8997      2.00000
     45     -12.8885      2.00000
     46     -12.8672      2.00000
     47     -12.7745      2.00000
     48     -12.7522      2.00000
     49     -12.7506      2.00000
     50     -12.6821      2.00000
     51     -12.6001      2.00000
     52     -12.4468      2.00000
     53     -12.4185      2.00000
     54     -12.3873      2.00000
     55     -12.3667      2.00000
     56     -12.2869      2.00000
     57     -12.2798      2.00000
     58     -12.2743      2.00000
     59     -12.2238      2.00000
     60     -12.2214      2.00000
     61     -12.1953      2.00000
     62     -12.1634      2.00000
     63     -12.1587      2.00000
     64     -11.3007      2.00000
     65     -11.2858      2.00000
     66     -11.2467      2.00000
     67     -11.2261      2.00000
     68     -11.1794      2.00000
     69     -11.1316      2.00000
     70     -11.1052      2.00000
     71     -11.0893      2.00000
     72     -10.7935      2.00000
     73     -10.5861      2.00000
     74     -10.5795      2.00000
     75     -10.5362      2.00000
     76     -10.4912      2.00000
     77     -10.4791      2.00000
     78     -10.4258      2.00000
     79     -10.4044      2.00000
     80     -10.3659      2.00000
     81     -10.2956      2.00000
     82     -10.2494      2.00000
     83     -10.1976      2.00000
     84     -10.0751      2.00000
     85     -10.0175      2.00000
     86     -10.0139      2.00000
     87      -9.9903      2.00000
     88      -9.9896      2.00000
     89      -9.7952      2.00000
     90      -9.7702      2.00000
     91      -9.7145      2.00000
     92      -9.6057      2.00000
     93      -9.4942      2.00000
     94      -9.4815      2.00000
     95      -9.4540      2.00000
     96      -9.4366      2.00000
     97      -9.3771      2.00000
     98      -9.2969      2.00000
     99      -9.2017      2.00000
    100      -8.9926      2.00000
    101      -8.8905      2.00000
    102      -8.7259      2.00000
    103      -8.7061      2.00000
    104      -8.6665      2.00000
    105      -8.6132      2.00000
    106      -8.6123      2.00000
    107      -8.6034      2.00000
    108      -8.5992      2.00000
    109      -8.4939      2.00000
    110      -8.4910      2.00000
    111      -8.4806      2.00000
    112      -8.4172      2.00000
    113      -8.4141      2.00000
    114      -8.3584      2.00000
    115      -8.1042      2.00000
    116      -8.0858      2.00000
    117      -8.0658      2.00000
    118      -7.9184      2.00000
    119      -7.8841      2.00000
    120      -7.8104      2.00000
    121      -7.7638      2.00000
    122      -7.7498      2.00000
    123      -7.7481      2.00000
    124      -7.7440      2.00000
    125      -7.7087      2.00000
    126      -7.6639      2.00000
    127      -7.6008      2.00000
    128      -7.5678      2.00000
    129      -7.5314      2.00000
    130      -7.5301      2.00000
    131      -7.5017      2.00000
    132      -7.4887      2.00000
    133      -7.4518      2.00000
    134      -7.4462      2.00000
    135      -7.4092      2.00000
    136      -7.3573      2.00000
    137      -7.2583      2.00000
    138      -7.2353      2.00000
    139      -7.1984      2.00000
    140      -7.1618      2.00000
    141      -7.1055      2.00000
    142      -6.9612      2.00000
    143      -6.7943      2.00000
    144      -6.7531      2.00000
    145      -6.7250      2.00000
    146      -6.7216      2.00000
    147      -6.6482      2.00000
    148      -6.6273      2.00000
    149      -6.5960      2.00000
    150      -6.4581      2.00000
    151      -6.4190      2.00000
    152      -6.3954      2.00000
    153      -6.3695      2.00000
    154      -6.3213      2.00000
    155      -6.2956      2.00000
    156      -6.2731      2.00000
    157      -6.2565      2.00000
    158      -6.2515      2.00000
    159      -6.2428      2.00000
    160      -6.2414      2.00000
    161      -6.2322      2.00000
    162      -6.2195      2.00000
    163      -6.1825      2.00000
    164      -6.1745      2.00000
    165      -6.1723      2.00000
    166      -6.1671      2.00000
    167      -6.1515      2.00000
    168      -6.1458      2.00000
    169      -6.1276      2.00000
    170      -6.1026      2.00000
    171      -6.0373      2.00000
    172      -5.9517      2.00000
    173      -5.8999      2.00000
    174      -5.8921      2.00000
    175      -5.8888      2.00000
    176      -5.7515      2.00000
    177      -5.7249      2.00000
    178      -5.7131      2.00000
    179      -5.6793      2.00000
    180      -5.6706      2.00000
    181      -5.5517      2.00000
    182      -5.5411      2.00000
    183      -5.4502      2.00000
    184      -5.4371      2.00000
    185      -5.3366      2.00000
    186      -5.1119      2.00000
    187      -4.8337      2.00000
    188      -4.5543      2.00000
    189      -4.5485      2.00000
    190      -4.5358      2.00000
    191      -4.5038      2.00000
    192      -4.5008      2.00000
    193      -4.4869      2.00000
    194      -4.4654      2.00000
    195      -4.4457      2.00000
    196      -4.4018      2.00000
    197      -4.2298      2.00000
    198      -3.4687      1.99984
    199      -2.8797      0.00001
    200      -2.6723      0.00000
    201      -2.6266      0.00000
    202      -2.5270      0.00000
    203      -2.4614      0.00000
    204      -2.3996      0.00000
    205      -2.3943      0.00000
    206      -2.3408      0.00000
    207      -2.3128      0.00000
    208      -2.3077      0.00000
    209      -2.1188      0.00000
    210      -2.1031      0.00000
    211      -2.1012      0.00000
    212      -2.0864      0.00000
    213      -2.0467      0.00000
    214      -2.0029      0.00000
    215      -1.9582      0.00000
    216      -1.9515      0.00000
    217      -1.9450      0.00000
    218      -1.9402      0.00000
    219      -1.9368      0.00000
    220      -1.7027      0.00000
    221      -1.4919      0.00000
    222      -1.4875      0.00000
    223      -1.4449      0.00000
    224      -1.4199      0.00000
    225      -1.4065      0.00000
    226      -1.3627      0.00000
    227      -1.3183      0.00000
    228      -1.2975      0.00000
    229      -1.2802      0.00000
    230      -1.1731      0.00000
    231      -1.1548      0.00000
    232      -1.1316      0.00000
    233      -1.1182      0.00000
    234      -0.9212      0.00000
    235      -0.8902      0.00000
    236      -0.8664      0.00000
    237      -0.8536      0.00000
    238      -0.8433      0.00000
    239      -0.8403      0.00000
    240      -0.8098      0.00000
    241      -0.8088      0.00000
    242      -0.7805      0.00000
    243      -0.7405      0.00000
    244      -0.6899      0.00000
    245      -0.6218      0.00000
    246      -0.6126      0.00000
    247      -0.4878      0.00000
    248      -0.4800      0.00000
    249      -0.4562      0.00000
    250      -0.4123      0.00000
    251      -0.3820      0.00000
    252      -0.3225      0.00000
    253      -0.2490      0.00000
    254      -0.2013      0.00000
    255      -0.0084      0.00000
    256       0.0208      0.00000
    257       0.0255      0.00000
    258       0.1953      0.00000
    259       0.2469      0.00000
    260       0.2714      0.00000
    261       0.2770      0.00000
    262       0.2841      0.00000
    263       0.3458      0.00000
    264       0.3476      0.00000
    265       0.3529      0.00000
    266       0.4060      0.00000
    267       0.5447      0.00000
    268       0.6398      0.00000
    269       0.6403      0.00000
    270       0.7191      0.00000
    271       0.7457      0.00000
    272       1.0590      0.00000
    273       1.1351      0.00000
    274       1.1585      0.00000
    275       1.2099      0.00000
    276       1.2144      0.00000


--------------------------------------------------------------------------------------------------------


 soft charge-density along one line, spin component           1
         0         1         2         3         4         5         6         7         8         9
 total charge-density along one line
 
 pseudopotential strength for first ion, spin component:           1
  6.868  10.488  -0.007   0.000   0.011  -0.011   0.000   0.017
 10.488  16.015  -0.011   0.000   0.016  -0.017   0.000   0.025
 -0.007  -0.011  -2.383   0.000  -0.000  -4.107   0.000  -0.002
  0.000   0.000   0.000  -2.382  -0.000   0.000  -4.104  -0.000
  0.011   0.016  -0.000  -0.000  -2.384  -0.002  -0.000  -4.108
 -0.011  -0.017  -4.107   0.000  -0.002  -6.879   0.000  -0.005
  0.000   0.000   0.000  -4.104  -0.000   0.000  -6.872  -0.000
  0.017   0.025  -0.002  -0.000  -4.108  -0.005  -0.000  -6.883
 total augmentation occupancy for first ion, spin component:           1
  3.598  -0.937   0.027   0.000   0.483   0.017   0.000  -0.228
 -0.937   0.281   0.053   0.000  -0.281  -0.021   0.000   0.104
  0.027   0.053   3.260   0.000   0.738  -0.888   0.000  -0.213
  0.000   0.000   0.000   2.321   0.000   0.000  -0.595   0.000
  0.483  -0.281   0.738   0.000   3.774  -0.214   0.000  -1.037
  0.017  -0.021  -0.888   0.000  -0.214   0.255   0.000   0.065
  0.000   0.000   0.000  -0.595   0.000   0.000   0.158   0.000
 -0.228   0.104  -0.213   0.000  -1.037   0.065   0.000   0.297


------------------------ aborting loop because EDIFF is reached ----------------------------------------





 total charge

# of ion       s       p       d       tot
------------------------------------------
    1        0.736   1.311   0.000   2.047
    2        0.735   1.308   0.000   2.043
    3        0.735   1.308   0.000   2.043
    4        0.735   1.308   0.000   2.043
    5        0.735   1.308   0.000   2.043
    6        0.735   1.308   0.000   2.043
    7        0.735   1.308   0.000   2.043
    8        0.735   1.308   0.000   2.043
    9        0.735   1.308   0.000   2.043
   10        0.735   1.306   0.000   2.041
   11        0.735   1.308   0.000   2.043
   12        0.735   1.308   0.000   2.043
   13        0.735   1.308   0.000   2.043
   14        0.735   1.308   0.000   2.043
   15        0.735   1.308   0.000   2.043
   16        0.735   1.308   0.000   2.043
   17        0.735   1.308   0.000   2.043
   18        0.735   1.308   0.000   2.043
   19        0.695   1.333   0.000   2.027
   20        0.695   1.333   0.000   2.027
   21        0.695   1.335   0.000   2.030
   22        0.695   1.333   0.000   2.027
   23        0.695   1.333   0.000   2.027
   24        0.695   1.333   0.000   2.027
   25        0.695   1.333   0.000   2.027
   26        0.695   1.333   0.000   2.027
   27        0.695   1.333   0.000   2.027
   28        0.694   1.330   0.000   2.024
   29        0.695   1.332   0.000   2.027
   30        0.695   1.333   0.000   2.027
   31        0.695   1.333   0.000   2.027
   32        0.695   1.333   0.000   2.027
   33        0.695   1.333   0.000   2.027
   34        0.695   1.333   0.000   2.027
   35        0.695   1.333   0.000   2.027
   36        0.695   1.333   0.000   2.027
   37        0.713   1.355   0.000   2.067
   38        0.713   1.355   0.000   2.067
   39        0.713   1.355   0.000   2.067
   40        0.713   1.355   0.000   2.067
   41        0.713   1.355   0.000   2.067
   42        0.713   1.355   0.000   2.067
   43        0.713   1.355   0.000   2.067
   44        0.713   1.355   0.000   2.067
   45        0.713   1.354   0.000   2.067
   46        0.713   1.354   0.000   2.067
   47        0.713   1.355   0.000   2.067
   48        0.713   1.355   0.000   2.067
   49        0.713   1.355   0.000   2.067
   50        0.713   1.355   0.000   2.067
   51        0.713   1.355   0.000   2.067
   52        0.713   1.355   0.000   2.067
   53        0.713   1.355   0.000   2.067
   54        0.713   1.355   0.000   2.067
   55        0.702   1.311   0.000   2.013
   56        0.702   1.311   0.000   2.013
   57        0.702   1.311   0.000   2.013
   58        0.702   1.311   0.000   2.013
   59        0.702   1.311   0.000   2.013
   60        0.702   1.311   0.000   2.013
   61        0.702   1.311   0.000   2.013
   62        0.702   1.311   0.000   2.013
   63        0.702   1.311   0.000   2.013
   64        0.702   1.311   0.000   2.013
   65        0.702   1.311   0.000   2.013
   66        0.702   1.311   0.000   2.013
   67        0.702   1.311   0.000   2.013
   68        0.702   1.311   0.000   2.013
   69        0.702   1.311   0.000   2.013
   70        0.702   1.311   0.000   2.013
   71        0.702   1.311   0.000   2.013
   72        0.702   1.311   0.000   2.013
   73        0.699   1.202   0.000   1.901
   74        0.699   1.202   0.000   1.901
   75        0.699   1.202   0.000   1.901
   76        0.699   1.202   0.000   1.901
   77        0.699   1.202   0.000   1.901
   78        0.699   1.202   0.000   1.901
   79        0.699   1.202   0.000   1.901
   80        0.699   1.202   0.000   1.901
   81        0.699   1.202   0.000   1.901
   82        0.699   1.200   0.000   1.899
   83        0.699   1.202   0.000   1.901
   84        0.699   1.202   0.000   1.901
   85        0.699   1.202   0.000   1.901
   86        0.699   1.202   0.000   1.901
   87        0.699   1.202   0.000   1.901
   88        0.699   1.202   0.000   1.901
   89        0.699   1.202   0.000   1.901
   90        0.699   1.202   0.000   1.901
   91        0.699   1.202   0.000   1.901
   92        0.699   1.202   0.000   1.901
   93        0.699   1.202   0.000   1.901
   94        0.699   1.202   0.000   1.901
   95        0.699   1.202   0.000   1.901
   96        0.699   1.202   0.000   1.901
   97        0.699   1.202   0.000   1.901
   98        0.699   1.202   0.000   1.901
   99        0.699   1.202   0.000   1.901
  100        0.699   1.200   0.000   1.899
  101        0.699   1.202   0.000   1.901
  102        0.699   1.202   0.000   1.901
  103        0.699   1.202   0.000   1.901
  104        0.699   1.202   0.000   1.901
  105        0.699   1.202   0.000   1.901
  106        0.699   1.202   0.000   1.901
  107        0.699   1.202   0.000   1.901
  108        0.699   1.202   0.000   1.901
  109        0.719   1.415   0.000   2.133
  110        0.719   1.421   0.000   2.139
  111        0.719   1.421   0.000   2.140
  112        0.719   1.421   0.000   2.139
  113        0.719   1.421   0.000   2.139
  114        0.719   1.421   0.000   2.140
  115        0.719   1.421   0.000   2.140
  116        0.719   1.421   0.000   2.139
  117        0.719   1.421   0.000   2.140
  118        0.719   1.421   0.000   2.140
  119        0.719   1.421   0.000   2.139
  120        0.719   1.421   0.000   2.139
  121        0.719   1.421   0.000   2.140
  122        0.719   1.421   0.000   2.139
  123        0.719   1.421   0.000   2.139
  124        0.719   1.421   0.000   2.140
  125        0.719   1.421   0.000   2.139
  126        0.719   1.421   0.000   2.139
  127        0.363   0.016   0.000   0.378
  128        0.363   0.016   0.000   0.378
  129        0.363   0.016   0.000   0.378
  130        0.363   0.016   0.000   0.378
  131        0.363   0.016   0.000   0.378
  132        0.363   0.016   0.000   0.378
  133        0.363   0.016   0.000   0.378
  134        0.363   0.016   0.000   0.378
  135        0.363   0.016   0.000   0.378
  136        0.363   0.016   0.000   0.378
  137        0.363   0.016   0.000   0.378
  138        0.363   0.016   0.000   0.378
  139        0.363   0.016   0.000   0.378
  140        0.363   0.016   0.000   0.378
  141        0.363   0.016   0.000   0.378
  142        0.363   0.016   0.000   0.378
  143        0.363   0.016   0.000   0.378
  144        0.363   0.016   0.000   0.378
--------------------------------------------------
tot         95.840 164.615   0.000 260.455
 
    CHARGE:  cpu time      7.3114: real time      7.3870
    FORLOC:  cpu time      0.5085: real time      0.5267
    FORNL :  cpu time     29.2679: real time     29.6259
    STRESS:  cpu time     87.6177: real time     88.6161
    FORCOR:  cpu time      1.2993: real time      1.3084
    FORHAR:  cpu time      0.7329: real time      0.7506
    MIXING:  cpu time      0.0250: real time      0.0252
    OFIELD:  cpu time      0.0001: real time      0.0001

 ---------------------------------------------------------------------------------------------

         DFTD3 V3.0 Rev 1        
 DF pbe       
 parameters
 k1-k3        =   16.0000    1.3333   -4.0000
 Edisp (eV)  -12.67693

 E6    (eV) :    -8.3213
 E8    (eV) :    -4.3557
 % E8        : 34.36
    FORVDW:  cpu time      0.5644: real time      0.5680

  FORCE on cell =-STRESS in cart. coord.  units (eV):
  Direction    XX          YY          ZZ          XY          YZ          ZX
  --------------------------------------------------------------------------------------
  Alpha Z   138.35983   138.35983   138.35983
  Ewald   76912.38732 76238.64220-83526.69463   431.79239    -0.00000     0.00000
  Hartree 75689.81232 75330.30940-74219.77320   179.89210     0.00000     0.00000
  E(xc)   -1253.29183 -1252.93127 -1270.17653     2.12730     0.00000     0.00000
  Local  ************************154618.62849  -589.84884    -0.00000     0.00000
  n-local  -106.11315  -119.17977  -108.98600    -0.73660    -0.00043    -0.00064
  augment    14.00250    14.09718    15.96069    -0.17753    -0.00000    -0.00000
  Kinetic  4169.12009  4209.32327  4353.31643   -22.96636     0.00001    -0.00000
  Fock        0.00000     0.00000     0.00000     0.00000     0.00000     0.00000
  vdW       -13.40812   -12.87208    -1.51395    -0.05172     0.00000     0.00000
  -------------------------------------------------------------------------------------
  Total       0.04110    -0.27897    -0.87887     0.03074     0.00000     0.00000
  in kB       0.00784    -0.05324    -0.16773     0.00587     0.00000     0.00000
  external pressure =       -0.07 kB  Pullay stress =        0.00 kB


 VOLUME and BASIS-vectors are now :
 -----------------------------------------------------------------------------
  energy-cutoff  :      600.00
  volume of cell :     8395.25
      direct lattice vectors                 reciprocal lattice vectors
    17.098825320 -0.107897923  0.000000000     0.058486047  0.000395803  0.000000000
    -0.127586183 18.852855476  0.000000000     0.000334725  0.053044628  0.000000000
     0.000000000  0.000000000 26.044057846     0.000000000  0.000000000  0.038396474

  length of vectors
    17.099165748 18.853287189 26.044057846     0.058487387  0.053045684  0.038396474


 FORCES acting on ions
    electron-ion (+dipol)            ewald-force                    non-local-force                 convergence-correction
 -----------------------------------------------------------------------------------------------
   0.527E+02 -.307E+02 0.107E-04   -.569E+02 0.335E+02 -.249E-06   0.423E+01 -.282E+01 0.000E+00   0.270E-05 -.541E-06 -.948E-09
   0.531E+02 -.307E+02 0.107E-04   -.573E+02 0.336E+02 -.249E-06   0.417E+01 -.285E+01 0.000E+00   0.165E-05 -.161E-05 -.950E-09
   0.531E+02 -.307E+02 0.106E-04   -.573E+02 0.336E+02 -.249E-06   0.417E+01 -.285E+01 0.000E+00   0.169E-05 -.151E-05 -.948E-09
   0.531E+02 -.307E+02 0.106E-04   -.573E+02 0.336E+02 -.249E-06   0.417E+01 -.285E+01 0.000E+00   0.204E-05 -.749E-06 -.949E-09
   0.531E+02 -.307E+02 0.104E-04   -.573E+02 0.336E+02 -.249E-06   0.417E+01 -.285E+01 0.000E+00   0.178E-05 -.969E-06 -.952E-09
   0.531E+02 -.307E+02 0.105E-04   -.573E+02 0.336E+02 -.249E-06   0.417E+01 -.284E+01 0.000E+00   0.201E-05 -.107E-05 -.948E-09
   0.531E+02 -.308E+02 0.105E-04   -.573E+02 0.336E+02 -.249E-06   0.417E+01 -.285E+01 0.000E+00   0.210E-05 -.534E-06 -.947E-09
   0.531E+02 -.307E+02 0.104E-04   -.573E+02 0.336E+02 -.249E-06   0.417E+01 -.285E+01 0.000E+00   0.149E-05 -.114E-05 -.949E-09
   0.531E+02 -.307E+02 0.103E-04   -.572E+02 0.336E+02 -.249E-06   0.417E+01 -.284E+01 0.000E+00   0.190E-05 -.888E-06 -.947E-09
   -.528E+02 0.307E+02 0.103E-04   0.569E+02 -.336E+02 -.249E-06   -.416E+01 0.285E+01 0.000E+00   -.120E-05 0.849E-06 -.947E-09
   -.531E+02 0.307E+02 0.104E-04   0.573E+02 -.336E+02 -.249E-06   -.417E+01 0.285E+01 0.000E+00   -.175E-05 0.134E-05 -.949E-09
   -.531E+02 0.307E+02 0.105E-04   0.573E+02 -.336E+02 -.249E-06   -.417E+01 0.285E+01 0.000E+00   -.154E-05 0.858E-06 -.947E-09
   -.531E+02 0.307E+02 0.105E-04   0.573E+02 -.336E+02 -.249E-06   -.417E+01 0.284E+01 0.000E+00   -.165E-05 0.954E-06 -.948E-09
   -.531E+02 0.307E+02 0.104E-04   0.573E+02 -.336E+02 -.249E-06   -.417E+01 0.285E+01 0.000E+00   -.209E-05 0.123E-05 -.952E-09
   -.531E+02 0.307E+02 0.106E-04   0.572E+02 -.336E+02 -.249E-06   -.417E+01 0.285E+01 0.000E+00   -.195E-05 0.103E-05 -.949E-09
   -.531E+02 0.307E+02 0.106E-04   0.573E+02 -.336E+02 -.249E-06   -.417E+01 0.285E+01 0.000E+00   -.168E-05 0.102E-05 -.948E-09
   -.531E+02 0.307E+02 0.107E-04   0.573E+02 -.336E+02 -.249E-06   -.417E+01 0.285E+01 0.000E+00   -.181E-05 0.115E-05 -.950E-09
   -.531E+02 0.307E+02 0.107E-04   0.573E+02 -.336E+02 -.249E-06   -.417E+01 0.285E+01 0.000E+00   -.176E-05 0.111E-05 -.948E-09
   -.542E+02 -.242E+02 0.112E-04   0.569E+02 0.276E+02 -.852E-06   -.276E+01 -.335E+01 0.000E+00   -.241E-05 -.466E-05 -.945E-09
   -.542E+02 -.243E+02 0.112E-04   0.569E+02 0.276E+02 -.852E-06   -.276E+01 -.334E+01 0.000E+00   -.145E-05 -.397E-05 -.944E-09
   -.539E+02 -.242E+02 0.112E-04   0.566E+02 0.275E+02 -.852E-06   -.281E+01 -.332E+01 0.000E+00   -.181E-05 -.373E-05 -.943E-09
   -.542E+02 -.243E+02 0.113E-04   0.569E+02 0.276E+02 -.852E-06   -.276E+01 -.334E+01 0.000E+00   -.168E-05 -.391E-05 -.945E-09
   -.542E+02 -.243E+02 0.113E-04   0.569E+02 0.276E+02 -.852E-06   -.276E+01 -.334E+01 0.000E+00   -.173E-05 -.381E-05 -.945E-09
   -.542E+02 -.243E+02 0.112E-04   0.569E+02 0.276E+02 -.852E-06   -.276E+01 -.334E+01 0.000E+00   -.178E-05 -.367E-05 -.943E-09
   -.542E+02 -.243E+02 0.112E-04   0.569E+02 0.276E+02 -.852E-06   -.276E+01 -.334E+01 0.000E+00   -.189E-05 -.409E-05 -.944E-09
   -.542E+02 -.243E+02 0.111E-04   0.569E+02 0.276E+02 -.852E-06   -.276E+01 -.334E+01 0.000E+00   -.141E-05 -.397E-05 -.944E-09
   -.542E+02 -.243E+02 0.112E-04   0.569E+02 0.276E+02 -.852E-06   -.276E+01 -.334E+01 0.000E+00   -.156E-05 -.344E-05 -.943E-09
   0.538E+02 0.243E+02 0.112E-04   -.565E+02 -.276E+02 -.852E-06   0.277E+01 0.337E+01 0.000E+00   0.120E-05 0.328E-05 -.943E-09
   0.542E+02 0.243E+02 0.111E-04   -.569E+02 -.276E+02 -.852E-06   0.276E+01 0.334E+01 0.000E+00   0.110E-05 0.424E-05 -.944E-09
   0.542E+02 0.243E+02 0.112E-04   -.569E+02 -.276E+02 -.852E-06   0.276E+01 0.334E+01 0.000E+00   0.160E-05 0.432E-05 -.944E-09
   0.542E+02 0.242E+02 0.112E-04   -.569E+02 -.276E+02 -.852E-06   0.276E+01 0.334E+01 0.000E+00   0.147E-05 0.367E-05 -.943E-09
   0.542E+02 0.243E+02 0.113E-04   -.569E+02 -.276E+02 -.852E-06   0.276E+01 0.334E+01 0.000E+00   0.173E-05 0.427E-05 -.945E-09
   0.542E+02 0.243E+02 0.113E-04   -.569E+02 -.276E+02 -.852E-06   0.276E+01 0.334E+01 0.000E+00   0.194E-05 0.378E-05 -.945E-09
   0.542E+02 0.243E+02 0.111E-04   -.569E+02 -.276E+02 -.852E-06   0.276E+01 0.334E+01 0.000E+00   0.165E-05 0.383E-05 -.943E-09
   0.542E+02 0.243E+02 0.112E-04   -.569E+02 -.276E+02 -.852E-06   0.276E+01 0.335E+01 0.000E+00   0.137E-05 0.427E-05 -.944E-09
   0.542E+02 0.243E+02 0.112E-04   -.569E+02 -.276E+02 -.852E-06   0.276E+01 0.334E+01 0.000E+00   0.173E-05 0.383E-05 -.945E-09
   0.222E+02 -.580E+02 0.107E-04   -.243E+02 0.628E+02 -.768E-06   0.215E+01 -.479E+01 0.000E+00   -.223E-05 -.540E-05 -.943E-09
   0.222E+02 -.579E+02 0.107E-04   -.244E+02 0.627E+02 -.768E-06   0.214E+01 -.479E+01 0.000E+00   -.151E-05 -.432E-05 -.946E-09
   0.223E+02 -.579E+02 0.106E-04   -.244E+02 0.627E+02 -.768E-06   0.214E+01 -.479E+01 0.000E+00   -.119E-05 -.440E-05 -.943E-09
   0.222E+02 -.580E+02 0.106E-04   -.244E+02 0.627E+02 -.768E-06   0.214E+01 -.479E+01 0.000E+00   -.148E-05 -.455E-05 -.943E-09
   0.222E+02 -.579E+02 0.106E-04   -.244E+02 0.627E+02 -.768E-06   0.214E+01 -.479E+01 0.000E+00   -.142E-05 -.464E-05 -.946E-09
   0.222E+02 -.579E+02 0.105E-04   -.244E+02 0.627E+02 -.768E-06   0.214E+01 -.479E+01 0.000E+00   -.119E-05 -.455E-05 -.943E-09
   0.223E+02 -.580E+02 0.107E-04   -.244E+02 0.628E+02 -.768E-06   0.214E+01 -.478E+01 0.000E+00   -.196E-05 -.452E-05 -.942E-09
   0.222E+02 -.579E+02 0.107E-04   -.244E+02 0.627E+02 -.768E-06   0.214E+01 -.479E+01 0.000E+00   -.158E-05 -.479E-05 -.943E-09
   0.222E+02 -.579E+02 0.106E-04   -.244E+02 0.627E+02 -.768E-06   0.215E+01 -.479E+01 0.000E+00   -.109E-05 -.437E-05 -.942E-09
   -.222E+02 0.578E+02 0.106E-04   0.243E+02 -.626E+02 -.768E-06   -.214E+01 0.481E+01 0.000E+00   0.139E-05 0.404E-05 -.942E-09
   -.222E+02 0.579E+02 0.107E-04   0.244E+02 -.627E+02 -.768E-06   -.214E+01 0.479E+01 0.000E+00   0.147E-05 0.450E-05 -.943E-09
   -.222E+02 0.579E+02 0.107E-04   0.244E+02 -.627E+02 -.768E-06   -.214E+01 0.479E+01 0.000E+00   0.197E-05 0.453E-05 -.942E-09
   -.222E+02 0.579E+02 0.105E-04   0.244E+02 -.627E+02 -.768E-06   -.214E+01 0.479E+01 0.000E+00   0.136E-05 0.385E-05 -.943E-09
   -.222E+02 0.579E+02 0.106E-04   0.244E+02 -.627E+02 -.768E-06   -.214E+01 0.479E+01 0.000E+00   0.134E-05 0.510E-05 -.946E-09
   -.222E+02 0.579E+02 0.106E-04   0.244E+02 -.627E+02 -.768E-06   -.214E+01 0.479E+01 0.000E+00   0.132E-05 0.502E-05 -.944E-09
   -.222E+02 0.579E+02 0.106E-04   0.244E+02 -.627E+02 -.768E-06   -.214E+01 0.479E+01 0.000E+00   0.165E-05 0.443E-05 -.943E-09
   -.222E+02 0.579E+02 0.107E-04   0.244E+02 -.627E+02 -.768E-06   -.214E+01 0.479E+01 0.000E+00   0.164E-05 0.433E-05 -.946E-09
   -.222E+02 0.579E+02 0.107E-04   0.244E+02 -.627E+02 -.768E-06   -.215E+01 0.479E+01 0.000E+00   0.168E-05 0.452E-05 -.943E-09
   -.340E+02 -.498E+02 0.105E-04   0.366E+02 0.546E+02 -.834E-06   -.262E+01 -.479E+01 0.000E+00   -.289E-05 -.733E-05 -.944E-09
   -.340E+02 -.498E+02 0.105E-04   0.366E+02 0.546E+02 -.834E-06   -.263E+01 -.479E+01 0.000E+00   -.146E-05 -.697E-05 -.943E-09
   -.339E+02 -.498E+02 0.106E-04   0.365E+02 0.546E+02 -.834E-06   -.263E+01 -.479E+01 0.000E+00   -.132E-05 -.669E-05 -.942E-09
   -.340E+02 -.498E+02 0.104E-04   0.366E+02 0.546E+02 -.834E-06   -.263E+01 -.479E+01 0.000E+00   -.238E-05 -.687E-05 -.943E-09
   -.340E+02 -.498E+02 0.106E-04   0.366E+02 0.546E+02 -.834E-06   -.263E+01 -.479E+01 0.000E+00   -.236E-05 -.677E-05 -.944E-09
   -.340E+02 -.498E+02 0.106E-04   0.366E+02 0.546E+02 -.834E-06   -.263E+01 -.479E+01 0.000E+00   -.208E-05 -.683E-05 -.942E-09
   -.339E+02 -.498E+02 0.103E-04   0.366E+02 0.546E+02 -.834E-06   -.263E+01 -.479E+01 0.000E+00   -.264E-05 -.707E-05 -.941E-09
   -.340E+02 -.498E+02 0.104E-04   0.366E+02 0.546E+02 -.834E-06   -.263E+01 -.479E+01 0.000E+00   -.197E-05 -.693E-05 -.941E-09
   -.340E+02 -.498E+02 0.104E-04   0.366E+02 0.546E+02 -.834E-06   -.263E+01 -.478E+01 0.000E+00   -.163E-05 -.649E-05 -.940E-09
   0.339E+02 0.497E+02 0.104E-04   -.365E+02 -.545E+02 -.834E-06   0.263E+01 0.481E+01 0.000E+00   0.216E-05 0.631E-05 -.941E-09
   0.340E+02 0.498E+02 0.104E-04   -.366E+02 -.546E+02 -.834E-06   0.263E+01 0.479E+01 0.000E+00   0.142E-05 0.701E-05 -.941E-09
   0.340E+02 0.498E+02 0.103E-04   -.366E+02 -.546E+02 -.834E-06   0.263E+01 0.479E+01 0.000E+00   0.241E-05 0.667E-05 -.941E-09
   0.340E+02 0.498E+02 0.106E-04   -.366E+02 -.545E+02 -.834E-06   0.263E+01 0.479E+01 0.000E+00   0.221E-05 0.624E-05 -.942E-09
   0.340E+02 0.498E+02 0.106E-04   -.366E+02 -.546E+02 -.834E-06   0.263E+01 0.479E+01 0.000E+00   0.211E-05 0.737E-05 -.944E-09
   0.340E+02 0.498E+02 0.104E-04   -.366E+02 -.546E+02 -.834E-06   0.263E+01 0.479E+01 0.000E+00   0.232E-05 0.697E-05 -.943E-09
   0.340E+02 0.498E+02 0.106E-04   -.366E+02 -.546E+02 -.834E-06   0.263E+01 0.479E+01 0.000E+00   0.211E-05 0.686E-05 -.942E-09
   0.340E+02 0.498E+02 0.105E-04   -.366E+02 -.546E+02 -.834E-06   0.263E+01 0.479E+01 0.000E+00   0.163E-05 0.676E-05 -.943E-09
   0.340E+02 0.498E+02 0.105E-04   -.366E+02 -.546E+02 -.834E-06   0.263E+01 0.479E+01 0.000E+00   0.198E-05 0.689E-05 -.944E-09
   -.921E+01 -.198E+02 -.235E+03   0.920E+01 0.203E+02 0.240E+03   0.337E-02 -.467E+00 -.470E+01   -.566E-06 -.397E-05 -.923E-06
   -.916E+01 -.199E+02 -.235E+03   0.916E+01 0.203E+02 0.240E+03   -.337E-02 -.468E+00 -.470E+01   0.443E-06 -.393E-05 -.224E-06
   -.913E+01 -.198E+02 -.235E+03   0.913E+01 0.203E+02 0.240E+03   -.127E-01 -.469E+00 -.470E+01   0.498E-06 -.371E-05 -.430E-06
   -.916E+01 -.199E+02 -.235E+03   0.917E+01 0.203E+02 0.240E+03   -.668E-02 -.471E+00 -.470E+01   -.225E-07 -.334E-05 -.116E-05
   -.916E+01 -.199E+02 -.235E+03   0.916E+01 0.203E+02 0.240E+03   -.672E-02 -.468E+00 -.470E+01   -.110E-06 -.330E-05 -.756E-06
   -.916E+01 -.199E+02 -.235E+03   0.916E+01 0.203E+02 0.240E+03   -.711E-02 -.467E+00 -.470E+01   0.219E-06 -.338E-05 -.923E-06
   -.915E+01 -.199E+02 -.235E+03   0.916E+01 0.203E+02 0.240E+03   -.372E-02 -.466E+00 -.470E+01   -.131E-06 -.347E-05 -.963E-06
   -.916E+01 -.199E+02 -.235E+03   0.916E+01 0.203E+02 0.240E+03   -.868E-02 -.470E+00 -.470E+01   -.580E-07 -.354E-05 -.310E-06
   -.917E+01 -.199E+02 -.235E+03   0.917E+01 0.203E+02 0.240E+03   -.511E-02 -.469E+00 -.470E+01   0.315E-06 -.321E-05 -.770E-06
   0.918E+01 0.196E+02 0.235E+03   -.919E+01 -.201E+02 -.240E+03   0.646E-02 0.493E+00 0.470E+01   -.103E-06 0.272E-05 0.957E-06
   0.917E+01 0.199E+02 0.235E+03   -.917E+01 -.203E+02 -.240E+03   0.890E-02 0.470E+00 0.470E+01   -.448E-06 0.388E-05 0.326E-06
   0.916E+01 0.199E+02 0.235E+03   -.916E+01 -.203E+02 -.240E+03   0.321E-02 0.466E+00 0.470E+01   0.346E-06 0.351E-05 0.431E-06
   0.916E+01 0.198E+02 0.235E+03   -.916E+01 -.203E+02 -.240E+03   0.699E-02 0.468E+00 0.470E+01   -.489E-07 0.305E-05 0.738E-06
   0.916E+01 0.199E+02 0.235E+03   -.916E+01 -.203E+02 -.240E+03   0.766E-02 0.469E+00 0.470E+01   -.125E-06 0.379E-05 0.793E-06
   0.917E+01 0.199E+02 0.235E+03   -.917E+01 -.203E+02 -.240E+03   0.686E-02 0.471E+00 0.470E+01   0.765E-07 0.350E-05 0.858E-06
   0.916E+01 0.199E+02 0.235E+03   -.916E+01 -.203E+02 -.240E+03   0.101E-01 0.469E+00 0.470E+01   -.914E-07 0.341E-05 0.754E-06
   0.916E+01 0.199E+02 0.235E+03   -.917E+01 -.203E+02 -.240E+03   0.323E-02 0.468E+00 0.470E+01   -.305E-06 0.373E-05 0.520E-06
   0.916E+01 0.199E+02 0.235E+03   -.916E+01 -.203E+02 -.240E+03   0.655E-02 0.470E+00 0.470E+01   -.437E-07 0.357E-05 0.498E-06
   -.921E+01 -.198E+02 0.235E+03   0.920E+01 0.203E+02 -.240E+03   0.337E-02 -.467E+00 0.470E+01   -.566E-06 -.397E-05 0.922E-06
   -.916E+01 -.199E+02 0.235E+03   0.916E+01 0.203E+02 -.240E+03   -.337E-02 -.468E+00 0.470E+01   0.443E-06 -.393E-05 0.223E-06
   -.913E+01 -.198E+02 0.235E+03   0.913E+01 0.203E+02 -.240E+03   -.127E-01 -.469E+00 0.470E+01   0.498E-06 -.371E-05 0.429E-06
   -.916E+01 -.199E+02 0.235E+03   0.917E+01 0.203E+02 -.240E+03   -.668E-02 -.471E+00 0.470E+01   -.225E-07 -.334E-05 0.116E-05
   -.916E+01 -.199E+02 0.235E+03   0.916E+01 0.203E+02 -.240E+03   -.672E-02 -.468E+00 0.470E+01   -.110E-06 -.330E-05 0.754E-06
   -.916E+01 -.199E+02 0.235E+03   0.916E+01 0.203E+02 -.240E+03   -.711E-02 -.467E+00 0.470E+01   0.219E-06 -.338E-05 0.921E-06
   -.915E+01 -.199E+02 0.235E+03   0.916E+01 0.203E+02 -.240E+03   -.372E-02 -.466E+00 0.470E+01   -.131E-06 -.347E-05 0.961E-06
   -.916E+01 -.199E+02 0.235E+03   0.916E+01 0.203E+02 -.240E+03   -.868E-02 -.470E+00 0.470E+01   -.580E-07 -.354E-05 0.308E-06
   -.917E+01 -.199E+02 0.235E+03   0.917E+01 0.203E+02 -.240E+03   -.511E-02 -.469E+00 0.470E+01   0.315E-06 -.321E-05 0.768E-06
   0.918E+01 0.196E+02 -.235E+03   -.919E+01 -.201E+02 0.240E+03   0.646E-02 0.493E+00 -.470E+01   -.103E-06 0.272E-05 -.959E-06
   0.917E+01 0.199E+02 -.235E+03   -.917E+01 -.203E+02 0.240E+03   0.890E-02 0.470E+00 -.470E+01   -.448E-06 0.388E-05 -.328E-06
   0.916E+01 0.199E+02 -.235E+03   -.916E+01 -.203E+02 0.240E+03   0.321E-02 0.466E+00 -.470E+01   0.346E-06 0.351E-05 -.433E-06
   0.916E+01 0.198E+02 -.235E+03   -.916E+01 -.203E+02 0.240E+03   0.699E-02 0.468E+00 -.470E+01   -.489E-07 0.305E-05 -.740E-06
   0.916E+01 0.199E+02 -.235E+03   -.916E+01 -.203E+02 0.240E+03   0.766E-02 0.469E+00 -.470E+01   -.125E-06 0.379E-05 -.795E-06
   0.917E+01 0.199E+02 -.235E+03   -.917E+01 -.203E+02 0.240E+03   0.686E-02 0.471E+00 -.470E+01   0.765E-07 0.350E-05 -.860E-06
   0.916E+01 0.199E+02 -.235E+03   -.916E+01 -.203E+02 0.240E+03   0.101E-01 0.469E+00 -.470E+01   -.914E-07 0.341E-05 -.756E-06
   0.916E+01 0.199E+02 -.235E+03   -.917E+01 -.203E+02 0.240E+03   0.323E-02 0.468E+00 -.470E+01   -.305E-06 0.373E-05 -.522E-06
   0.916E+01 0.199E+02 -.235E+03   -.916E+01 -.203E+02 0.240E+03   0.655E-02 0.470E+00 -.470E+01   -.437E-07 0.357E-05 -.500E-06
   0.124E+02 -.575E+02 0.112E-04   -.120E+02 0.619E+02 -.674E-06   -.470E+00 -.471E+01 0.000E+00   -.102E-05 -.227E-05 -.945E-09
   0.123E+02 -.582E+02 0.110E-04   -.119E+02 0.627E+02 -.662E-06   -.422E+00 -.451E+01 0.000E+00   -.204E-05 -.279E-05 -.947E-09
   0.123E+02 -.582E+02 0.110E-04   -.119E+02 0.627E+02 -.662E-06   -.424E+00 -.451E+01 0.000E+00   -.136E-05 -.236E-05 -.946E-09
   0.123E+02 -.582E+02 0.112E-04   -.119E+02 0.627E+02 -.662E-06   -.427E+00 -.451E+01 0.000E+00   -.128E-05 -.226E-05 -.946E-09
   0.123E+02 -.582E+02 0.111E-04   -.119E+02 0.627E+02 -.662E-06   -.420E+00 -.451E+01 0.000E+00   -.171E-05 -.261E-05 -.949E-09
   0.123E+02 -.582E+02 0.111E-04   -.119E+02 0.627E+02 -.662E-06   -.420E+00 -.451E+01 0.000E+00   -.121E-05 -.284E-05 -.947E-09
   0.123E+02 -.582E+02 0.113E-04   -.119E+02 0.627E+02 -.662E-06   -.425E+00 -.451E+01 0.000E+00   -.139E-05 -.233E-05 -.945E-09
   0.123E+02 -.582E+02 0.111E-04   -.119E+02 0.627E+02 -.662E-06   -.424E+00 -.451E+01 0.000E+00   -.188E-05 -.233E-05 -.947E-09
   0.123E+02 -.582E+02 0.111E-04   -.119E+02 0.627E+02 -.662E-06   -.420E+00 -.451E+01 0.000E+00   -.131E-05 -.247E-05 -.946E-09
   -.123E+02 0.583E+02 0.111E-04   0.118E+02 -.628E+02 -.662E-06   0.415E+00 0.451E+01 0.000E+00   0.117E-05 0.301E-05 -.946E-09
   -.123E+02 0.582E+02 0.111E-04   0.119E+02 -.627E+02 -.662E-06   0.424E+00 0.451E+01 0.000E+00   0.160E-05 0.252E-05 -.947E-09
   -.123E+02 0.583E+02 0.113E-04   0.119E+02 -.628E+02 -.662E-06   0.430E+00 0.451E+01 0.000E+00   0.175E-05 0.218E-05 -.945E-09
   -.123E+02 0.582E+02 0.111E-04   0.119E+02 -.627E+02 -.662E-06   0.420E+00 0.451E+01 0.000E+00   0.147E-05 0.279E-05 -.947E-09
   -.123E+02 0.582E+02 0.111E-04   0.119E+02 -.627E+02 -.662E-06   0.420E+00 0.452E+01 0.000E+00   0.121E-05 0.263E-05 -.949E-09
   -.123E+02 0.582E+02 0.112E-04   0.118E+02 -.627E+02 -.662E-06   0.427E+00 0.451E+01 0.000E+00   0.146E-05 0.261E-05 -.946E-09
   -.123E+02 0.582E+02 0.110E-04   0.119E+02 -.627E+02 -.662E-06   0.424E+00 0.451E+01 0.000E+00   0.150E-05 0.292E-05 -.946E-09
   -.123E+02 0.582E+02 0.110E-04   0.119E+02 -.627E+02 -.662E-06   0.421E+00 0.451E+01 0.000E+00   0.135E-05 0.239E-05 -.947E-09
   -.123E+02 0.582E+02 0.111E-04   0.119E+02 -.627E+02 -.662E-06   0.424E+00 0.451E+01 0.000E+00   0.173E-05 0.262E-05 -.945E-09
   0.723E-03 0.409E-01 0.926E+02   -.606E-02 -.439E-01 -.933E+02   -.193E-02 -.779E-03 0.691E+00   0.217E-06 0.139E-06 0.107E-05
   0.768E-04 0.117E-02 0.926E+02   -.888E-04 -.115E-02 -.933E+02   0.963E-05 0.202E-04 0.691E+00   -.213E-07 -.501E-07 0.786E-06
   0.326E-04 0.443E-02 0.926E+02   0.233E-03 -.435E-02 -.933E+02   0.405E-04 0.411E-04 0.691E+00   0.357E-07 -.533E-07 0.879E-06
   -.997E-03 -.336E-02 0.926E+02   0.877E-03 0.318E-02 -.933E+02   -.373E-05 0.543E-05 0.691E+00   0.218E-07 0.376E-07 0.973E-06
   -.623E-03 -.777E-03 0.926E+02   0.365E-03 0.513E-03 -.933E+02   -.708E-04 -.671E-04 0.691E+00   -.406E-07 0.564E-08 0.920E-06
   0.952E-03 -.145E-02 0.926E+02   -.105E-02 0.133E-02 -.933E+02   -.676E-04 -.508E-04 0.691E+00   0.514E-08 -.431E-07 0.939E-06
   0.574E-03 -.319E-02 0.926E+02   -.758E-03 0.291E-02 -.933E+02   -.487E-04 -.932E-04 0.691E+00   0.508E-07 0.810E-07 0.946E-06
   0.366E-03 -.494E-03 0.926E+02   -.296E-03 0.555E-03 -.933E+02   0.221E-04 -.200E-04 0.691E+00   -.441E-07 0.340E-07 0.853E-06
   -.123E-02 -.157E-02 0.926E+02   0.966E-03 0.135E-02 -.933E+02   -.403E-04 -.104E-03 0.691E+00   0.813E-08 0.255E-07 0.840E-06
   0.723E-03 0.409E-01 -.926E+02   -.606E-02 -.439E-01 0.933E+02   -.193E-02 -.779E-03 -.691E+00   0.217E-06 0.139E-06 -.107E-05
   0.768E-04 0.117E-02 -.926E+02   -.888E-04 -.115E-02 0.933E+02   0.963E-05 0.202E-04 -.691E+00   -.213E-07 -.501E-07 -.787E-06
   0.326E-04 0.443E-02 -.926E+02   0.233E-03 -.435E-02 0.933E+02   0.405E-04 0.411E-04 -.691E+00   0.357E-07 -.533E-07 -.880E-06
   -.997E-03 -.336E-02 -.926E+02   0.877E-03 0.318E-02 0.933E+02   -.373E-05 0.543E-05 -.691E+00   0.218E-07 0.376E-07 -.974E-06
   -.623E-03 -.777E-03 -.926E+02   0.365E-03 0.513E-03 0.933E+02   -.708E-04 -.671E-04 -.691E+00   -.406E-07 0.564E-08 -.921E-06
   0.952E-03 -.145E-02 -.926E+02   -.105E-02 0.133E-02 0.933E+02   -.676E-04 -.508E-04 -.691E+00   0.514E-08 -.431E-07 -.940E-06
   0.574E-03 -.319E-02 -.926E+02   -.758E-03 0.291E-02 0.933E+02   -.487E-04 -.932E-04 -.691E+00   0.508E-07 0.810E-07 -.946E-06
   0.366E-03 -.494E-03 -.926E+02   -.296E-03 0.555E-03 0.933E+02   0.221E-04 -.200E-04 -.691E+00   -.441E-07 0.340E-07 -.854E-06
   -.123E-02 -.157E-02 -.926E+02   0.966E-03 0.135E-02 0.933E+02   -.403E-04 -.104E-03 -.691E+00   0.813E-08 0.255E-07 -.841E-06
 -----------------------------------------------------------------------------------------------
   -.706E-02 -.847E-02 0.102E-02   -.520E-12 0.101E-12 0.156E-12   0.831E-02 0.123E-01 0.289E-14   0.905E-08 -.929E-06 -.121E-06
 
 
 POSITION                                       TOTAL-FORCE (eV/Angst)
 -----------------------------------------------------------------------------------
      2.81373      4.11310      4.02203         0.084606      0.059975     -0.000000
      8.51333      4.07713      4.02203        -0.002347      0.006844     -0.000000
     14.21294      4.04117      4.02203        -0.002519      0.007046     -0.000000
      2.77120     10.39738      4.02203         0.000767      0.007681     -0.000000
      8.47081     10.36142      4.02203         0.001340      0.006524     -0.000000
     14.17041     10.32545      4.02203         0.001605      0.010312     -0.000000
      2.72867     16.68167      4.02203         0.002755      0.006914     -0.000000
      8.42828     16.64570      4.02203        -0.001684      0.006039     -0.000000
     14.12789     16.60974      4.02203         0.000961      0.007924     -0.000000
      2.84335      2.13522      4.02203        -0.007220      0.013693     -0.000000
      8.54296      2.09926      4.02203         0.001837     -0.006563     -0.000000
     14.24257      2.06329      4.02203        -0.002676     -0.006579     -0.000000
      2.80082      8.41951      4.02203        -0.001407     -0.010449     -0.000000
      8.50043      8.38354      4.02203        -0.001195     -0.006535     -0.000000
     14.20004      8.34758      4.02203        -0.000563     -0.007864     -0.000000
      2.75830     14.70379      4.02203         0.003636     -0.005881     -0.000000
      8.45790     14.66783      4.02203         0.002227     -0.006451     -0.000000
     14.15751     14.63186      4.02203        -0.001567     -0.006678     -0.000000
      5.56126      3.99467      4.02203        -0.007792      0.004204     -0.000000
     11.26087      3.95870      4.02203        -0.005753      0.001062     -0.000000
     16.96048      3.92274      4.02203        -0.041778      0.029010     -0.000000
      5.51873     10.27895      4.02203        -0.008602      0.005150     -0.000000
     11.21834     10.24299      4.02203        -0.004809      0.002093     -0.000000
     16.91795     10.20702      4.02203        -0.006367      0.002391     -0.000000
      5.47620     16.56324      4.02203        -0.005292     -0.000147     -0.000000
     11.17581     16.52727      4.02203        -0.005105      0.003975     -0.000000
     16.87542     16.49131      4.02203        -0.004319      0.003151     -0.000000
      0.09582      2.25365      4.02203         0.055564      0.045121     -0.000000
      5.79543      2.21769      4.02203         0.004538     -0.004398     -0.000000
     11.49504      2.18172      4.02203         0.005919     -0.000710     -0.000000
      0.05329      8.53794      4.02203         0.006676     -0.002505     -0.000000
      5.75290      8.50197      4.02203         0.004931     -0.002248     -0.000000
     11.45251      8.46600      4.02203         0.008633     -0.005441     -0.000000
      0.01076     14.82222      4.02203         0.003850     -0.002018     -0.000000
      5.71037     14.78626      4.02203         0.006734     -0.001003     -0.000000
     11.40998     14.75029      4.02203         0.005701     -0.000566     -0.000000
      3.40404      5.68636      4.02203         0.011397      0.001097     -0.000000
      9.10365      5.65039      4.02203         0.001065      0.003333     -0.000000
     14.80326      5.61443      4.02203        -0.002933      0.003183     -0.000000
      3.36152     11.97065      4.02203         0.000939      0.003466     -0.000000
      9.06112     11.93468      4.02203        -0.000056      0.004729     -0.000000
     14.76073     11.89871      4.02203        -0.001357      0.002366     -0.000000
      3.31899     18.25493      4.02203         0.004754      0.004191     -0.000000
      9.01859     18.21896      4.02203         0.000191      0.002964     -0.000000
     14.71820     18.18300      4.02203         0.000904     -0.000493     -0.000000
      2.25304      0.56196      4.02203        -0.010707      0.012029     -0.000000
      7.95264      0.52599      4.02203        -0.000394     -0.003015     -0.000000
     13.65225      0.49003      4.02203        -0.002214     -0.001904     -0.000000
      2.21051      6.84624      4.02203         0.001775     -0.003447     -0.000000
      7.91012      6.81028      4.02203         0.000185     -0.004608     -0.000000
     13.60972      6.77431      4.02203        -0.000825     -0.004234     -0.000000
      2.16798     13.13053      4.02203         0.000784     -0.003001     -0.000000
      7.86759     13.09456      4.02203        -0.001192     -0.003363     -0.000000
     13.56720     13.05860      4.02203        -0.003092      0.000262     -0.000000
      5.08639      5.63227      4.02203         0.009291      0.001789     -0.000000
     10.78600      5.59630      4.02203         0.004221     -0.000534     -0.000000
     16.48561      5.56033      4.02203         0.003958      0.006452     -0.000000
      5.04386     11.91655      4.02203         0.007711      0.001783     -0.000000
     10.74347     11.88059      4.02203         0.007241      0.004015     -0.000000
     16.44308     11.84462      4.02203         0.008341      0.001881     -0.000000
      5.00133     18.20084      4.02203         0.005954      0.002529     -0.000000
     10.70094     18.16487      4.02203         0.007716      0.002820     -0.000000
     16.40055     18.12890      4.02203         0.006639      0.002816     -0.000000
      0.57069      0.61605      4.02203         0.000629      0.010436     -0.000000
      6.27030      0.58009      4.02203        -0.007319     -0.002582     -0.000000
     11.96991      0.54412      4.02203        -0.005645     -0.002385     -0.000000
      0.52816      6.90034      4.02203        -0.008618     -0.002676     -0.000000
      6.22777      6.86437      4.02203        -0.007861     -0.005280     -0.000000
     11.92738      6.82841      4.02203        -0.008051     -0.001806     -0.000000
      0.48563     13.18462      4.02203        -0.011795     -0.001571     -0.000000
      6.18524     13.14866      4.02203        -0.004576      0.000604     -0.000000
     11.88485     13.11269      4.02203        -0.007514     -0.002467     -0.000000
      4.16227      4.46452      5.02709        -0.001440     -0.000668      0.000514
      9.86188      4.42855      5.02709        -0.001309     -0.001852      0.002938
     15.56149      4.39258      5.02709        -0.008504     -0.001261     -0.000826
      4.11974     10.74880      5.02709        -0.004458     -0.005240      0.000217
      9.81935     10.71283      5.02709        -0.004720     -0.002336      0.000626
     15.51896     10.67687      5.02709        -0.005044     -0.001564      0.001098
      4.07721     17.03309      5.02709        -0.000491     -0.000381      0.002002
      9.77682     16.99712      5.02709        -0.006557     -0.004339      0.002107
     15.47643     16.96115      5.02709        -0.004045     -0.003513      0.002006
      1.49481      1.78380      3.01696         0.002534      0.047414      0.011732
      7.19442      1.74784      3.01696         0.006705      0.004126     -0.002073
     12.89402      1.71187      3.01696         0.000850      0.000619     -0.001299
      1.45228      8.06809      3.01696         0.005095      0.001920     -0.000994
      7.15189      8.03212      3.01696         0.005129      0.002720     -0.000502
     12.85150      7.99616      3.01696         0.004622      0.005432     -0.000087
      1.40975     14.35237      3.01696         0.007962      0.002830      0.000629
      7.10936     14.31641      3.01696         0.001218      0.001774     -0.003056
     12.80897     14.28044      3.01696         0.004225      0.003748     -0.000730
      4.16227      4.46452      3.01696        -0.001440     -0.000668     -0.000514
      9.86188      4.42855      3.01696        -0.001309     -0.001852     -0.002938
     15.56149      4.39258      3.01696        -0.008504     -0.001261      0.000826
      4.11974     10.74880      3.01696        -0.004458     -0.005240     -0.000217
      9.81935     10.71283      3.01696        -0.004720     -0.002336     -0.000626
     15.51896     10.67687      3.01696        -0.005044     -0.001564     -0.001098
      4.07721     17.03309      3.01696        -0.000491     -0.000381     -0.002002
      9.77682     16.99712      3.01696        -0.006557     -0.004339     -0.002107
     15.47643     16.96115      3.01696        -0.004045     -0.003513     -0.002006
      1.49481      1.78380      5.02709         0.002534      0.047414     -0.011732
      7.19442      1.74784      5.02709         0.006705      0.004126      0.002073
     12.89402      1.71187      5.02709         0.000850      0.000619      0.001299
      1.45228      8.06809      5.02709         0.005095      0.001920      0.000994
      7.15189      8.03212      5.02709         0.005129      0.002720      0.000502
     12.85150      7.99616      5.02709         0.004622      0.005432      0.000087
      1.40975     14.35237      5.02709         0.007962      0.002830     -0.000629
      7.10936     14.31641      5.02709         0.001218      0.001774      0.003056
     12.80897     14.28044      5.02709         0.004225      0.003748      0.000730
      1.41185      3.27096      4.02203        -0.072687     -0.274984     -0.000000
      7.11153      3.22499      4.02203         0.003890      0.004271     -0.000000
     12.81114      3.18903      4.02203         0.000456      0.001261     -0.000000
      1.36939      9.54524      4.02203        -0.002239     -0.000494     -0.000000
      7.06900      9.50928      4.02203         0.005701     -0.002001     -0.000000
     12.76861      9.47331      4.02203         0.004518      0.004013     -0.000000
      1.32686     15.82953      4.02203         0.000499      0.005057     -0.000000
      7.02647     15.79356      4.02203         0.000928      0.002641     -0.000000
     12.72608     15.75760      4.02203         0.005404      0.001395     -0.000000
      4.24516      2.98736      4.02203        -0.010468     -0.000534     -0.000000
      9.94477      2.95140      4.02203        -0.001486     -0.002577     -0.000000
     15.64438      2.91543      4.02203         0.002689     -0.005520     -0.000000
      4.20263      9.27165      4.02203        -0.004841     -0.003655     -0.000000
      9.90224      9.23568      4.02203        -0.005575      0.002618     -0.000000
     15.60185      9.19971      4.02203         0.001880      0.000670     -0.000000
      4.16010     15.55593      4.02203        -0.001811     -0.000098     -0.000000
      9.85971     15.51997      4.02203        -0.004018     -0.004727     -0.000000
     15.55932     15.48400      4.02203        -0.001020      0.001653     -0.000000
      2.82854      3.12416      2.43950        -0.007274     -0.003766      0.002009
      8.52815      3.08819      2.43950        -0.000011      0.000007      0.002321
     14.22776      3.05223      2.43950         0.000297      0.000100      0.001995
      2.78601      9.40844      2.43950        -0.000132     -0.000199      0.002269
      8.48562      9.37248      2.43950        -0.000337     -0.000358      0.002326
     14.18523      9.33651      2.43950        -0.000174     -0.000199      0.002279
      2.74348     15.69273      2.43950        -0.000241     -0.000401      0.002224
      8.44309     15.65676      2.43950         0.000084      0.000015      0.002289
     14.14270     15.62080      2.43950        -0.000309     -0.000348      0.002239
      2.82854      3.12416      5.60455        -0.007274     -0.003766     -0.002009
      8.52815      3.08819      5.60455        -0.000011      0.000007     -0.002321
     14.22776      3.05223      5.60455         0.000297      0.000100     -0.001995
      2.78601      9.40844      5.60455        -0.000132     -0.000199     -0.002269
      8.48562      9.37248      5.60455        -0.000337     -0.000358     -0.002326
     14.18523      9.33651      5.60455        -0.000174     -0.000199     -0.002279
      2.74348     15.69273      5.60455        -0.000241     -0.000401     -0.002224
      8.44309     15.65676      5.60455         0.000084      0.000015     -0.002289
     14.14270     15.62080      5.60455        -0.000309     -0.000348     -0.002239
 -----------------------------------------------------------------------------------
    total drift:                                0.001253      0.003792      0.001023


--------------------------------------------------------------------------------------------------------



  FREE ENERGIE OF THE ION-ELECTRON SYSTEM (eV)
  ---------------------------------------------------
  free  energy   TOTEN  =      -818.35208127 eV

  energy  without entropy=     -818.35206371  energy(sigma->0) =     -818.35207249
 


--------------------------------------------------------------------------------------------------------


    POTLOK:  cpu time      0.9659: real time      0.9732


--------------------------------------------------------------------------------------------------------


     LOOP+:  cpu time   2974.3523: real time   3009.6214
 vacuum level on the upper side and lower side of the slab         1.253         1.253
    4ORBIT:  cpu time      0.0000: real time      0.0000



 total charge

# of ion       s       p       d       tot
------------------------------------------
    1        0.736   1.311   0.000   2.047
    2        0.735   1.308   0.000   2.043
    3        0.735   1.308   0.000   2.043
    4        0.735   1.308   0.000   2.043
    5        0.735   1.308   0.000   2.043
    6        0.735   1.308   0.000   2.043
    7        0.735   1.308   0.000   2.043
    8        0.735   1.308   0.000   2.043
    9        0.735   1.308   0.000   2.043
   10        0.735   1.306   0.000   2.041
   11        0.735   1.308   0.000   2.043
   12        0.735   1.308   0.000   2.043
   13        0.735   1.308   0.000   2.043
   14        0.735   1.308   0.000   2.043
   15        0.735   1.308   0.000   2.043
   16        0.735   1.308   0.000   2.043
   17        0.735   1.308   0.000   2.043
   18        0.735   1.308   0.000   2.043
   19        0.695   1.333   0.000   2.027
   20        0.695   1.333   0.000   2.027
   21        0.695   1.335   0.000   2.030
   22        0.695   1.333   0.000   2.027
   23        0.695   1.333   0.000   2.027
   24        0.695   1.333   0.000   2.027
   25        0.695   1.333   0.000   2.027
   26        0.695   1.333   0.000   2.027
   27        0.695   1.333   0.000   2.027
   28        0.694   1.330   0.000   2.024
   29        0.695   1.332   0.000   2.027
   30        0.695   1.333   0.000   2.027
   31        0.695   1.333   0.000   2.027
   32        0.695   1.333   0.000   2.027
   33        0.695   1.333   0.000   2.027
   34        0.695   1.333   0.000   2.027
   35        0.695   1.333   0.000   2.027
   36        0.695   1.333   0.000   2.027
   37        0.713   1.355   0.000   2.067
   38        0.713   1.355   0.000   2.067
   39        0.713   1.355   0.000   2.067
   40        0.713   1.355   0.000   2.067
   41        0.713   1.355   0.000   2.067
   42        0.713   1.355   0.000   2.067
   43        0.713   1.355   0.000   2.067
   44        0.713   1.355   0.000   2.067
   45        0.713   1.354   0.000   2.067
   46        0.713   1.354   0.000   2.067
   47        0.713   1.355   0.000   2.067
   48        0.713   1.355   0.000   2.067
   49        0.713   1.355   0.000   2.067
   50        0.713   1.355   0.000   2.067
   51        0.713   1.355   0.000   2.067
   52        0.713   1.355   0.000   2.067
   53        0.713   1.355   0.000   2.067
   54        0.713   1.355   0.000   2.067
   55        0.702   1.311   0.000   2.013
   56        0.702   1.311   0.000   2.013
   57        0.702   1.311   0.000   2.013
   58        0.702   1.311   0.000   2.013
   59        0.702   1.311   0.000   2.013
   60        0.702   1.311   0.000   2.013
   61        0.702   1.311   0.000   2.013
   62        0.702   1.311   0.000   2.013
   63        0.702   1.311   0.000   2.013
   64        0.702   1.311   0.000   2.013
   65        0.702   1.311   0.000   2.013
   66        0.702   1.311   0.000   2.013
   67        0.702   1.311   0.000   2.013
   68        0.702   1.311   0.000   2.013
   69        0.702   1.311   0.000   2.013
   70        0.702   1.311   0.000   2.013
   71        0.702   1.311   0.000   2.013
   72        0.702   1.311   0.000   2.013
   73        0.699   1.202   0.000   1.901
   74        0.699   1.202   0.000   1.901
   75        0.699   1.202   0.000   1.901
   76        0.699   1.202   0.000   1.901
   77        0.699   1.202   0.000   1.901
   78        0.699   1.202   0.000   1.901
   79        0.699   1.202   0.000   1.901
   80        0.699   1.202   0.000   1.901
   81        0.699   1.202   0.000   1.901
   82        0.699   1.200   0.000   1.899
   83        0.699   1.202   0.000   1.901
   84        0.699   1.202   0.000   1.901
   85        0.699   1.202   0.000   1.901
   86        0.699   1.202   0.000   1.901
   87        0.699   1.202   0.000   1.901
   88        0.699   1.202   0.000   1.901
   89        0.699   1.202   0.000   1.901
   90        0.699   1.202   0.000   1.901
   91        0.699   1.202   0.000   1.901
   92        0.699   1.202   0.000   1.901
   93        0.699   1.202   0.000   1.901
   94        0.699   1.202   0.000   1.901
   95        0.699   1.202   0.000   1.901
   96        0.699   1.202   0.000   1.901
   97        0.699   1.202   0.000   1.901
   98        0.699   1.202   0.000   1.901
   99        0.699   1.202   0.000   1.901
  100        0.699   1.200   0.000   1.899
  101        0.699   1.202   0.000   1.901
  102        0.699   1.202   0.000   1.901
  103        0.699   1.202   0.000   1.901
  104        0.699   1.202   0.000   1.901
  105        0.699   1.202   0.000   1.901
  106        0.699   1.202   0.000   1.901
  107        0.699   1.202   0.000   1.901
  108        0.699   1.202   0.000   1.901
  109        0.719   1.415   0.000   2.133
  110        0.719   1.421   0.000   2.139
  111        0.719   1.421   0.000   2.140
  112        0.719   1.421   0.000   2.139
  113        0.719   1.421   0.000   2.139
  114        0.719   1.421   0.000   2.140
  115        0.719   1.421   0.000   2.140
  116        0.719   1.421   0.000   2.139
  117        0.719   1.421   0.000   2.140
  118        0.719   1.421   0.000   2.140
  119        0.719   1.421   0.000   2.139
  120        0.719   1.421   0.000   2.139
  121        0.719   1.421   0.000   2.140
  122        0.719   1.421   0.000   2.139
  123        0.719   1.421   0.000   2.139
  124        0.719   1.421   0.000   2.140
  125        0.719   1.421   0.000   2.139
  126        0.719   1.421   0.000   2.139
  127        0.363   0.016   0.000   0.378
  128        0.363   0.016   0.000   0.378
  129        0.363   0.016   0.000   0.378
  130        0.363   0.016   0.000   0.378
  131        0.363   0.016   0.000   0.378
  132        0.363   0.016   0.000   0.378
  133        0.363   0.016   0.000   0.378
  134        0.363   0.016   0.000   0.378
  135        0.363   0.016   0.000   0.378
  136        0.363   0.016   0.000   0.378
  137        0.363   0.016   0.000   0.378
  138        0.363   0.016   0.000   0.378
  139        0.363   0.016   0.000   0.378
  140        0.363   0.016   0.000   0.378
  141        0.363   0.016   0.000   0.378
  142        0.363   0.016   0.000   0.378
  143        0.363   0.016   0.000   0.378
  144        0.363   0.016   0.000   0.378
--------------------------------------------------
tot         95.840 164.615   0.000 260.455
 

 total amount of memory used by VASP MPI-rank0   350913. kBytes
=======================================================================

   base                                    :      30000. kBytes
   nonlr-proj                              :      12165. kBytes
   fftplans                                :      51260. kBytes
   grid                                    :      79795. kBytes
   one-center                              :         64. kBytes
   wavefun                                 :     177629. kBytes
 
  
  
 General timing and accounting informations for this job:
 ========================================================
  
                  Total CPU time used (sec):     3002.247
                            User time (sec):     2813.451
                          System time (sec):      188.796
                         Elapsed time (sec):     3038.257
  
                   Maximum memory used (kb):      846288.
                   Average memory used (kb):          N/A
  
                          Minor page faults:       160991
                          Major page faults:          117
                 Voluntary context switches:         1300
