generated by phonopy                    
   1.00000000000000     
    16.8159717533276591   -0.3359526933569370    0.0000000000000000
    -0.3766923650423541   18.2191537439340507    0.0000000000000000
     0.0000000000000000    0.0000000000000000   30.0881166459999996
  B               H             
   252    18
Direct
     0.1735182957409620    0.2138478035400908    0.1492954510531987
     0.5068516290742977    0.2138478035400908    0.1492954510531987
     0.8401849624076334    0.2138478035400908    0.1492954510531987
     0.1735182957409620    0.5471811368734194    0.1492954510531987
     0.5068516290742977    0.5471811368734194    0.1492954510531987
     0.8401849624076334    0.5471811368734194    0.1492954510531987
     0.1735182957409620    0.8805144702067551    0.1492954510531987
     0.5068516290742977    0.8805144702067551    0.1492954510531987
     0.8401849624076334    0.8805144702067551    0.1492954510531987
     0.1735182957409620    0.2138478035400908    0.2524617206309543
     0.5068516290742977    0.2138478035400908    0.2524617206309543
     0.8401849624076334    0.2138478035400908    0.2524617206309543
     0.1735182957409620    0.5471811368734194    0.2524617206309543
     0.5068516290742977    0.5471811368734194    0.2524617206309543
     0.8401849624076334    0.5471811368734194    0.2524617206309543
     0.1735182957409620    0.8805144702067551    0.2524617206309543
     0.5068516290742977    0.8805144702067551    0.2524617206309543
     0.8401849624076334    0.8805144702067551    0.2524617206309543
     0.1598150376099099    0.1194855297932449    0.1492954510531987
     0.4931483709432456    0.1194855297932449    0.1492954510531987
     0.8264817042765742    0.1194855297932449    0.1492954510531987
     0.1598150376099099    0.4528188631265806    0.1492954510531987
     0.4931483709432456    0.4528188631265806    0.1492954510531987
     0.8264817042765742    0.4528188631265806    0.1492954510531987
     0.1598150376099099    0.7861521964599092    0.1492954510531987
     0.4931483709432456    0.7861521964599092    0.1492954510531987
     0.8264817042765742    0.7861521964599092    0.1492954510531987
     0.1598150376099099    0.1194855297932449    0.2524617206309543
     0.4931483709432456    0.1194855297932449    0.2524617206309543
     0.8264817042765742    0.1194855297932449    0.2524617206309543
     0.1598150376099099    0.4528188631265806    0.2524617206309543
     0.4931483709432456    0.4528188631265806    0.2524617206309543
     0.8264817042765742    0.4528188631265806    0.2524617206309543
     0.1598150376099099    0.7861521964599092    0.2524617206309543
     0.4931483709432456    0.7861521964599092    0.2524617206309543
     0.8264817042765742    0.7861521964599092    0.2524617206309543
     0.3276892025688198    0.2137220763339158    0.1351160651278107
     0.6610225359021484    0.2137220763339158    0.1354484222546404
     0.9943558692354841    0.2137220763339158    0.1354484222546404
     0.3276892025688198    0.5470554096672515    0.1354484222546404
     0.6610225359021484    0.5470554096672515    0.1354484222546404
     0.9943558692354841    0.5470554096672515    0.1354484222546404
     0.3276892025688198    0.8803887430005872    0.1354484222546404
     0.6610225359021484    0.8803887430005872    0.1354484222546404
     0.9943558692354841    0.8803887430005872    0.1354484222546404
     0.3276892025688198    0.2137220763339158    0.2663087494295127
     0.6610225359021484    0.2137220763339158    0.2663087494295127
     0.9943558692354841    0.2137220763339158    0.2663087494295127
     0.3276892025688198    0.5470554096672515    0.2663087494295127
     0.6610225359021484    0.5470554096672515    0.2663087494295127
     0.9943558692354841    0.5470554096672515    0.2663087494295127
     0.3276892025688198    0.8803887430005872    0.2663087494295127
     0.6610225359021484    0.8803887430005872    0.2663087494295127
     0.9943558692354841    0.8803887430005872    0.2663087494295127
     0.0056441307820592    0.1196112569994128    0.1354484222546404
     0.3389774641153878    0.1196112569994128    0.1354484222546404
     0.6723107974487235    0.1196112569994128    0.1354484222546404
     0.0056441307820592    0.4529445903327485    0.1354484222546404
     0.3389774641153878    0.4529445903327485    0.1354484222546404
     0.6723107974487235    0.4529445903327485    0.1354484222546404
     0.0056441307820592    0.7862779236660842    0.1354484222546404
     0.3389774641153878    0.7862779236660842    0.1354484222546404
     0.6723107974487235    0.7862779236660842    0.1354484222546404
     0.0056441307820592    0.1196112569994128    0.2663087494295127
     0.3389774641153878    0.1196112569994128    0.2663087494295127
     0.6723107974487235    0.1196112569994128    0.2663087494295127
     0.0056441307820592    0.4529445903327485    0.2663087494295127
     0.3389774641153878    0.4529445903327485    0.2663087494295127
     0.6723107974487235    0.4529445903327485    0.2663087494295127
     0.0056441307820592    0.7862779236660842    0.2663087494295127
     0.3389774641153878    0.7862779236660842    0.2663087494295127
     0.6723107974487235    0.7862779236660842    0.2663087494295127
     0.1986719329000977    0.2997959985437504    0.1327903867010818
     0.5320052662334334    0.2997959985437504    0.1327903867010818
     0.8653385995667620    0.2997959985437504    0.1327903867010818
     0.1986719329000977    0.6331293318770790    0.1327903867010818
     0.5320052662334334    0.6331293318770790    0.1327903867010818
     0.8653385995667620    0.6331293318770790    0.1327903867010818
     0.1986719329000977    0.9664626652104147    0.1327903867010818
     0.5320052662334334    0.9664626652104147    0.1327903867010818
     0.8653385995667620    0.9664626652104147    0.1327903867010818
     0.1986719329000977    0.2997959985437504    0.2689667849830712
     0.5320052662334334    0.2997959985437504    0.2689667849830712
     0.8653385995667620    0.2997959985437504    0.2689667849830712
     0.1986719329000977    0.6331293318770790    0.2689667849830712
     0.5320052662334334    0.6331293318770790    0.2689667849830712
     0.8653385995667620    0.6331293318770790    0.2689667849830712
     0.1986719329000977    0.9664626652104147    0.2689667849830712
     0.5320052662334334    0.9664626652104147    0.2689667849830712
     0.8653385995667620    0.9664626652104147    0.2689667849830712
     0.1346614004507742    0.0335373323172163    0.1327903867010818
     0.4679947337841099    0.0335373323172163    0.1327903867010818
     0.8013280671174456    0.0335373323172163    0.1327903867010818
     0.1346614004507742    0.3668706656505449    0.1327903867010818
     0.4679947337841099    0.3668706656505449    0.1327903867010818
     0.8013280671174456    0.3668706656505449    0.1327903867010818
     0.1346614004507742    0.7002039989838806    0.1327903867010818
     0.4679947337841099    0.7002039989838806    0.1327903867010818
     0.8013280671174456    0.7002039989838806    0.1327903867010818
     0.1346614004507742    0.0335373323172163    0.2689667849830712
     0.4679947337841099    0.0335373323172163    0.2689667849830712
     0.8013280671174456    0.0335373323172163    0.2689667849830712
     0.1346614004507742    0.3668706656505449    0.2689667849830712
     0.4679947337841099    0.3668706656505449    0.2689667849830712
     0.8013280671174456    0.3668706656505449    0.2689667849830712
     0.1346614004507742    0.7002039989838806    0.2689667849830712
     0.4679947337841099    0.7002039989838806    0.2689667849830712
     0.8013280671174456    0.7002039989838806    0.2689667849830712
     0.2997641698372391    0.2985880518094888    0.1214959490969463
     0.6330975031705677    0.2985880518094888    0.1214959490969463
     0.9664308365039034    0.2985880518094888    0.1214959490969463
     0.2997641698372391    0.6319213851428174    0.1214959490969463
     0.6330975031705677    0.6319213851428174    0.1214959490969463
     0.9664308365039034    0.6319213851428174    0.1214959490969463
     0.2997641698372391    0.9652547184761531    0.1214959490969463
     0.6330975031705677    0.9652547184761531    0.1214959490969463
     0.9664308365039034    0.9652547184761531    0.1214959490969463
     0.2997641698372391    0.2985880518094888    0.2802612225872068
     0.6330975031705677    0.2985880518094888    0.2802612225872068
     0.9664308365039034    0.2985880518094888    0.2802612225872068
     0.2997641698372391    0.6319213851428174    0.2802612225872068
     0.6330975031705677    0.6319213851428174    0.2802612225872068
     0.9664308365039034    0.6319213851428174    0.2802612225872068
     0.2997641698372391    0.9652547184761531    0.2802612225872068
     0.6330975031705677    0.9652547184761531    0.2802612225872068
     0.9664308365039034    0.9652547184761531    0.2802612225872068
     0.0335691635136399    0.0347452790514780    0.1214959490969463
     0.3669024968469685    0.0347452790514780    0.1214959490969463
     0.7002358301803042    0.0347452790514780    0.1214959490969463
     0.0335691635136399    0.3680786123848065    0.1214959490969463
     0.3669024968469685    0.3680786123848065    0.1214959490969463
     0.7002358301803042    0.3680786123848065    0.1214959490969463
     0.0335691635136399    0.7014119457181422    0.1214959490969463
     0.3669024968469685    0.7014119457181422    0.1214959490969463
     0.7002358301803042    0.7014119457181422    0.1214959490969463
     0.0335691635136399    0.0347452790514780    0.2802612225872068
     0.3669024968469685    0.0347452790514780    0.2802612225872068
     0.7002358301803042    0.0347452790514780    0.2802612225872068
     0.0335691635136399    0.3680786123848065    0.2802612225872068
     0.3669024968469685    0.3680786123848065    0.2802612225872068
     0.7002358301803042    0.3680786123848065    0.2802612225872068
     0.0335691635136399    0.7014119457181422    0.2802612225872068
     0.3669024968469685    0.7014119457181422    0.2802612225872068
     0.7002358301803042    0.7014119457181422    0.2802612225872068
     0.2604675232028768    0.2551772938540751    0.1726086135930345
     0.5938008565362054    0.2551772938540751    0.1726086135930345
     0.9271341898695411    0.2551772938540751    0.1726086135930345
     0.2604675232028768    0.5885106271874108    0.1726086135930345
     0.5938008565362054    0.5885106271874108    0.1726086135930345
     0.9271341898695411    0.5885106271874108    0.1726086135930345
     0.2604675232028768    0.9218439605207465    0.1726086135930345
     0.5938008565362054    0.9218439605207394    0.1726086135930345
     0.9271341898695411    0.9218439605207394    0.1726086135930345
     0.2327741031991053    0.2257518112144794    0.3002951497173072
     0.5661074365324410    0.2257518112144794    0.3002951497173072
     0.8994407698657696    0.2257518112144794    0.3002951497173072
     0.2327741031991053    0.5590851445478080    0.3002951497173072
     0.5661074365324410    0.5590851445478080    0.3002951497173072
     0.8994407698657696    0.5590851445478080    0.3002951497173072
     0.2327741031991053    0.8924184778811437    0.3002951497173072
     0.5661074365324410    0.8924184778811437    0.3002951497173072
     0.8994407698657696    0.8924184778811437    0.3002951497173072
     0.1005592300932960    0.1075815221188563    0.1014620239942303
     0.4338925634266317    0.1075815221188563    0.1014620239942303
     0.7672258967599674    0.1075815221188563    0.1014620239942303
     0.1005592300932960    0.4409148554521920    0.1014620239942303
     0.4338925634266317    0.4409148554521920    0.1014620239942303
     0.7672258967599674    0.4409148554521920    0.1014620239942303
     0.1005592300932960    0.7742481887855206    0.1014620239942303
     0.4338925634266317    0.7742481887855206    0.1014620239942303
     0.7672258967599674    0.7742481887855206    0.1014620239942303
     0.0728658100895316    0.0781560394792535    0.2291485601185030
     0.4061991434228602    0.0781560394792535    0.2291485601185030
     0.7395324767561959    0.0781560394792535    0.2291485601185030
     0.0728658100895316    0.4114893728125892    0.2291485601185030
     0.4061991434228602    0.4114893728125892    0.2291485601185030
     0.7395324767561959    0.4114893728125892    0.2291485601185030
     0.0728658100895316    0.7448227061459249    0.2291485601185030
     0.4061991434228602    0.7448227061459249    0.2291485601185030
     0.7395324767561959    0.7448227061459249    0.2291485601185030
     0.2327741031991053    0.2257518112144794    0.1014620239942303
     0.5661074365324410    0.2257518112144794    0.1014620239942303
     0.8994407698657696    0.2257518112144794    0.1014620239942303
     0.2327741031991053    0.5590851445478080    0.1014620239942303
     0.5661074365324410    0.5590851445478080    0.1014620239942303
     0.8994407698657696    0.5590851445478080    0.1014620239942303
     0.2327741031991053    0.8924184778811437    0.1014620239942303
     0.5661074365324410    0.8924184778811437    0.1014620239942303
     0.8994407698657696    0.8924184778811437    0.1014620239942303
     0.2604675232028768    0.2551772938540751    0.2291485601185030
     0.5938008565362054    0.2551772938540751    0.2291485601185030
     0.9271341898695411    0.2551772938540751    0.2291485601185030
     0.2604675232028768    0.5885106271874108    0.2291485601185030
     0.5938008565362054    0.5885106271874108    0.2291485601185030
     0.9271341898695411    0.5885106271874108    0.2291485601185030
     0.2604675232028768    0.9218439605207465    0.2291485601185030
     0.5938008565362054    0.9218439605207394    0.2291485601185030
     0.9271341898695411    0.9218439605207394    0.2291485601185030
     0.0728658100895316    0.0781560394792535    0.1726086135930345
     0.4061991434228602    0.0781560394792535    0.1726086135930345
     0.7395324767561959    0.0781560394792535    0.1726086135930345
     0.0728658100895316    0.4114893728125892    0.1726086135930345
     0.4061991434228602    0.4114893728125892    0.1726086135930345
     0.7395324767561959    0.4114893728125892    0.1726086135930345
     0.0728658100895316    0.7448227061459249    0.1726086135930345
     0.4061991434228602    0.7448227061459249    0.1726086135930345
     0.7395324767561959    0.7448227061459249    0.1726086135930345
     0.1005592300932960    0.1075815221188563    0.3002951497173072
     0.4338925634266317    0.1075815221188563    0.3002951497173072
     0.7672258967599674    0.1075815221188563    0.3002951497173072
     0.1005592300932960    0.4409148554521920    0.3002951497173072
     0.4338925634266317    0.4409148554521920    0.3002951497173072
     0.7672258967599674    0.4409148554521920    0.3002951497173072
     0.1005592300932960    0.7742481887855206    0.3002951497173072
     0.4338925634266317    0.7742481887855206    0.3002951497173072
     0.7672258967599674    0.7742481887855206    0.3002951497173072
     0.0837748955766244    0.1742781677487955    0.1438074160743810
     0.4171082289099601    0.1742781677487955    0.1438074160743810
     0.7504415622432958    0.1742781677487955    0.1438074160743810
     0.0837748955766244    0.5076115010821312    0.1438074160743810
     0.4171082289099601    0.5076115010821312    0.1438074160743810
     0.7504415622432958    0.5076115010821312    0.1438074160743810
     0.0837748955766244    0.8409448344154669    0.1438074160743810
     0.4171082289099601    0.8409448344154669    0.1438074160743810
     0.7504415622432958    0.8409448344154669    0.1438074160743810
     0.0837748955766244    0.1742781677487955    0.2579497556097721
     0.4171082289099601    0.1742781677487955    0.2579497556097721
     0.7504415622432958    0.1742781677487955    0.2579497556097721
     0.0837748955766244    0.5076115010821312    0.2579497556097721
     0.4171082289099601    0.5076115010821312    0.2579497556097721
     0.7504415622432958    0.5076115010821312    0.2579497556097721
     0.0837748955766244    0.8409448344154669    0.2579497556097721
     0.4171082289099601    0.8409448344154669    0.2579497556097721
     0.7504415622432958    0.8409448344154669    0.2579497556097721
     0.2495584377157769    0.1590551556950501    0.1438074160743810
     0.5828917710491126    0.1590551556950501    0.1438074160743810
     0.9162251043824412    0.1590551556950501    0.1438074160743810
     0.2495584377157769    0.4923884890283787    0.1438074160743810
     0.5828917710491126    0.4923884890283787    0.1438074160743810
     0.9162251043824412    0.4923884890283787    0.1438074160743810
     0.2495584377157769    0.8257218223617144    0.1438074160743810
     0.5828917710491126    0.8257218223617144    0.1438074160743810
     0.9162251043824412    0.8257218223617144    0.1438074160743810
     0.2495584377157769    0.1590551556950501    0.2579497556097721
     0.5828917710491126    0.1590551556950501    0.2579497556097721
     0.9162251043824412    0.1590551556950501    0.2579497556097721
     0.2495584377157769    0.4923884890283787    0.2579497556097721
     0.5828917710491126    0.4923884890283787    0.2579497556097721
     0.9162251043824412    0.4923884890283787    0.2579497556097721
     0.2495584377157769    0.8257218223617144    0.2579497556097721
     0.5828917710491126    0.8257218223617144    0.2579497556097721
     0.9162251043824412    0.8257218223617144    0.2579497556097721
     0.1666666666666643    0.1666666666666643    0.0752149303364646
     0.5000000000000000    0.1666666666666643    0.0752149303364646
     0.8333333333333357    0.1666666666666643    0.0752149303364646
     0.1666666666666643    0.5000000000000000    0.0752149303364646
     0.5000000000000000    0.5000000000000000    0.0752149303364646
     0.8333333333333357    0.5000000000000000    0.0752149303364646
     0.1666666666666643    0.8333333333333357    0.0752149303364646
     0.5000000000000000    0.8333333333333357    0.0752149303364646
     0.8333333333333357    0.8333333333333357    0.0752149303364646
     0.1666666666666643    0.1666666666666643    0.3265422433750729
     0.5000000000000000    0.1666666666666643    0.3265422433750729
     0.8333333333333357    0.1666666666666643    0.3265422433750729
     0.1666666666666643    0.5000000000000000    0.3265422433750729
     0.5000000000000000    0.5000000000000000    0.3265422433750729
     0.8333333333333357    0.5000000000000000    0.3265422433750729
     0.1666666666666643    0.8333333333333357    0.3265422433750729
     0.5000000000000000    0.8333333333333357    0.3265422433750729
     0.8333333333333357    0.8333333333333357    0.3265422433750729
 
  0.00000000E+00  0.00000000E+00  0.00000000E+00
  0.00000000E+00  0.00000000E+00  0.00000000E+00
  0.00000000E+00  0.00000000E+00  0.00000000E+00
  0.00000000E+00  0.00000000E+00  0.00000000E+00
  0.00000000E+00  0.00000000E+00  0.00000000E+00
  0.00000000E+00  0.00000000E+00  0.00000000E+00
  0.00000000E+00  0.00000000E+00  0.00000000E+00
  0.00000000E+00  0.00000000E+00  0.00000000E+00
  0.00000000E+00  0.00000000E+00  0.00000000E+00
  0.00000000E+00  0.00000000E+00  0.00000000E+00
  0.00000000E+00  0.00000000E+00  0.00000000E+00
  0.00000000E+00  0.00000000E+00  0.00000000E+00
  0.00000000E+00  0.00000000E+00  0.00000000E+00
  0.00000000E+00  0.00000000E+00  0.00000000E+00
  0.00000000E+00  0.00000000E+00  0.00000000E+00
  0.00000000E+00  0.00000000E+00  0.00000000E+00
  0.00000000E+00  0.00000000E+00  0.00000000E+00
  0.00000000E+00  0.00000000E+00  0.00000000E+00
  0.00000000E+00  0.00000000E+00  0.00000000E+00
  0.00000000E+00  0.00000000E+00  0.00000000E+00
  0.00000000E+00  0.00000000E+00  0.00000000E+00
  0.00000000E+00  0.00000000E+00  0.00000000E+00
  0.00000000E+00  0.00000000E+00  0.00000000E+00
  0.00000000E+00  0.00000000E+00  0.00000000E+00
  0.00000000E+00  0.00000000E+00  0.00000000E+00
  0.00000000E+00  0.00000000E+00  0.00000000E+00
  0.00000000E+00  0.00000000E+00  0.00000000E+00
  0.00000000E+00  0.00000000E+00  0.00000000E+00
  0.00000000E+00  0.00000000E+00  0.00000000E+00
  0.00000000E+00  0.00000000E+00  0.00000000E+00
  0.00000000E+00  0.00000000E+00  0.00000000E+00
  0.00000000E+00  0.00000000E+00  0.00000000E+00
  0.00000000E+00  0.00000000E+00  0.00000000E+00
  0.00000000E+00  0.00000000E+00  0.00000000E+00
  0.00000000E+00  0.00000000E+00  0.00000000E+00
  0.00000000E+00  0.00000000E+00  0.00000000E+00
  0.00000000E+00  0.00000000E+00  0.00000000E+00
  0.00000000E+00  0.00000000E+00  0.00000000E+00
  0.00000000E+00  0.00000000E+00  0.00000000E+00
  0.00000000E+00  0.00000000E+00  0.00000000E+00
  0.00000000E+00  0.00000000E+00  0.00000000E+00
  0.00000000E+00  0.00000000E+00  0.00000000E+00
  0.00000000E+00  0.00000000E+00  0.00000000E+00
  0.00000000E+00  0.00000000E+00  0.00000000E+00
  0.00000000E+00  0.00000000E+00  0.00000000E+00
  0.00000000E+00  0.00000000E+00  0.00000000E+00
  0.00000000E+00  0.00000000E+00  0.00000000E+00
  0.00000000E+00  0.00000000E+00  0.00000000E+00
  0.00000000E+00  0.00000000E+00  0.00000000E+00
  0.00000000E+00  0.00000000E+00  0.00000000E+00
  0.00000000E+00  0.00000000E+00  0.00000000E+00
  0.00000000E+00  0.00000000E+00  0.00000000E+00
  0.00000000E+00  0.00000000E+00  0.00000000E+00
  0.00000000E+00  0.00000000E+00  0.00000000E+00
  0.00000000E+00  0.00000000E+00  0.00000000E+00
  0.00000000E+00  0.00000000E+00  0.00000000E+00
  0.00000000E+00  0.00000000E+00  0.00000000E+00
  0.00000000E+00  0.00000000E+00  0.00000000E+00
  0.00000000E+00  0.00000000E+00  0.00000000E+00
  0.00000000E+00  0.00000000E+00  0.00000000E+00
  0.00000000E+00  0.00000000E+00  0.00000000E+00
  0.00000000E+00  0.00000000E+00  0.00000000E+00
  0.00000000E+00  0.00000000E+00  0.00000000E+00
  0.00000000E+00  0.00000000E+00  0.00000000E+00
  0.00000000E+00  0.00000000E+00  0.00000000E+00
  0.00000000E+00  0.00000000E+00  0.00000000E+00
  0.00000000E+00  0.00000000E+00  0.00000000E+00
  0.00000000E+00  0.00000000E+00  0.00000000E+00
  0.00000000E+00  0.00000000E+00  0.00000000E+00
  0.00000000E+00  0.00000000E+00  0.00000000E+00
  0.00000000E+00  0.00000000E+00  0.00000000E+00
  0.00000000E+00  0.00000000E+00  0.00000000E+00
  0.00000000E+00  0.00000000E+00  0.00000000E+00
  0.00000000E+00  0.00000000E+00  0.00000000E+00
  0.00000000E+00  0.00000000E+00  0.00000000E+00
  0.00000000E+00  0.00000000E+00  0.00000000E+00
  0.00000000E+00  0.00000000E+00  0.00000000E+00
  0.00000000E+00  0.00000000E+00  0.00000000E+00
  0.00000000E+00  0.00000000E+00  0.00000000E+00
  0.00000000E+00  0.00000000E+00  0.00000000E+00
  0.00000000E+00  0.00000000E+00  0.00000000E+00
  0.00000000E+00  0.00000000E+00  0.00000000E+00
  0.00000000E+00  0.00000000E+00  0.00000000E+00
  0.00000000E+00  0.00000000E+00  0.00000000E+00
  0.00000000E+00  0.00000000E+00  0.00000000E+00
  0.00000000E+00  0.00000000E+00  0.00000000E+00
  0.00000000E+00  0.00000000E+00  0.00000000E+00
  0.00000000E+00  0.00000000E+00  0.00000000E+00
  0.00000000E+00  0.00000000E+00  0.00000000E+00
  0.00000000E+00  0.00000000E+00  0.00000000E+00
  0.00000000E+00  0.00000000E+00  0.00000000E+00
  0.00000000E+00  0.00000000E+00  0.00000000E+00
  0.00000000E+00  0.00000000E+00  0.00000000E+00
  0.00000000E+00  0.00000000E+00  0.00000000E+00
  0.00000000E+00  0.00000000E+00  0.00000000E+00
  0.00000000E+00  0.00000000E+00  0.00000000E+00
  0.00000000E+00  0.00000000E+00  0.00000000E+00
  0.00000000E+00  0.00000000E+00  0.00000000E+00
  0.00000000E+00  0.00000000E+00  0.00000000E+00
  0.00000000E+00  0.00000000E+00  0.00000000E+00
  0.00000000E+00  0.00000000E+00  0.00000000E+00
  0.00000000E+00  0.00000000E+00  0.00000000E+00
  0.00000000E+00  0.00000000E+00  0.00000000E+00
  0.00000000E+00  0.00000000E+00  0.00000000E+00
  0.00000000E+00  0.00000000E+00  0.00000000E+00
  0.00000000E+00  0.00000000E+00  0.00000000E+00
  0.00000000E+00  0.00000000E+00  0.00000000E+00
  0.00000000E+00  0.00000000E+00  0.00000000E+00
  0.00000000E+00  0.00000000E+00  0.00000000E+00
  0.00000000E+00  0.00000000E+00  0.00000000E+00
  0.00000000E+00  0.00000000E+00  0.00000000E+00
  0.00000000E+00  0.00000000E+00  0.00000000E+00
  0.00000000E+00  0.00000000E+00  0.00000000E+00
  0.00000000E+00  0.00000000E+00  0.00000000E+00
  0.00000000E+00  0.00000000E+00  0.00000000E+00
  0.00000000E+00  0.00000000E+00  0.00000000E+00
  0.00000000E+00  0.00000000E+00  0.00000000E+00
  0.00000000E+00  0.00000000E+00  0.00000000E+00
  0.00000000E+00  0.00000000E+00  0.00000000E+00
  0.00000000E+00  0.00000000E+00  0.00000000E+00
  0.00000000E+00  0.00000000E+00  0.00000000E+00
  0.00000000E+00  0.00000000E+00  0.00000000E+00
  0.00000000E+00  0.00000000E+00  0.00000000E+00
  0.00000000E+00  0.00000000E+00  0.00000000E+00
  0.00000000E+00  0.00000000E+00  0.00000000E+00
  0.00000000E+00  0.00000000E+00  0.00000000E+00
  0.00000000E+00  0.00000000E+00  0.00000000E+00
  0.00000000E+00  0.00000000E+00  0.00000000E+00
  0.00000000E+00  0.00000000E+00  0.00000000E+00
  0.00000000E+00  0.00000000E+00  0.00000000E+00
  0.00000000E+00  0.00000000E+00  0.00000000E+00
  0.00000000E+00  0.00000000E+00  0.00000000E+00
  0.00000000E+00  0.00000000E+00  0.00000000E+00
  0.00000000E+00  0.00000000E+00  0.00000000E+00
  0.00000000E+00  0.00000000E+00  0.00000000E+00
  0.00000000E+00  0.00000000E+00  0.00000000E+00
  0.00000000E+00  0.00000000E+00  0.00000000E+00
  0.00000000E+00  0.00000000E+00  0.00000000E+00
  0.00000000E+00  0.00000000E+00  0.00000000E+00
  0.00000000E+00  0.00000000E+00  0.00000000E+00
  0.00000000E+00  0.00000000E+00  0.00000000E+00
  0.00000000E+00  0.00000000E+00  0.00000000E+00
  0.00000000E+00  0.00000000E+00  0.00000000E+00
  0.00000000E+00  0.00000000E+00  0.00000000E+00
  0.00000000E+00  0.00000000E+00  0.00000000E+00
  0.00000000E+00  0.00000000E+00  0.00000000E+00
  0.00000000E+00  0.00000000E+00  0.00000000E+00
  0.00000000E+00  0.00000000E+00  0.00000000E+00
  0.00000000E+00  0.00000000E+00  0.00000000E+00
  0.00000000E+00  0.00000000E+00  0.00000000E+00
  0.00000000E+00  0.00000000E+00  0.00000000E+00
  0.00000000E+00  0.00000000E+00  0.00000000E+00
  0.00000000E+00  0.00000000E+00  0.00000000E+00
  0.00000000E+00  0.00000000E+00  0.00000000E+00
  0.00000000E+00  0.00000000E+00  0.00000000E+00
  0.00000000E+00  0.00000000E+00  0.00000000E+00
  0.00000000E+00  0.00000000E+00  0.00000000E+00
  0.00000000E+00  0.00000000E+00  0.00000000E+00
  0.00000000E+00  0.00000000E+00  0.00000000E+00
  0.00000000E+00  0.00000000E+00  0.00000000E+00
  0.00000000E+00  0.00000000E+00  0.00000000E+00
  0.00000000E+00  0.00000000E+00  0.00000000E+00
  0.00000000E+00  0.00000000E+00  0.00000000E+00
  0.00000000E+00  0.00000000E+00  0.00000000E+00
  0.00000000E+00  0.00000000E+00  0.00000000E+00
  0.00000000E+00  0.00000000E+00  0.00000000E+00
  0.00000000E+00  0.00000000E+00  0.00000000E+00
  0.00000000E+00  0.00000000E+00  0.00000000E+00
  0.00000000E+00  0.00000000E+00  0.00000000E+00
  0.00000000E+00  0.00000000E+00  0.00000000E+00
  0.00000000E+00  0.00000000E+00  0.00000000E+00
  0.00000000E+00  0.00000000E+00  0.00000000E+00
  0.00000000E+00  0.00000000E+00  0.00000000E+00
  0.00000000E+00  0.00000000E+00  0.00000000E+00
  0.00000000E+00  0.00000000E+00  0.00000000E+00
  0.00000000E+00  0.00000000E+00  0.00000000E+00
  0.00000000E+00  0.00000000E+00  0.00000000E+00
  0.00000000E+00  0.00000000E+00  0.00000000E+00
  0.00000000E+00  0.00000000E+00  0.00000000E+00
  0.00000000E+00  0.00000000E+00  0.00000000E+00
  0.00000000E+00  0.00000000E+00  0.00000000E+00
  0.00000000E+00  0.00000000E+00  0.00000000E+00
  0.00000000E+00  0.00000000E+00  0.00000000E+00
  0.00000000E+00  0.00000000E+00  0.00000000E+00
  0.00000000E+00  0.00000000E+00  0.00000000E+00
  0.00000000E+00  0.00000000E+00  0.00000000E+00
  0.00000000E+00  0.00000000E+00  0.00000000E+00
  0.00000000E+00  0.00000000E+00  0.00000000E+00
  0.00000000E+00  0.00000000E+00  0.00000000E+00
  0.00000000E+00  0.00000000E+00  0.00000000E+00
  0.00000000E+00  0.00000000E+00  0.00000000E+00
  0.00000000E+00  0.00000000E+00  0.00000000E+00
  0.00000000E+00  0.00000000E+00  0.00000000E+00
  0.00000000E+00  0.00000000E+00  0.00000000E+00
  0.00000000E+00  0.00000000E+00  0.00000000E+00
  0.00000000E+00  0.00000000E+00  0.00000000E+00
  0.00000000E+00  0.00000000E+00  0.00000000E+00
  0.00000000E+00  0.00000000E+00  0.00000000E+00
  0.00000000E+00  0.00000000E+00  0.00000000E+00
  0.00000000E+00  0.00000000E+00  0.00000000E+00
  0.00000000E+00  0.00000000E+00  0.00000000E+00
  0.00000000E+00  0.00000000E+00  0.00000000E+00
  0.00000000E+00  0.00000000E+00  0.00000000E+00
  0.00000000E+00  0.00000000E+00  0.00000000E+00
  0.00000000E+00  0.00000000E+00  0.00000000E+00
  0.00000000E+00  0.00000000E+00  0.00000000E+00
  0.00000000E+00  0.00000000E+00  0.00000000E+00
  0.00000000E+00  0.00000000E+00  0.00000000E+00
  0.00000000E+00  0.00000000E+00  0.00000000E+00
  0.00000000E+00  0.00000000E+00  0.00000000E+00
  0.00000000E+00  0.00000000E+00  0.00000000E+00
  0.00000000E+00  0.00000000E+00  0.00000000E+00
  0.00000000E+00  0.00000000E+00  0.00000000E+00
  0.00000000E+00  0.00000000E+00  0.00000000E+00
  0.00000000E+00  0.00000000E+00  0.00000000E+00
  0.00000000E+00  0.00000000E+00  0.00000000E+00
  0.00000000E+00  0.00000000E+00  0.00000000E+00
  0.00000000E+00  0.00000000E+00  0.00000000E+00
  0.00000000E+00  0.00000000E+00  0.00000000E+00
  0.00000000E+00  0.00000000E+00  0.00000000E+00
  0.00000000E+00  0.00000000E+00  0.00000000E+00
  0.00000000E+00  0.00000000E+00  0.00000000E+00
  0.00000000E+00  0.00000000E+00  0.00000000E+00
  0.00000000E+00  0.00000000E+00  0.00000000E+00
  0.00000000E+00  0.00000000E+00  0.00000000E+00
  0.00000000E+00  0.00000000E+00  0.00000000E+00
  0.00000000E+00  0.00000000E+00  0.00000000E+00
  0.00000000E+00  0.00000000E+00  0.00000000E+00
  0.00000000E+00  0.00000000E+00  0.00000000E+00
  0.00000000E+00  0.00000000E+00  0.00000000E+00
  0.00000000E+00  0.00000000E+00  0.00000000E+00
  0.00000000E+00  0.00000000E+00  0.00000000E+00
  0.00000000E+00  0.00000000E+00  0.00000000E+00
  0.00000000E+00  0.00000000E+00  0.00000000E+00
  0.00000000E+00  0.00000000E+00  0.00000000E+00
  0.00000000E+00  0.00000000E+00  0.00000000E+00
  0.00000000E+00  0.00000000E+00  0.00000000E+00
  0.00000000E+00  0.00000000E+00  0.00000000E+00
  0.00000000E+00  0.00000000E+00  0.00000000E+00
  0.00000000E+00  0.00000000E+00  0.00000000E+00
  0.00000000E+00  0.00000000E+00  0.00000000E+00
  0.00000000E+00  0.00000000E+00  0.00000000E+00
  0.00000000E+00  0.00000000E+00  0.00000000E+00
  0.00000000E+00  0.00000000E+00  0.00000000E+00
  0.00000000E+00  0.00000000E+00  0.00000000E+00
  0.00000000E+00  0.00000000E+00  0.00000000E+00
  0.00000000E+00  0.00000000E+00  0.00000000E+00
  0.00000000E+00  0.00000000E+00  0.00000000E+00
  0.00000000E+00  0.00000000E+00  0.00000000E+00
  0.00000000E+00  0.00000000E+00  0.00000000E+00
  0.00000000E+00  0.00000000E+00  0.00000000E+00
  0.00000000E+00  0.00000000E+00  0.00000000E+00
  0.00000000E+00  0.00000000E+00  0.00000000E+00
  0.00000000E+00  0.00000000E+00  0.00000000E+00
  0.00000000E+00  0.00000000E+00  0.00000000E+00
  0.00000000E+00  0.00000000E+00  0.00000000E+00
  0.00000000E+00  0.00000000E+00  0.00000000E+00
  0.00000000E+00  0.00000000E+00  0.00000000E+00
  0.00000000E+00  0.00000000E+00  0.00000000E+00
  0.00000000E+00  0.00000000E+00  0.00000000E+00
  0.00000000E+00  0.00000000E+00  0.00000000E+00
  0.00000000E+00  0.00000000E+00  0.00000000E+00
  0.00000000E+00  0.00000000E+00  0.00000000E+00
  0.00000000E+00  0.00000000E+00  0.00000000E+00
  0.00000000E+00  0.00000000E+00  0.00000000E+00
  0.00000000E+00  0.00000000E+00  0.00000000E+00
  0.00000000E+00  0.00000000E+00  0.00000000E+00
  0.00000000E+00  0.00000000E+00  0.00000000E+00
  0.00000000E+00  0.00000000E+00  0.00000000E+00
  0.00000000E+00  0.00000000E+00  0.00000000E+00
