       N       E                     dE             d eps       ncg     rms          rms(c)
DAV:   1     0.607481227261E+04    0.60748E+04   -0.29267E+05  6576   0.122E+03
DAV:   2    -0.893112064938E+03   -0.69679E+04   -0.67240E+04  9072   0.263E+02
DAV:   3    -0.176220274099E+04   -0.86909E+03   -0.85628E+03  7200   0.981E+01
DAV:   4    -0.179175195043E+04   -0.29549E+02   -0.29316E+02  8556   0.186E+01
DAV:   5    -0.179275897981E+04   -0.10070E+01   -0.10049E+01  8388   0.301E+00    0.547E+01
DAV:   6    -0.166556113571E+04    0.12720E+03   -0.17789E+02  7308   0.143E+01    0.291E+01
DAV:   7    -0.163529620966E+04    0.30265E+02   -0.11352E+02  7680   0.110E+01    0.883E+00
DAV:   8    -0.163433467146E+04    0.96154E+00   -0.93933E+00  7764   0.379E+00    0.326E+00
DAV:   9    -0.163391591999E+04    0.41875E+00   -0.12459E+00  7656   0.131E+00    0.115E+00
DAV:  10    -0.163386274883E+04    0.53171E-01   -0.17352E-01  8160   0.459E-01    0.648E-01
DAV:  11    -0.163380653799E+04    0.56211E-01   -0.93312E-02  7476   0.299E-01    0.298E-01
DAV:  12    -0.163380373491E+04    0.28031E-02   -0.37472E-02  7644   0.192E-01    0.212E-01
DAV:  13    -0.163382687692E+04   -0.23142E-01   -0.22866E-02  7212   0.138E-01    0.115E-01
DAV:  14    -0.163384325754E+04   -0.16381E-01   -0.47314E-03  7224   0.857E-02    0.666E-02
DAV:  15    -0.163385164235E+04   -0.83848E-02   -0.16469E-03  7440   0.521E-02    0.473E-02
DAV:  16    -0.163386138448E+04   -0.97421E-02   -0.10291E-03  7548   0.324E-02    0.240E-02
DAV:  17    -0.163386719152E+04   -0.58070E-02   -0.36220E-04  7404   0.174E-02    0.151E-02
DAV:  18    -0.163387054032E+04   -0.33488E-02   -0.18998E-04  7644   0.113E-02    0.101E-02
DAV:  19    -0.163387305790E+04   -0.25176E-02   -0.16377E-04  7500   0.867E-03    0.544E-03
DAV:  20    -0.163387392507E+04   -0.86717E-03   -0.31275E-05  7560   0.393E-03    0.359E-03
DAV:  21    -0.163387452069E+04   -0.59562E-03   -0.16481E-05  6768   0.280E-03    0.187E-03
DAV:  22    -0.163387476877E+04   -0.24808E-03   -0.56228E-06  6696   0.151E-03    0.105E-03
DAV:  23    -0.163387488228E+04   -0.11351E-03   -0.19804E-06  5784   0.901E-04    0.463E-04
DAV:  24    -0.163387491068E+04   -0.28394E-04   -0.34669E-07  5556   0.442E-04    0.226E-04
DAV:  25    -0.163387492057E+04   -0.98918E-05   -0.61815E-08  4992   0.243E-04    0.918E-05
DAV:  26    -0.163387492368E+04   -0.31138E-05   -0.15556E-08  4680   0.140E-04    0.474E-05
DAV:  27    -0.163387492467E+04   -0.98613E-06    0.12551E-08  4524   0.769E-05
   1 F= -.16658333E+04 E0= -.16657610E+04  d E =-.144563E+00
