 running   42 mpi-ranks, on    1 nodes
 distrk:  each k-point on   42 cores,    1 groups
 distr:  one band on    7 cores,    6 groups
 vasp.6.5.0 16Dec24 (build Jan 08 2025 16:17:04) complex                        
  
 POSCAR found type information on POSCAR B H 
 POSCAR found :  2 types and     162 ions
 Reading from existing POTCAR
 scaLAPACK will be used
 Reading from existing POTCAR
 LDA part: xc-table for (Slater+PW92), standard interpolation
 POSCAR, INCAR and KPOINTS ok, starting setup
 FFT: planning ... GRIDC
 FFT: planning ... GRID_SOFT
 FFT: planning ... GRID
 WAVECAR not read
 entering main loop
       N       E                     dE             d eps       ncg     rms          rms(c)
DAV:   1     0.331490577664E+04    0.33149E+04   -0.13792E+05  3744   0.108E+03
DAV:   2    -0.408986136370E+03   -0.37239E+04   -0.36000E+04  5244   0.229E+02
DAV:   3    -0.100411041112E+04   -0.59512E+03   -0.58978E+03  4404   0.986E+01
DAV:   4    -0.102326957294E+04   -0.19159E+02   -0.19029E+02  4416   0.198E+01
DAV:   5    -0.102379050750E+04   -0.52093E+00   -0.51959E+00  4704   0.292E+00    0.423E+01
DAV:   6    -0.963724830478E+03    0.60066E+02   -0.60069E+01  3972   0.106E+01    0.237E+01
DAV:   7    -0.940421874529E+03    0.23303E+02   -0.71165E+01  4188   0.108E+01    0.486E+00
DAV:   8    -0.940169876283E+03    0.25200E+00   -0.54640E+00  4416   0.352E+00    0.226E+00
DAV:   9    -0.939967150011E+03    0.20273E+00   -0.67633E-01  4500   0.169E+00    0.143E+00
DAV:  10    -0.939787993800E+03    0.17916E+00   -0.53307E-01  4488   0.125E+00    0.714E-01
DAV:  11    -0.939762027144E+03    0.25967E-01   -0.94273E-02  4356   0.597E-01    0.491E-01
DAV:  12    -0.939742052748E+03    0.19974E-01   -0.50724E-02  4392   0.439E-01    0.332E-01
DAV:  13    -0.939726897513E+03    0.15155E-01   -0.85018E-02  4272   0.408E-01    0.218E-01
DAV:  14    -0.939731738016E+03   -0.48405E-02   -0.13658E-02  4368   0.225E-01    0.168E-01
DAV:  15    -0.939744153169E+03   -0.12415E-01   -0.61386E-03  3900   0.145E-01    0.102E-01
DAV:  16    -0.939753828359E+03   -0.96752E-02   -0.51215E-03  4080   0.106E-01    0.712E-02
DAV:  17    -0.939758958766E+03   -0.51304E-02   -0.10668E-03  4248   0.554E-02    0.495E-02
DAV:  18    -0.939772295779E+03   -0.13337E-01   -0.12796E-03  3972   0.459E-02    0.295E-02
DAV:  19    -0.939777284691E+03   -0.49889E-02   -0.31169E-04  4080   0.276E-02    0.200E-02
DAV:  20    -0.939781192333E+03   -0.39076E-02   -0.21833E-04  3996   0.202E-02    0.143E-02
DAV:  21    -0.939784680955E+03   -0.34886E-02   -0.19339E-04  4020   0.154E-02    0.847E-03
DAV:  22    -0.939786081130E+03   -0.14002E-02   -0.56012E-05  4260   0.862E-03    0.595E-03
DAV:  23    -0.939787067944E+03   -0.98681E-03   -0.34230E-05  3900   0.607E-03    0.319E-03
DAV:  24    -0.939787507453E+03   -0.43951E-03   -0.11509E-05  3768   0.343E-03    0.182E-03
DAV:  25    -0.939787706414E+03   -0.19896E-03   -0.38772E-06  3480   0.197E-03    0.897E-04
DAV:  26    -0.939787787338E+03   -0.80924E-04   -0.13837E-06  3216   0.115E-03    0.459E-04
DAV:  27    -0.939787808829E+03   -0.21491E-04   -0.18736E-07  2940   0.524E-04    0.292E-04
DAV:  28    -0.939787821696E+03   -0.12868E-04   -0.14219E-07  2724   0.362E-04    0.139E-04
DAV:  29    -0.939787827509E+03   -0.58127E-05   -0.55487E-08  2736   0.224E-04    0.565E-05
DAV:  30    -0.939787828550E+03   -0.10405E-05    0.37618E-09  2808   0.112E-04    0.333E-05
DAV:  31    -0.939787828967E+03   -0.41693E-06    0.89299E-09  2424   0.709E-05
   1 F= -.95251625E+03 E0= -.95242112E+03  d E =-.190261E+00
