 vasp.6.5.0 16Dec24 (build Jan 08 2025 16:17:04) complex                        
  
 executed on             LinuxIFC date 2026.01.31  07:30:15
 running   42 mpi-ranks, on    1 nodes
 distrk:  each k-point on   42 cores,    1 groups
 distr:  one band on NCORE=   7 cores,    6 groups


--------------------------------------------------------------------------------------------------------


 INCAR:
   SYSTEM = SCF
   PREC = Accurate
   LORBIT = 11
   ENCUT = 600
   LCHARG = .FALSE.
   LWAVE = .FALSE.
   ALGO = Normal
   NELM = 150
   EDIFF = 1E-6
   EDIFFG = -1E-3
   SIGMA = 0.1
   ISMEAR = 0
   NSW = 0
   IBRION = -1
   NCORE = 7
   LREAL = Auto
   GGA = PE
   IVDW = 12
   LDIPOL = .TRUE.
   IDIPOL = 3
   DIPOL = 0.5 0.5 0.200879

 POTCAR:    PAW_PBE B 06Sep2000                   
 POTCAR:    PAW_PBE H 15Jun2001                   
 POTCAR:    PAW_PBE B 06Sep2000                   
   SHA256 =  a32ced30f5ae56fd4d10b4325ff17eb3e4e38ee0f4288bc219fb012fddfa6e97 B/POTCAR              
   COPYR  = (c) Copyright 06Sep2000 Georg Kresse                                                    
   COPYR  = This file is part of the software VASP. Any use, copying, and all other rights are regul
   COPYR  = If you do not have a valid VASP license, you may not use, copy or distribute this file. 
   VRHFIN =B: s2p1                                                                                  
   LEXCH  = PE                                                                                      
   EATOM  =    71.1703 eV,    5.2309 Ry                                                             
                                                                                                    
   TITEL  = PAW_PBE B 06Sep2000                                                                     
   LULTRA =        F    use ultrasoft PP ?                                                          
   IUNSCR =        1    unscreen: 0-lin 1-nonlin 2-no                                               
   RPACOR =    1.200    partial core radius                                                         
   POMASS =   10.811; ZVAL   =    3.000    mass and valenz                                          
   RCORE  =    1.700    outmost cutoff radius                                                       
   RWIGS  =    1.710; RWIGS  =    0.905    wigner-seitz radius (au A)                               
   ENMAX  =  318.614; ENMIN  =  238.960 eV                                                          
   ICORE  =        2    local potential                                                             
   LCOR   =        T    correct aug charges                                                         
   LPAW   =        T    paw PP                                                                      
   EAUG   =  535.514                                                                                
   DEXC   =    0.000                                                                                
   RMAX   =    1.732    core radius for proj-oper                                                   
   RAUG   =    1.300    factor for augmentation sphere                                              
   RDEP   =    1.757    radius for radial grids                                                     
   RDEPT  =    1.436    core radius for aug-charge                                                  
                                                                                                    
   Atomic configuration                                                                             
    4 entries                                                                                       
     n  l   j            E        occ.                                                              
     1  0  0.50      -180.5896   2.0000                                                             
     2  0  0.50        -9.4431   2.0000                                                             
     2  1  0.50        -3.6068   1.0000                                                             
     3  2  1.50        -4.0817   0.0000                                                             
   Description                                                                                      
     l       E           TYP  RCUT    TYP  RCUT                                                     
     0     -9.4430752     23  1.500                                                                 
     0      0.8675899     23  1.500                                                                 
     1     -3.6067955     23  1.700                                                                 
     1      6.1086146     23  1.700                                                                 
     2     -4.0817478      7  1.700                                                                 
  local pseudopotential read in
  partial core-charges read in
  partial kinetic energy density read in
  atomic valenz-charges read in
  non local Contribution for L=           0  read in
    real space projection operators read in
  non local Contribution for L=           0  read in
    real space projection operators read in
  non local Contribution for L=           1  read in
    real space projection operators read in
  non local Contribution for L=           1  read in
    real space projection operators read in
    PAW grid and wavefunctions read in
 
   number of l-projection  operators is LMAX  =           4
   number of lm-projection operators is LMMAX =           8
 
 POTCAR:    PAW_PBE H 15Jun2001                   
   SHA256 =  030f79b5d3ab3cf0e668861823c8fb652ff669f3e15e46930bd03bfd63a607b6 H/POTCAR              
   COPYR  = (c) Copyright 15Jun2001 Georg Kresse                                                    
   COPYR  = This file is part of the software VASP. Any use, copying, and all other rights are regul
   COPYR  = If you do not have a valid VASP license, you may not use, copy or distribute this file. 
   VRHFIN =H: ultrasoft test                                                                        
   LEXCH  = PE                                                                                      
   EATOM  =    12.4884 eV,    0.9179 Ry                                                             
                                                                                                    
   TITEL  = PAW_PBE H 15Jun2001                                                                     
   LULTRA =        F    use ultrasoft PP ?                                                          
   IUNSCR =        0    unscreen: 0-lin 1-nonlin 2-no                                               
   RPACOR =    0.000    partial core radius                                                         
   POMASS =    1.000; ZVAL   =    1.000    mass and valenz                                          
   RCORE  =    1.100    outmost cutoff radius                                                       
   RWIGS  =    0.700; RWIGS  =    0.370    wigner-seitz radius (au A)                               
   ENMAX  =  250.000; ENMIN  =  200.000 eV                                                          
   RCLOC  =    0.701    cutoff for local pot                                                        
   LCOR   =        T    correct aug charges                                                         
   LPAW   =        T    paw PP                                                                      
   EAUG   =  400.000                                                                                
   RMAX   =    1.123    core radius for proj-oper                                                   
   RAUG   =    1.200    factor for augmentation sphere                                              
   RDEP   =    1.112    radius for radial grids                                                     
   RDEPT  =    0.926    core radius for aug-charge                                                  
                                                                                                    
   Atomic configuration                                                                             
    2 entries                                                                                       
     n  l   j            E        occ.                                                              
     1  0  0.50        -6.4927   1.0000                                                             
     2  1  0.50        -3.4015   0.0000                                                             
   Description                                                                                      
     l       E           TYP  RCUT    TYP  RCUT                                                     
     0     -6.4927494     23  1.100                                                                 
     0      6.8029130     23  1.100                                                                 
     1     -4.0817478     23  1.100                                                                 
  local pseudopotential read in
  atomic valenz-charges read in
  non local Contribution for L=           0  read in
    real space projection operators read in
  non local Contribution for L=           0  read in
    real space projection operators read in
  non local Contribution for L=           1  read in
    real space projection operators read in
    PAW grid and wavefunctions read in
 
   number of l-projection  operators is LMAX  =           3
   number of lm-projection operators is LMMAX =           5
 
 Optimization of the real space projectors (new method)

 maximal supplied QI-value         = 22.11
 optimisation between [QCUT,QGAM] = [ 12.38, 24.98] = [ 42.93,174.79] Ry 
 Optimized for a Real-space Cutoff    1.03 Angstroem

   l    n(q)    QCUT    max X(q) W(low)/X(q) W(high)/X(q)  e(spline) 
   0      8    12.381    53.033    0.22E-03    0.47E-03    0.92E-07
   0      8    12.381    34.740    0.21E-03    0.46E-03    0.93E-07
   1      7    12.381    30.949    0.11E-03    0.42E-03    0.70E-07
   1      7    12.381    19.518    0.10E-03    0.38E-03    0.67E-07
 Optimization of the real space projectors (new method)

 maximal supplied QI-value         = 34.20
 optimisation between [QCUT,QGAM] = [ 12.31, 24.97] = [ 42.46,174.58] Ry 
 Optimized for a Real-space Cutoff    1.13 Angstroem

   l    n(q)    QCUT    max X(q) W(low)/X(q) W(high)/X(q)  e(spline) 
   0      8    12.313    19.460    0.10E-03    0.25E-03    0.27E-06
   0      8    12.313    12.209    0.92E-04    0.23E-03    0.26E-06
   1      8    12.313     4.655    0.24E-03    0.28E-03    0.15E-06
  PAW_PBE B 06Sep2000                   :
 energy of atom  1       EATOM=  -71.1703
 kinetic energy error for atom=    0.0007 (will be added to EATOM!!)
  PAW_PBE H 15Jun2001                   :
 energy of atom  2       EATOM=  -12.4884
 kinetic energy error for atom=    0.0004 (will be added to EATOM!!)
 
 
 POSCAR: generated by phonopy
  positions in direct lattice
  No initial velocities read in
 IVDW         = 12
 VDW_S6       =    1.0000
 VDW_S8       =    0.7875
 VDW_A1       =    0.4289
 VDW_A2       =    4.4407
 VDW_RADIUS   =   50.2022 A
 VDW_CNRADIUS =   21.1671 A


 exchange-correlation table for PE
   RHO(1)=    0.500       N(1)  =     2000
   RHO(2)=  100.500       N(2)  =     4000
 


--------------------------------------------------------------------------------------------------------


 ion  position               nearest neighbor table
   1  0.174  0.214  0.149- 217 1.65 235 1.66  73 1.68  19 1.73 181 1.76 145 1.76
   2  0.507  0.214  0.149- 218 1.65 236 1.66  74 1.68  20 1.73 182 1.76 146 1.76
   3  0.840  0.214  0.149- 219 1.65 237 1.66  75 1.68  21 1.73 183 1.76 147 1.76
   4  0.174  0.547  0.149- 220 1.65 238 1.66  76 1.68  22 1.73 184 1.76 148 1.76
   5  0.507  0.547  0.149- 221 1.65 239 1.66  77 1.68  23 1.73 185 1.76 149 1.76
   6  0.840  0.547  0.149- 222 1.65 240 1.66  78 1.68  24 1.73 186 1.76 150 1.76
   7  0.174  0.881  0.149- 223 1.65 241 1.66  79 1.68  25 1.73 187 1.76 151 1.76
   8  0.507  0.881  0.149- 224 1.65 242 1.66  80 1.68  26 1.73 188 1.76 152 1.76
   9  0.840  0.881  0.149- 225 1.65 243 1.66  81 1.68  27 1.73 189 1.76 153 1.76
  10  0.174  0.214  0.252- 226 1.65 244 1.66  82 1.68  28 1.73 154 1.76 190 1.76
  11  0.507  0.214  0.252- 227 1.65 245 1.66  83 1.68  29 1.73 155 1.76 191 1.76
  12  0.840  0.214  0.252- 228 1.65 246 1.66  84 1.68  30 1.73 156 1.76 192 1.76
  13  0.174  0.547  0.252- 229 1.65 247 1.66  85 1.68  31 1.73 157 1.76 193 1.76
  14  0.507  0.547  0.252- 230 1.65 248 1.66  86 1.68  32 1.73 158 1.76 194 1.76
  15  0.840  0.547  0.252- 231 1.65 249 1.66  87 1.68  33 1.73 159 1.76 195 1.76
  16  0.174  0.881  0.252- 232 1.65 250 1.66  88 1.68  34 1.73 160 1.76 196 1.76
  17  0.507  0.881  0.252- 233 1.65 251 1.66  89 1.68  35 1.73 161 1.76 197 1.76
  18  0.840  0.881  0.252- 234 1.65 252 1.66  90 1.68  36 1.73 162 1.76 198 1.76
  19  0.160  0.119  0.149- 235 1.65 217 1.66  91 1.68   1 1.73 163 1.76 199 1.76
  20  0.493  0.119  0.149- 236 1.65 218 1.66  92 1.68   2 1.73 164 1.76 200 1.76
  21  0.826  0.119  0.149- 237 1.65 219 1.66  93 1.68   3 1.73 165 1.76 201 1.76
  22  0.160  0.453  0.149- 238 1.65 220 1.66  94 1.68   4 1.73 166 1.76 202 1.76
  23  0.493  0.453  0.149- 239 1.65 221 1.66  95 1.68   5 1.73 167 1.76 203 1.76
  24  0.826  0.453  0.149- 240 1.65 222 1.66  96 1.68   6 1.73 168 1.76 204 1.76
  25  0.160  0.786  0.149- 241 1.65 223 1.66  97 1.68   7 1.73 169 1.76 205 1.76
  26  0.493  0.786  0.149- 242 1.65 224 1.66  98 1.68   8 1.73 170 1.76 206 1.76
  27  0.826  0.786  0.149- 243 1.65 225 1.66  99 1.68   9 1.73 171 1.76 207 1.76
  28  0.160  0.119  0.252- 244 1.65 226 1.66 100 1.68  10 1.73 208 1.76 172 1.76
  29  0.493  0.119  0.252- 245 1.65 227 1.66 101 1.68  11 1.73 209 1.76 173 1.76
  30  0.826  0.119  0.252- 246 1.65 228 1.66 102 1.68  12 1.73 210 1.76 174 1.76
  31  0.160  0.453  0.252- 247 1.65 229 1.66 103 1.68  13 1.73 211 1.76 175 1.76
  32  0.493  0.453  0.252- 248 1.65 230 1.66 104 1.68  14 1.73 212 1.76 176 1.76
  33  0.826  0.453  0.252- 249 1.65 231 1.66 105 1.68  15 1.73 213 1.76 177 1.76
  34  0.160  0.786  0.252- 250 1.65 232 1.66 106 1.68  16 1.73 214 1.76 178 1.76
  35  0.493  0.786  0.252- 251 1.65 233 1.66 107 1.68  17 1.73 215 1.76 179 1.76
  36  0.826  0.786  0.252- 252 1.65 234 1.66 108 1.68  18 1.73 216 1.76 180 1.76
  37  0.328  0.214  0.135- 235 1.64 109 1.69 218 1.71  56 1.73 145 1.78 181 1.92
  38  0.661  0.214  0.135- 236 1.64 110 1.69 219 1.71  57 1.73 146 1.78 182 1.92
  39  0.994  0.214  0.135- 237 1.64 111 1.69 217 1.71  55 1.73 147 1.78 183 1.92
  40  0.328  0.547  0.135- 238 1.64 112 1.69 221 1.71  59 1.73 148 1.78 184 1.92
  41  0.661  0.547  0.135- 239 1.64 113 1.69 222 1.71  60 1.73 149 1.78 185 1.92
  42  0.994  0.547  0.135- 240 1.64 114 1.69 220 1.71  58 1.73 150 1.78 186 1.92
  43  0.328  0.880  0.135- 241 1.64 115 1.69 224 1.71  62 1.73 151 1.78 187 1.92
  44  0.661  0.880  0.135- 242 1.64 116 1.69 225 1.71  63 1.73 152 1.78 188 1.92
  45  0.994  0.880  0.135- 243 1.64 117 1.69 223 1.71  61 1.73 153 1.78 189 1.92
  46  0.328  0.214  0.266- 244 1.64 118 1.69 227 1.71  65 1.73 190 1.78 154 1.92
  47  0.661  0.214  0.266- 245 1.64 119 1.69 228 1.71  66 1.73 191 1.78 155 1.92
  48  0.994  0.214  0.266- 246 1.64 120 1.69 226 1.71  64 1.73 192 1.78 156 1.92
  49  0.328  0.547  0.266- 247 1.64 121 1.69 230 1.71  68 1.73 193 1.78 157 1.92
  50  0.661  0.547  0.266- 248 1.64 122 1.69 231 1.71  69 1.73 194 1.78 158 1.92
  51  0.994  0.547  0.266- 249 1.64 123 1.69 229 1.71  67 1.73 195 1.78 159 1.92
  52  0.328  0.880  0.266- 250 1.64 124 1.69 233 1.71  71 1.73 196 1.78 160 1.92
  53  0.661  0.880  0.266- 251 1.64 125 1.69 234 1.71  72 1.73 197 1.78 161 1.92
  54  0.994  0.880  0.266- 252 1.64 126 1.69 232 1.71  70 1.73 198 1.78 162 1.92
  55  0.006  0.120  0.135- 217 1.64 127 1.69 237 1.71  39 1.73 199 1.78 163 1.92
  56  0.339  0.120  0.135- 218 1.64 128 1.69 235 1.71  37 1.73 200 1.78 164 1.92
  57  0.672  0.120  0.135- 219 1.64 129 1.69 236 1.71  38 1.73 201 1.78 165 1.92
  58  0.006  0.453  0.135- 220 1.64 130 1.69 240 1.71  42 1.73 202 1.78 166 1.92
  59  0.339  0.453  0.135- 221 1.64 131 1.69 238 1.71  40 1.73 203 1.78 167 1.92
  60  0.672  0.453  0.135- 222 1.64 132 1.69 239 1.71  41 1.73 204 1.78 168 1.92
  61  0.006  0.786  0.135- 223 1.64 133 1.69 243 1.71  45 1.73 205 1.78 169 1.92
  62  0.339  0.786  0.135- 224 1.64 134 1.69 241 1.71  43 1.73 206 1.78 170 1.92
  63  0.672  0.786  0.135- 225 1.64 135 1.69 242 1.71  44 1.73 207 1.78 171 1.92
  64  0.006  0.120  0.266- 226 1.64 136 1.69 246 1.71  48 1.73 172 1.78 208 1.92
  65  0.339  0.120  0.266- 227 1.64 137 1.69 244 1.71  46 1.73 173 1.78 209 1.92
  66  0.672  0.120  0.266- 228 1.64 138 1.69 245 1.71  47 1.73 174 1.78 210 1.92
  67  0.006  0.453  0.266- 229 1.64 139 1.69 249 1.71  51 1.73 175 1.78 211 1.92
  68  0.339  0.453  0.266- 230 1.64 140 1.69 247 1.71  49 1.73 176 1.78 212 1.92
  69  0.672  0.453  0.266- 231 1.64 141 1.69 248 1.71  50 1.73 177 1.78 213 1.92
  70  0.006  0.786  0.266- 232 1.64 142 1.69 252 1.71  54 1.73 178 1.78 214 1.92
  71  0.339  0.786  0.266- 233 1.64 143 1.69 250 1.71  52 1.73 179 1.78 215 1.92
  72  0.672  0.786  0.266- 234 1.64 144 1.69 251 1.71  53 1.73 180 1.78 216 1.92
  73  0.199  0.300  0.133-  94 1.66   1 1.68 109 1.74 181 1.77 145 1.79
  74  0.532  0.300  0.133-  95 1.66   2 1.68 110 1.73 182 1.76 146 1.80
  75  0.865  0.300  0.133-  96 1.66   3 1.68 111 1.73 183 1.76 147 1.80
  76  0.199  0.633  0.133-  97 1.66   4 1.68 112 1.73 184 1.76 148 1.80
  77  0.532  0.633  0.133-  98 1.66   5 1.68 113 1.73 185 1.76 149 1.80
  78  0.865  0.633  0.133-  99 1.66   6 1.68 114 1.73 186 1.76 150 1.80
  79  0.199  0.966  0.133-  91 1.66   7 1.68 115 1.73 187 1.76 151 1.80
  80  0.532  0.966  0.133-  92 1.66   8 1.68 116 1.73 188 1.76 152 1.80
  81  0.865  0.966  0.133-  93 1.66   9 1.68 117 1.73 189 1.76 153 1.80
  82  0.199  0.300  0.269- 103 1.66  10 1.68 118 1.73 154 1.76 190 1.80
  83  0.532  0.300  0.269- 104 1.66  11 1.68 119 1.73 155 1.76 191 1.80
  84  0.865  0.300  0.269- 105 1.66  12 1.68 120 1.73 156 1.76 192 1.80
  85  0.199  0.633  0.269- 106 1.66  13 1.68 121 1.73 157 1.76 193 1.80
  86  0.532  0.633  0.269- 107 1.66  14 1.68 122 1.73 158 1.76 194 1.80
  87  0.865  0.633  0.269- 108 1.66  15 1.68 123 1.73 159 1.76 195 1.80
  88  0.199  0.966  0.269- 100 1.66  16 1.68 124 1.73 160 1.76 196 1.80
  89  0.532  0.966  0.269- 101 1.66  17 1.68 125 1.73 161 1.76 197 1.80
  90  0.865  0.966  0.269- 102 1.66  18 1.68 126 1.73 162 1.76 198 1.80
  91  0.135  0.034  0.133-  79 1.66  19 1.68 127 1.73 163 1.76 199 1.80
  92  0.468  0.034  0.133-  80 1.66  20 1.68 128 1.73 164 1.76 200 1.80
  93  0.801  0.034  0.133-  81 1.66  21 1.68 129 1.73 165 1.76 201 1.80
  94  0.135  0.367  0.133-  73 1.66  22 1.68 130 1.73 166 1.76 202 1.80
  95  0.468  0.367  0.133-  74 1.66  23 1.68 131 1.73 167 1.76 203 1.80
  96  0.801  0.367  0.133-  75 1.66  24 1.68 132 1.73 168 1.76 204 1.80
  97  0.135  0.700  0.133-  76 1.66  25 1.68 133 1.73 169 1.76 205 1.80
  98  0.468  0.700  0.133-  77 1.66  26 1.68 134 1.73 170 1.76 206 1.80
  99  0.801  0.700  0.133-  78 1.66  27 1.68 135 1.73 171 1.76 207 1.80
 100  0.135  0.034  0.269-  88 1.66  28 1.68 136 1.73 208 1.76 172 1.80
 101  0.468  0.034  0.269-  89 1.66  29 1.68 137 1.73 209 1.76 173 1.80
 102  0.801  0.034  0.269-  90 1.66  30 1.68 138 1.73 210 1.76 174 1.80
 103  0.135  0.367  0.269-  82 1.66  31 1.68 139 1.73 211 1.76 175 1.80
 104  0.468  0.367  0.269-  83 1.66  32 1.68 140 1.73 212 1.76 176 1.80
 105  0.801  0.367  0.269-  84 1.66  33 1.68 141 1.73 213 1.76 177 1.80
 106  0.135  0.700  0.269-  85 1.66  34 1.68 142 1.73 214 1.76 178 1.80
 107  0.468  0.700  0.269-  86 1.66  35 1.68 143 1.73 215 1.76 179 1.80
 108  0.801  0.700  0.269-  87 1.66  36 1.68 144 1.73 216 1.76 180 1.80
 109  0.300  0.299  0.121- 131 1.66  37 1.69  73 1.74 181 1.81 145 1.84
 110  0.633  0.299  0.121- 132 1.66  38 1.69  74 1.73 182 1.81 146 1.84
 111  0.966  0.299  0.121- 130 1.66  39 1.69  75 1.73 183 1.81 147 1.84
 112  0.300  0.632  0.121- 134 1.66  40 1.69  76 1.73 184 1.81 148 1.84
 113  0.633  0.632  0.121- 135 1.66  41 1.69  77 1.73 185 1.81 149 1.84
 114  0.966  0.632  0.121- 133 1.66  42 1.69  78 1.73 186 1.81 150 1.84
 115  0.300  0.965  0.121- 128 1.66  43 1.69  79 1.73 187 1.81 151 1.84
 116  0.633  0.965  0.121- 129 1.66  44 1.69  80 1.73 188 1.81 152 1.84
 117  0.966  0.965  0.121- 127 1.66  45 1.69  81 1.73 189 1.81 153 1.84
 118  0.300  0.299  0.280- 140 1.66  46 1.69  82 1.73 154 1.81 190 1.84
 119  0.633  0.299  0.280- 141 1.66  47 1.69  83 1.73 155 1.81 191 1.84
 120  0.966  0.299  0.280- 139 1.66  48 1.69  84 1.73 156 1.81 192 1.84
 121  0.300  0.632  0.280- 143 1.66  49 1.69  85 1.73 157 1.81 193 1.84
 122  0.633  0.632  0.280- 144 1.66  50 1.69  86 1.73 158 1.81 194 1.84
 123  0.966  0.632  0.280- 142 1.66  51 1.69  87 1.73 159 1.81 195 1.84
 124  0.300  0.965  0.280- 137 1.66  52 1.69  88 1.73 160 1.81 196 1.84
 125  0.633  0.965  0.280- 138 1.66  53 1.69  89 1.73 161 1.81 197 1.84
 126  0.966  0.965  0.280- 136 1.66  54 1.69  90 1.73 162 1.81 198 1.84
 127  0.034  0.035  0.121- 117 1.66  55 1.69  91 1.73 163 1.81 199 1.84
 128  0.367  0.035  0.121- 115 1.66  56 1.69  92 1.73 164 1.81 200 1.84
 129  0.700  0.035  0.121- 116 1.66  57 1.69  93 1.73 165 1.81 201 1.84
 130  0.034  0.368  0.121- 111 1.66  58 1.69  94 1.73 166 1.81 202 1.84
 131  0.367  0.368  0.121- 109 1.66  59 1.69  95 1.73 167 1.81 203 1.84
 132  0.700  0.368  0.121- 110 1.66  60 1.69  96 1.73 168 1.81 204 1.84
 133  0.034  0.701  0.121- 114 1.66  61 1.69  97 1.73 169 1.81 205 1.84
 134  0.367  0.701  0.121- 112 1.66  62 1.69  98 1.73 170 1.81 206 1.84
 135  0.700  0.701  0.121- 113 1.66  63 1.69  99 1.73 171 1.81 207 1.84
 136  0.034  0.035  0.280- 126 1.66  64 1.69 100 1.73 208 1.81 172 1.84
 137  0.367  0.035  0.280- 124 1.66  65 1.69 101 1.73 209 1.81 173 1.84
 138  0.700  0.035  0.280- 125 1.66  66 1.69 102 1.73 210 1.81 174 1.84
 139  0.034  0.368  0.280- 120 1.66  67 1.69 103 1.73 211 1.81 175 1.84
 140  0.367  0.368  0.280- 118 1.66  68 1.69 104 1.73 212 1.81 176 1.84
 141  0.700  0.368  0.280- 119 1.66  69 1.69 105 1.73 213 1.81 177 1.84
 142  0.034  0.701  0.280- 123 1.66  70 1.69 106 1.73 214 1.81 178 1.84
 143  0.367  0.701  0.280- 121 1.66  71 1.69 107 1.73 215 1.81 179 1.84
 144  0.700  0.701  0.280- 122 1.66  72 1.69 108 1.73 216 1.81 180 1.84
 145  0.260  0.255  0.173- 190 1.70   1 1.76  37 1.78  73 1.79 109 1.84 235 1.96
 146  0.594  0.255  0.173- 191 1.70   2 1.76  38 1.78  74 1.80 110 1.84 236 1.96
 147  0.927  0.255  0.173- 192 1.70   3 1.76  39 1.78  75 1.80 111 1.84 237 1.96
 148  0.260  0.589  0.173- 193 1.70   4 1.76  40 1.78  76 1.80 112 1.84 238 1.96
 149  0.594  0.589  0.173- 194 1.70   5 1.76  41 1.78  77 1.80 113 1.84 239 1.96
 150  0.927  0.589  0.173- 195 1.70   6 1.76  42 1.78  78 1.80 114 1.84 240 1.96
 151  0.260  0.922  0.173- 196 1.70   7 1.76  43 1.78  79 1.80 115 1.84 241 1.96
 152  0.594  0.922  0.173- 197 1.70   8 1.76  44 1.78  80 1.80 116 1.84 242 1.96
 153  0.927  0.922  0.173- 198 1.70   9 1.76  45 1.78  81 1.80 117 1.84 243 1.96
 154  0.233  0.226  0.300-  10 1.76  82 1.76 244 1.79 118 1.81  46 1.92
 155  0.566  0.226  0.300-  11 1.76  83 1.76 245 1.79 119 1.81  47 1.92
 156  0.899  0.226  0.300-  12 1.76  84 1.76 246 1.79 120 1.81  48 1.92
 157  0.233  0.559  0.300-  13 1.76  85 1.76 247 1.79 121 1.81  49 1.92
 158  0.566  0.559  0.300-  14 1.76  86 1.76 248 1.79 122 1.81  50 1.92
 159  0.899  0.559  0.300-  15 1.76  87 1.76 249 1.79 123 1.81  51 1.92
 160  0.233  0.892  0.300-  16 1.76  88 1.76 250 1.79 124 1.81  52 1.92
 161  0.566  0.892  0.300-  17 1.76  89 1.76 251 1.79 125 1.81  53 1.92
 162  0.899  0.892  0.300-  18 1.76  90 1.76 252 1.79 126 1.81  54 1.92
 163  0.101  0.108  0.101-  19 1.76  91 1.76 217 1.79 127 1.81  55 1.92
 164  0.434  0.108  0.101-  20 1.76  92 1.76 218 1.79 128 1.81  56 1.92
 165  0.767  0.108  0.101-  21 1.76  93 1.76 219 1.79 129 1.81  57 1.92
 166  0.101  0.441  0.101-  22 1.76  94 1.76 220 1.79 130 1.81  58 1.92
 167  0.434  0.441  0.101-  23 1.76  95 1.76 221 1.79 131 1.81  59 1.92
 168  0.767  0.441  0.101-  24 1.76  96 1.76 222 1.79 132 1.81  60 1.92
 169  0.101  0.774  0.101-  25 1.76  97 1.76 223 1.79 133 1.81  61 1.92
 170  0.434  0.774  0.101-  26 1.76  98 1.76 224 1.79 134 1.81  62 1.92
 171  0.767  0.774  0.101-  27 1.76  99 1.76 225 1.79 135 1.81  63 1.92
 172  0.073  0.078  0.229- 199 1.70  28 1.76  64 1.78 100 1.80 136 1.84 226 1.96
 173  0.406  0.078  0.229- 200 1.70  29 1.76  65 1.78 101 1.80 137 1.84 227 1.96
 174  0.740  0.078  0.229- 201 1.70  30 1.76  66 1.78 102 1.80 138 1.84 228 1.96
 175  0.073  0.411  0.229- 202 1.70  31 1.76  67 1.78 103 1.80 139 1.84 229 1.96
 176  0.406  0.411  0.229- 203 1.70  32 1.76  68 1.78 104 1.80 140 1.84 230 1.96
 177  0.740  0.411  0.229- 204 1.70  33 1.76  69 1.78 105 1.80 141 1.84 231 1.96
 178  0.073  0.745  0.229- 205 1.70  34 1.76  70 1.78 106 1.80 142 1.84 232 1.96
 179  0.406  0.745  0.229- 206 1.70  35 1.76  71 1.78 107 1.80 143 1.84 233 1.96
 180  0.740  0.745  0.229- 207 1.70  36 1.76  72 1.78 108 1.80 144 1.84 234 1.96
 181  0.233  0.226  0.101-   1 1.76  73 1.77 235 1.79 109 1.81  37 1.92
 182  0.566  0.226  0.101-   2 1.76  74 1.76 236 1.79 110 1.81  38 1.92
 183  0.899  0.226  0.101-   3 1.76  75 1.76 237 1.79 111 1.81  39 1.92
 184  0.233  0.559  0.101-   4 1.76  76 1.76 238 1.79 112 1.81  40 1.92
 185  0.566  0.559  0.101-   5 1.76  77 1.76 239 1.79 113 1.81  41 1.92
 186  0.899  0.559  0.101-   6 1.76  78 1.76 240 1.79 114 1.81  42 1.92
 187  0.233  0.892  0.101-   7 1.76  79 1.76 241 1.79 115 1.81  43 1.92
 188  0.566  0.892  0.101-   8 1.76  80 1.76 242 1.79 116 1.81  44 1.92
 189  0.899  0.892  0.101-   9 1.76  81 1.76 243 1.79 117 1.81  45 1.92
 190  0.260  0.255  0.229- 145 1.70  10 1.76  46 1.78  82 1.80 118 1.84 244 1.96
 191  0.594  0.255  0.229- 146 1.70  11 1.76  47 1.78  83 1.80 119 1.84 245 1.96
 192  0.927  0.255  0.229- 147 1.70  12 1.76  48 1.78  84 1.80 120 1.84 246 1.96
 193  0.260  0.589  0.229- 148 1.70  13 1.76  49 1.78  85 1.80 121 1.84 247 1.96
 194  0.594  0.589  0.229- 149 1.70  14 1.76  50 1.78  86 1.80 122 1.84 248 1.96
 195  0.927  0.589  0.229- 150 1.70  15 1.76  51 1.78  87 1.80 123 1.84 249 1.96
 196  0.260  0.922  0.229- 151 1.70  16 1.76  52 1.78  88 1.80 124 1.84 250 1.96
 197  0.594  0.922  0.229- 152 1.70  17 1.76  53 1.78  89 1.80 125 1.84 251 1.96
 198  0.927  0.922  0.229- 153 1.70  18 1.76  54 1.78  90 1.80 126 1.84 252 1.96
 199  0.073  0.078  0.173- 172 1.70  19 1.76  55 1.78  91 1.80 127 1.84 217 1.96
 200  0.406  0.078  0.173- 173 1.70  20 1.76  56 1.78  92 1.80 128 1.84 218 1.96
 201  0.740  0.078  0.173- 174 1.70  21 1.76  57 1.78  93 1.80 129 1.84 219 1.96
 202  0.073  0.411  0.173- 175 1.70  22 1.76  58 1.78  94 1.80 130 1.84 220 1.96
 203  0.406  0.411  0.173- 176 1.70  23 1.76  59 1.78  95 1.80 131 1.84 221 1.96
 204  0.740  0.411  0.173- 177 1.70  24 1.76  60 1.78  96 1.80 132 1.84 222 1.96
 205  0.073  0.745  0.173- 178 1.70  25 1.76  61 1.78  97 1.80 133 1.84 223 1.96
 206  0.406  0.745  0.173- 179 1.70  26 1.76  62 1.78  98 1.80 134 1.84 224 1.96
 207  0.740  0.745  0.173- 180 1.70  27 1.76  63 1.78  99 1.80 135 1.84 225 1.96
 208  0.101  0.108  0.300-  28 1.76 100 1.76 226 1.79 136 1.81  64 1.92
 209  0.434  0.108  0.300-  29 1.76 101 1.76 227 1.79 137 1.81  65 1.92
 210  0.767  0.108  0.300-  30 1.76 102 1.76 228 1.79 138 1.81  66 1.92
 211  0.101  0.441  0.300-  31 1.76 103 1.76 229 1.79 139 1.81  67 1.92
 212  0.434  0.441  0.300-  32 1.76 104 1.76 230 1.79 140 1.81  68 1.92
 213  0.767  0.441  0.300-  33 1.76 105 1.76 231 1.79 141 1.81  69 1.92
 214  0.101  0.774  0.300-  34 1.76 106 1.76 232 1.79 142 1.81  70 1.92
 215  0.434  0.774  0.300-  35 1.76 107 1.76 233 1.79 143 1.81  71 1.92
 216  0.767  0.774  0.300-  36 1.76 108 1.76 234 1.79 144 1.81  72 1.92
 217  0.084  0.174  0.144-  55 1.64   1 1.65  19 1.66  39 1.71 163 1.79 199 1.96
 218  0.417  0.174  0.144-  56 1.64   2 1.65  20 1.66  37 1.71 164 1.79 200 1.96
 219  0.750  0.174  0.144-  57 1.64   3 1.65  21 1.66  38 1.71 165 1.79 201 1.96
 220  0.084  0.508  0.144-  58 1.64   4 1.65  22 1.66  42 1.71 166 1.79 202 1.96
 221  0.417  0.508  0.144-  59 1.64   5 1.65  23 1.66  40 1.71 167 1.79 203 1.96
 222  0.750  0.508  0.144-  60 1.64   6 1.65  24 1.66  41 1.71 168 1.79 204 1.96
 223  0.084  0.841  0.144-  61 1.64   7 1.65  25 1.66  45 1.71 169 1.79 205 1.96
 224  0.417  0.841  0.144-  62 1.64   8 1.65  26 1.66  43 1.71 170 1.79 206 1.96
 225  0.750  0.841  0.144-  63 1.64   9 1.65  27 1.66  44 1.71 171 1.79 207 1.96
 226  0.084  0.174  0.258-  64 1.64  10 1.65  28 1.66  48 1.71 208 1.79 172 1.96
 227  0.417  0.174  0.258-  65 1.64  11 1.65  29 1.66  46 1.71 209 1.79 173 1.96
 228  0.750  0.174  0.258-  66 1.64  12 1.65  30 1.66  47 1.71 210 1.79 174 1.96
 229  0.084  0.508  0.258-  67 1.64  13 1.65  31 1.66  51 1.71 211 1.79 175 1.96
 230  0.417  0.508  0.258-  68 1.64  14 1.65  32 1.66  49 1.71 212 1.79 176 1.96
 231  0.750  0.508  0.258-  69 1.64  15 1.65  33 1.66  50 1.71 213 1.79 177 1.96
 232  0.084  0.841  0.258-  70 1.64  16 1.65  34 1.66  54 1.71 214 1.79 178 1.96
 233  0.417  0.841  0.258-  71 1.64  17 1.65  35 1.66  52 1.71 215 1.79 179 1.96
 234  0.750  0.841  0.258-  72 1.64  18 1.65  36 1.66  53 1.71 216 1.79 180 1.96
 235  0.250  0.159  0.144-  37 1.64  19 1.65   1 1.66  56 1.71 181 1.79 145 1.96
 236  0.583  0.159  0.144-  38 1.64  20 1.65   2 1.66  57 1.71 182 1.79 146 1.96
 237  0.916  0.159  0.144-  39 1.64  21 1.65   3 1.66  55 1.71 183 1.79 147 1.96
 238  0.250  0.492  0.144-  40 1.64  22 1.65   4 1.66  59 1.71 184 1.79 148 1.96
 239  0.583  0.492  0.144-  41 1.64  23 1.65   5 1.66  60 1.71 185 1.79 149 1.96
 240  0.916  0.492  0.144-  42 1.64  24 1.65   6 1.66  58 1.71 186 1.79 150 1.96
 241  0.250  0.826  0.144-  43 1.64  25 1.65   7 1.66  62 1.71 187 1.79 151 1.96
 242  0.583  0.826  0.144-  44 1.64  26 1.65   8 1.66  63 1.71 188 1.79 152 1.96
 243  0.916  0.826  0.144-  45 1.64  27 1.65   9 1.66  61 1.71 189 1.79 153 1.96
 244  0.250  0.159  0.258-  46 1.64  28 1.65  10 1.66  65 1.71 154 1.79 190 1.96
 245  0.583  0.159  0.258-  47 1.64  29 1.65  11 1.66  66 1.71 155 1.79 191 1.96
 246  0.916  0.159  0.258-  48 1.64  30 1.65  12 1.66  64 1.71 156 1.79 192 1.96
 247  0.250  0.492  0.258-  49 1.64  31 1.65  13 1.66  68 1.71 157 1.79 193 1.96
 248  0.583  0.492  0.258-  50 1.64  32 1.65  14 1.66  69 1.71 158 1.79 194 1.96
 249  0.916  0.492  0.258-  51 1.64  33 1.65  15 1.66  67 1.71 159 1.79 195 1.96
 250  0.250  0.826  0.258-  52 1.64  34 1.65  16 1.66  71 1.71 160 1.79 196 1.96
 251  0.583  0.826  0.258-  53 1.64  35 1.65  17 1.66  72 1.71 161 1.79 197 1.96
 252  0.916  0.826  0.258-  54 1.64  36 1.65  18 1.66  70 1.71 162 1.79 198 1.96
 253  0.167  0.167  0.075-
 254  0.500  0.167  0.075-
 255  0.833  0.167  0.075-
 256  0.167  0.500  0.075-
 257  0.500  0.500  0.075-
 258  0.833  0.500  0.075-
 259  0.167  0.833  0.075-
 260  0.500  0.833  0.075-
 261  0.833  0.833  0.075-
 262  0.167  0.167  0.327-
 263  0.500  0.167  0.327-
 264  0.833  0.167  0.327-
 265  0.167  0.500  0.327-
 266  0.500  0.500  0.327-
 267  0.833  0.500  0.327-
 268  0.167  0.833  0.327-
 269  0.500  0.833  0.327-
 270  0.833  0.833  0.327-
 
  LATTYP: Found a simple monoclinic cell.
 ALAT       =    16.8193272821
 B/A-ratio  =     1.7889013122
 C/A-ratio  =     1.0834587613
 COS(beta)  =    -0.0406370190
  
  Lattice vectors:
  
 A1 = (  16.8159717533,  -0.3359526934,   0.0000000000)
 A2 = (   0.0000000000,   0.0000000000, -30.0881166460)
 A3 = (  -0.3766923650,  18.2191537439,   0.0000000000)


Analysis of symmetry for initial positions (statically):
=====================================================================
 Subroutine PRICEL returns:
 Original cell was already a primitive cell.
 

 Routine SETGRP: Setting up the symmetry group for a 
 simple monoclinic supercell.


 Subroutine GETGRP returns: Found  1 space group operations
 (whereof  1 operations were pure point group operations)
 out of a pool of  4 trial point group operations.


The static configuration has the point symmetry C_1 .


Analysis of symmetry for dynamics (positions and initial velocities):
=====================================================================
 Subroutine PRICEL returns:
 Original cell was already a primitive cell.
 

 Routine SETGRP: Setting up the symmetry group for a 
 simple monoclinic supercell.


 Subroutine GETGRP returns: Found  1 space group operations
 (whereof  1 operations were pure point group operations)
 out of a pool of  4 trial point group operations.


The dynamic configuration has the point symmetry C_1 .


 Subroutine INISYM returns: Found  1 space group operations
 (whereof  1 operations are pure point group operations),
 and found     1 'primitive' translations


----------------------------------------------------------------------------------------

                                     Primitive cell                                     

  volume of cell :    9214.3721

  direct lattice vectors                    reciprocal lattice vectors
    16.815971753 -0.335952693  0.000000000     0.059491848  0.001230031  0.000000000
    -0.376692365 18.219153744  0.000000000     0.001097002  0.054909973  0.000000000
     0.000000000  0.000000000 30.088116646     0.000000000  0.000000000  0.033235713

  length of vectors
    16.819327282 18.223047503 30.088116646     0.059504562  0.054920930  0.033235713

  position of ions in fractional coordinates (direct lattice)
     0.173518296  0.213847804  0.149295451
     0.506851629  0.213847804  0.149295451
     0.840184962  0.213847804  0.149295451
     0.173518296  0.547181137  0.149295451
     0.506851629  0.547181137  0.149295451
     0.840184962  0.547181137  0.149295451
     0.173518296  0.880514470  0.149295451
     0.506851629  0.880514470  0.149295451
     0.840184962  0.880514470  0.149295451
     0.173518296  0.213847804  0.252461721
     0.506851629  0.213847804  0.252461721
     0.840184962  0.213847804  0.252461721
     0.173518296  0.547181137  0.252461721
     0.506851629  0.547181137  0.252461721
     0.840184962  0.547181137  0.252461721
     0.173518296  0.880514470  0.252461721
     0.506851629  0.880514470  0.252461721
     0.840184962  0.880514470  0.252461721
     0.159815038  0.119485530  0.149295451
     0.493148371  0.119485530  0.149295451
     0.826481704  0.119485530  0.149295451
     0.159815038  0.452818863  0.149295451
     0.493148371  0.452818863  0.149295451
     0.826481704  0.452818863  0.149295451
     0.159815038  0.786152196  0.149295451
     0.493148371  0.786152196  0.149295451
     0.826481704  0.786152196  0.149295451
     0.159815038  0.119485530  0.252461721
     0.493148371  0.119485530  0.252461721
     0.826481704  0.119485530  0.252461721
     0.159815038  0.452818863  0.252461721
     0.493148371  0.452818863  0.252461721
     0.826481704  0.452818863  0.252461721
     0.159815038  0.786152196  0.252461721
     0.493148371  0.786152196  0.252461721
     0.826481704  0.786152196  0.252461721
     0.327689203  0.213722076  0.135448422
     0.661022536  0.213722076  0.135448422
     0.994355869  0.213722076  0.135448422
     0.327689203  0.547055410  0.135448422
     0.661022536  0.547055410  0.135448422
     0.994355869  0.547055410  0.135448422
     0.327689203  0.880388743  0.135448422
     0.661022536  0.880388743  0.135448422
     0.994355869  0.880388743  0.135448422
     0.327689203  0.213722076  0.266308749
     0.661022536  0.213722076  0.266308749
     0.994355869  0.213722076  0.266308749
     0.327689203  0.547055410  0.266308749
     0.661022536  0.547055410  0.266308749
     0.994355869  0.547055410  0.266308749
     0.327689203  0.880388743  0.266308749
     0.661022536  0.880388743  0.266308749
     0.994355869  0.880388743  0.266308749
     0.005644131  0.119611257  0.135448422
     0.338977464  0.119611257  0.135448422
     0.672310797  0.119611257  0.135448422
     0.005644131  0.452944590  0.135448422
     0.338977464  0.452944590  0.135448422
     0.672310797  0.452944590  0.135448422
     0.005644131  0.786277924  0.135448422
     0.338977464  0.786277924  0.135448422
     0.672310797  0.786277924  0.135448422
     0.005644131  0.119611257  0.266308749
     0.338977464  0.119611257  0.266308749
     0.672310797  0.119611257  0.266308749
     0.005644131  0.452944590  0.266308749
     0.338977464  0.452944590  0.266308749
     0.672310797  0.452944590  0.266308749
     0.005644131  0.786277924  0.266308749
     0.338977464  0.786277924  0.266308749
     0.672310797  0.786277924  0.266308749
     0.198671933  0.299795999  0.133122744
     0.532005266  0.299795999  0.132790387
     0.865338600  0.299795999  0.132790387
     0.198671933  0.633129332  0.132790387
     0.532005266  0.633129332  0.132790387
     0.865338600  0.633129332  0.132790387
     0.198671933  0.966462665  0.132790387
     0.532005266  0.966462665  0.132790387
     0.865338600  0.966462665  0.132790387
     0.198671933  0.299795999  0.268966785
     0.532005266  0.299795999  0.268966785
     0.865338600  0.299795999  0.268966785
     0.198671933  0.633129332  0.268966785
     0.532005266  0.633129332  0.268966785
     0.865338600  0.633129332  0.268966785
     0.198671933  0.966462665  0.268966785
     0.532005266  0.966462665  0.268966785
     0.865338600  0.966462665  0.268966785
     0.134661400  0.033537332  0.132790387
     0.467994734  0.033537332  0.132790387
     0.801328067  0.033537332  0.132790387
     0.134661400  0.366870666  0.132790387
     0.467994734  0.366870666  0.132790387
     0.801328067  0.366870666  0.132790387
     0.134661400  0.700203999  0.132790387
     0.467994734  0.700203999  0.132790387
     0.801328067  0.700203999  0.132790387
     0.134661400  0.033537332  0.268966785
     0.467994734  0.033537332  0.268966785
     0.801328067  0.033537332  0.268966785
     0.134661400  0.366870666  0.268966785
     0.467994734  0.366870666  0.268966785
     0.801328067  0.366870666  0.268966785
     0.134661400  0.700203999  0.268966785
     0.467994734  0.700203999  0.268966785
     0.801328067  0.700203999  0.268966785
     0.299764170  0.298588052  0.121495949
     0.633097503  0.298588052  0.121495949
     0.966430837  0.298588052  0.121495949
     0.299764170  0.631921385  0.121495949
     0.633097503  0.631921385  0.121495949
     0.966430837  0.631921385  0.121495949
     0.299764170  0.965254718  0.121495949
     0.633097503  0.965254718  0.121495949
     0.966430837  0.965254718  0.121495949
     0.299764170  0.298588052  0.280261223
     0.633097503  0.298588052  0.280261223
     0.966430837  0.298588052  0.280261223
     0.299764170  0.631921385  0.280261223
     0.633097503  0.631921385  0.280261223
     0.966430837  0.631921385  0.280261223
     0.299764170  0.965254718  0.280261223
     0.633097503  0.965254718  0.280261223
     0.966430837  0.965254718  0.280261223
     0.033569164  0.034745279  0.121495949
     0.366902497  0.034745279  0.121495949
     0.700235830  0.034745279  0.121495949
     0.033569164  0.368078612  0.121495949
     0.366902497  0.368078612  0.121495949
     0.700235830  0.368078612  0.121495949
     0.033569164  0.701411946  0.121495949
     0.366902497  0.701411946  0.121495949
     0.700235830  0.701411946  0.121495949
     0.033569164  0.034745279  0.280261223
     0.366902497  0.034745279  0.280261223
     0.700235830  0.034745279  0.280261223
     0.033569164  0.368078612  0.280261223
     0.366902497  0.368078612  0.280261223
     0.700235830  0.368078612  0.280261223
     0.033569164  0.701411946  0.280261223
     0.366902497  0.701411946  0.280261223
     0.700235830  0.701411946  0.280261223
     0.260467523  0.255177294  0.172608614
     0.593800857  0.255177294  0.172608614
     0.927134190  0.255177294  0.172608614
     0.260467523  0.588510627  0.172608614
     0.593800857  0.588510627  0.172608614
     0.927134190  0.588510627  0.172608614
     0.260467523  0.921843961  0.172608614
     0.593800857  0.921843961  0.172608614
     0.927134190  0.921843961  0.172608614
     0.232774103  0.225751811  0.300295150
     0.566107437  0.225751811  0.300295150
     0.899440770  0.225751811  0.300295150
     0.232774103  0.559085145  0.300295150
     0.566107437  0.559085145  0.300295150
     0.899440770  0.559085145  0.300295150
     0.232774103  0.892418478  0.300295150
     0.566107437  0.892418478  0.300295150
     0.899440770  0.892418478  0.300295150
     0.100559230  0.107581522  0.101462024
     0.433892563  0.107581522  0.101462024
     0.767225897  0.107581522  0.101462024
     0.100559230  0.440914855  0.101462024
     0.433892563  0.440914855  0.101462024
     0.767225897  0.440914855  0.101462024
     0.100559230  0.774248189  0.101462024
     0.433892563  0.774248189  0.101462024
     0.767225897  0.774248189  0.101462024
     0.072865810  0.078156039  0.229148560
     0.406199143  0.078156039  0.229148560
     0.739532477  0.078156039  0.229148560
     0.072865810  0.411489373  0.229148560
     0.406199143  0.411489373  0.229148560
     0.739532477  0.411489373  0.229148560
     0.072865810  0.744822706  0.229148560
     0.406199143  0.744822706  0.229148560
     0.739532477  0.744822706  0.229148560
     0.232774103  0.225751811  0.101462024
     0.566107437  0.225751811  0.101462024
     0.899440770  0.225751811  0.101462024
     0.232774103  0.559085145  0.101462024
     0.566107437  0.559085145  0.101462024
     0.899440770  0.559085145  0.101462024
     0.232774103  0.892418478  0.101462024
     0.566107437  0.892418478  0.101462024
     0.899440770  0.892418478  0.101462024
     0.260467523  0.255177294  0.229148560
     0.593800857  0.255177294  0.229148560
     0.927134190  0.255177294  0.229148560
     0.260467523  0.588510627  0.229148560
     0.593800857  0.588510627  0.229148560
     0.927134190  0.588510627  0.229148560
     0.260467523  0.921843961  0.229148560
     0.593800857  0.921843961  0.229148560
     0.927134190  0.921843961  0.229148560
     0.072865810  0.078156039  0.172608614
     0.406199143  0.078156039  0.172608614
     0.739532477  0.078156039  0.172608614
     0.072865810  0.411489373  0.172608614
     0.406199143  0.411489373  0.172608614
     0.739532477  0.411489373  0.172608614
     0.072865810  0.744822706  0.172608614
     0.406199143  0.744822706  0.172608614
     0.739532477  0.744822706  0.172608614
     0.100559230  0.107581522  0.300295150
     0.433892563  0.107581522  0.300295150
     0.767225897  0.107581522  0.300295150
     0.100559230  0.440914855  0.300295150
     0.433892563  0.440914855  0.300295150
     0.767225897  0.440914855  0.300295150
     0.100559230  0.774248189  0.300295150
     0.433892563  0.774248189  0.300295150
     0.767225897  0.774248189  0.300295150
     0.083774896  0.174278168  0.143807416
     0.417108229  0.174278168  0.143807416
     0.750441562  0.174278168  0.143807416
     0.083774896  0.507611501  0.143807416
     0.417108229  0.507611501  0.143807416
     0.750441562  0.507611501  0.143807416
     0.083774896  0.840944834  0.143807416
     0.417108229  0.840944834  0.143807416
     0.750441562  0.840944834  0.143807416
     0.083774896  0.174278168  0.257949756
     0.417108229  0.174278168  0.257949756
     0.750441562  0.174278168  0.257949756
     0.083774896  0.507611501  0.257949756
     0.417108229  0.507611501  0.257949756
     0.750441562  0.507611501  0.257949756
     0.083774896  0.840944834  0.257949756
     0.417108229  0.840944834  0.257949756
     0.750441562  0.840944834  0.257949756
     0.249558438  0.159055156  0.143807416
     0.582891771  0.159055156  0.143807416
     0.916225104  0.159055156  0.143807416
     0.249558438  0.492388489  0.143807416
     0.582891771  0.492388489  0.143807416
     0.916225104  0.492388489  0.143807416
     0.249558438  0.825721822  0.143807416
     0.582891771  0.825721822  0.143807416
     0.916225104  0.825721822  0.143807416
     0.249558438  0.159055156  0.257949756
     0.582891771  0.159055156  0.257949756
     0.916225104  0.159055156  0.257949756
     0.249558438  0.492388489  0.257949756
     0.582891771  0.492388489  0.257949756
     0.916225104  0.492388489  0.257949756
     0.249558438  0.825721822  0.257949756
     0.582891771  0.825721822  0.257949756
     0.916225104  0.825721822  0.257949756
     0.166666667  0.166666667  0.075214930
     0.500000000  0.166666667  0.075214930
     0.833333333  0.166666667  0.075214930
     0.166666667  0.500000000  0.075214930
     0.500000000  0.500000000  0.075214930
     0.833333333  0.500000000  0.075214930
     0.166666667  0.833333333  0.075214930
     0.500000000  0.833333333  0.075214930
     0.833333333  0.833333333  0.075214930
     0.166666667  0.166666667  0.326542243
     0.500000000  0.166666667  0.326542243
     0.833333333  0.166666667  0.326542243
     0.166666667  0.500000000  0.326542243
     0.500000000  0.500000000  0.326542243
     0.833333333  0.500000000  0.326542243
     0.166666667  0.833333333  0.326542243
     0.500000000  0.833333333  0.326542243
     0.833333333  0.833333333  0.326542243

  ion indices of the primitive-cell ions
   primitive index   ion index
                 1           1
                 2           2
                 3           3
                 4           4
                 5           5
                 6           6
                 7           7
                 8           8
                 9           9
                10          10
                11          11
                12          12
                13          13
                14          14
                15          15
                16          16
                17          17
                18          18
                19          19
                20          20
                21          21
                22          22
                23          23
                24          24
                25          25
                26          26
                27          27
                28          28
                29          29
                30          30
                31          31
                32          32
                33          33
                34          34
                35          35
                36          36
                37          37
                38          38
                39          39
                40          40
                41          41
                42          42
                43          43
                44          44
                45          45
                46          46
                47          47
                48          48
                49          49
                50          50
                51          51
                52          52
                53          53
                54          54
                55          55
                56          56
                57          57
                58          58
                59          59
                60          60
                61          61
                62          62
                63          63
                64          64
                65          65
                66          66
                67          67
                68          68
                69          69
                70          70
                71          71
                72          72
                73          73
                74          74
                75          75
                76          76
                77          77
                78          78
                79          79
                80          80
                81          81
                82          82
                83          83
                84          84
                85          85
                86          86
                87          87
                88          88
                89          89
                90          90
                91          91
                92          92
                93          93
                94          94
                95          95
                96          96
                97          97
                98          98
                99          99
               100         100
               101         101
               102         102
               103         103
               104         104
               105         105
               106         106
               107         107
               108         108
               109         109
               110         110
               111         111
               112         112
               113         113
               114         114
               115         115
               116         116
               117         117
               118         118
               119         119
               120         120
               121         121
               122         122
               123         123
               124         124
               125         125
               126         126
               127         127
               128         128
               129         129
               130         130
               131         131
               132         132
               133         133
               134         134
               135         135
               136         136
               137         137
               138         138
               139         139
               140         140
               141         141
               142         142
               143         143
               144         144
               145         145
               146         146
               147         147
               148         148
               149         149
               150         150
               151         151
               152         152
               153         153
               154         154
               155         155
               156         156
               157         157
               158         158
               159         159
               160         160
               161         161
               162         162
               163         163
               164         164
               165         165
               166         166
               167         167
               168         168
               169         169
               170         170
               171         171
               172         172
               173         173
               174         174
               175         175
               176         176
               177         177
               178         178
               179         179
               180         180
               181         181
               182         182
               183         183
               184         184
               185         185
               186         186
               187         187
               188         188
               189         189
               190         190
               191         191
               192         192
               193         193
               194         194
               195         195
               196         196
               197         197
               198         198
               199         199
               200         200
               201         201
               202         202
               203         203
               204         204
               205         205
               206         206
               207         207
               208         208
               209         209
               210         210
               211         211
               212         212
               213         213
               214         214
               215         215
               216         216
               217         217
               218         218
               219         219
               220         220
               221         221
               222         222
               223         223
               224         224
               225         225
               226         226
               227         227
               228         228
               229         229
               230         230
               231         231
               232         232
               233         233
               234         234
               235         235
               236         236
               237         237
               238         238
               239         239
               240         240
               241         241
               242         242
               243         243
               244         244
               245         245
               246         246
               247         247
               248         248
               249         249
               250         250
               251         251
               252         252
               253         253
               254         254
               255         255
               256         256
               257         257
               258         258
               259         259
               260         260
               261         261
               262         262
               263         263
               264         264
               265         265
               266         266
               267         267
               268         268
               269         269
               270         270

----------------------------------------------------------------------------------------

 
 
 KPOINTS: k-points                                

Automatic generation of k-mesh.
 Grid dimensions read from file:
 generate k-points for:    4    3    1

 Generating k-lattice:

  Cartesian coordinates                     Fractional coordinates (reciprocal lattice)
     0.014872962  0.000307508  0.000000000     0.250000000  0.000000000  0.000000000
     0.000365667  0.018303324  0.000000000     0.000000000  0.333333333  0.000000000
     0.000000000  0.000000000  0.033235713     0.000000000  0.000000000  1.000000000

  Length of vectors
     0.014876141  0.018306977  0.033235713

  Shift w.r.t. Gamma in fractional coordinates (k-lattice)
     0.500000000  0.000000000  0.000000000

 
 Subroutine IBZKPT returns following result:
 ===========================================
 
 Found      6 irreducible k-points:
 
 Following reciprocal coordinates:
            Coordinates               Weight
  0.125000  0.000000  0.000000      2.000000
  0.375000  0.000000  0.000000      2.000000
  0.125000  0.333333  0.000000      2.000000
  0.375000  0.333333  0.000000      2.000000
 -0.375000  0.333333  0.000000      2.000000
 -0.125000  0.333333  0.000000      2.000000
 
 Following cartesian coordinates:
            Coordinates               Weight
  0.007436  0.000154  0.000000      2.000000
  0.022309  0.000461  0.000000      2.000000
  0.007802  0.018457  0.000000      2.000000
  0.022675  0.018765  0.000000      2.000000
 -0.021944  0.017842  0.000000      2.000000
 -0.007071  0.018150  0.000000      2.000000
 


--------------------------------------------------------------------------------------------------------




 Dimension of arrays:
   k-points           NKPTS =      6   k-points in BZ     NKDIM =      6   number of bands    NBANDS=    528
   number of dos      NEDOS =    301   number of ions     NIONS =    270
   non local maximal  LDIM  =      4   non local SUM 2l+1 LMDIM =      8
   total plane-waves  NPLWV = ******
   max r-space proj   IRMAX =   3331   max aug-charges    IRDMAX=   8728
   dimension x,y,z NGX =   140 NGY =  150 NGZ =  240
   dimension x,y,z NGXF=   280 NGYF=  300 NGZF=  480
   support grid    NGXF=   280 NGYF=  300 NGZF=  480
   ions per type =             252  18
   NGX,Y,Z   is equivalent  to a cutoff of  13.84, 13.68, 13.26 a.u.
   NGXF,Y,Z  is equivalent  to a cutoff of  27.68, 27.37, 26.52 a.u.

 SYSTEM =  SCF                                     
 POSCAR =  generated by phonopy                    

 Startparameter for this run:
   NWRITE =      2    write-flag & timer
   PREC   = accura    normal or accurate (medium, high low for compatibility)
   ISTART =      0    job   : 0-new  1-cont  2-samecut
   ICHARG =      2    charge: 1-file 2-atom 10-const
   ISPIN  =      1    spin polarized calculation?
   LNONCOLLINEAR =      F non collinear calculations
   LSORBIT =      F    spin-orbit coupling
   INIWAV =      1    electr: 0-lowe 1-rand  2-diag
   LASPH  =      F    aspherical Exc in radial PAW
 Electronic Relaxation 1
   ENCUT  =  600.0 eV  44.10 Ry    6.64 a.u.  33.59 36.40 60.09*2*pi/ulx,y,z
   ENINI  =  600.0     initial cutoff
   ENAUG  =  535.5 eV  augmentation charge cutoff
   NELM   =    150;   NELMIN=  2; NELMDL= -5     # of ELM steps 
   EDIFF  = 0.1E-05   stopping-criterion for ELM
   LREAL  =      T    real-space projection
   NLSPLINE    = F    spline interpolate recip. space projectors
   LCOMPAT=      F    compatible to vasp.4.4
   GGA_COMPAT  = T    GGA compatible to vasp.4.4-vasp.4.6
   LMAXPAW     = -100 max onsite density
   LMAXMIX     =    2 max onsite mixed and CHGCAR
   VOSKOWN=      0    Vosko Wilk Nusair interpolation
   ROPT   =   -0.00025  -0.00025
 Ionic relaxation
   EDIFFG = -.1E-02   stopping-criterion for IOM
   NSW    =      0    number of steps for IOM
   NBLOCK =      1;   KBLOCK =      1    inner block; outer block 
   IBRION =     -1    ionic relax: 0-MD 1-quasi-New 2-CG
   NFREE  =      0    steps in history (QN), initial steepest desc. (CG)
   ISIF   =      2    stress and relaxation
   IWAVPR =     10    prediction:  0-non 1-charg 2-wave 3-comb
   ISYM   =      2    0-nonsym 1-usesym 2-fastsym
   LCORR  =      T    Harris-Foulkes like correction to forces

   POTIM  = 0.5000    time-step for ionic-motion
   TEIN   =    0.0    initial temperature
   TEBEG  =    0.0;   TEEND  =   0.0 temperature during run
   SMASS  =  -3.00    Nose mass-parameter (am)
   estimated Nose-frequenzy (Omega)   =  0.10E-29 period in steps = 0.13E+47 mass=  -0.646E-26a.u.
   SCALEE = 1.0000    scale energy and forces
   NPACO  =    256;   APACO  = 10.0  distance and # of slots for P.C.
   PSTRESS=    0.0 pullay stress

  Mass of Ions in am
   POMASS =  10.81  1.00
  Ionic Valenz
   ZVAL   =   3.00  1.00
  Atomic Wigner-Seitz radii
   RWIGS  =  -1.00 -1.00
  virtual crystal weights 
   VCA    =   1.00  1.00
   NELECT =     774.0000    total number of electrons
   NUPDOWN=      -1.0000    fix difference up-down

 DOS related values:
   EMIN   =  10.00;   EMAX   =-10.00  energy-range for DOS
   EFERMI =   0.00;   METHOD = LEGACY      
   ISMEAR =     0;   SIGMA  =   0.10  broadening in eV -4-tet -1-fermi 0-gaus
   EFERMI_NEDOS =   21; number of points for ismear=-14 and -15

 Electronic relaxation 2 (details)
   IALGO  =     38    algorithm
   LDIAG  =      T    sub-space diagonalisation (order eigenvalues)
   LSUBROT=      F    optimize rotation matrix (better conditioning)
   TURBO    =      0    0=normal 1=particle mesh
   IRESTART =      0    0=no restart 2=restart with 2 vectors
   NREBOOT  =      0    no. of reboots
   NMIN     =      0    reboot dimension
   EREF     =   0.00    reference energy to select bands
   IMIX   =      4    mixing-type and parameters
     AMIX     =   0.40;   BMIX     =  1.00
     AMIX_MAG =   1.60;   BMIX_MAG =  1.00
     AMIN     =   0.10
     WC   =   100.;   INIMIX=   1;  MIXPRE=   1;  MAXMIX= -45

 Intra band minimization:
   WEIMIN = 0.0000     energy-eigenvalue tresh-hold
   EBREAK =  0.47E-09  absolut break condition
   DEPER  =   0.30     relativ break condition  

   TIME   =   0.40     timestep for ELM

  volume/ion in A,a.u.               =      34.13       230.30
  Fermi-wavevector in a.u.,A,eV,Ry     =   0.716968  1.354873  6.993985  0.514043
  Thomas-Fermi vector in A             =   1.805526
 
 Write flags
   LWAVE        =      F    write WAVECAR
   LDOWNSAMPLE  =      F    k-point downsampling of WAVECAR
   LCHARG       =      F    write CHGCAR
   LVTOT        =      F    write LOCPOT, total local potential
   LVHAR        =      F    write LOCPOT, Hartree potential only
   WRT_POTENTIAL= false  ! write potential to hdf5 file
   LELF         =      F    write electronic localiz. function (ELF)
   LORBIT       =     11    0 simple, 1 ext, 2 COOP (PROOUT), +10 PAW based schemes


 Python interface
   PLUGINS active      =      F    recompile with -DPLUGINS to activate
 
 Dipole corrections
   LMONO      =      F    monopole corrections only (constant potential shift)
   LDIPOL     =      T    correct potential (dipole corrections)
   IDIPOL     =      3    1-x, 2-y, 3-z, 4-all directions 
   EPSILON    =  1.0000000 bulk dielectric constant
   LVACPOTAV  =      F  vacuum potentials using an averaging scheme for the charge density
   VACPOTFLAT =  0.1000000 required flatness to determine vacuum potential
 
Coulomb truncation method
  LTRUNCATE          =      F  Coulomb kernel truncation to be used
  IDIMENSIONALITY    =      3  Dimensionality of cutoff (0 molecules / 2 surfaces)
  ISURFACE           =     -1  Direction of surface normal
  LCOARSEN           =      F  Coarsen the charge grid before padding, preferred

 
 Exchange correlation treatment:
   GGA     = PE    functional components
   XC_C    = 1    coefficients multiplying the functional components
   LIBXC   =     F    Libxc                    
   VOSKOWN =     0    Vosko Wilk Nusair interpolation
   LHFCALC =     F    Hartree Fock is set to
   LHFONE  =     F    Hartree Fock one center treatment
   AEXX    =    0.0000 exact exchange contribution

 Parameters of functionals:
   PE:
     No parameter
 
 Van der Waals corrections
   IVDW    =    12    specifies the selected vdW correction

 Linear response parameters
   LEPSILON=     F    determine dielectric tensor
   LRPA    =     F    only Hartree local field effects (RPA)
   LNABLA  =     F    use nabla operator in PAW spheres
   LVEL    =     F    velocity operator in full k-point grid
   CSHIFT  =0.1000    complex shift for real part using Kramers Kronig
   OMEGAMAX=  -1.0    maximum frequency
   DEG_THRESHOLD= 0.2000000E-02 threshold for treating states as degnerate
   RTIME   =   -0.100 relaxation time in fs
  (WPLASMAI=    0.000 imaginary part of plasma frequency in eV, 0.658/RTIME)
   DFIELD  = 0.0000000 0.0000000 0.0000000 field for delta impulse in time
 
  Optional k-point grid parameters
   LKPOINTS_OPT  =     F    use optional k-point grid
   KPOINTS_OPT_MODE=     1    mode for optional k-point grid
 
 Orbital magnetization related:
   ORBITALMAG=     F  switch on orbital magnetization
   LCHIMAG   =     F  perturbation theory with respect to B field
   DQ        =  0.001000  dq finite difference perturbation B field
   LLRAUG    =     F  two centre corrections for induced B field
   LBONE     =     F  B-component reconstruction in AE one-centre
   LVGVCALC  =     T  calculate vGv susceptibility
   LVGVAPPL  =     F  apply vGv susceptibility instead of pGv for G=0

 Random number generation:
   RANDOM_GENERATOR = DEFAULT
   PCG_SEED         = not used


--------------------------------------------------------------------------------------------------------


 Static calculation
 charge density and potential will be updated during run
 non-spin polarized calculation
 Variant of blocked Davidson
 Davidson routine will perform the subspace rotation
 perform sub-space diagonalisation
    after iterative eigenvector-optimisation
 modified Broyden-mixing scheme, WC =      100.0
 initial mixing is a Kerker type mixing with AMIX =  0.4000 and BMIX =      1.0000
 Hartree-type preconditioning will be used
 using additional bands          141
 real space projection scheme for non local part
 use partial core corrections
 calculate Harris-corrections to forces 
   (improved forces if not selfconsistent)
 use gradient corrections 
 use of overlap-Matrix (Vanderbilt PP)
 Gauss-broadening in eV      SIGMA  =   0.10


--------------------------------------------------------------------------------------------------------


  energy-cutoff  :      600.00
  volume of cell :     9214.37
      direct lattice vectors                 reciprocal lattice vectors
    16.815971753 -0.335952693  0.000000000     0.059491848  0.001230031  0.000000000
    -0.376692365 18.219153744  0.000000000     0.001097002  0.054909973  0.000000000
     0.000000000  0.000000000 30.088116646     0.000000000  0.000000000  0.033235713

  length of vectors
    16.819327282 18.223047503 30.088116646     0.059504562  0.054920930  0.033235713


 
 k-points in units of 2pi/SCALE and weight: k-points                                
   0.00743648  0.00015375  0.00000000       0.167
   0.02230944  0.00046126  0.00000000       0.167
   0.00780215  0.01845708  0.00000000       0.167
   0.02267511  0.01876459  0.00000000       0.167
  -0.02194378  0.01784206  0.00000000       0.167
  -0.00707081  0.01814957  0.00000000       0.167
 
 k-points in reciprocal lattice and weights: k-points                                
   0.12500000  0.00000000  0.00000000       0.167
   0.37500000  0.00000000  0.00000000       0.167
   0.12500000  0.33333333  0.00000000       0.167
   0.37500000  0.33333333  0.00000000       0.167
  -0.37500000  0.33333333  0.00000000       0.167
  -0.12500000  0.33333333  0.00000000       0.167
 
 position of ions in fractional coordinates (direct lattice) 
   0.17351830  0.21384780  0.14929545
   0.50685163  0.21384780  0.14929545
   0.84018496  0.21384780  0.14929545
   0.17351830  0.54718114  0.14929545
   0.50685163  0.54718114  0.14929545
   0.84018496  0.54718114  0.14929545
   0.17351830  0.88051447  0.14929545
   0.50685163  0.88051447  0.14929545
   0.84018496  0.88051447  0.14929545
   0.17351830  0.21384780  0.25246172
   0.50685163  0.21384780  0.25246172
   0.84018496  0.21384780  0.25246172
   0.17351830  0.54718114  0.25246172
   0.50685163  0.54718114  0.25246172
   0.84018496  0.54718114  0.25246172
   0.17351830  0.88051447  0.25246172
   0.50685163  0.88051447  0.25246172
   0.84018496  0.88051447  0.25246172
   0.15981504  0.11948553  0.14929545
   0.49314837  0.11948553  0.14929545
   0.82648170  0.11948553  0.14929545
   0.15981504  0.45281886  0.14929545
   0.49314837  0.45281886  0.14929545
   0.82648170  0.45281886  0.14929545
   0.15981504  0.78615220  0.14929545
   0.49314837  0.78615220  0.14929545
   0.82648170  0.78615220  0.14929545
   0.15981504  0.11948553  0.25246172
   0.49314837  0.11948553  0.25246172
   0.82648170  0.11948553  0.25246172
   0.15981504  0.45281886  0.25246172
   0.49314837  0.45281886  0.25246172
   0.82648170  0.45281886  0.25246172
   0.15981504  0.78615220  0.25246172
   0.49314837  0.78615220  0.25246172
   0.82648170  0.78615220  0.25246172
   0.32768920  0.21372208  0.13544842
   0.66102254  0.21372208  0.13544842
   0.99435587  0.21372208  0.13544842
   0.32768920  0.54705541  0.13544842
   0.66102254  0.54705541  0.13544842
   0.99435587  0.54705541  0.13544842
   0.32768920  0.88038874  0.13544842
   0.66102254  0.88038874  0.13544842
   0.99435587  0.88038874  0.13544842
   0.32768920  0.21372208  0.26630875
   0.66102254  0.21372208  0.26630875
   0.99435587  0.21372208  0.26630875
   0.32768920  0.54705541  0.26630875
   0.66102254  0.54705541  0.26630875
   0.99435587  0.54705541  0.26630875
   0.32768920  0.88038874  0.26630875
   0.66102254  0.88038874  0.26630875
   0.99435587  0.88038874  0.26630875
   0.00564413  0.11961126  0.13544842
   0.33897746  0.11961126  0.13544842
   0.67231080  0.11961126  0.13544842
   0.00564413  0.45294459  0.13544842
   0.33897746  0.45294459  0.13544842
   0.67231080  0.45294459  0.13544842
   0.00564413  0.78627792  0.13544842
   0.33897746  0.78627792  0.13544842
   0.67231080  0.78627792  0.13544842
   0.00564413  0.11961126  0.26630875
   0.33897746  0.11961126  0.26630875
   0.67231080  0.11961126  0.26630875
   0.00564413  0.45294459  0.26630875
   0.33897746  0.45294459  0.26630875
   0.67231080  0.45294459  0.26630875
   0.00564413  0.78627792  0.26630875
   0.33897746  0.78627792  0.26630875
   0.67231080  0.78627792  0.26630875
   0.19867193  0.29979600  0.13312274
   0.53200527  0.29979600  0.13279039
   0.86533860  0.29979600  0.13279039
   0.19867193  0.63312933  0.13279039
   0.53200527  0.63312933  0.13279039
   0.86533860  0.63312933  0.13279039
   0.19867193  0.96646267  0.13279039
   0.53200527  0.96646267  0.13279039
   0.86533860  0.96646267  0.13279039
   0.19867193  0.29979600  0.26896678
   0.53200527  0.29979600  0.26896678
   0.86533860  0.29979600  0.26896678
   0.19867193  0.63312933  0.26896678
   0.53200527  0.63312933  0.26896678
   0.86533860  0.63312933  0.26896678
   0.19867193  0.96646267  0.26896678
   0.53200527  0.96646267  0.26896678
   0.86533860  0.96646267  0.26896678
   0.13466140  0.03353733  0.13279039
   0.46799473  0.03353733  0.13279039
   0.80132807  0.03353733  0.13279039
   0.13466140  0.36687067  0.13279039
   0.46799473  0.36687067  0.13279039
   0.80132807  0.36687067  0.13279039
   0.13466140  0.70020400  0.13279039
   0.46799473  0.70020400  0.13279039
   0.80132807  0.70020400  0.13279039
   0.13466140  0.03353733  0.26896678
   0.46799473  0.03353733  0.26896678
   0.80132807  0.03353733  0.26896678
   0.13466140  0.36687067  0.26896678
   0.46799473  0.36687067  0.26896678
   0.80132807  0.36687067  0.26896678
   0.13466140  0.70020400  0.26896678
   0.46799473  0.70020400  0.26896678
   0.80132807  0.70020400  0.26896678
   0.29976417  0.29858805  0.12149595
   0.63309750  0.29858805  0.12149595
   0.96643084  0.29858805  0.12149595
   0.29976417  0.63192139  0.12149595
   0.63309750  0.63192139  0.12149595
   0.96643084  0.63192139  0.12149595
   0.29976417  0.96525472  0.12149595
   0.63309750  0.96525472  0.12149595
   0.96643084  0.96525472  0.12149595
   0.29976417  0.29858805  0.28026122
   0.63309750  0.29858805  0.28026122
   0.96643084  0.29858805  0.28026122
   0.29976417  0.63192139  0.28026122
   0.63309750  0.63192139  0.28026122
   0.96643084  0.63192139  0.28026122
   0.29976417  0.96525472  0.28026122
   0.63309750  0.96525472  0.28026122
   0.96643084  0.96525472  0.28026122
   0.03356916  0.03474528  0.12149595
   0.36690250  0.03474528  0.12149595
   0.70023583  0.03474528  0.12149595
   0.03356916  0.36807861  0.12149595
   0.36690250  0.36807861  0.12149595
   0.70023583  0.36807861  0.12149595
   0.03356916  0.70141195  0.12149595
   0.36690250  0.70141195  0.12149595
   0.70023583  0.70141195  0.12149595
   0.03356916  0.03474528  0.28026122
   0.36690250  0.03474528  0.28026122
   0.70023583  0.03474528  0.28026122
   0.03356916  0.36807861  0.28026122
   0.36690250  0.36807861  0.28026122
   0.70023583  0.36807861  0.28026122
   0.03356916  0.70141195  0.28026122
   0.36690250  0.70141195  0.28026122
   0.70023583  0.70141195  0.28026122
   0.26046752  0.25517729  0.17260861
   0.59380086  0.25517729  0.17260861
   0.92713419  0.25517729  0.17260861
   0.26046752  0.58851063  0.17260861
   0.59380086  0.58851063  0.17260861
   0.92713419  0.58851063  0.17260861
   0.26046752  0.92184396  0.17260861
   0.59380086  0.92184396  0.17260861
   0.92713419  0.92184396  0.17260861
   0.23277410  0.22575181  0.30029515
   0.56610744  0.22575181  0.30029515
   0.89944077  0.22575181  0.30029515
   0.23277410  0.55908514  0.30029515
   0.56610744  0.55908514  0.30029515
   0.89944077  0.55908514  0.30029515
   0.23277410  0.89241848  0.30029515
   0.56610744  0.89241848  0.30029515
   0.89944077  0.89241848  0.30029515
   0.10055923  0.10758152  0.10146202
   0.43389256  0.10758152  0.10146202
   0.76722590  0.10758152  0.10146202
   0.10055923  0.44091486  0.10146202
   0.43389256  0.44091486  0.10146202
   0.76722590  0.44091486  0.10146202
   0.10055923  0.77424819  0.10146202
   0.43389256  0.77424819  0.10146202
   0.76722590  0.77424819  0.10146202
   0.07286581  0.07815604  0.22914856
   0.40619914  0.07815604  0.22914856
   0.73953248  0.07815604  0.22914856
   0.07286581  0.41148937  0.22914856
   0.40619914  0.41148937  0.22914856
   0.73953248  0.41148937  0.22914856
   0.07286581  0.74482271  0.22914856
   0.40619914  0.74482271  0.22914856
   0.73953248  0.74482271  0.22914856
   0.23277410  0.22575181  0.10146202
   0.56610744  0.22575181  0.10146202
   0.89944077  0.22575181  0.10146202
   0.23277410  0.55908514  0.10146202
   0.56610744  0.55908514  0.10146202
   0.89944077  0.55908514  0.10146202
   0.23277410  0.89241848  0.10146202
   0.56610744  0.89241848  0.10146202
   0.89944077  0.89241848  0.10146202
   0.26046752  0.25517729  0.22914856
   0.59380086  0.25517729  0.22914856
   0.92713419  0.25517729  0.22914856
   0.26046752  0.58851063  0.22914856
   0.59380086  0.58851063  0.22914856
   0.92713419  0.58851063  0.22914856
   0.26046752  0.92184396  0.22914856
   0.59380086  0.92184396  0.22914856
   0.92713419  0.92184396  0.22914856
   0.07286581  0.07815604  0.17260861
   0.40619914  0.07815604  0.17260861
   0.73953248  0.07815604  0.17260861
   0.07286581  0.41148937  0.17260861
   0.40619914  0.41148937  0.17260861
   0.73953248  0.41148937  0.17260861
   0.07286581  0.74482271  0.17260861
   0.40619914  0.74482271  0.17260861
   0.73953248  0.74482271  0.17260861
   0.10055923  0.10758152  0.30029515
   0.43389256  0.10758152  0.30029515
   0.76722590  0.10758152  0.30029515
   0.10055923  0.44091486  0.30029515
   0.43389256  0.44091486  0.30029515
   0.76722590  0.44091486  0.30029515
   0.10055923  0.77424819  0.30029515
   0.43389256  0.77424819  0.30029515
   0.76722590  0.77424819  0.30029515
   0.08377490  0.17427817  0.14380742
   0.41710823  0.17427817  0.14380742
   0.75044156  0.17427817  0.14380742
   0.08377490  0.50761150  0.14380742
   0.41710823  0.50761150  0.14380742
   0.75044156  0.50761150  0.14380742
   0.08377490  0.84094483  0.14380742
   0.41710823  0.84094483  0.14380742
   0.75044156  0.84094483  0.14380742
   0.08377490  0.17427817  0.25794976
   0.41710823  0.17427817  0.25794976
   0.75044156  0.17427817  0.25794976
   0.08377490  0.50761150  0.25794976
   0.41710823  0.50761150  0.25794976
   0.75044156  0.50761150  0.25794976
   0.08377490  0.84094483  0.25794976
   0.41710823  0.84094483  0.25794976
   0.75044156  0.84094483  0.25794976
   0.24955844  0.15905516  0.14380742
   0.58289177  0.15905516  0.14380742
   0.91622510  0.15905516  0.14380742
   0.24955844  0.49238849  0.14380742
   0.58289177  0.49238849  0.14380742
   0.91622510  0.49238849  0.14380742
   0.24955844  0.82572182  0.14380742
   0.58289177  0.82572182  0.14380742
   0.91622510  0.82572182  0.14380742
   0.24955844  0.15905516  0.25794976
   0.58289177  0.15905516  0.25794976
   0.91622510  0.15905516  0.25794976
   0.24955844  0.49238849  0.25794976
   0.58289177  0.49238849  0.25794976
   0.91622510  0.49238849  0.25794976
   0.24955844  0.82572182  0.25794976
   0.58289177  0.82572182  0.25794976
   0.91622510  0.82572182  0.25794976
   0.16666667  0.16666667  0.07521493
   0.50000000  0.16666667  0.07521493
   0.83333333  0.16666667  0.07521493
   0.16666667  0.50000000  0.07521493
   0.50000000  0.50000000  0.07521493
   0.83333333  0.50000000  0.07521493
   0.16666667  0.83333333  0.07521493
   0.50000000  0.83333333  0.07521493
   0.83333333  0.83333333  0.07521493
   0.16666667  0.16666667  0.32654224
   0.50000000  0.16666667  0.32654224
   0.83333333  0.16666667  0.32654224
   0.16666667  0.50000000  0.32654224
   0.50000000  0.50000000  0.32654224
   0.83333333  0.50000000  0.32654224
   0.16666667  0.83333333  0.32654224
   0.50000000  0.83333333  0.32654224
   0.83333333  0.83333333  0.32654224
 
 position of ions in cartesian coordinates  (Angst):
   2.83732392  3.83783207  4.49201895
   8.44264784  3.72584784  4.49201895
  14.04797176  3.61386361  4.49201895
   2.71175980  9.91088332  4.49201895
   8.31708372  9.79889909  4.49201895
  13.92240764  9.68691486  4.49201895
   2.58619568 15.98393457  4.49201895
   8.19151960 15.87195034  4.49201895
  13.79684352 15.75996611  4.49201895
   2.83732392  3.83783207  7.59609770
   8.44264784  3.72584784  7.59609770
  14.04797176  3.61386361  7.59609770
   2.71175980  9.91088332  7.59609770
   8.31708372  9.79889909  7.59609770
  13.92240764  9.68691486  7.59609770
   2.58619568 15.98393457  7.59609770
   8.19151960 15.87195034  7.59609770
  13.79684352 15.75996611  7.59609770
   2.64243587  2.12323495  4.49201895
   8.24775979  2.01125071  4.49201895
  13.85308371  1.89926648  4.49201895
   2.51687175  8.19628619  4.49201895
   8.12219567  8.08430196  4.49201895
  13.72751959  7.97231773  4.49201895
   2.39130763 14.26933744  4.49201895
   7.99663155 14.15735321  4.49201895
  13.60195546 14.04536898  4.49201895
   2.64243587  2.12323495  7.59609770
   8.24775979  2.01125071  7.59609770
  13.85308371  1.89926648  7.59609770
   2.51687175  8.19628619  7.59609770
   8.12219567  8.08430196  7.59609770
  13.72751959  7.97231773  7.59609770
   2.39130763 14.26933744  7.59609770
   7.99663155 14.15735321  7.59609770
  13.60195546 14.04536898  7.59609770
   5.42990490  3.78374730  4.07538793
  11.03522882  3.67176307  4.07538793
  16.64055274  3.55977883  4.07538793
   5.30434078  9.85679854  4.07538793
  10.90966470  9.74481431  4.07538793
  16.51498861  9.63283008  4.07538793
   5.17877666 15.92984979  4.07538793
  10.78410057 15.81786556  4.07538793
  16.38942449 15.70588133  4.07538793
   5.42990490  3.78374730  8.01272872
  11.03522882  3.67176307  8.01272872
  16.64055274  3.55977883  8.01272872
   5.30434078  9.85679854  8.01272872
  10.90966470  9.74481431  8.01272872
  16.51498861  9.63283008  8.01272872
   5.17877666 15.92984979  8.01272872
  10.78410057 15.81786556  8.01272872
  16.38942449 15.70588133  8.01272872
   0.04985490  2.17731972  4.07538793
   5.65517881  2.06533549  4.07538793
  11.26050273  1.95335126  4.07538793
  -0.07570923  8.25037097  4.07538793
   5.52961469  8.13838674  4.07538793
  11.13493861  8.02640251  4.07538793
  -0.20127335 14.32342222  4.07538793
   5.40405057 14.21143798  4.07538793
  11.00937449 14.09945375  4.07538793
   0.04985490  2.17731972  8.01272872
   5.65517881  2.06533549  8.01272872
  11.26050273  1.95335126  8.01272872
  -0.07570923  8.25037097  8.01272872
   5.52961469  8.13838674  8.01272872
  11.13493861  8.02640251  8.01272872
  -0.20127335 14.32342222  8.01272872
   5.40405057 14.21143798  8.01272872
  11.00937449 14.09945375  8.01272872
   3.22793075  5.39528502  4.00541264
   8.83325467  5.28330079  3.99541264
  14.43857858  5.17131656  3.99541264
   3.10236663 11.46833627  3.99541264
   8.70769054 11.35635204  3.99541264
  14.31301446 11.24436780  3.99541264
   2.97680250 17.54138751  3.99541264
   8.58212642 17.42940328  3.99541264
  14.18745034 17.31741905  3.99541264
   3.22793075  5.39528502  8.09270400
   8.83325467  5.28330079  8.09270400
  14.43857858  5.17131656  8.09270400
   3.10236663 11.46833627  8.09270400
   8.70769054 11.35635204  8.09270400
  14.31301446 11.24436780  8.09270400
   2.97680250 17.54138751  8.09270400
   8.58212642 17.42940328  8.09270400
  14.18745034 17.31741905  8.09270400
   2.25182905  0.56578195  3.99541264
   7.85715297  0.45379772  3.99541264
  13.46247688  0.34181349  3.99541264
   2.12626493  6.63883320  3.99541264
   7.73158885  6.52684897  3.99541264
  13.33691276  6.41486474  3.99541264
   2.00070081 12.71188445  3.99541264
   7.60602472 12.59990022  3.99541264
  13.21134864 12.48791599  3.99541264
   2.25182905  0.56578195  8.09270400
   7.85715297  0.45379772  8.09270400
  13.46247688  0.34181349  8.09270400
   2.12626493  6.63883320  8.09270400
   7.73158885  6.52684897  8.09270400
  13.33691276  6.41486474  8.09270400
   2.00070081 12.71188445  8.09270400
   7.60602472 12.59990022  8.09270400
  13.21134864 12.48791599  8.09270400
   4.92834997  5.33931504  3.65558429
  10.53367389  5.22733081  3.65558429
  16.13899781  5.11534658  3.65558429
   4.80278585 11.41236629  3.65558429
  10.40810977 11.30038206  3.65558429
  16.01343369 11.18839783  3.65558429
   4.67722173 17.48541754  3.65558429
  10.28254565 17.37343331  3.65558429
  15.88786957 17.26144908  3.65558429
   4.92834997  5.33931504  8.43253236
  10.53367389  5.22733081  8.43253236
  16.13899781  5.11534658  8.43253236
   4.80278585 11.41236629  8.43253236
  10.40810977 11.30038206  8.43253236
  16.01343369 11.18839783  8.43253236
   4.67722173 17.48541754  8.43253236
  10.28254565 17.37343331  8.43253236
  15.88786957 17.26144908  8.43253236
   0.55140982  0.62175193  3.65558429
   6.15673374  0.50976770  3.65558429
  11.76205766  0.39778347  3.65558429
   0.42584570  6.69480318  3.65558429
   6.03116962  6.58281895  3.65558429
  11.63649354  6.47083472  3.65558429
   0.30028158 12.76785443  3.65558429
   5.90560550 12.65587019  3.65558429
  11.51092942 12.54388596  3.65558429
   0.55140982  0.62175193  8.43253236
   6.15673374  0.50976770  8.43253236
  11.76205766  0.39778347  8.43253236
   0.42584570  6.69480318  8.43253236
   6.03116962  6.58281895  8.43253236
  11.63649354  6.47083472  8.43253236
   0.30028158 12.76785443  8.43253236
   5.90560550 12.65587019  8.43253236
  11.51092942 12.54388596  8.43253236
   4.28389117  4.56160958  5.19346810
   9.88921509  4.44962535  5.19346810
  15.49453901  4.33764112  5.19346810
   4.15832705 10.63466083  5.19346810
   9.76365097 10.52267660  5.19346810
  15.36897489 10.41069237  5.19346810
   4.03276293 16.70771208  5.19346810
   9.63808685 16.59572785  5.19346810
  15.24341077 16.48374362  5.19346810
   3.82928376  4.03480587  9.03531549
   9.43460768  3.92282164  9.03531549
  15.03993160  3.81083741  9.03531549
   3.70371964 10.10785712  9.03531549
   9.30904356  9.99587289  9.03531549
  14.91436747  9.88388866  9.03531549
   3.57815552 16.18090837  9.03531549
   9.18347944 16.06892413  9.03531549
  14.78880335 15.95693990  9.03531549
   1.65047603  1.92626115  3.05280121
   7.25579995  1.81427692  3.05280121
  12.86112387  1.70229269  3.05280121
   1.52491191  7.99931240  3.05280121
   7.13023583  7.88732816  3.05280121
  12.73555975  7.77534393  3.05280121
   1.39934779 14.07236364  3.05280121
   7.00467171 13.96037941  3.05280121
  12.60999563 13.84839518  3.05280121
   1.19586862  1.39945743  6.89464861
   6.80119254  1.28747320  6.89464861
  12.40651646  1.17548897  6.89464861
   1.07030450  7.47250868  6.89464861
   6.67562842  7.36052445  6.89464861
  12.28095233  7.24854022  6.89464861
   0.94474038 13.54555993  6.89464861
   6.55006430 13.43357570  6.89464861
  12.15538821 13.32159147  6.89464861
   3.82928376  4.03480587  3.05280121
   9.43460768  3.92282164  3.05280121
  15.03993160  3.81083741  3.05280121
   3.70371964 10.10785712  3.05280121
   9.30904356  9.99587289  3.05280121
  14.91436747  9.88388866  3.05280121
   3.57815552 16.18090837  3.05280121
   9.18347944 16.06892413  3.05280121
  14.78880335 15.95693990  3.05280121
   4.28389117  4.56160958  6.89464861
   9.88921509  4.44962535  6.89464861
  15.49453901  4.33764112  6.89464861
   4.15832705 10.63466083  6.89464861
   9.76365097 10.52267660  6.89464861
  15.36897489 10.41069237  6.89464861
   4.03276293 16.70771208  6.89464861
   9.63808685 16.59572785  6.89464861
  15.24341077 16.48374362  6.89464861
   1.19586862  1.39945743  5.19346810
   6.80119254  1.28747320  5.19346810
  12.40651646  1.17548897  5.19346810
   1.07030450  7.47250868  5.19346810
   6.67562842  7.36052445  5.19346810
  12.28095233  7.24854022  5.19346810
   0.94474038 13.54555993  5.19346810
   6.55006430 13.43357570  5.19346810
  12.15538821 13.32159147  5.19346810
   1.65047603  1.92626115  9.03531549
   7.25579995  1.81427692  9.03531549
  12.86112387  1.70229269  9.03531549
   1.52491191  7.99931240  9.03531549
   7.13023583  7.88732816  9.03531549
  12.73555975  7.77534393  9.03531549
   1.39934779 14.07236364  9.03531549
   7.00467171 13.96037941  9.03531549
  12.60999563 13.84839518  9.03531549
   1.34310702  3.14705633  4.32689431
   6.94843094  3.03507210  4.32689431
  12.55375486  2.92308787  4.32689431
   1.21754290  9.22010758  4.32689431
   6.82286682  9.10812335  4.32689431
  12.42819074  8.99613912  4.32689431
   1.09197878 15.29315883  4.32689431
   6.69730270 15.18117460  4.32689431
  12.30262661 15.06919036  4.32689431
   1.34310702  3.14705633  7.76122234
   6.94843094  3.03507210  7.76122234
  12.55375486  2.92308787  7.76122234
   1.21754290  9.22010758  7.76122234
   6.82286682  9.10812335  7.76122234
  12.42819074  8.99613912  7.76122234
   1.09197878 15.29315883  7.76122234
   6.69730270 15.18117460  7.76122234
  12.30262661 15.06919036  7.76122234
   4.13665278  2.81401051  4.32689431
   9.74197669  2.70202627  4.32689431
  15.34730061  2.59004204  4.32689431
   4.01108865  8.88706175  4.32689431
   9.61641257  8.77507752  4.32689431
  15.22173649  8.66309329  4.32689431
   3.88552453 14.96011300  4.32689431
   9.49084845 14.84812877  4.32689431
  15.09617237 14.73614454  4.32689431
   4.13665278  2.81401051  7.76122234
   9.74197669  2.70202627  7.76122234
  15.34730061  2.59004204  7.76122234
   4.01108865  8.88706175  7.76122234
   9.61641257  8.77507752  7.76122234
  15.22173649  8.66309329  7.76122234
   3.88552453 14.96011300  7.76122234
   9.49084845 14.84812877  7.76122234
  15.09617237 14.73614454  7.76122234
   2.73987990  2.98053351  2.26307560
   8.34520382  2.86854928  2.26307560
  13.95052773  2.75656505  2.26307560
   2.61431578  9.05358476  2.26307560
   8.21963969  8.94160053  2.26307560
  13.82496361  8.82961629  2.26307560
   2.48875165 15.12663600  2.26307560
   8.09407557 15.01465177  2.26307560
  13.69939949 14.90266754  2.26307560
   2.73987990  2.98053351  9.82504111
   8.34520382  2.86854928  9.82504111
  13.95052773  2.75656505  9.82504111
   2.61431578  9.05358476  9.82504111
   8.21963969  8.94160053  9.82504111
  13.82496361  8.82961629  9.82504111
   2.48875165 15.12663600  9.82504111
   8.09407557 15.01465177  9.82504111
  13.69939949 14.90266754  9.82504111
 


--------------------------------------------------------------------------------------------------------


 k-point     1 :   0.1250 0.0000 0.0000  plane waves:  307555
 k-point     2 :   0.3750 0.0000 0.0000  plane waves:  307539
 k-point     3 :   0.1250 0.3333 0.0000  plane waves:  307444
 k-point     4 :   0.3750 0.3333 0.0000  plane waves:  307495
 k-point     5 :  -0.3750 0.3333 0.0000  plane waves:  307487
 k-point     6 :  -0.1250 0.3333 0.0000  plane waves:  307465

 maximum and minimum number of plane-waves per node :     43971    43870

 maximum number of plane-waves:    307555
 maximum index in each direction: 
   IXMAX=   33   IYMAX=   36   IZMAX=   60
   IXMIN=  -33   IYMIN=  -36   IZMIN=  -60


 real space projection operators:
  total allocation   :      40704.93 KBytes
  max/ min on nodes  :       5818.38       5811.64


 parallel 3D FFT for wavefunctions:
    minimum data exchange during FFTs selected (reduces bandwidth)
 parallel 3D FFT for charge:
    minimum data exchange during FFTs selected (reduces bandwidth)


 total amount of memory used by VASP MPI-rank0   566661. kBytes
=======================================================================

   base                                    :      30000. kBytes
   nonlr-proj                              :      22360. kBytes
   fftplans                                :      54945. kBytes
   grid                                    :      85464. kBytes
   one-center                              :        119. kBytes
   wavefun                                 :     373773. kBytes
 
     INWAV:  cpu time      0.0000: real time      0.0000
 Broyden mixing: mesh for mixing (old mesh)
   NGX = 67   NGY = 73   NGZ =121
  (NGX  =280   NGY  =300   NGZ  =480)
  gives a total of 591811 points

 initial charge density was supplied:
 charge density of overlapping atoms calculated
 number of electron     774.0000000 magnetization 
 keeping initial charge density in first step


--------------------------------------------------------------------------------------------------------


 Maximum index for non-local projection operator          490
 Maximum index for augmentation-charges          486 (set IRDMAX)


--------------------------------------------------------------------------------------------------------


 First call to EWALD:  gamma=   0.085
 Maximum number of real-space cells   3x   3x   2
 Maximum number of reciprocal cells   2x   2x   4

    FEWALD:  cpu time      0.0329: real time      0.0333


--------------------------------------- Ionic step        1  -------------------------------------------




--------------------------------------- Iteration      1(   1)  ---------------------------------------


    POTLOK:  cpu time      1.0177: real time      1.0276
    SETDIJ:  cpu time      0.0083: real time      0.0083
     EDDAV:  cpu time    245.5885: real time    247.9372
       DOS:  cpu time      0.0017: real time      0.0017
    --------------------------------------------
      LOOP:  cpu time    246.6165: real time    248.9751

 eigenvalue-minimisations  :  6576
 total energy-change (2. order) : 0.6074884E+04  (-0.2926664E+05)
 number of electron     774.0000000 magnetization 
 augmentation part      774.0000000 magnetization 

 DIPCOR: dipole corrections for dipol
 direction  3 min pos   337,
 dipolmoment           0.000000      0.000000     -0.000016 electrons x Angstroem
 Tr[quadrupol]    -40079.373932

 energy correction for charged system         0.000000 eV
 dipol+quadrupol energy correction           -0.000000 eV
 added-field ion interaction          0.000007 eV  (added to PSCEN)


 Free energy of the ion-electron system (eV)
  ---------------------------------------------------
  alpha Z        PSCENC =       489.09711043
  Ewald energy   TEWEN  =    239470.71432049
  -Hartree energ DENC   =   -251534.95244662
  -exchange      EXHF   =         0.00000000
  -V(xc)+E(xc)   XCENC  =      1799.35731739
  PAW double counting   =     11000.37860124   -10784.99777464
  entropy T*S    EENTRO =        -0.34728425
  eigenvalues    EBANDS =     -2523.88946532
  atomic energy  EATOM  =     18159.52318148
  Solvation  Ediel_sol  =         0.00000000
  ---------------------------------------------------
  free energy    TOTEN  =      6074.88356021 eV

  energy without entropy =     6075.23084446  energy(sigma->0) =     6075.05720233


--------------------------------------------------------------------------------------------------------




--------------------------------------- Iteration      1(   2)  ---------------------------------------


     EDDAV:  cpu time    318.1691: real time    320.7491
       DOS:  cpu time      0.0006: real time      0.0006
    --------------------------------------------
      LOOP:  cpu time    318.1698: real time    320.7497

 eigenvalue-minimisations  :  9072
 total energy-change (2. order) :-0.6967995E+04  (-0.6724035E+04)
 number of electron     774.0000000 magnetization 
 augmentation part      774.0000000 magnetization 

 DIPCOR: dipole corrections for dipol
 direction  3 min pos   337,
 dipolmoment           0.000000      0.000000     -0.000016 electrons x Angstroem
 Tr[quadrupol]    -40079.373932

 energy correction for charged system         0.000000 eV
 dipol+quadrupol energy correction           -0.000000 eV
 added-field ion interaction          0.000007 eV  (added to PSCEN)


 Free energy of the ion-electron system (eV)
  ---------------------------------------------------
  alpha Z        PSCENC =       489.09711043
  Ewald energy   TEWEN  =    239470.71432049
  -Hartree energ DENC   =   -251534.95244662
  -exchange      EXHF   =         0.00000000
  -V(xc)+E(xc)   XCENC  =      1799.35731739
  PAW double counting   =     11000.37860124   -10784.99777464
  entropy T*S    EENTRO =        -0.18698302
  eigenvalues    EBANDS =     -9492.04428630
  atomic energy  EATOM  =     18159.52318148
  Solvation  Ediel_sol  =         0.00000000
  ---------------------------------------------------
  free energy    TOTEN  =      -893.11095954 eV

  energy without entropy =     -892.92397652  energy(sigma->0) =     -893.01746803


--------------------------------------------------------------------------------------------------------




--------------------------------------- Iteration      1(   3)  ---------------------------------------


     EDDAV:  cpu time    264.0683: real time    266.1880
       DOS:  cpu time      0.0522: real time      0.0524
    --------------------------------------------
      LOOP:  cpu time    264.1205: real time    266.2403

 eigenvalue-minimisations  :  7200
 total energy-change (2. order) :-0.8690998E+03  (-0.8562905E+03)
 number of electron     774.0000000 magnetization 
 augmentation part      774.0000000 magnetization 

 DIPCOR: dipole corrections for dipol
 direction  3 min pos   337,
 dipolmoment           0.000000      0.000000     -0.000016 electrons x Angstroem
 Tr[quadrupol]    -40079.373932

 energy correction for charged system         0.000000 eV
 dipol+quadrupol energy correction           -0.000000 eV
 added-field ion interaction          0.000007 eV  (added to PSCEN)


 Free energy of the ion-electron system (eV)
  ---------------------------------------------------
  alpha Z        PSCENC =       489.09711043
  Ewald energy   TEWEN  =    239470.71432049
  -Hartree energ DENC   =   -251534.95244662
  -exchange      EXHF   =         0.00000000
  -V(xc)+E(xc)   XCENC  =      1799.35731739
  PAW double counting   =     11000.37860124   -10784.99777464
  entropy T*S    EENTRO =        -0.48048728
  eigenvalues    EBANDS =    -10360.85062433
  atomic energy  EATOM  =     18159.52318148
  Solvation  Ediel_sol  =         0.00000000
  ---------------------------------------------------
  free energy    TOTEN  =     -1762.21080184 eV

  energy without entropy =    -1761.73031455  energy(sigma->0) =    -1761.97055820


--------------------------------------------------------------------------------------------------------




--------------------------------------- Iteration      1(   4)  ---------------------------------------


     EDDAV:  cpu time    303.2997: real time    305.7507
       DOS:  cpu time      0.0006: real time      0.0006
    --------------------------------------------
      LOOP:  cpu time    303.3002: real time    305.7513

 eigenvalue-minimisations  :  8556
 total energy-change (2. order) :-0.2954938E+02  (-0.2931614E+02)
 number of electron     774.0000000 magnetization 
 augmentation part      774.0000000 magnetization 

 DIPCOR: dipole corrections for dipol
 direction  3 min pos   337,
 dipolmoment           0.000000      0.000000     -0.000016 electrons x Angstroem
 Tr[quadrupol]    -40079.373932

 energy correction for charged system         0.000000 eV
 dipol+quadrupol energy correction           -0.000000 eV
 added-field ion interaction          0.000007 eV  (added to PSCEN)


 Free energy of the ion-electron system (eV)
  ---------------------------------------------------
  alpha Z        PSCENC =       489.09711043
  Ewald energy   TEWEN  =    239470.71432049
  -Hartree energ DENC   =   -251534.95244662
  -exchange      EXHF   =         0.00000000
  -V(xc)+E(xc)   XCENC  =      1799.35731739
  PAW double counting   =     11000.37860124   -10784.99777464
  entropy T*S    EENTRO =        -0.50856823
  eigenvalues    EBANDS =    -10390.37192446
  atomic energy  EATOM  =     18159.52318148
  Solvation  Ediel_sol  =         0.00000000
  ---------------------------------------------------
  free energy    TOTEN  =     -1791.76018291 eV

  energy without entropy =    -1791.25161468  energy(sigma->0) =    -1791.50589880


--------------------------------------------------------------------------------------------------------




--------------------------------------- Iteration      1(   5)  ---------------------------------------


     EDDAV:  cpu time    298.4265: real time    300.8826
       DOS:  cpu time      0.0018: real time      0.0018
    CHARGE:  cpu time     15.0807: real time     15.1999
    MIXING:  cpu time      0.0289: real time      0.0291
    --------------------------------------------
      LOOP:  cpu time    313.5376: real time    316.1132

 eigenvalue-minimisations  :  8400
 total energy-change (2. order) :-0.1007268E+01  (-0.1005146E+01)
 number of electron     773.9999998 magnetization 
 augmentation part       -1.5337065 magnetization 

 DIPCOR: dipole corrections for dipol
 direction  3 min pos   337,
 dipolmoment           0.000000      0.000000     -0.000016 electrons x Angstroem
 Tr[quadrupol]    -40079.373932

 energy correction for charged system         0.000000 eV
 dipol+quadrupol energy correction           -0.000000 eV
 added-field ion interaction          0.000007 eV  (added to PSCEN)


 Broyden mixing:
  rms(total) = 0.54682E+01    rms(broyden)= 0.54682E+01
  rms(prec ) = 0.58361E+01
  weight for this iteration     100.00

 Free energy of the ion-electron system (eV)
  ---------------------------------------------------
  alpha Z        PSCENC =       489.09711043
  Ewald energy   TEWEN  =    239470.71432049
  -Hartree energ DENC   =   -251534.95244662
  -exchange      EXHF   =         0.00000000
  -V(xc)+E(xc)   XCENC  =      1799.35731739
  PAW double counting   =     11000.37860124   -10784.99777464
  entropy T*S    EENTRO =        -0.50926398
  eigenvalues    EBANDS =    -10391.37849720
  atomic energy  EATOM  =     18159.52318148
  Solvation  Ediel_sol  =         0.00000000
  ---------------------------------------------------
  free energy    TOTEN  =     -1792.76745140 eV

  energy without entropy =    -1792.25818742  energy(sigma->0) =    -1792.51281941


--------------------------------------------------------------------------------------------------------




--------------------------------------- Iteration      1(   6)  ---------------------------------------


    POTLOK:  cpu time      1.0112: real time      1.0229
    SETDIJ:  cpu time      0.0079: real time      0.0080
     EDDAV:  cpu time    267.0169: real time    269.1834
       DOS:  cpu time      0.0021: real time      0.0021
    CHARGE:  cpu time     15.0681: real time     15.2173
    MIXING:  cpu time      0.0269: real time      0.0270
    --------------------------------------------
      LOOP:  cpu time    283.1331: real time    285.4607

 eigenvalue-minimisations  :  7308
 total energy-change (2. order) : 0.1272073E+03  (-0.1778853E+02)
 number of electron     773.9999997 magnetization 
 augmentation part       -2.1123461 magnetization 

 DIPCOR: dipole corrections for dipol
 direction  3 min pos   337,
 dipolmoment           0.000000      0.000000     -0.012509 electrons x Angstroem
 Tr[quadrupol]    -40109.870080

 energy correction for charged system         0.000000 eV
 dipol+quadrupol energy correction           -0.000002 eV
 added-field ion interaction          0.005043 eV  (added to PSCEN)


 Broyden mixing:
  rms(total) = 0.29116E+01    rms(broyden)= 0.29116E+01
  rms(prec ) = 0.30477E+01
  weight for this iteration     100.00

 eigenvalues of (default mixing * dielectric matrix)
  average eigenvalue GAMMA=   1.8718
  1.8718

 Free energy of the ion-electron system (eV)
  ---------------------------------------------------
  alpha Z        PSCENC =       489.10214553
  Ewald energy   TEWEN  =    239470.71432049
  -Hartree energ DENC   =   -252824.98013184
  -exchange      EXHF   =         0.00000000
  -V(xc)+E(xc)   XCENC  =      1827.35376265
  PAW double counting   =     27654.37619568   -27450.56313354
  entropy T*S    EENTRO =        -0.14344512
  eigenvalues    EBANDS =     -8990.94307129
  atomic energy  EATOM  =     18159.52318148
  Solvation  Ediel_sol  =         0.00000000
  ---------------------------------------------------
  free energy    TOTEN  =     -1665.56017596 eV

  energy without entropy =    -1665.41673084  energy(sigma->0) =    -1665.48845340


--------------------------------------------------------------------------------------------------------




--------------------------------------- Iteration      1(   7)  ---------------------------------------


    POTLOK:  cpu time      0.9970: real time      1.0088
    SETDIJ:  cpu time      0.0088: real time      0.0089
     EDDAV:  cpu time    277.8689: real time    280.0995
       DOS:  cpu time      0.0062: real time      0.0062
    CHARGE:  cpu time     15.0340: real time     15.1783
    MIXING:  cpu time      0.0246: real time      0.0248
    --------------------------------------------
      LOOP:  cpu time    293.9395: real time    296.3264

 eigenvalue-minimisations  :  7680
 total energy-change (2. order) : 0.3026477E+02  (-0.1135297E+02)
 number of electron     773.9999996 magnetization 
 augmentation part       -2.6181105 magnetization 

 DIPCOR: dipole corrections for dipol
 direction  3 min pos   337,
 dipolmoment           0.000000      0.000000     -0.011875 electrons x Angstroem
 Tr[quadrupol]    -40133.440097

 energy correction for charged system         0.000000 eV
 dipol+quadrupol energy correction           -0.000001 eV
 added-field ion interaction          0.004787 eV  (added to PSCEN)


 Broyden mixing:
  rms(total) = 0.88270E+00    rms(broyden)= 0.88270E+00
  rms(prec ) = 0.91835E+00
  weight for this iteration     100.00

 eigenvalues of (default mixing * dielectric matrix)
  average eigenvalue GAMMA=   1.7538
  1.3903  2.1174

 Free energy of the ion-electron system (eV)
  ---------------------------------------------------
  alpha Z        PSCENC =       489.10189001
  Ewald energy   TEWEN  =    239470.71432049
  -Hartree energ DENC   =   -253912.40511205
  -exchange      EXHF   =         0.00000000
  -V(xc)+E(xc)   XCENC  =      1859.99935051
  PAW double counting   =     54927.07749196   -54732.56921034
  entropy T*S    EENTRO =        -0.14575825
  eigenvalues    EBANDS =     -7896.59155954
  atomic energy  EATOM  =     18159.52318148
  Solvation  Ediel_sol  =         0.00000000
  ---------------------------------------------------
  free energy    TOTEN  =     -1635.29540573 eV

  energy without entropy =    -1635.14964748  energy(sigma->0) =    -1635.22252661


--------------------------------------------------------------------------------------------------------




--------------------------------------- Iteration      1(   8)  ---------------------------------------


    POTLOK:  cpu time      1.0132: real time      1.0214
    SETDIJ:  cpu time      0.0086: real time      0.0087
     EDDAV:  cpu time    280.0559: real time    282.3304
       DOS:  cpu time      0.0010: real time      0.0010
    CHARGE:  cpu time     14.8600: real time     14.9660
    MIXING:  cpu time      0.0265: real time      0.0266
    --------------------------------------------
      LOOP:  cpu time    295.9653: real time    298.3542

 eigenvalue-minimisations  :  7764
 total energy-change (2. order) : 0.9617184E+00  (-0.9393945E+00)
 number of electron     773.9999996 magnetization 
 augmentation part       -2.7918580 magnetization 

 DIPCOR: dipole corrections for dipol
 direction  3 min pos   337,
 dipolmoment           0.000000      0.000000     -0.014077 electrons x Angstroem
 Tr[quadrupol]    -40142.948021

 energy correction for charged system         0.000000 eV
 dipol+quadrupol energy correction           -0.000002 eV
 added-field ion interaction          0.005675 eV  (added to PSCEN)


 Broyden mixing:
  rms(total) = 0.32549E+00    rms(broyden)= 0.32549E+00
  rms(prec ) = 0.36369E+00
  weight for this iteration     100.00

 eigenvalues of (default mixing * dielectric matrix)
  average eigenvalue GAMMA=   1.6882
  1.0522  1.5364  2.4759

 Free energy of the ion-electron system (eV)
  ---------------------------------------------------
  alpha Z        PSCENC =       489.10277717
  Ewald energy   TEWEN  =    239470.71432049
  -Hartree energ DENC   =   -254161.64368124
  -exchange      EXHF   =         0.00000000
  -V(xc)+E(xc)   XCENC  =      1867.56425425
  PAW double counting   =     64574.35638547   -64380.63470955
  entropy T*S    EENTRO =        -0.14599747
  eigenvalues    EBANDS =     -7653.17021789
  atomic energy  EATOM  =     18159.52318148
  Solvation  Ediel_sol  =         0.00000000
  ---------------------------------------------------
  free energy    TOTEN  =     -1634.33368730 eV

  energy without entropy =    -1634.18768983  energy(sigma->0) =    -1634.26068856


--------------------------------------------------------------------------------------------------------




--------------------------------------- Iteration      1(   9)  ---------------------------------------


    POTLOK:  cpu time      1.0169: real time      1.0291
    SETDIJ:  cpu time      0.0096: real time      0.0097
     EDDAV:  cpu time    277.3236: real time    279.6677
       DOS:  cpu time      0.0017: real time      0.0017
    CHARGE:  cpu time     14.8567: real time     14.9670
    MIXING:  cpu time      0.0313: real time      0.0316
    --------------------------------------------
      LOOP:  cpu time    293.2398: real time    295.7068

 eigenvalue-minimisations  :  7656
 total energy-change (2. order) : 0.4186986E+00  (-0.1246431E+00)
 number of electron     773.9999996 magnetization 
 augmentation part       -2.7898951 magnetization 

 DIPCOR: dipole corrections for dipol
 direction  3 min pos   337,
 dipolmoment           0.000000      0.000000     -0.008518 electrons x Angstroem
 Tr[quadrupol]    -40152.630903

 energy correction for charged system         0.000000 eV
 dipol+quadrupol energy correction           -0.000001 eV
 added-field ion interaction          0.003434 eV  (added to PSCEN)


 Broyden mixing:
  rms(total) = 0.11463E+00    rms(broyden)= 0.11463E+00
  rms(prec ) = 0.14709E+00
  weight for this iteration     100.00

 eigenvalues of (default mixing * dielectric matrix)
  average eigenvalue GAMMA=   1.5945
  2.3851  1.8519  1.0706  1.0706

 Free energy of the ion-electron system (eV)
  ---------------------------------------------------
  alpha Z        PSCENC =       489.10053740
  Ewald energy   TEWEN  =    239470.71432049
  -Hartree energ DENC   =   -254384.68694154
  -exchange      EXHF   =         0.00000000
  -V(xc)+E(xc)   XCENC  =      1871.69588239
  PAW double counting   =     68461.66712899   -68268.01973279
  entropy T*S    EENTRO =        -0.14528277
  eigenvalues    EBANDS =     -7433.76408234
  atomic energy  EATOM  =     18159.52318148
  Solvation  Ediel_sol  =         0.00000000
  ---------------------------------------------------
  free energy    TOTEN  =     -1633.91498870 eV

  energy without entropy =    -1633.76970592  energy(sigma->0) =    -1633.84234731


--------------------------------------------------------------------------------------------------------




--------------------------------------- Iteration      1(  10)  ---------------------------------------


    POTLOK:  cpu time      1.0078: real time      1.0197
    SETDIJ:  cpu time      0.0083: real time      0.0083
     EDDAV:  cpu time    292.4451: real time    294.8366
       DOS:  cpu time      0.0021: real time      0.0021
    CHARGE:  cpu time     15.0616: real time     15.1902
    MIXING:  cpu time      0.0331: real time      0.0333
    --------------------------------------------
      LOOP:  cpu time    308.5579: real time    311.0902

 eigenvalue-minimisations  :  8160
 total energy-change (2. order) : 0.5314100E-01  (-0.1736001E-01)
 number of electron     773.9999996 magnetization 
 augmentation part       -2.7862107 magnetization 

 DIPCOR: dipole corrections for dipol
 direction  3 min pos   337,
 dipolmoment           0.000000      0.000000     -0.010431 electrons x Angstroem
 Tr[quadrupol]    -40157.760500

 energy correction for charged system         0.000000 eV
 dipol+quadrupol energy correction           -0.000001 eV
 added-field ion interaction          0.004205 eV  (added to PSCEN)


 Broyden mixing:
  rms(total) = 0.64842E-01    rms(broyden)= 0.64842E-01
  rms(prec ) = 0.94371E-01
  weight for this iteration     100.00

 eigenvalues of (default mixing * dielectric matrix)
  average eigenvalue GAMMA=   1.6561
  2.4017  2.4017  0.9805  1.2483  1.2483

 Free energy of the ion-electron system (eV)
  ---------------------------------------------------
  alpha Z        PSCENC =       489.10130824
  Ewald energy   TEWEN  =    239470.71432049
  -Hartree energ DENC   =   -254480.02658611
  -exchange      EXHF   =         0.00000000
  -V(xc)+E(xc)   XCENC  =      1872.47267980
  PAW double counting   =     68348.17059910   -68154.21836724
  entropy T*S    EENTRO =        -0.14490480
  eigenvalues    EBANDS =     -7339.45407864
  atomic energy  EATOM  =     18159.52318148
  Solvation  Ediel_sol  =         0.00000000
  ---------------------------------------------------
  free energy    TOTEN  =     -1633.86184769 eV

  energy without entropy =    -1633.71694289  energy(sigma->0) =    -1633.78939529


--------------------------------------------------------------------------------------------------------




--------------------------------------- Iteration      1(  11)  ---------------------------------------


    POTLOK:  cpu time      1.0042: real time      1.0162
    SETDIJ:  cpu time      0.0089: real time      0.0089
     EDDAV:  cpu time    272.4090: real time    274.6351
       DOS:  cpu time      0.0018: real time      0.0018
    CHARGE:  cpu time     15.0734: real time     15.1980
    MIXING:  cpu time      0.0275: real time      0.0279
    --------------------------------------------
      LOOP:  cpu time    288.5249: real time    290.8880

 eigenvalue-minimisations  :  7476
 total energy-change (2. order) : 0.5619901E-01  (-0.9330930E-02)
 number of electron     773.9999996 magnetization 
 augmentation part       -2.7843272 magnetization 

 DIPCOR: dipole corrections for dipol
 direction  3 min pos   337,
 dipolmoment           0.000000      0.000000     -0.002132 electrons x Angstroem
 Tr[quadrupol]    -40164.471377

 energy correction for charged system         0.000000 eV
 dipol+quadrupol energy correction           -0.000000 eV
 added-field ion interaction          0.000859 eV  (added to PSCEN)


 Broyden mixing:
  rms(total) = 0.29803E-01    rms(broyden)= 0.29803E-01
  rms(prec ) = 0.53020E-01
  weight for this iteration     100.00

 eigenvalues of (default mixing * dielectric matrix)
  average eigenvalue GAMMA=   1.6573
  2.6619  2.6619  1.4801  1.2119  0.9640  0.9640

 Free energy of the ion-electron system (eV)
  ---------------------------------------------------
  alpha Z        PSCENC =       489.09796332
  Ewald energy   TEWEN  =    239470.71432049
  -Hartree energ DENC   =   -254610.86868366
  -exchange      EXHF   =         0.00000000
  -V(xc)+E(xc)   XCENC  =      1873.73396874
  PAW double counting   =     68338.51504345   -68144.37559433
  entropy T*S    EENTRO =        -0.14472636
  eigenvalues    EBANDS =     -7210.00112183
  atomic energy  EATOM  =     18159.52318148
  Solvation  Ediel_sol  =         0.00000000
  ---------------------------------------------------
  free energy    TOTEN  =     -1633.80564869 eV

  energy without entropy =    -1633.66092233  energy(sigma->0) =    -1633.73328551


--------------------------------------------------------------------------------------------------------




--------------------------------------- Iteration      1(  12)  ---------------------------------------


    POTLOK:  cpu time      1.1681: real time      1.1849
    SETDIJ:  cpu time      0.0101: real time      0.0102
     EDDAV:  cpu time    276.3770: real time    278.7541
       DOS:  cpu time      0.0010: real time      0.0010
    CHARGE:  cpu time     15.0755: real time     15.1854
    MIXING:  cpu time      0.0305: real time      0.0308
    --------------------------------------------
      LOOP:  cpu time    292.6622: real time    295.1662

 eigenvalue-minimisations  :  7644
 total energy-change (2. order) : 0.2789576E-02  (-0.3745382E-02)
 number of electron     773.9999996 magnetization 
 augmentation part       -2.7881374 magnetization 

 DIPCOR: dipole corrections for dipol
 direction  3 min pos   337,
 dipolmoment           0.000000      0.000000     -0.005273 electrons x Angstroem
 Tr[quadrupol]    -40168.830087

 energy correction for charged system         0.000000 eV
 dipol+quadrupol energy correction           -0.000000 eV
 added-field ion interaction          0.002126 eV  (added to PSCEN)


 Broyden mixing:
  rms(total) = 0.21221E-01    rms(broyden)= 0.21221E-01
  rms(prec ) = 0.34645E-01
  weight for this iteration     100.00

 eigenvalues of (default mixing * dielectric matrix)
  average eigenvalue GAMMA=   1.7912
  3.6744  2.5194  1.6561  1.6561  0.9437  1.0443  1.0443

 Free energy of the ion-electron system (eV)
  ---------------------------------------------------
  alpha Z        PSCENC =       489.09922941
  Ewald energy   TEWEN  =    239470.71432049
  -Hartree energ DENC   =   -254693.56812505
  -exchange      EXHF   =         0.00000000
  -V(xc)+E(xc)   XCENC  =      1874.32367525
  PAW double counting   =     68240.25973325   -68046.06586597
  entropy T*S    EENTRO =        -0.14460655
  eigenvalues    EBANDS =     -7127.94440141
  atomic energy  EATOM  =     18159.52318148
  Solvation  Ediel_sol  =         0.00000000
  ---------------------------------------------------
  free energy    TOTEN  =     -1633.80285911 eV

  energy without entropy =    -1633.65825257  energy(sigma->0) =    -1633.73055584


--------------------------------------------------------------------------------------------------------




--------------------------------------- Iteration      1(  13)  ---------------------------------------


    POTLOK:  cpu time      1.0183: real time      1.0311
    SETDIJ:  cpu time      0.0083: real time      0.0083
     EDDAV:  cpu time    264.5920: real time    266.8627
       DOS:  cpu time      0.0052: real time      0.0052
    CHARGE:  cpu time     15.1029: real time     15.2122
    MIXING:  cpu time      0.0358: real time      0.0361
    --------------------------------------------
      LOOP:  cpu time    280.7626: real time    283.1556

 eigenvalue-minimisations  :  7272
 total energy-change (2. order) :-0.2319168E-01  (-0.2295011E-02)
 number of electron     773.9999996 magnetization 
 augmentation part       -2.7910267 magnetization 

 DIPCOR: dipole corrections for dipol
 direction  3 min pos   337,
 dipolmoment           0.000000      0.000000      0.006055 electrons x Angstroem
 Tr[quadrupol]    -40173.478254

 energy correction for charged system         0.000000 eV
 dipol+quadrupol energy correction           -0.000000 eV
 added-field ion interaction         -0.002441 eV  (added to PSCEN)


 Broyden mixing:
  rms(total) = 0.11426E-01    rms(broyden)= 0.11426E-01
  rms(prec ) = 0.17608E-01
  weight for this iteration     100.00

 eigenvalues of (default mixing * dielectric matrix)
  average eigenvalue GAMMA=   1.9347
  4.7742  2.5306  2.5306  1.5367  1.1590  0.9337  1.0064  1.0064

 Free energy of the ion-electron system (eV)
  ---------------------------------------------------
  alpha Z        PSCENC =       489.09466243
  Ewald energy   TEWEN  =    239470.71432049
  -Hartree energ DENC   =   -254776.97801233
  -exchange      EXHF   =         0.00000000
  -V(xc)+E(xc)   XCENC  =      1874.78528564
  PAW double counting   =     68203.73203929   -68009.53021025
  entropy T*S    EENTRO =        -0.14457614
  eigenvalues    EBANDS =     -7045.02274138
  atomic energy  EATOM  =     18159.52318148
  Solvation  Ediel_sol  =         0.00000000
  ---------------------------------------------------
  free energy    TOTEN  =     -1633.82605079 eV

  energy without entropy =    -1633.68147464  energy(sigma->0) =    -1633.75376271


--------------------------------------------------------------------------------------------------------




--------------------------------------- Iteration      1(  14)  ---------------------------------------


    POTLOK:  cpu time      1.0118: real time      1.0201
    SETDIJ:  cpu time      0.0093: real time      0.0093
     EDDAV:  cpu time    263.6094: real time    265.8496
       DOS:  cpu time      0.0025: real time      0.0025
    CHARGE:  cpu time     14.8175: real time     14.9387
    MIXING:  cpu time      0.0322: real time      0.0325
    --------------------------------------------
      LOOP:  cpu time    279.4827: real time    281.8526

 eigenvalue-minimisations  :  7224
 total energy-change (2. order) :-0.1663541E-01  (-0.4708100E-03)
 number of electron     773.9999996 magnetization 
 augmentation part       -2.7922747 magnetization 

 DIPCOR: dipole corrections for dipol
 direction  3 min pos   337,
 dipolmoment           0.000000      0.000000     -0.004604 electrons x Angstroem
 Tr[quadrupol]    -40175.657725

 energy correction for charged system         0.000000 eV
 dipol+quadrupol energy correction           -0.000000 eV
 added-field ion interaction          0.001856 eV  (added to PSCEN)


 Broyden mixing:
  rms(total) = 0.66361E-02    rms(broyden)= 0.66361E-02
  rms(prec ) = 0.10116E-01
  weight for this iteration     100.00

 eigenvalues of (default mixing * dielectric matrix)
  average eigenvalue GAMMA=   1.9402
  5.2962  2.7959  2.4794  1.5033  1.5033  1.0597  1.0597  0.9550  0.8092

 Free energy of the ion-electron system (eV)
  ---------------------------------------------------
  alpha Z        PSCENC =       489.09895997
  Ewald energy   TEWEN  =    239470.71432049
  -Hartree energ DENC   =   -254814.16070620
  -exchange      EXHF   =         0.00000000
  -V(xc)+E(xc)   XCENC  =      1874.85068112
  PAW double counting   =     68183.93916519   -67989.75829426
  entropy T*S    EENTRO =        -0.14452037
  eigenvalues    EBANDS =     -7007.90547361
  atomic energy  EATOM  =     18159.52318148
  Solvation  Ediel_sol  =         0.00000000
  ---------------------------------------------------
  free energy    TOTEN  =     -1633.84268619 eV

  energy without entropy =    -1633.69816582  energy(sigma->0) =    -1633.77042601


--------------------------------------------------------------------------------------------------------




--------------------------------------- Iteration      1(  15)  ---------------------------------------


    POTLOK:  cpu time      0.9971: real time      1.0091
    SETDIJ:  cpu time      0.0138: real time      0.0138
     EDDAV:  cpu time    270.6211: real time    272.8862
       DOS:  cpu time      0.0014: real time      0.0014
    CHARGE:  cpu time     15.0408: real time     15.1805
    MIXING:  cpu time      0.0277: real time      0.0279
    --------------------------------------------
      LOOP:  cpu time    286.7019: real time    289.1189

 eigenvalue-minimisations  :  7476
 total energy-change (2. order) :-0.8209942E-02  (-0.1578147E-03)
 number of electron     773.9999996 magnetization 
 augmentation part       -2.7924418 magnetization 

 DIPCOR: dipole corrections for dipol
 direction  3 min pos   337,
 dipolmoment           0.000000      0.000000      0.005440 electrons x Angstroem
 Tr[quadrupol]    -40176.547202

 energy correction for charged system         0.000000 eV
 dipol+quadrupol energy correction           -0.000000 eV
 added-field ion interaction         -0.002193 eV  (added to PSCEN)


 Broyden mixing:
  rms(total) = 0.46889E-02    rms(broyden)= 0.46889E-02
  rms(prec ) = 0.68389E-02
  weight for this iteration     100.00

 eigenvalues of (default mixing * dielectric matrix)
  average eigenvalue GAMMA=   2.0135
  5.8872  3.1946  2.3736  2.3736  1.5443  1.0348  1.0348  1.0871  0.9125  0.6927

 Free energy of the ion-electron system (eV)
  ---------------------------------------------------
  alpha Z        PSCENC =       489.09491030
  Ewald energy   TEWEN  =    239470.71432049
  -Hartree energ DENC   =   -254829.22608862
  -exchange      EXHF   =         0.00000000
  -V(xc)+E(xc)   XCENC  =      1874.83811725
  PAW double counting   =     68180.13323007   -67985.95286601
  entropy T*S    EENTRO =        -0.14448860
  eigenvalues    EBANDS =     -6992.83121249
  atomic energy  EATOM  =     18159.52318148
  Solvation  Ediel_sol  =         0.00000000
  ---------------------------------------------------
  free energy    TOTEN  =     -1633.85089614 eV

  energy without entropy =    -1633.70640754  energy(sigma->0) =    -1633.77865184


--------------------------------------------------------------------------------------------------------




--------------------------------------- Iteration      1(  16)  ---------------------------------------


    POTLOK:  cpu time      1.0073: real time      1.0192
    SETDIJ:  cpu time      0.0097: real time      0.0097
     EDDAV:  cpu time    272.6037: real time    274.8977
       DOS:  cpu time      0.0020: real time      0.0020
    CHARGE:  cpu time     14.8517: real time     14.9975
    MIXING:  cpu time      0.0292: real time      0.0294
    --------------------------------------------
      LOOP:  cpu time    288.5036: real time    290.9555

 eigenvalue-minimisations  :  7548
 total energy-change (2. order) :-0.9625710E-02  (-0.1012729E-03)
 number of electron     773.9999996 magnetization 
 augmentation part       -2.7922066 magnetization 

 DIPCOR: dipole corrections for dipol
 direction  3 min pos   337,
 dipolmoment           0.000000      0.000000      0.002785 electrons x Angstroem
 Tr[quadrupol]    -40177.162087

 energy correction for charged system         0.000000 eV
 dipol+quadrupol energy correction           -0.000000 eV
 added-field ion interaction         -0.001123 eV  (added to PSCEN)


 Broyden mixing:
  rms(total) = 0.23962E-02    rms(broyden)= 0.23962E-02
  rms(prec ) = 0.36770E-02
  weight for this iteration     100.00

 eigenvalues of (default mixing * dielectric matrix)
  average eigenvalue GAMMA=   2.0415
  6.3215  3.6325  2.4205  2.4205  1.4675  1.4675  1.0626  1.0626  0.9831  0.9515
  0.6666

 Free energy of the ion-electron system (eV)
  ---------------------------------------------------
  alpha Z        PSCENC =       489.09598115
  Ewald energy   TEWEN  =    239470.71432049
  -Hartree energ DENC   =   -254840.15960652
  -exchange      EXHF   =         0.00000000
  -V(xc)+E(xc)   XCENC  =      1874.81396339
  PAW double counting   =     68189.73488413   -67995.54543721
  entropy T*S    EENTRO =        -0.14448722
  eigenvalues    EBANDS =     -6981.89332154
  atomic energy  EATOM  =     18159.52318148
  Solvation  Ediel_sol  =         0.00000000
  ---------------------------------------------------
  free energy    TOTEN  =     -1633.86052185 eV

  energy without entropy =    -1633.71603462  energy(sigma->0) =    -1633.78827823


--------------------------------------------------------------------------------------------------------




--------------------------------------- Iteration      1(  17)  ---------------------------------------


    POTLOK:  cpu time      1.0176: real time      1.0295
    SETDIJ:  cpu time      0.0072: real time      0.0073
     EDDAV:  cpu time    268.2184: real time    270.4740
       DOS:  cpu time      0.0028: real time      0.0028
    CHARGE:  cpu time     15.0600: real time     15.2032
    MIXING:  cpu time      0.0343: real time      0.0348
    --------------------------------------------
      LOOP:  cpu time    284.3403: real time    286.7515

 eigenvalue-minimisations  :  7392
 total energy-change (2. order) :-0.5895229E-02  (-0.3750434E-04)
 number of electron     773.9999996 magnetization 
 augmentation part       -2.7923537 magnetization 

 DIPCOR: dipole corrections for dipol
 direction  3 min pos   337,
 dipolmoment           0.000000      0.000000      0.001864 electrons x Angstroem
 Tr[quadrupol]    -40177.333698

 energy correction for charged system         0.000000 eV
 dipol+quadrupol energy correction           -0.000000 eV
 added-field ion interaction         -0.000752 eV  (added to PSCEN)


 Broyden mixing:
  rms(total) = 0.14973E-02    rms(broyden)= 0.14973E-02
  rms(prec ) = 0.23280E-02
  weight for this iteration     100.00

 eigenvalues of (default mixing * dielectric matrix)
  average eigenvalue GAMMA=   2.0669
  6.6268  4.0192  2.5234  2.5234  1.7638  1.5823  1.0885  1.0885  0.9721  0.9665
  0.9665  0.6820

 Free energy of the ion-electron system (eV)
  ---------------------------------------------------
  alpha Z        PSCENC =       489.09635233
  Ewald energy   TEWEN  =    239470.71432049
  -Hartree energ DENC   =   -254844.20167902
  -exchange      EXHF   =         0.00000000
  -V(xc)+E(xc)   XCENC  =      1874.80723247
  PAW double counting   =     68195.47275088   -68001.28519456
  entropy T*S    EENTRO =        -0.14452311
  eigenvalues    EBANDS =     -6977.84885801
  atomic energy  EATOM  =     18159.52318148
  Solvation  Ediel_sol  =         0.00000000
  ---------------------------------------------------
  free energy    TOTEN  =     -1633.86641707 eV

  energy without entropy =    -1633.72189396  energy(sigma->0) =    -1633.79415552


--------------------------------------------------------------------------------------------------------




--------------------------------------- Iteration      1(  18)  ---------------------------------------


    POTLOK:  cpu time      1.0197: real time      1.0357
    SETDIJ:  cpu time      0.0107: real time      0.0108
     EDDAV:  cpu time    275.5187: real time    277.8640
       DOS:  cpu time      0.0007: real time      0.0007
    CHARGE:  cpu time     15.0266: real time     15.1744
    MIXING:  cpu time      0.0387: real time      0.0390
    --------------------------------------------
      LOOP:  cpu time    291.6151: real time    294.1246

 eigenvalue-minimisations  :  7668
 total energy-change (2. order) :-0.3295570E-02  (-0.1859882E-04)
 number of electron     773.9999996 magnetization 
 augmentation part       -2.7923827 magnetization 

 DIPCOR: dipole corrections for dipol
 direction  3 min pos   337,
 dipolmoment           0.000000      0.000000      0.002799 electrons x Angstroem
 Tr[quadrupol]    -40177.436719

 energy correction for charged system         0.000000 eV
 dipol+quadrupol energy correction           -0.000000 eV
 added-field ion interaction         -0.001128 eV  (added to PSCEN)


 Broyden mixing:
  rms(total) = 0.10032E-02    rms(broyden)= 0.10032E-02
  rms(prec ) = 0.14996E-02
  weight for this iteration     100.00

 eigenvalues of (default mixing * dielectric matrix)
  average eigenvalue GAMMA=   2.1598
  7.0464  4.7275  2.9420  2.5059  2.1663  1.4964  1.4802  1.0688  1.0688  0.9993
  0.9993  0.8802  0.6961

 Free energy of the ion-electron system (eV)
  ---------------------------------------------------
  alpha Z        PSCENC =       489.09597541
  Ewald energy   TEWEN  =    239470.71432049
  -Hartree energ DENC   =   -254847.26457947
  -exchange      EXHF   =         0.00000000
  -V(xc)+E(xc)   XCENC  =      1874.81555724
  PAW double counting   =     68193.76676083   -67999.57855077
  entropy T*S    EENTRO =        -0.14452597
  eigenvalues    EBANDS =     -6974.79785188
  atomic energy  EATOM  =     18159.52318148
  Solvation  Ediel_sol  =         0.00000000
  ---------------------------------------------------
  free energy    TOTEN  =     -1633.86971265 eV

  energy without entropy =    -1633.72518668  energy(sigma->0) =    -1633.79744966


--------------------------------------------------------------------------------------------------------




--------------------------------------- Iteration      1(  19)  ---------------------------------------


    POTLOK:  cpu time      0.9874: real time      1.0020
    SETDIJ:  cpu time      0.0105: real time      0.0106
     EDDAV:  cpu time    270.5858: real time    272.8317
       DOS:  cpu time      0.0019: real time      0.0019
    CHARGE:  cpu time     15.0559: real time     15.1767
    MIXING:  cpu time      0.0371: real time      0.0375
    --------------------------------------------
      LOOP:  cpu time    286.6786: real time    289.0604

 eigenvalue-minimisations  :  7476
 total energy-change (2. order) :-0.2556320E-02  (-0.1720837E-04)
 number of electron     773.9999996 magnetization 
 augmentation part       -2.7924273 magnetization 

 DIPCOR: dipole corrections for dipol
 direction  3 min pos   337,
 dipolmoment           0.000000      0.000000      0.001438 electrons x Angstroem
 Tr[quadrupol]    -40177.477488

 energy correction for charged system         0.000000 eV
 dipol+quadrupol energy correction           -0.000000 eV
 added-field ion interaction         -0.000580 eV  (added to PSCEN)


 Broyden mixing:
  rms(total) = 0.53166E-03    rms(broyden)= 0.53166E-03
  rms(prec ) = 0.76107E-03
  weight for this iteration     100.00

 eigenvalues of (default mixing * dielectric matrix)
  average eigenvalue GAMMA=   2.1911
  7.3594  5.2546  3.1431  2.5096  2.3519  1.6511  1.4775  1.1390  1.1390  1.0421
  1.0421  0.9352  0.9352  0.6959

 Free energy of the ion-electron system (eV)
  ---------------------------------------------------
  alpha Z        PSCENC =       489.09652415
  Ewald energy   TEWEN  =    239470.71432049
  -Hartree energ DENC   =   -254849.44934694
  -exchange      EXHF   =         0.00000000
  -V(xc)+E(xc)   XCENC  =      1874.82181682
  PAW double counting   =     68191.29285219   -67997.10482030
  entropy T*S    EENTRO =        -0.14451215
  eigenvalues    EBANDS =     -6972.62228470
  atomic energy  EATOM  =     18159.52318148
  Solvation  Ediel_sol  =         0.00000000
  ---------------------------------------------------
  free energy    TOTEN  =     -1633.87226897 eV

  energy without entropy =    -1633.72775681  energy(sigma->0) =    -1633.80001289


--------------------------------------------------------------------------------------------------------




--------------------------------------- Iteration      1(  20)  ---------------------------------------


    POTLOK:  cpu time      1.0144: real time      1.0300
    SETDIJ:  cpu time      0.0082: real time      0.0083
     EDDAV:  cpu time    272.5712: real time    274.8783
       DOS:  cpu time      0.0014: real time      0.0014
    CHARGE:  cpu time     15.0709: real time     15.1912
    MIXING:  cpu time      0.0402: real time      0.0404
    --------------------------------------------
      LOOP:  cpu time    288.7062: real time    291.1495

 eigenvalue-minimisations  :  7560
 total energy-change (2. order) :-0.9005173E-03  (-0.3395133E-05)
 number of electron     773.9999996 magnetization 
 augmentation part       -2.7924481 magnetization 

 DIPCOR: dipole corrections for dipol
 direction  3 min pos   337,
 dipolmoment           0.000000      0.000000      0.001058 electrons x Angstroem
 Tr[quadrupol]    -40177.474169

 energy correction for charged system         0.000000 eV
 dipol+quadrupol energy correction           -0.000000 eV
 added-field ion interaction         -0.000427 eV  (added to PSCEN)


 Broyden mixing:
  rms(total) = 0.32241E-03    rms(broyden)= 0.32241E-03
  rms(prec ) = 0.45202E-03
  weight for this iteration     100.00

 eigenvalues of (default mixing * dielectric matrix)
  average eigenvalue GAMMA=   2.2516
  7.7168  5.9139  3.3838  2.6351  2.3661  2.1383  1.5468  1.2727  1.0684  1.0684
  1.0593  1.0593  0.9238  0.9238  0.6966

 Free energy of the ion-electron system (eV)
  ---------------------------------------------------
  alpha Z        PSCENC =       489.09667724
  Ewald energy   TEWEN  =    239470.71432049
  -Hartree energ DENC   =   -254850.06282403
  -exchange      EXHF   =         0.00000000
  -V(xc)+E(xc)   XCENC  =      1874.82107799
  PAW double counting   =     68190.74206801   -67996.55415682
  entropy T*S    EENTRO =        -0.14451236
  eigenvalues    EBANDS =     -6972.00900149
  atomic energy  EATOM  =     18159.52318148
  Solvation  Ediel_sol  =         0.00000000
  ---------------------------------------------------
  free energy    TOTEN  =     -1633.87316948 eV

  energy without entropy =    -1633.72865712  energy(sigma->0) =    -1633.80091330


--------------------------------------------------------------------------------------------------------




--------------------------------------- Iteration      1(  21)  ---------------------------------------


    POTLOK:  cpu time      1.0125: real time      1.0247
    SETDIJ:  cpu time      0.0102: real time      0.0104
     EDDAV:  cpu time    250.6179: real time    252.7698
       DOS:  cpu time      0.0007: real time      0.0007
    CHARGE:  cpu time     15.1005: real time     15.2104
    MIXING:  cpu time      0.0336: real time      0.0338
    --------------------------------------------
      LOOP:  cpu time    266.7754: real time    269.0497

 eigenvalue-minimisations  :  6804
 total energy-change (2. order) :-0.5219659E-03  (-0.1365848E-05)
 number of electron     773.9999996 magnetization 
 augmentation part       -2.7924231 magnetization 

 DIPCOR: dipole corrections for dipol
 direction  3 min pos   337,
 dipolmoment           0.000000      0.000000      0.000748 electrons x Angstroem
 Tr[quadrupol]    -40177.468643

 energy correction for charged system         0.000000 eV
 dipol+quadrupol energy correction           -0.000000 eV
 added-field ion interaction         -0.000302 eV  (added to PSCEN)


 Broyden mixing:
  rms(total) = 0.17026E-03    rms(broyden)= 0.17026E-03
  rms(prec ) = 0.23101E-03
  weight for this iteration     100.00

 eigenvalues of (default mixing * dielectric matrix)
  average eigenvalue GAMMA=   2.2726
  8.0435  6.3697  3.6894  2.8048  2.4248  2.2474  1.6064  1.2502  1.2502  1.1405
  1.0548  1.0548  0.6961  0.9242  0.9242  0.8812

 Free energy of the ion-electron system (eV)
  ---------------------------------------------------
  alpha Z        PSCENC =       489.09680218
  Ewald energy   TEWEN  =    239470.71432049
  -Hartree energ DENC   =   -254850.43507617
  -exchange      EXHF   =         0.00000000
  -V(xc)+E(xc)   XCENC  =      1874.81976709
  PAW double counting   =     68190.98054118   -67996.79233561
  entropy T*S    EENTRO =        -0.14451391
  eigenvalues    EBANDS =     -6971.63637817
  atomic energy  EATOM  =     18159.52318148
  Solvation  Ediel_sol  =         0.00000000
  ---------------------------------------------------
  free energy    TOTEN  =     -1633.87369145 eV

  energy without entropy =    -1633.72917754  energy(sigma->0) =    -1633.80143449


--------------------------------------------------------------------------------------------------------




--------------------------------------- Iteration      1(  22)  ---------------------------------------


    POTLOK:  cpu time      1.0299: real time      1.0424
    SETDIJ:  cpu time      0.0082: real time      0.0082
     EDDAV:  cpu time    242.5015: real time    244.5599
       DOS:  cpu time      0.0006: real time      0.0007
    CHARGE:  cpu time     15.0883: real time     15.1992
    MIXING:  cpu time      0.0425: real time      0.0428
    --------------------------------------------
      LOOP:  cpu time    258.6710: real time    260.8531

 eigenvalue-minimisations  :  6504
 total energy-change (2. order) :-0.2052766E-03  (-0.4122768E-06)
 number of electron     773.9999996 magnetization 
 augmentation part       -2.7924213 magnetization 

 DIPCOR: dipole corrections for dipol
 direction  3 min pos   337,
 dipolmoment           0.000000      0.000000      0.000479 electrons x Angstroem
 Tr[quadrupol]    -40177.468400

 energy correction for charged system         0.000000 eV
 dipol+quadrupol energy correction           -0.000000 eV
 added-field ion interaction         -0.000193 eV  (added to PSCEN)


 Broyden mixing:
  rms(total) = 0.98709E-04    rms(broyden)= 0.98709E-04
  rms(prec ) = 0.12555E-03
  weight for this iteration     100.00

 eigenvalues of (default mixing * dielectric matrix)
  average eigenvalue GAMMA=   2.3092
  8.4315  6.6521  4.0648  3.0080  2.4721  2.1352  2.0344  1.5028  1.3332  1.0774
  1.0774  1.0674  1.0674  0.9263  0.9263  0.6958  0.7849

 Free energy of the ion-electron system (eV)
  ---------------------------------------------------
  alpha Z        PSCENC =       489.09691063
  Ewald energy   TEWEN  =    239470.71432049
  -Hartree energ DENC   =   -254850.64337022
  -exchange      EXHF   =         0.00000000
  -V(xc)+E(xc)   XCENC  =      1874.81959032
  PAW double counting   =     68191.22282363   -67997.03458431
  entropy T*S    EENTRO =        -0.14451406
  eigenvalues    EBANDS =     -6971.42825469
  atomic energy  EATOM  =     18159.52318148
  Solvation  Ediel_sol  =         0.00000000
  ---------------------------------------------------
  free energy    TOTEN  =     -1633.87389673 eV

  energy without entropy =    -1633.72938267  energy(sigma->0) =    -1633.80163970


--------------------------------------------------------------------------------------------------------




--------------------------------------- Iteration      1(  23)  ---------------------------------------


    POTLOK:  cpu time      1.0065: real time      1.0148
    SETDIJ:  cpu time      0.0084: real time      0.0085
     EDDAV:  cpu time    218.9392: real time    220.8091
       DOS:  cpu time      0.0007: real time      0.0007
    CHARGE:  cpu time     15.0997: real time     15.2093
    MIXING:  cpu time      0.0399: real time      0.0403
    --------------------------------------------
      LOOP:  cpu time    235.0945: real time    237.0826

 eigenvalue-minimisations  :  5712
 total energy-change (2. order) :-0.1019898E-03  (-0.1702314E-06)
 number of electron     773.9999996 magnetization 
 augmentation part       -2.7924290 magnetization 

 DIPCOR: dipole corrections for dipol
 direction  3 min pos   337,
 dipolmoment           0.000000      0.000000      0.000351 electrons x Angstroem
 Tr[quadrupol]    -40177.468643

 energy correction for charged system         0.000000 eV
 dipol+quadrupol energy correction           -0.000000 eV
 added-field ion interaction         -0.000142 eV  (added to PSCEN)


 Broyden mixing:
  rms(total) = 0.45308E-04    rms(broyden)= 0.45308E-04
  rms(prec ) = 0.54606E-04
  weight for this iteration     100.00

 eigenvalues of (default mixing * dielectric matrix)
  average eigenvalue GAMMA=   2.3386
  8.7582  6.8447  4.4021  3.2426  2.5188  2.3194  2.2026  1.6120  1.3008  1.3008
  1.1568  1.0627  1.0627  0.9546  0.9546  0.9386  0.6960  0.7671

 Free energy of the ion-electron system (eV)
  ---------------------------------------------------
  alpha Z        PSCENC =       489.09696222
  Ewald energy   TEWEN  =    239470.71432049
  -Hartree energ DENC   =   -254850.73771818
  -exchange      EXHF   =         0.00000000
  -V(xc)+E(xc)   XCENC  =      1874.81923317
  PAW double counting   =     68191.26923511   -67997.08108323
  entropy T*S    EENTRO =        -0.14451389
  eigenvalues    EBANDS =     -6971.33361587
  atomic energy  EATOM  =     18159.52318148
  Solvation  Ediel_sol  =         0.00000000
  ---------------------------------------------------
  free energy    TOTEN  =     -1633.87399872 eV

  energy without entropy =    -1633.72948483  energy(sigma->0) =    -1633.80174177


--------------------------------------------------------------------------------------------------------




--------------------------------------- Iteration      1(  24)  ---------------------------------------


    POTLOK:  cpu time      1.0180: real time      1.0265
    SETDIJ:  cpu time      0.0079: real time      0.0079
     EDDAV:  cpu time    213.4375: real time    215.2724
       DOS:  cpu time      0.0024: real time      0.0024
    CHARGE:  cpu time     14.8611: real time     14.9974
    MIXING:  cpu time      0.0418: real time      0.0421
    --------------------------------------------
      LOOP:  cpu time    229.3687: real time    231.3488

 eigenvalue-minimisations  :  5496
 total energy-change (2. order) :-0.3023473E-04  (-0.3981608E-07)
 number of electron     773.9999996 magnetization 
 augmentation part       -2.7924310 magnetization 

 DIPCOR: dipole corrections for dipol
 direction  3 min pos   337,
 dipolmoment           0.000000      0.000000      0.000302 electrons x Angstroem
 Tr[quadrupol]    -40177.470165

 energy correction for charged system         0.000000 eV
 dipol+quadrupol energy correction           -0.000000 eV
 added-field ion interaction         -0.000122 eV  (added to PSCEN)


 Broyden mixing:
  rms(total) = 0.19645E-04    rms(broyden)= 0.19645E-04
  rms(prec ) = 0.23649E-04
  weight for this iteration     100.00

 eigenvalues of (default mixing * dielectric matrix)
  average eigenvalue GAMMA=   2.3283
  8.8572  6.9375  4.5808  3.3294  2.6120  2.4731  2.0001  2.0001  1.4985  1.2892
  1.1190  1.1190  1.0577  1.0577  0.9506  0.9506  0.9256  0.6960  0.7836

 Free energy of the ion-electron system (eV)
  ---------------------------------------------------
  alpha Z        PSCENC =       489.09698232
  Ewald energy   TEWEN  =    239470.71432049
  -Hartree energ DENC   =   -254850.77050709
  -exchange      EXHF   =         0.00000000
  -V(xc)+E(xc)   XCENC  =      1874.81903004
  PAW double counting   =     68191.27875750   -67997.09059414
  entropy T*S    EENTRO =        -0.14451404
  eigenvalues    EBANDS =     -6971.30068550
  atomic energy  EATOM  =     18159.52318148
  Solvation  Ediel_sol  =         0.00000000
  ---------------------------------------------------
  free energy    TOTEN  =     -1633.87402895 eV

  energy without entropy =    -1633.72951491  energy(sigma->0) =    -1633.80177193


--------------------------------------------------------------------------------------------------------




--------------------------------------- Iteration      1(  25)  ---------------------------------------


    POTLOK:  cpu time      1.0212: real time      1.0377
    SETDIJ:  cpu time      0.0080: real time      0.0081
     EDDAV:  cpu time    201.1630: real time    202.9178
       DOS:  cpu time      0.0009: real time      0.0009
    CHARGE:  cpu time     15.0852: real time     15.1908
    MIXING:  cpu time      0.0362: real time      0.0365
    --------------------------------------------
      LOOP:  cpu time    217.3146: real time    219.1918

 eigenvalue-minimisations  :  5064
 total energy-change (2. order) :-0.7594383E-05  (-0.4173158E-08)
 number of electron     773.9999996 magnetization 
 augmentation part       -2.7924291 magnetization 

 DIPCOR: dipole corrections for dipol
 direction  3 min pos   337,
 dipolmoment           0.000000      0.000000      0.000290 electrons x Angstroem
 Tr[quadrupol]    -40177.471824

 energy correction for charged system         0.000000 eV
 dipol+quadrupol energy correction           -0.000000 eV
 added-field ion interaction         -0.000117 eV  (added to PSCEN)


 Broyden mixing:
  rms(total) = 0.86886E-05    rms(broyden)= 0.86886E-05
  rms(prec ) = 0.10860E-04
  weight for this iteration     100.00

 eigenvalues of (default mixing * dielectric matrix)
  average eigenvalue GAMMA=   2.3165
  8.9716  6.8972  4.7784  3.3488  2.8341  2.4807  2.1727  2.0456  1.5927  1.3377
  1.2348  1.2348  1.0657  1.0657  0.6960  0.9699  0.9699  0.9333  0.8979  0.8030

 Free energy of the ion-electron system (eV)
  ---------------------------------------------------
  alpha Z        PSCENC =       489.09698708
  Ewald energy   TEWEN  =    239470.71432049
  -Hartree energ DENC   =   -254850.78790687
  -exchange      EXHF   =         0.00000000
  -V(xc)+E(xc)   XCENC  =      1874.81910931
  PAW double counting   =     68191.25966441   -67997.07148667
  entropy T*S    EENTRO =        -0.14451401
  eigenvalues    EBANDS =     -6971.28339176
  atomic energy  EATOM  =     18159.52318148
  Solvation  Ediel_sol  =         0.00000000
  ---------------------------------------------------
  free energy    TOTEN  =     -1633.87403654 eV

  energy without entropy =    -1633.72952253  energy(sigma->0) =    -1633.80177954


--------------------------------------------------------------------------------------------------------




--------------------------------------- Iteration      1(  26)  ---------------------------------------


    POTLOK:  cpu time      1.0320: real time      1.0454
    SETDIJ:  cpu time      0.0077: real time      0.0077
     EDDAV:  cpu time    186.5216: real time    188.1272
       DOS:  cpu time      0.0020: real time      0.0020
    CHARGE:  cpu time     15.0852: real time     15.2224
    MIXING:  cpu time      0.0362: real time      0.0365
    --------------------------------------------
      LOOP:  cpu time    202.6847: real time    204.4413

 eigenvalue-minimisations  :  4560
 total energy-change (2. order) :-0.3022513E-05  (-0.1281824E-08)
 number of electron     773.9999996 magnetization 
 augmentation part       -2.7924290 magnetization 

 DIPCOR: dipole corrections for dipol
 direction  3 min pos   337,
 dipolmoment           0.000000      0.000000      0.000287 electrons x Angstroem
 Tr[quadrupol]    -40177.473419

 energy correction for charged system         0.000000 eV
 dipol+quadrupol energy correction           -0.000000 eV
 added-field ion interaction         -0.000116 eV  (added to PSCEN)


 Broyden mixing:
  rms(total) = 0.43103E-05    rms(broyden)= 0.43103E-05
  rms(prec ) = 0.57089E-05
  weight for this iteration     100.00

 eigenvalues of (default mixing * dielectric matrix)
  average eigenvalue GAMMA=   2.3098
  9.0155  6.8810  4.8992  3.4744  2.9915  2.4902  2.2142  1.9958  1.9958  1.5521
  1.1646  1.1646  1.1606  1.0648  1.0648  0.6960  1.0190  1.0190  0.9188  0.9188
  0.8052

 Free energy of the ion-electron system (eV)
  ---------------------------------------------------
  alpha Z        PSCENC =       489.09698821
  Ewald energy   TEWEN  =    239470.71432049
  -Hartree energ DENC   =   -254850.80118146
  -exchange      EXHF   =         0.00000000
  -V(xc)+E(xc)   XCENC  =      1874.81919268
  PAW double counting   =     68191.23733174   -67997.04915799
  entropy T*S    EENTRO =        -0.14451398
  eigenvalues    EBANDS =     -6971.27020074
  atomic energy  EATOM  =     18159.52318148
  Solvation  Ediel_sol  =         0.00000000
  ---------------------------------------------------
  free energy    TOTEN  =     -1633.87403957 eV

  energy without entropy =    -1633.72952559  energy(sigma->0) =    -1633.80178258


--------------------------------------------------------------------------------------------------------




--------------------------------------- Iteration      1(  27)  ---------------------------------------


    POTLOK:  cpu time      1.0077: real time      1.0201
    SETDIJ:  cpu time      0.0088: real time      0.0088
     EDDAV:  cpu time    182.5505: real time    184.0532
       DOS:  cpu time      0.0007: real time      0.0007
    --------------------------------------------
      LOOP:  cpu time    183.5679: real time    185.0831

 eigenvalue-minimisations  :  4440
 total energy-change (2. order) :-0.9332143E-06  ( 0.1228800E-08)
 number of electron     773.9999996 magnetization 
 augmentation part       -2.7924290 magnetization 

 DIPCOR: dipole corrections for dipol
 direction  3 min pos   337,
 dipolmoment           0.000000      0.000000      0.000287 electrons x Angstroem
 Tr[quadrupol]    -40177.474451

 energy correction for charged system         0.000000 eV
 dipol+quadrupol energy correction           -0.000000 eV
 added-field ion interaction         -0.000116 eV  (added to PSCEN)


 Free energy of the ion-electron system (eV)
  ---------------------------------------------------
  alpha Z        PSCENC =       489.09698835
  Ewald energy   TEWEN  =    239470.71432049
  -Hartree energ DENC   =   -254850.80495152
  -exchange      EXHF   =         0.00000000
  -V(xc)+E(xc)   XCENC  =      1874.81918664
  PAW double counting   =     68191.23707767   -67997.04890321
  entropy T*S    EENTRO =        -0.14451399
  eigenvalues    EBANDS =     -6971.26642642
  atomic energy  EATOM  =     18159.52318148
  Solvation  Ediel_sol  =         0.00000000
  ---------------------------------------------------
  free energy    TOTEN  =     -1633.87404050 eV

  energy without entropy =    -1633.72952651  energy(sigma->0) =    -1633.80178350


--------------------------------------------------------------------------------------------------------




 average (electrostatic) potential at core
  the test charge radii are     0.7672  0.5201
  (the norm of the test charge is              1.0000)
       1 -35.2404       2 -35.2407       3 -35.2404       4 -35.2406       5 -35.2405
       6 -35.2406       7 -35.2406       8 -35.2406       9 -35.2406      10 -35.2403
      11 -35.2405      12 -35.2405      13 -35.2405      14 -35.2404      15 -35.2405
      16 -35.2405      17 -35.2405      18 -35.2404      19 -35.2416      20 -35.2409
      21 -35.2404      22 -35.2407      23 -35.2404      24 -35.2406      25 -35.2406
      26 -35.2406      27 -35.2405      28 -35.2403      29 -35.2405      30 -35.2406
      31 -35.2405      32 -35.2404      33 -35.2405      34 -35.2405      35 -35.2405
      36 -35.2404      37 -35.4876      38 -35.4852      39 -35.4853      40 -35.4854
      41 -35.4853      42 -35.4850      43 -35.4853      44 -35.4853      45 -35.4853
      46 -35.4851      47 -35.4853      48 -35.4853      49 -35.4852      50 -35.4852
      51 -35.4852      52 -35.4852      53 -35.4852      54 -35.4852      55 -35.4857
      56 -35.4862      57 -35.4852      58 -35.4851      59 -35.4854      60 -35.4853
      61 -35.4854      62 -35.4853      63 -35.4852      64 -35.4852      65 -35.4853
      66 -35.4853      67 -35.4852      68 -35.4852      69 -35.4852      70 -35.4852
      71 -35.4852      72 -35.4852      73 -34.4364      74 -34.4376      75 -34.4377
      76 -34.4379      77 -34.4378      78 -34.4378      79 -34.4379      80 -34.4379
      81 -34.4378      82 -34.4378      83 -34.4378      84 -34.4377      85 -34.4377
      86 -34.4377      87 -34.4377      88 -34.4377      89 -34.4377      90 -34.4377
      91 -34.4388      92 -34.4383      93 -34.4375      94 -34.4374      95 -34.4377
      96 -34.4378      97 -34.4379      98 -34.4378      99 -34.4377     100 -34.4377
     101 -34.4378     102 -34.4378     103 -34.4377     104 -34.4377     105 -34.4377
     106 -34.4377     107 -34.4377     108 -34.4377     109 -34.5213     110 -34.5184
     111 -34.5184     112 -34.5187     113 -34.5185     114 -34.5185     115 -34.5186
     116 -34.5185     117 -34.5187     118 -34.5186     119 -34.5185     120 -34.5185
     121 -34.5184     122 -34.5184     123 -34.5185     124 -34.5184     125 -34.5185
     126 -34.5184     127 -34.5192     128 -34.5188     129 -34.5183     130 -34.5185
     131 -34.5185     132 -34.5186     133 -34.5186     134 -34.5186     135 -34.5185
     136 -34.5184     137 -34.5185     138 -34.5185     139 -34.5184     140 -34.5184
     141 -34.5185     142 -34.5185     143 -34.5185     144 -34.5184     145 -34.7675
     146 -34.7681     147 -34.7679     148 -34.7680     149 -34.7680     150 -34.7681
     151 -34.7680     152 -34.7680     153 -34.7681     154 -35.9978     155 -35.9980
     156 -35.9979     157 -35.9979     158 -35.9979     159 -35.9979     160 -35.9979
     161 -35.9980     162 -35.9979     163 -35.9993     164 -35.9988     165 -35.9978
     166 -35.9995     167 -35.9981     168 -35.9980     169 -35.9980     170 -35.9980
     171 -35.9979     172 -34.7681     173 -34.7681     174 -34.7680     175 -34.7679
     176 -34.7679     177 -34.7680     178 -34.7680     179 -34.7680     180 -34.7679
     181 -35.9991     182 -35.9980     183 -35.9978     184 -35.9980     185 -35.9980
     186 -35.9979     187 -35.9981     188 -35.9980     189 -35.9980     190 -34.7674
     191 -34.7680     192 -34.7679     193 -34.7679     194 -34.7679     195 -34.7680
     196 -34.7679     197 -34.7680     198 -34.7678     199 -34.7687     200 -34.7683
     201 -34.7679     202 -34.7664     203 -34.7679     204 -34.7680     205 -34.7681
     206 -34.7681     207 -34.7680     208 -35.9978     209 -35.9980     210 -35.9980
     211 -35.9979     212 -35.9979     213 -35.9980     214 -35.9979     215 -35.9980
     216 -35.9979     217 -35.0509     218 -35.0511     219 -35.0498     220 -35.0499
     221 -35.0501     222 -35.0501     223 -35.0502     224 -35.0501     225 -35.0500
     226 -35.0500     227 -35.0500     228 -35.0501     229 -35.0499     230 -35.0500
     231 -35.0500     232 -35.0500     233 -35.0500     234 -35.0500     235 -35.0512
     236 -35.0500     237 -35.0499     238 -35.0502     239 -35.0501     240 -35.0501
     241 -35.0501     242 -35.0501     243 -35.0501     244 -35.0499     245 -35.0501
     246 -35.0501     247 -35.0500     248 -35.0500     249 -35.0500     250 -35.0500
     251 -35.0500     252 -35.0500     253 -38.7983     254 -38.7959     255 -38.7956
     256 -38.7957     257 -38.7956     258 -38.7957     259 -38.7958     260 -38.7957
     261 -38.7957     262 -38.7956     263 -38.7956     264 -38.7956     265 -38.7956
     266 -38.7955     267 -38.7956     268 -38.7956     269 -38.7956     270 -38.7956
 
 
 
 E-fermi :  -3.3449     XC(G=0):  -3.0536     alpha+bet : -3.0894

 val. band max:       -3.3690592547   @ k =  -0.1250   0.3333   0.0000
 cond. band min:      -3.3425748504   @ k =   0.3750   0.3333   0.0000
 fundamental gap:      0.0264844043
 Fermi energy:        -3.3448771780

 k-point     1 :       0.1250    0.0000    0.0000
  band No.  band energies     occupation 
      1     -18.5954      2.00000
      2     -18.5242      2.00000
      3     -18.5212      2.00000
      4     -18.4146      2.00000
      5     -18.3852      2.00000
      6     -18.3687      2.00000
      7     -18.3488      2.00000
      8     -18.3156      2.00000
      9     -18.3125      2.00000
     10     -18.3064      2.00000
     11     -18.2759      2.00000
     12     -18.2533      2.00000
     13     -18.2077      2.00000
     14     -18.1634      2.00000
     15     -18.1432      2.00000
     16     -18.1008      2.00000
     17     -18.0719      2.00000
     18     -18.0489      2.00000
     19     -17.8012      2.00000
     20     -17.7770      2.00000
     21     -17.7668      2.00000
     22     -17.6905      2.00000
     23     -17.6538      2.00000
     24     -17.6286      2.00000
     25     -17.6201      2.00000
     26     -17.5955      2.00000
     27     -17.5856      2.00000
     28     -17.5112      2.00000
     29     -17.4751      2.00000
     30     -17.4682      2.00000
     31     -17.4604      2.00000
     32     -17.4502      2.00000
     33     -17.3306      2.00000
     34     -17.2944      2.00000
     35     -17.2868      2.00000
     36     -17.1616      2.00000
     37     -14.4705      2.00000
     38     -14.4329      2.00000
     39     -14.4229      2.00000
     40     -14.3994      2.00000
     41     -14.3763      2.00000
     42     -14.3421      2.00000
     43     -14.3220      2.00000
     44     -14.2676      2.00000
     45     -14.2349      2.00000
     46     -14.2310      2.00000
     47     -14.2168      2.00000
     48     -14.2126      2.00000
     49     -14.1784      2.00000
     50     -14.1493      2.00000
     51     -14.1343      2.00000
     52     -14.1301      2.00000
     53     -14.0731      2.00000
     54     -14.0606      2.00000
     55     -14.0295      2.00000
     56     -13.9499      2.00000
     57     -13.9204      2.00000
     58     -13.9193      2.00000
     59     -13.9036      2.00000
     60     -13.9032      2.00000
     61     -13.8997      2.00000
     62     -13.8990      2.00000
     63     -13.8688      2.00000
     64     -13.7525      2.00000
     65     -13.7438      2.00000
     66     -13.7337      2.00000
     67     -13.7270      2.00000
     68     -13.7168      2.00000
     69     -13.6620      2.00000
     70     -13.6540      2.00000
     71     -13.4926      2.00000
     72     -13.4912      2.00000
     73     -12.3483      2.00000
     74     -12.3129      2.00000
     75     -12.1253      2.00000
     76     -12.0979      2.00000
     77     -11.9253      2.00000
     78     -11.8073      2.00000
     79     -11.7969      2.00000
     80     -11.7958      2.00000
     81     -11.7952      2.00000
     82     -11.7553      2.00000
     83     -11.7363      2.00000
     84     -11.7000      2.00000
     85     -11.6582      2.00000
     86     -11.6437      2.00000
     87     -11.6419      2.00000
     88     -11.6407      2.00000
     89     -11.5855      2.00000
     90     -11.5769      2.00000
     91     -11.5686      2.00000
     92     -11.5232      2.00000
     93     -11.5225      2.00000
     94     -11.5177      2.00000
     95     -11.5034      2.00000
     96     -11.4844      2.00000
     97     -11.4211      2.00000
     98     -11.4167      2.00000
     99     -11.4104      2.00000
    100     -11.3899      2.00000
    101     -11.3476      2.00000
    102     -11.3384      2.00000
    103     -11.2928      2.00000
    104     -11.2527      2.00000
    105     -11.1906      2.00000
    106     -11.0966      2.00000
    107     -11.0777      2.00000
    108     -11.0273      2.00000
    109     -11.0159      2.00000
    110     -10.9759      2.00000
    111     -10.8543      2.00000
    112     -10.8336      2.00000
    113     -10.7838      2.00000
    114     -10.7780      2.00000
    115     -10.7768      2.00000
    116     -10.7491      2.00000
    117     -10.6121      2.00000
    118     -10.6101      2.00000
    119     -10.5665      2.00000
    120     -10.5382      2.00000
    121     -10.4820      2.00000
    122     -10.4742      2.00000
    123     -10.3886      2.00000
    124     -10.3721      2.00000
    125     -10.3207      2.00000
    126     -10.3205      2.00000
    127     -10.3147      2.00000
    128     -10.2449      2.00000
    129     -10.2305      2.00000
    130     -10.2008      2.00000
    131     -10.1921      2.00000
    132     -10.1664      2.00000
    133     -10.1478      2.00000
    134     -10.1419      2.00000
    135     -10.1246      2.00000
    136     -10.0964      2.00000
    137     -10.0941      2.00000
    138     -10.0915      2.00000
    139     -10.0887      2.00000
    140     -10.0855      2.00000
    141     -10.0198      2.00000
    142      -9.9377      2.00000
    143      -9.9373      2.00000
    144      -9.9133      2.00000
    145      -9.9107      2.00000
    146      -9.8731      2.00000
    147      -9.8646      2.00000
    148      -9.8610      2.00000
    149      -9.7941      2.00000
    150      -9.6950      2.00000
    151      -9.6173      2.00000
    152      -9.3820      2.00000
    153      -9.2772      2.00000
    154      -9.2222      2.00000
    155      -9.1798      2.00000
    156      -9.1069      2.00000
    157      -9.0925      2.00000
    158      -9.0748      2.00000
    159      -9.0213      2.00000
    160      -8.9769      2.00000
    161      -8.9642      2.00000
    162      -8.9016      2.00000
    163      -8.8859      2.00000
    164      -8.8561      2.00000
    165      -8.8524      2.00000
    166      -8.8483      2.00000
    167      -8.8381      2.00000
    168      -8.8373      2.00000
    169      -8.8290      2.00000
    170      -8.7659      2.00000
    171      -8.7025      2.00000
    172      -8.6970      2.00000
    173      -8.6318      2.00000
    174      -8.5595      2.00000
    175      -8.4919      2.00000
    176      -8.4879      2.00000
    177      -8.3902      2.00000
    178      -8.3727      2.00000
    179      -8.3227      2.00000
    180      -8.3152      2.00000
    181      -8.2907      2.00000
    182      -8.2578      2.00000
    183      -8.2023      2.00000
    184      -8.1895      2.00000
    185      -8.1444      2.00000
    186      -8.1226      2.00000
    187      -8.1216      2.00000
    188      -8.0789      2.00000
    189      -8.0777      2.00000
    190      -8.0634      2.00000
    191      -8.0318      2.00000
    192      -8.0306      2.00000
    193      -8.0071      2.00000
    194      -7.9798      2.00000
    195      -7.9787      2.00000
    196      -7.9330      2.00000
    197      -7.9137      2.00000
    198      -7.8578      2.00000
    199      -7.8106      2.00000
    200      -7.8042      2.00000
    201      -7.7987      2.00000
    202      -7.7841      2.00000
    203      -7.7724      2.00000
    204      -7.7642      2.00000
    205      -7.7179      2.00000
    206      -7.6860      2.00000
    207      -7.5947      2.00000
    208      -7.5857      2.00000
    209      -7.5465      2.00000
    210      -7.5344      2.00000
    211      -7.4728      2.00000
    212      -7.4238      2.00000
    213      -7.4150      2.00000
    214      -7.3094      2.00000
    215      -7.2975      2.00000
    216      -7.2192      2.00000
    217      -7.1793      2.00000
    218      -7.1587      2.00000
    219      -7.1458      2.00000
    220      -7.1326      2.00000
    221      -7.1310      2.00000
    222      -7.1057      2.00000
    223      -7.0902      2.00000
    224      -7.0888      2.00000
    225      -7.0810      2.00000
    226      -7.0764      2.00000
    227      -7.0681      2.00000
    228      -7.0201      2.00000
    229      -7.0149      2.00000
    230      -6.9797      2.00000
    231      -6.9553      2.00000
    232      -6.9141      2.00000
    233      -6.9099      2.00000
    234      -6.9091      2.00000
    235      -6.8647      2.00000
    236      -6.8529      2.00000
    237      -6.8421      2.00000
    238      -6.8337      2.00000
    239      -6.7330      2.00000
    240      -6.6937      2.00000
    241      -6.6823      2.00000
    242      -6.6584      2.00000
    243      -6.6391      2.00000
    244      -6.6295      2.00000
    245      -6.6131      2.00000
    246      -6.6116      2.00000
    247      -6.5740      2.00000
    248      -6.5465      2.00000
    249      -6.5312      2.00000
    250      -6.5288      2.00000
    251      -6.5053      2.00000
    252      -6.4867      2.00000
    253      -6.4757      2.00000
    254      -6.4539      2.00000
    255      -6.4200      2.00000
    256      -6.3270      2.00000
    257      -6.3268      2.00000
    258      -6.3241      2.00000
    259      -6.3168      2.00000
    260      -6.3008      2.00000
    261      -6.2766      2.00000
    262      -6.2493      2.00000
    263      -6.1999      2.00000
    264      -6.1959      2.00000
    265      -6.1786      2.00000
    266      -6.1630      2.00000
    267      -6.1555      2.00000
    268      -6.1512      2.00000
    269      -6.1466      2.00000
    270      -6.1263      2.00000
    271      -6.1236      2.00000
    272      -6.1137      2.00000
    273      -6.0151      2.00000
    274      -6.0125      2.00000
    275      -5.9768      2.00000
    276      -5.9749      2.00000
    277      -5.9636      2.00000
    278      -5.9483      2.00000
    279      -5.9383      2.00000
    280      -5.9001      2.00000
    281      -5.8965      2.00000
    282      -5.8885      2.00000
    283      -5.8648      2.00000
    284      -5.8580      2.00000
    285      -5.8479      2.00000
    286      -5.8392      2.00000
    287      -5.8362      2.00000
    288      -5.8335      2.00000
    289      -5.8255      2.00000
    290      -5.8166      2.00000
    291      -5.7990      2.00000
    292      -5.7842      2.00000
    293      -5.7645      2.00000
    294      -5.7532      2.00000
    295      -5.7156      2.00000
    296      -5.7133      2.00000
    297      -5.7002      2.00000
    298      -5.6988      2.00000
    299      -5.6798      2.00000
    300      -5.6680      2.00000
    301      -5.5803      2.00000
    302      -5.5570      2.00000
    303      -5.4832      2.00000
    304      -5.4807      2.00000
    305      -5.4774      2.00000
    306      -5.4723      2.00000
    307      -5.4504      2.00000
    308      -5.4501      2.00000
    309      -5.4346      2.00000
    310      -5.3787      2.00000
    311      -5.3536      2.00000
    312      -5.2907      2.00000
    313      -5.2788      2.00000
    314      -5.2723      2.00000
    315      -5.2564      2.00000
    316      -5.2146      2.00000
    317      -5.1874      2.00000
    318      -5.1780      2.00000
    319      -5.1012      2.00000
    320      -5.0934      2.00000
    321      -5.0913      2.00000
    322      -5.0745      2.00000
    323      -5.0718      2.00000
    324      -5.0639      2.00000
    325      -5.0519      2.00000
    326      -5.0356      2.00000
    327      -5.0059      2.00000
    328      -4.9940      2.00000
    329      -4.9747      2.00000
    330      -4.9734      2.00000
    331      -4.9549      2.00000
    332      -4.9297      2.00000
    333      -4.9154      2.00000
    334      -4.9143      2.00000
    335      -4.9125      2.00000
    336      -4.9104      2.00000
    337      -4.8972      2.00000
    338      -4.8852      2.00000
    339      -4.8772      2.00000
    340      -4.8518      2.00000
    341      -4.8487      2.00000
    342      -4.8412      2.00000
    343      -4.8042      2.00000
    344      -4.7671      2.00000
    345      -4.7146      2.00000
    346      -4.6869      2.00000
    347      -4.6696      2.00000
    348      -4.6110      2.00000
    349      -4.6046      2.00000
    350      -4.4543      2.00000
    351      -4.4114      2.00000
    352      -4.3992      2.00000
    353      -4.3800      2.00000
    354      -4.3543      2.00000
    355      -4.3451      2.00000
    356      -4.3196      2.00000
    357      -4.3116      2.00000
    358      -4.2730      2.00000
    359      -4.2579      2.00000
    360      -4.2556      2.00000
    361      -4.2450      2.00000
    362      -4.2208      2.00000
    363      -4.2201      2.00000
    364      -4.2178      2.00000
    365      -4.2109      2.00000
    366      -4.2010      2.00000
    367      -4.1951      2.00000
    368      -4.1218      2.00000
    369      -4.1182      2.00000
    370      -4.0919      2.00000
    371      -4.0439      2.00000
    372      -4.0388      2.00000
    373      -4.0302      2.00000
    374      -4.0026      2.00000
    375      -3.9446      2.00000
    376      -3.9287      2.00000
    377      -3.8305      2.00000
    378      -3.7648      2.00000
    379      -3.7442      2.00000
    380      -3.7404      2.00000
    381      -3.7350      2.00000
    382      -3.7285      2.00000
    383      -3.6980      2.00000
    384      -3.6533      1.99999
    385      -3.5269      1.98997
    386      -3.5137      1.98305
    387      -3.4853      1.95290
    388      -3.4508      1.86604
    389      -3.3900      1.47694
    390      -3.3414      0.96069
    391      -3.2809      0.36529
    392      -3.0098      0.00000
    393      -2.4328      0.00000
    394      -2.3234      0.00000
    395      -2.2910      0.00000
    396      -2.2553      0.00000
    397      -2.2467      0.00000
    398      -2.2113      0.00000
    399      -2.2038      0.00000
    400      -2.1675      0.00000
    401      -2.1163      0.00000
    402      -2.1090      0.00000
    403      -2.0503      0.00000
    404      -1.9737      0.00000
    405      -1.8934      0.00000
    406      -1.6613      0.00000
    407      -1.5975      0.00000
    408      -1.4892      0.00000
    409      -1.4827      0.00000
    410      -1.4019      0.00000
    411      -1.3993      0.00000
    412      -1.2746      0.00000
    413      -1.2419      0.00000
    414      -1.1295      0.00000
    415      -0.8953      0.00000
    416      -0.7113      0.00000
    417      -0.6552      0.00000
    418      -0.6379      0.00000
    419      -0.6209      0.00000
    420      -0.5898      0.00000
    421      -0.4566      0.00000
    422      -0.4216      0.00000
    423      -0.3681      0.00000
    424      -0.3626      0.00000
    425      -0.2441      0.00000
    426      -0.2031      0.00000
    427      -0.1821      0.00000
    428      -0.1236      0.00000
    429      -0.1109      0.00000
    430      -0.0453      0.00000
    431       0.0663      0.00000
    432       0.1016      0.00000
    433       0.1587      0.00000
    434       0.1982      0.00000
    435       0.2060      0.00000
    436       0.2067      0.00000
    437       0.2552      0.00000
    438       0.3398      0.00000
    439       0.4137      0.00000
    440       0.4219      0.00000
    441       0.4416      0.00000
    442       0.4488      0.00000
    443       0.4849      0.00000
    444       0.5303      0.00000
    445       0.5543      0.00000
    446       0.5617      0.00000
    447       0.5657      0.00000
    448       0.5675      0.00000
    449       0.6774      0.00000
    450       0.6778      0.00000
    451       0.7087      0.00000
    452       0.7309      0.00000
    453       0.7670      0.00000
    454       0.8198      0.00000
    455       0.8333      0.00000
    456       0.8569      0.00000
    457       0.8621      0.00000
    458       0.8624      0.00000
    459       0.9152      0.00000
    460       0.9261      0.00000
    461       0.9451      0.00000
    462       0.9498      0.00000
    463       0.9518      0.00000
    464       0.9782      0.00000
    465       1.0656      0.00000
    466       1.0998      0.00000
    467       1.1233      0.00000
    468       1.1813      0.00000
    469       1.2101      0.00000
    470       1.2724      0.00000
    471       1.2946      0.00000
    472       1.3240      0.00000
    473       1.3671      0.00000
    474       1.3815      0.00000
    475       1.4042      0.00000
    476       1.4059      0.00000
    477       1.4202      0.00000
    478       1.4296      0.00000
    479       1.4587      0.00000
    480       1.4922      0.00000
    481       1.4924      0.00000
    482       1.5053      0.00000
    483       1.5156      0.00000
    484       1.5484      0.00000
    485       1.5636      0.00000
    486       1.5873      0.00000
    487       1.5880      0.00000
    488       1.5956      0.00000
    489       1.6176      0.00000
    490       1.6201      0.00000
    491       1.6273      0.00000
    492       1.6503      0.00000
    493       1.6607      0.00000
    494       1.6717      0.00000
    495       1.7120      0.00000
    496       1.7288      0.00000
    497       1.7705      0.00000
    498       1.7772      0.00000
    499       1.7867      0.00000
    500       1.8719      0.00000
    501       1.8754      0.00000
    502       1.8937      0.00000
    503       1.9036      0.00000
    504       1.9170      0.00000
    505       1.9458      0.00000
    506       1.9488      0.00000
    507       2.0061      0.00000
    508       2.0798      0.00000
    509       2.0887      0.00000
    510       2.0966      0.00000
    511       2.1186      0.00000
    512       2.1217      0.00000
    513       2.1259      0.00000
    514       2.1492      0.00000
    515       2.1700      0.00000
    516       2.1726      0.00000
    517       2.1791      0.00000
    518       2.2055      0.00000
    519       2.2144      0.00000
    520       2.2391      0.00000
    521       2.2437      0.00000
    522       2.2701      0.00000
    523       2.3046      0.00000
    524       2.3372      0.00000
    525       2.3431      0.00000
    526       2.3588      0.00000
    527       2.3769      0.00000
    528       2.4023      0.00000

 k-point     2 :       0.3750    0.0000    0.0000
  band No.  band energies     occupation 
      1     -18.5641      2.00000
      2     -18.5028      2.00000
      3     -18.4985      2.00000
      4     -18.4894      2.00000
      5     -18.4455      2.00000
      6     -18.4306      2.00000
      7     -18.3546      2.00000
      8     -18.2944      2.00000
      9     -18.2905      2.00000
     10     -18.2813      2.00000
     11     -18.2386      2.00000
     12     -18.2236      2.00000
     13     -18.2032      2.00000
     14     -18.1885      2.00000
     15     -18.1745      2.00000
     16     -17.9965      2.00000
     17     -17.9843      2.00000
     18     -17.9695      2.00000
     19     -17.9030      2.00000
     20     -17.8868      2.00000
     21     -17.8686      2.00000
     22     -17.7214      2.00000
     23     -17.7058      2.00000
     24     -17.6869      2.00000
     25     -17.5894      2.00000
     26     -17.5574      2.00000
     27     -17.5127      2.00000
     28     -17.4921      2.00000
     29     -17.4907      2.00000
     30     -17.4126      2.00000
     31     -17.3875      2.00000
     32     -17.3812      2.00000
     33     -17.3377      2.00000
     34     -17.3177      2.00000
     35     -17.3163      2.00000
     36     -17.2166      2.00000
     37     -14.4560      2.00000
     38     -14.4020      2.00000
     39     -14.4016      2.00000
     40     -14.3546      2.00000
     41     -14.3473      2.00000
     42     -14.3445      2.00000
     43     -14.3283      2.00000
     44     -14.2923      2.00000
     45     -14.2541      2.00000
     46     -14.2153      2.00000
     47     -14.2149      2.00000
     48     -14.2141      2.00000
     49     -14.2037      2.00000
     50     -14.1682      2.00000
     51     -14.1513      2.00000
     52     -14.1459      2.00000
     53     -14.1449      2.00000
     54     -14.0999      2.00000
     55     -14.0472      2.00000
     56     -14.0344      2.00000
     57     -14.0180      2.00000
     58     -13.9639      2.00000
     59     -13.8998      2.00000
     60     -13.8962      2.00000
     61     -13.8790      2.00000
     62     -13.7795      2.00000
     63     -13.7771      2.00000
     64     -13.7729      2.00000
     65     -13.7298      2.00000
     66     -13.7253      2.00000
     67     -13.6937      2.00000
     68     -13.6853      2.00000
     69     -13.6197      2.00000
     70     -13.5908      2.00000
     71     -13.5287      2.00000
     72     -13.5161      2.00000
     73     -12.2648      2.00000
     74     -12.1854      2.00000
     75     -12.0656      2.00000
     76     -12.0373      2.00000
     77     -11.9988      2.00000
     78     -11.9699      2.00000
     79     -11.8920      2.00000
     80     -11.8406      2.00000
     81     -11.8261      2.00000
     82     -11.8096      2.00000
     83     -11.7776      2.00000
     84     -11.7762      2.00000
     85     -11.7675      2.00000
     86     -11.7559      2.00000
     87     -11.7313      2.00000
     88     -11.6820      2.00000
     89     -11.5951      2.00000
     90     -11.5771      2.00000
     91     -11.5732      2.00000
     92     -11.5142      2.00000
     93     -11.5132      2.00000
     94     -11.5065      2.00000
     95     -11.4930      2.00000
     96     -11.3725      2.00000
     97     -11.3519      2.00000
     98     -11.3374      2.00000
     99     -11.3142      2.00000
    100     -11.2605      2.00000
    101     -11.2224      2.00000
    102     -11.2125      2.00000
    103     -11.1906      2.00000
    104     -11.1872      2.00000
    105     -11.0744      2.00000
    106     -11.0732      2.00000
    107     -11.0528      2.00000
    108     -11.0314      2.00000
    109     -11.0175      2.00000
    110     -10.9802      2.00000
    111     -10.9517      2.00000
    112     -10.9000      2.00000
    113     -10.8954      2.00000
    114     -10.8898      2.00000
    115     -10.7485      2.00000
    116     -10.7463      2.00000
    117     -10.7023      2.00000
    118     -10.6933      2.00000
    119     -10.6797      2.00000
    120     -10.6190      2.00000
    121     -10.5812      2.00000
    122     -10.5278      2.00000
    123     -10.5025      2.00000
    124     -10.4687      2.00000
    125     -10.4600      2.00000
    126     -10.3845      2.00000
    127     -10.3739      2.00000
    128     -10.3352      2.00000
    129     -10.3191      2.00000
    130     -10.2827      2.00000
    131     -10.2696      2.00000
    132     -10.2561      2.00000
    133     -10.2012      2.00000
    134     -10.1958      2.00000
    135     -10.1068      2.00000
    136     -10.1060      2.00000
    137      -9.9879      2.00000
    138      -9.9856      2.00000
    139      -9.9435      2.00000
    140      -9.9093      2.00000
    141      -9.8526      2.00000
    142      -9.7944      2.00000
    143      -9.7292      2.00000
    144      -9.6855      2.00000
    145      -9.6387      2.00000
    146      -9.6247      2.00000
    147      -9.5947      2.00000
    148      -9.5726      2.00000
    149      -9.4802      2.00000
    150      -9.4379      2.00000
    151      -9.4135      2.00000
    152      -9.3792      2.00000
    153      -9.3715      2.00000
    154      -9.3546      2.00000
    155      -9.3479      2.00000
    156      -9.3258      2.00000
    157      -9.3125      2.00000
    158      -9.2813      2.00000
    159      -9.2073      2.00000
    160      -9.0730      2.00000
    161      -9.0231      2.00000
    162      -8.9831      2.00000
    163      -8.9507      2.00000
    164      -8.9302      2.00000
    165      -8.8994      2.00000
    166      -8.8759      2.00000
    167      -8.8421      2.00000
    168      -8.8264      2.00000
    169      -8.8042      2.00000
    170      -8.7741      2.00000
    171      -8.7341      2.00000
    172      -8.7297      2.00000
    173      -8.6630      2.00000
    174      -8.6624      2.00000
    175      -8.6368      2.00000
    176      -8.6073      2.00000
    177      -8.5814      2.00000
    178      -8.5114      2.00000
    179      -8.4940      2.00000
    180      -8.4822      2.00000
    181      -8.4054      2.00000
    182      -8.2710      2.00000
    183      -8.2639      2.00000
    184      -8.2207      2.00000
    185      -8.1764      2.00000
    186      -8.1474      2.00000
    187      -8.1270      2.00000
    188      -8.1265      2.00000
    189      -8.0665      2.00000
    190      -8.0495      2.00000
    191      -8.0444      2.00000
    192      -8.0082      2.00000
    193      -7.9241      2.00000
    194      -7.9150      2.00000
    195      -7.8784      2.00000
    196      -7.8122      2.00000
    197      -7.8106      2.00000
    198      -7.7926      2.00000
    199      -7.7915      2.00000
    200      -7.7826      2.00000
    201      -7.7331      2.00000
    202      -7.6909      2.00000
    203      -7.6061      2.00000
    204      -7.5707      2.00000
    205      -7.5671      2.00000
    206      -7.5522      2.00000
    207      -7.4963      2.00000
    208      -7.4776      2.00000
    209      -7.4750      2.00000
    210      -7.4147      2.00000
    211      -7.4072      2.00000
    212      -7.3293      2.00000
    213      -7.2909      2.00000
    214      -7.2887      2.00000
    215      -7.2661      2.00000
    216      -7.2588      2.00000
    217      -7.2422      2.00000
    218      -7.2302      2.00000
    219      -7.1984      2.00000
    220      -7.1943      2.00000
    221      -7.1569      2.00000
    222      -7.1561      2.00000
    223      -7.1199      2.00000
    224      -7.0871      2.00000
    225      -7.0810      2.00000
    226      -7.0607      2.00000
    227      -7.0325      2.00000
    228      -7.0211      2.00000
    229      -6.9956      2.00000
    230      -6.9702      2.00000
    231      -6.9485      2.00000
    232      -6.9217      2.00000
    233      -6.9169      2.00000
    234      -6.9130      2.00000
    235      -6.8827      2.00000
    236      -6.8468      2.00000
    237      -6.8282      2.00000
    238      -6.7742      2.00000
    239      -6.7537      2.00000
    240      -6.7499      2.00000
    241      -6.7415      2.00000
    242      -6.7142      2.00000
    243      -6.6884      2.00000
    244      -6.6598      2.00000
    245      -6.6262      2.00000
    246      -6.6225      2.00000
    247      -6.6202      2.00000
    248      -6.6109      2.00000
    249      -6.5777      2.00000
    250      -6.5594      2.00000
    251      -6.5162      2.00000
    252      -6.4894      2.00000
    253      -6.4735      2.00000
    254      -6.4544      2.00000
    255      -6.4530      2.00000
    256      -6.4527      2.00000
    257      -6.4389      2.00000
    258      -6.3862      2.00000
    259      -6.3522      2.00000
    260      -6.3424      2.00000
    261      -6.3384      2.00000
    262      -6.3279      2.00000
    263      -6.3086      2.00000
    264      -6.2688      2.00000
    265      -6.2501      2.00000
    266      -6.2232      2.00000
    267      -6.2109      2.00000
    268      -6.1900      2.00000
    269      -6.1750      2.00000
    270      -6.1664      2.00000
    271      -6.1244      2.00000
    272      -6.1009      2.00000
    273      -6.0944      2.00000
    274      -6.0889      2.00000
    275      -6.0384      2.00000
    276      -5.9324      2.00000
    277      -5.9146      2.00000
    278      -5.8846      2.00000
    279      -5.8812      2.00000
    280      -5.8352      2.00000
    281      -5.8313      2.00000
    282      -5.8256      2.00000
    283      -5.8175      2.00000
    284      -5.7932      2.00000
    285      -5.7886      2.00000
    286      -5.7844      2.00000
    287      -5.7687      2.00000
    288      -5.7582      2.00000
    289      -5.7244      2.00000
    290      -5.6970      2.00000
    291      -5.6672      2.00000
    292      -5.6419      2.00000
    293      -5.6388      2.00000
    294      -5.6274      2.00000
    295      -5.6190      2.00000
    296      -5.6172      2.00000
    297      -5.6050      2.00000
    298      -5.5649      2.00000
    299      -5.5618      2.00000
    300      -5.5442      2.00000
    301      -5.5331      2.00000
    302      -5.5310      2.00000
    303      -5.5068      2.00000
    304      -5.5039      2.00000
    305      -5.4918      2.00000
    306      -5.4669      2.00000
    307      -5.4414      2.00000
    308      -5.4185      2.00000
    309      -5.3550      2.00000
    310      -5.3529      2.00000
    311      -5.3048      2.00000
    312      -5.2968      2.00000
    313      -5.2848      2.00000
    314      -5.2715      2.00000
    315      -5.2670      2.00000
    316      -5.2661      2.00000
    317      -5.2427      2.00000
    318      -5.2260      2.00000
    319      -5.2198      2.00000
    320      -5.2088      2.00000
    321      -5.1645      2.00000
    322      -5.1243      2.00000
    323      -5.1185      2.00000
    324      -5.1107      2.00000
    325      -5.0759      2.00000
    326      -5.0443      2.00000
    327      -5.0410      2.00000
    328      -5.0261      2.00000
    329      -5.0138      2.00000
    330      -4.9715      2.00000
    331      -4.9475      2.00000
    332      -4.9341      2.00000
    333      -4.9264      2.00000
    334      -4.9233      2.00000
    335      -4.9065      2.00000
    336      -4.8958      2.00000
    337      -4.8812      2.00000
    338      -4.8341      2.00000
    339      -4.8247      2.00000
    340      -4.8185      2.00000
    341      -4.8004      2.00000
    342      -4.8002      2.00000
    343      -4.7781      2.00000
    344      -4.7489      2.00000
    345      -4.7385      2.00000
    346      -4.7239      2.00000
    347      -4.7109      2.00000
    348      -4.6804      2.00000
    349      -4.6664      2.00000
    350      -4.5871      2.00000
    351      -4.5273      2.00000
    352      -4.5245      2.00000
    353      -4.5102      2.00000
    354      -4.4718      2.00000
    355      -4.4201      2.00000
    356      -4.4178      2.00000
    357      -4.3935      2.00000
    358      -4.3808      2.00000
    359      -4.3346      2.00000
    360      -4.3306      2.00000
    361      -4.3121      2.00000
    362      -4.2950      2.00000
    363      -4.2806      2.00000
    364      -4.2759      2.00000
    365      -4.2272      2.00000
    366      -4.2199      2.00000
    367      -4.2146      2.00000
    368      -4.1860      2.00000
    369      -4.1583      2.00000
    370      -4.1275      2.00000
    371      -4.1231      2.00000
    372      -4.1138      2.00000
    373      -4.0464      2.00000
    374      -4.0186      2.00000
    375      -3.9079      2.00000
    376      -3.8971      2.00000
    377      -3.8403      2.00000
    378      -3.7834      2.00000
    379      -3.7779      2.00000
    380      -3.7751      2.00000
    381      -3.6928      2.00000
    382      -3.6374      1.99996
    383      -3.5546      1.99698
    384      -3.5525      1.99668
    385      -3.5430      1.99493
    386      -3.3977      1.54500
    387      -3.2995      0.52092
    388      -3.1836      0.02260
    389      -3.1129      0.00103
    390      -2.9215      0.00000
    391      -2.9015      0.00000
    392      -2.7332      0.00000
    393      -2.6952      0.00000
    394      -2.4808      0.00000
    395      -2.4011      0.00000
    396      -2.2897      0.00000
    397      -2.2694      0.00000
    398      -2.2568      0.00000
    399      -2.1978      0.00000
    400      -2.1824      0.00000
    401      -2.1466      0.00000
    402      -2.1393      0.00000
    403      -2.1276      0.00000
    404      -2.0902      0.00000
    405      -2.0884      0.00000
    406      -1.6544      0.00000
    407      -1.5861      0.00000
    408      -1.5279      0.00000
    409      -1.4844      0.00000
    410      -1.3634      0.00000
    411      -1.3280      0.00000
    412      -1.3011      0.00000
    413      -1.2679      0.00000
    414      -1.2015      0.00000
    415      -0.8952      0.00000
    416      -0.8556      0.00000
    417      -0.7711      0.00000
    418      -0.6947      0.00000
    419      -0.6683      0.00000
    420      -0.6621      0.00000
    421      -0.5671      0.00000
    422      -0.5070      0.00000
    423      -0.2055      0.00000
    424      -0.1515      0.00000
    425      -0.1049      0.00000
    426      -0.0977      0.00000
    427      -0.0589      0.00000
    428      -0.0470      0.00000
    429      -0.0411      0.00000
    430      -0.0263      0.00000
    431       0.1499      0.00000
    432       0.1628      0.00000
    433       0.1958      0.00000
    434       0.2197      0.00000
    435       0.3092      0.00000
    436       0.3097      0.00000
    437       0.3411      0.00000
    438       0.3414      0.00000
    439       0.3463      0.00000
    440       0.3545      0.00000
    441       0.3573      0.00000
    442       0.4054      0.00000
    443       0.5337      0.00000
    444       0.5389      0.00000
    445       0.5537      0.00000
    446       0.6165      0.00000
    447       0.6390      0.00000
    448       0.6474      0.00000
    449       0.6620      0.00000
    450       0.6787      0.00000
    451       0.6808      0.00000
    452       0.6917      0.00000
    453       0.7153      0.00000
    454       0.7397      0.00000
    455       0.7844      0.00000
    456       0.8186      0.00000
    457       0.8379      0.00000
    458       0.8531      0.00000
    459       0.8902      0.00000
    460       0.9011      0.00000
    461       0.9187      0.00000
    462       0.9721      0.00000
    463       1.0275      0.00000
    464       1.0591      0.00000
    465       1.0657      0.00000
    466       1.0763      0.00000
    467       1.1027      0.00000
    468       1.1384      0.00000
    469       1.2140      0.00000
    470       1.2250      0.00000
    471       1.2397      0.00000
    472       1.2434      0.00000
    473       1.2689      0.00000
    474       1.3217      0.00000
    475       1.3431      0.00000
    476       1.3668      0.00000
    477       1.3712      0.00000
    478       1.4250      0.00000
    479       1.4514      0.00000
    480       1.4659      0.00000
    481       1.4686      0.00000
    482       1.5164      0.00000
    483       1.5237      0.00000
    484       1.5346      0.00000
    485       1.5549      0.00000
    486       1.5656      0.00000
    487       1.5758      0.00000
    488       1.5932      0.00000
    489       1.6049      0.00000
    490       1.6726      0.00000
    491       1.6766      0.00000
    492       1.6876      0.00000
    493       1.6927      0.00000
    494       1.6931      0.00000
    495       1.6996      0.00000
    496       1.7251      0.00000
    497       1.7258      0.00000
    498       1.7922      0.00000
    499       1.9035      0.00000
    500       1.9143      0.00000
    501       1.9179      0.00000
    502       1.9469      0.00000
    503       1.9680      0.00000
    504       1.9694      0.00000
    505       1.9715      0.00000
    506       2.0120      0.00000
    507       2.0166      0.00000
    508       2.0630      0.00000
    509       2.0920      0.00000
    510       2.0994      0.00000
    511       2.1052      0.00000
    512       2.1182      0.00000
    513       2.1200      0.00000
    514       2.1262      0.00000
    515       2.1290      0.00000
    516       2.1565      0.00000
    517       2.1677      0.00000
    518       2.1714      0.00000
    519       2.2105      0.00000
    520       2.2427      0.00000
    521       2.2451      0.00000
    522       2.2683      0.00000
    523       2.3002      0.00000
    524       2.3153      0.00000
    525       2.3352      0.00000
    526       2.3648      0.00000
    527       2.3872      0.00000
    528       2.4025      0.00000

 k-point     3 :       0.1250    0.3333    0.0000
  band No.  band energies     occupation 
      1     -18.5840      2.00000
      2     -18.5587      2.00000
      3     -18.4976      2.00000
      4     -18.4126      2.00000
      5     -18.3745      2.00000
      6     -18.3741      2.00000
      7     -18.3493      2.00000
      8     -18.3449      2.00000
      9     -18.2957      2.00000
     10     -18.2928      2.00000
     11     -18.2894      2.00000
     12     -18.2471      2.00000
     13     -18.2060      2.00000
     14     -18.1683      2.00000
     15     -18.1400      2.00000
     16     -18.0910      2.00000
     17     -18.0872      2.00000
     18     -18.0433      2.00000
     19     -17.7937      2.00000
     20     -17.7895      2.00000
     21     -17.7620      2.00000
     22     -17.6794      2.00000
     23     -17.6711      2.00000
     24     -17.6224      2.00000
     25     -17.6126      2.00000
     26     -17.6080      2.00000
     27     -17.5807      2.00000
     28     -17.5076      2.00000
     29     -17.5002      2.00000
     30     -17.4921      2.00000
     31     -17.4442      2.00000
     32     -17.3985      2.00000
     33     -17.3536      2.00000
     34     -17.3325      2.00000
     35     -17.2271      2.00000
     36     -17.1838      2.00000
     37     -14.4932      2.00000
     38     -14.4633      2.00000
     39     -14.3659      2.00000
     40     -14.3594      2.00000
     41     -14.3411      2.00000
     42     -14.3329      2.00000
     43     -14.3146      2.00000
     44     -14.2947      2.00000
     45     -14.2936      2.00000
     46     -14.2695      2.00000
     47     -14.1836      2.00000
     48     -14.1693      2.00000
     49     -14.1649      2.00000
     50     -14.1587      2.00000
     51     -14.1323      2.00000
     52     -14.1274      2.00000
     53     -14.1271      2.00000
     54     -14.0962      2.00000
     55     -14.0093      2.00000
     56     -13.9909      2.00000
     57     -13.9561      2.00000
     58     -13.9381      2.00000
     59     -13.9170      2.00000
     60     -13.8787      2.00000
     61     -13.8774      2.00000
     62     -13.8639      2.00000
     63     -13.8250      2.00000
     64     -13.7801      2.00000
     65     -13.7741      2.00000
     66     -13.7291      2.00000
     67     -13.7188      2.00000
     68     -13.7049      2.00000
     69     -13.6766      2.00000
     70     -13.6104      2.00000
     71     -13.5561      2.00000
     72     -13.3916      2.00000
     73     -12.5128      2.00000
     74     -12.2952      2.00000
     75     -12.0863      2.00000
     76     -11.9080      2.00000
     77     -11.8676      2.00000
     78     -11.8539      2.00000
     79     -11.8502      2.00000
     80     -11.8472      2.00000
     81     -11.8183      2.00000
     82     -11.7543      2.00000
     83     -11.7376      2.00000
     84     -11.7306      2.00000
     85     -11.7177      2.00000
     86     -11.6779      2.00000
     87     -11.6150      2.00000
     88     -11.5953      2.00000
     89     -11.5950      2.00000
     90     -11.5901      2.00000
     91     -11.5671      2.00000
     92     -11.5618      2.00000
     93     -11.5533      2.00000
     94     -11.5303      2.00000
     95     -11.5200      2.00000
     96     -11.5082      2.00000
     97     -11.4916      2.00000
     98     -11.4792      2.00000
     99     -11.4342      2.00000
    100     -11.2675      2.00000
    101     -11.2286      2.00000
    102     -11.2168      2.00000
    103     -11.1876      2.00000
    104     -11.1842      2.00000
    105     -11.1301      2.00000
    106     -11.0882      2.00000
    107     -11.0366      2.00000
    108     -10.9917      2.00000
    109     -10.9220      2.00000
    110     -10.9050      2.00000
    111     -10.8824      2.00000
    112     -10.8108      2.00000
    113     -10.8101      2.00000
    114     -10.8000      2.00000
    115     -10.7461      2.00000
    116     -10.7255      2.00000
    117     -10.6960      2.00000
    118     -10.6628      2.00000
    119     -10.6474      2.00000
    120     -10.6412      2.00000
    121     -10.6187      2.00000
    122     -10.5670      2.00000
    123     -10.5419      2.00000
    124     -10.5221      2.00000
    125     -10.4241      2.00000
    126     -10.4100      2.00000
    127     -10.3785      2.00000
    128     -10.3183      2.00000
    129     -10.2926      2.00000
    130     -10.2732      2.00000
    131     -10.2421      2.00000
    132     -10.2117      2.00000
    133     -10.1204      2.00000
    134     -10.1124      2.00000
    135     -10.0770      2.00000
    136     -10.0672      2.00000
    137     -10.0609      2.00000
    138     -10.0587      2.00000
    139      -9.9992      2.00000
    140      -9.9718      2.00000
    141      -9.9157      2.00000
    142      -9.9079      2.00000
    143      -9.8776      2.00000
    144      -9.8671      2.00000
    145      -9.8089      2.00000
    146      -9.7308      2.00000
    147      -9.7160      2.00000
    148      -9.6371      2.00000
    149      -9.5901      2.00000
    150      -9.5738      2.00000
    151      -9.5449      2.00000
    152      -9.4547      2.00000
    153      -9.4406      2.00000
    154      -9.4284      2.00000
    155      -9.3130      2.00000
    156      -9.2422      2.00000
    157      -9.1574      2.00000
    158      -9.1409      2.00000
    159      -9.1188      2.00000
    160      -9.0189      2.00000
    161      -8.9750      2.00000
    162      -8.9509      2.00000
    163      -8.9410      2.00000
    164      -8.8973      2.00000
    165      -8.8841      2.00000
    166      -8.8759      2.00000
    167      -8.7597      2.00000
    168      -8.7593      2.00000
    169      -8.7258      2.00000
    170      -8.6929      2.00000
    171      -8.6862      2.00000
    172      -8.6526      2.00000
    173      -8.6275      2.00000
    174      -8.5255      2.00000
    175      -8.4554      2.00000
    176      -8.4456      2.00000
    177      -8.4345      2.00000
    178      -8.4234      2.00000
    179      -8.3043      2.00000
    180      -8.2837      2.00000
    181      -8.2448      2.00000
    182      -8.2267      2.00000
    183      -8.2102      2.00000
    184      -8.2067      2.00000
    185      -8.1882      2.00000
    186      -8.1700      2.00000
    187      -8.1535      2.00000
    188      -8.1508      2.00000
    189      -8.1092      2.00000
    190      -8.0584      2.00000
    191      -8.0317      2.00000
    192      -7.9914      2.00000
    193      -7.9796      2.00000
    194      -7.9275      2.00000
    195      -7.9116      2.00000
    196      -7.9087      2.00000
    197      -7.9024      2.00000
    198      -7.8643      2.00000
    199      -7.8353      2.00000
    200      -7.8219      2.00000
    201      -7.7943      2.00000
    202      -7.7805      2.00000
    203      -7.7573      2.00000
    204      -7.7075      2.00000
    205      -7.6844      2.00000
    206      -7.6622      2.00000
    207      -7.5750      2.00000
    208      -7.5683      2.00000
    209      -7.5237      2.00000
    210      -7.4729      2.00000
    211      -7.4419      2.00000
    212      -7.4354      2.00000
    213      -7.3945      2.00000
    214      -7.3330      2.00000
    215      -7.3198      2.00000
    216      -7.2567      2.00000
    217      -7.1936      2.00000
    218      -7.1821      2.00000
    219      -7.1768      2.00000
    220      -7.1612      2.00000
    221      -7.1422      2.00000
    222      -7.1417      2.00000
    223      -7.1386      2.00000
    224      -7.1318      2.00000
    225      -7.1193      2.00000
    226      -7.0911      2.00000
    227      -7.0513      2.00000
    228      -7.0314      2.00000
    229      -7.0254      2.00000
    230      -6.9858      2.00000
    231      -6.9225      2.00000
    232      -6.8888      2.00000
    233      -6.8868      2.00000
    234      -6.8814      2.00000
    235      -6.8670      2.00000
    236      -6.8665      2.00000
    237      -6.8369      2.00000
    238      -6.8259      2.00000
    239      -6.7895      2.00000
    240      -6.7793      2.00000
    241      -6.7209      2.00000
    242      -6.6959      2.00000
    243      -6.6683      2.00000
    244      -6.6634      2.00000
    245      -6.6575      2.00000
    246      -6.6505      2.00000
    247      -6.6213      2.00000
    248      -6.6001      2.00000
    249      -6.5035      2.00000
    250      -6.4604      2.00000
    251      -6.4595      2.00000
    252      -6.4389      2.00000
    253      -6.4297      2.00000
    254      -6.4241      2.00000
    255      -6.4102      2.00000
    256      -6.4077      2.00000
    257      -6.3714      2.00000
    258      -6.3214      2.00000
    259      -6.3093      2.00000
    260      -6.3027      2.00000
    261      -6.2995      2.00000
    262      -6.2905      2.00000
    263      -6.2463      2.00000
    264      -6.1943      2.00000
    265      -6.1857      2.00000
    266      -6.1809      2.00000
    267      -6.1806      2.00000
    268      -6.1548      2.00000
    269      -6.1535      2.00000
    270      -6.1494      2.00000
    271      -6.1277      2.00000
    272      -6.0461      2.00000
    273      -6.0411      2.00000
    274      -6.0277      2.00000
    275      -5.9962      2.00000
    276      -5.9787      2.00000
    277      -5.9590      2.00000
    278      -5.9578      2.00000
    279      -5.9428      2.00000
    280      -5.9374      2.00000
    281      -5.9302      2.00000
    282      -5.8860      2.00000
    283      -5.8838      2.00000
    284      -5.8625      2.00000
    285      -5.8377      2.00000
    286      -5.8351      2.00000
    287      -5.8217      2.00000
    288      -5.8126      2.00000
    289      -5.7831      2.00000
    290      -5.7732      2.00000
    291      -5.7639      2.00000
    292      -5.7432      2.00000
    293      -5.7262      2.00000
    294      -5.6956      2.00000
    295      -5.6608      2.00000
    296      -5.6223      2.00000
    297      -5.6195      2.00000
    298      -5.6106      2.00000
    299      -5.5920      2.00000
    300      -5.5707      2.00000
    301      -5.5529      2.00000
    302      -5.5333      2.00000
    303      -5.4738      2.00000
    304      -5.4655      2.00000
    305      -5.4421      2.00000
    306      -5.4406      2.00000
    307      -5.3945      2.00000
    308      -5.3645      2.00000
    309      -5.3102      2.00000
    310      -5.2984      2.00000
    311      -5.2811      2.00000
    312      -5.2797      2.00000
    313      -5.2735      2.00000
    314      -5.2335      2.00000
    315      -5.2197      2.00000
    316      -5.2181      2.00000
    317      -5.2002      2.00000
    318      -5.1775      2.00000
    319      -5.1767      2.00000
    320      -5.1754      2.00000
    321      -5.1553      2.00000
    322      -5.1277      2.00000
    323      -5.0992      2.00000
    324      -5.0969      2.00000
    325      -5.0908      2.00000
    326      -5.0855      2.00000
    327      -5.0189      2.00000
    328      -4.9514      2.00000
    329      -4.9501      2.00000
    330      -4.9452      2.00000
    331      -4.9365      2.00000
    332      -4.9357      2.00000
    333      -4.9338      2.00000
    334      -4.9334      2.00000
    335      -4.9321      2.00000
    336      -4.9314      2.00000
    337      -4.8899      2.00000
    338      -4.8838      2.00000
    339      -4.8462      2.00000
    340      -4.8216      2.00000
    341      -4.8167      2.00000
    342      -4.8012      2.00000
    343      -4.7895      2.00000
    344      -4.7873      2.00000
    345      -4.7798      2.00000
    346      -4.7354      2.00000
    347      -4.6596      2.00000
    348      -4.6289      2.00000
    349      -4.5883      2.00000
    350      -4.5673      2.00000
    351      -4.5432      2.00000
    352      -4.5382      2.00000
    353      -4.5378      2.00000
    354      -4.5354      2.00000
    355      -4.4197      2.00000
    356      -4.4065      2.00000
    357      -4.3836      2.00000
    358      -4.3364      2.00000
    359      -4.3291      2.00000
    360      -4.3084      2.00000
    361      -4.2985      2.00000
    362      -4.2921      2.00000
    363      -4.2459      2.00000
    364      -4.2377      2.00000
    365      -4.1845      2.00000
    366      -4.1712      2.00000
    367      -4.1670      2.00000
    368      -4.1400      2.00000
    369      -4.1309      2.00000
    370      -4.1095      2.00000
    371      -4.1038      2.00000
    372      -4.0288      2.00000
    373      -3.9869      2.00000
    374      -3.8236      2.00000
    375      -3.8099      2.00000
    376      -3.8088      2.00000
    377      -3.7966      2.00000
    378      -3.7931      2.00000
    379      -3.7888      2.00000
    380      -3.7072      2.00000
    381      -3.6879      2.00000
    382      -3.6837      2.00000
    383      -3.6338      1.99996
    384      -3.5525      1.99668
    385      -3.5064      1.97764
    386      -3.4924      1.96305
    387      -3.4735      1.93104
    388      -3.4532      1.87435
    389      -3.4106      1.64727
    390      -3.2465      0.16427
    391      -3.1762      0.01704
    392      -2.7995      0.00000
    393      -2.7483      0.00000
    394      -2.3846      0.00000
    395      -2.2736      0.00000
    396      -2.2674      0.00000
    397      -2.2552      0.00000
    398      -2.2098      0.00000
    399      -2.1986      0.00000
    400      -2.1718      0.00000
    401      -2.1340      0.00000
    402      -2.1084      0.00000
    403      -2.0628      0.00000
    404      -2.0387      0.00000
    405      -1.7236      0.00000
    406      -1.6512      0.00000
    407      -1.5571      0.00000
    408      -1.5415      0.00000
    409      -1.4847      0.00000
    410      -1.4422      0.00000
    411      -1.3541      0.00000
    412      -1.3062      0.00000
    413      -1.1699      0.00000
    414      -1.1538      0.00000
    415      -0.8313      0.00000
    416      -0.7575      0.00000
    417      -0.6940      0.00000
    418      -0.6461      0.00000
    419      -0.6022      0.00000
    420      -0.5814      0.00000
    421      -0.4606      0.00000
    422      -0.4364      0.00000
    423      -0.3845      0.00000
    424      -0.3601      0.00000
    425      -0.3472      0.00000
    426      -0.3164      0.00000
    427      -0.1616      0.00000
    428      -0.1243      0.00000
    429      -0.0812      0.00000
    430       0.0096      0.00000
    431       0.0656      0.00000
    432       0.0666      0.00000
    433       0.0759      0.00000
    434       0.1704      0.00000
    435       0.3034      0.00000
    436       0.3064      0.00000
    437       0.3336      0.00000
    438       0.4009      0.00000
    439       0.4097      0.00000
    440       0.4307      0.00000
    441       0.4822      0.00000
    442       0.4972      0.00000
    443       0.4996      0.00000
    444       0.5083      0.00000
    445       0.5225      0.00000
    446       0.5259      0.00000
    447       0.5681      0.00000
    448       0.5782      0.00000
    449       0.6074      0.00000
    450       0.6261      0.00000
    451       0.6792      0.00000
    452       0.6850      0.00000
    453       0.7481      0.00000
    454       0.7585      0.00000
    455       0.7992      0.00000
    456       0.8185      0.00000
    457       0.8353      0.00000
    458       0.8706      0.00000
    459       0.8929      0.00000
    460       0.9200      0.00000
    461       0.9422      0.00000
    462       0.9970      0.00000
    463       1.0667      0.00000
    464       1.0691      0.00000
    465       1.0839      0.00000
    466       1.1074      0.00000
    467       1.1716      0.00000
    468       1.2128      0.00000
    469       1.2461      0.00000
    470       1.2825      0.00000
    471       1.3310      0.00000
    472       1.3367      0.00000
    473       1.3494      0.00000
    474       1.3849      0.00000
    475       1.4016      0.00000
    476       1.4193      0.00000
    477       1.4309      0.00000
    478       1.4366      0.00000
    479       1.4555      0.00000
    480       1.4584      0.00000
    481       1.5003      0.00000
    482       1.5055      0.00000
    483       1.5093      0.00000
    484       1.5210      0.00000
    485       1.5240      0.00000
    486       1.5287      0.00000
    487       1.5474      0.00000
    488       1.5873      0.00000
    489       1.5892      0.00000
    490       1.6153      0.00000
    491       1.6325      0.00000
    492       1.6635      0.00000
    493       1.6648      0.00000
    494       1.6660      0.00000
    495       1.6786      0.00000
    496       1.6942      0.00000
    497       1.7539      0.00000
    498       1.7975      0.00000
    499       1.7988      0.00000
    500       1.8415      0.00000
    501       1.8456      0.00000
    502       1.8782      0.00000
    503       1.9648      0.00000
    504       1.9851      0.00000
    505       2.0332      0.00000
    506       2.0385      0.00000
    507       2.0431      0.00000
    508       2.0462      0.00000
    509       2.0472      0.00000
    510       2.0546      0.00000
    511       2.0929      0.00000
    512       2.1179      0.00000
    513       2.1302      0.00000
    514       2.1403      0.00000
    515       2.1440      0.00000
    516       2.1584      0.00000
    517       2.1647      0.00000
    518       2.1670      0.00000
    519       2.2078      0.00000
    520       2.2237      0.00000
    521       2.2298      0.00000
    522       2.2812      0.00000
    523       2.2875      0.00000
    524       2.2898      0.00000
    525       2.3206      0.00000
    526       2.3532      0.00000
    527       2.3674      0.00000
    528       2.4535      0.00000

 k-point     4 :       0.3750    0.3333    0.0000
  band No.  band energies     occupation 
      1     -18.5512      2.00000
      2     -18.5318      2.00000
      3     -18.4980      2.00000
      4     -18.4685      2.00000
      5     -18.4609      2.00000
      6     -18.4198      2.00000
      7     -18.3419      2.00000
      8     -18.3231      2.00000
      9     -18.2899      2.00000
     10     -18.2610      2.00000
     11     -18.2533      2.00000
     12     -18.2134      2.00000
     13     -18.1990      2.00000
     14     -18.1947      2.00000
     15     -18.1724      2.00000
     16     -17.9939      2.00000
     17     -17.9881      2.00000
     18     -17.9684      2.00000
     19     -17.9057      2.00000
     20     -17.8791      2.00000
     21     -17.8735      2.00000
     22     -17.7244      2.00000
     23     -17.6973      2.00000
     24     -17.6923      2.00000
     25     -17.5936      2.00000
     26     -17.5527      2.00000
     27     -17.5424      2.00000
     28     -17.4928      2.00000
     29     -17.4367      2.00000
     30     -17.4164      2.00000
     31     -17.4124      2.00000
     32     -17.3769      2.00000
     33     -17.3665      2.00000
     34     -17.3184      2.00000
     35     -17.2640      2.00000
     36     -17.2407      2.00000
     37     -14.4563      2.00000
     38     -14.4043      2.00000
     39     -14.3976      2.00000
     40     -14.3681      2.00000
     41     -14.3550      2.00000
     42     -14.3509      2.00000
     43     -14.3317      2.00000
     44     -14.2845      2.00000
     45     -14.2586      2.00000
     46     -14.2291      2.00000
     47     -14.2061      2.00000
     48     -14.2030      2.00000
     49     -14.1789      2.00000
     50     -14.1669      2.00000
     51     -14.1543      2.00000
     52     -14.1424      2.00000
     53     -14.1096      2.00000
     54     -14.1041      2.00000
     55     -14.0905      2.00000
     56     -14.0336      2.00000
     57     -13.9945      2.00000
     58     -13.9368      2.00000
     59     -13.9354      2.00000
     60     -13.8767      2.00000
     61     -13.8509      2.00000
     62     -13.8044      2.00000
     63     -13.8014      2.00000
     64     -13.7812      2.00000
     65     -13.7659      2.00000
     66     -13.6984      2.00000
     67     -13.6917      2.00000
     68     -13.6359      2.00000
     69     -13.6200      2.00000
     70     -13.6125      2.00000
     71     -13.6093      2.00000
     72     -13.4652      2.00000
     73     -12.3244      2.00000
     74     -12.1099      2.00000
     75     -12.0857      2.00000
     76     -12.0387      2.00000
     77     -11.9138      2.00000
     78     -11.8694      2.00000
     79     -11.8667      2.00000
     80     -11.8482      2.00000
     81     -11.8239      2.00000
     82     -11.8211      2.00000
     83     -11.7786      2.00000
     84     -11.7645      2.00000
     85     -11.7359      2.00000
     86     -11.7181      2.00000
     87     -11.6935      2.00000
     88     -11.6698      2.00000
     89     -11.6517      2.00000
     90     -11.6458      2.00000
     91     -11.6056      2.00000
     92     -11.5586      2.00000
     93     -11.5052      2.00000
     94     -11.4839      2.00000
     95     -11.4828      2.00000
     96     -11.4760      2.00000
     97     -11.4411      2.00000
     98     -11.4123      2.00000
     99     -11.3946      2.00000
    100     -11.3633      2.00000
    101     -11.3300      2.00000
    102     -11.2040      2.00000
    103     -11.1579      2.00000
    104     -11.1407      2.00000
    105     -11.1232      2.00000
    106     -11.1222      2.00000
    107     -11.0449      2.00000
    108     -11.0289      2.00000
    109     -10.9977      2.00000
    110     -10.8997      2.00000
    111     -10.8946      2.00000
    112     -10.8889      2.00000
    113     -10.8715      2.00000
    114     -10.7370      2.00000
    115     -10.6914      2.00000
    116     -10.6732      2.00000
    117     -10.6671      2.00000
    118     -10.6648      2.00000
    119     -10.6431      2.00000
    120     -10.6262      2.00000
    121     -10.5128      2.00000
    122     -10.4738      2.00000
    123     -10.4395      2.00000
    124     -10.4185      2.00000
    125     -10.4111      2.00000
    126     -10.3811      2.00000
    127     -10.3439      2.00000
    128     -10.3276      2.00000
    129     -10.3149      2.00000
    130     -10.2921      2.00000
    131     -10.2679      2.00000
    132     -10.2321      2.00000
    133     -10.2314      2.00000
    134     -10.1989      2.00000
    135     -10.1661      2.00000
    136     -10.1077      2.00000
    137     -10.0907      2.00000
    138     -10.0552      2.00000
    139     -10.0184      2.00000
    140     -10.0022      2.00000
    141      -9.9828      2.00000
    142      -9.9686      2.00000
    143      -9.8874      2.00000
    144      -9.7541      2.00000
    145      -9.6620      2.00000
    146      -9.6159      2.00000
    147      -9.6043      2.00000
    148      -9.4725      2.00000
    149      -9.4667      2.00000
    150      -9.4448      2.00000
    151      -9.3863      2.00000
    152      -9.3440      2.00000
    153      -9.3328      2.00000
    154      -9.2926      2.00000
    155      -9.2885      2.00000
    156      -9.2610      2.00000
    157      -9.1770      2.00000
    158      -9.1383      2.00000
    159      -9.1197      2.00000
    160      -9.1127      2.00000
    161      -9.1024      2.00000
    162      -9.0687      2.00000
    163      -8.9952      2.00000
    164      -8.9780      2.00000
    165      -8.9732      2.00000
    166      -8.9421      2.00000
    167      -8.9077      2.00000
    168      -8.8593      2.00000
    169      -8.8521      2.00000
    170      -8.7776      2.00000
    171      -8.7441      2.00000
    172      -8.6565      2.00000
    173      -8.5907      2.00000
    174      -8.5647      2.00000
    175      -8.5614      2.00000
    176      -8.5573      2.00000
    177      -8.5397      2.00000
    178      -8.5132      2.00000
    179      -8.3686      2.00000
    180      -8.3627      2.00000
    181      -8.3426      2.00000
    182      -8.3057      2.00000
    183      -8.2350      2.00000
    184      -8.1979      2.00000
    185      -8.1957      2.00000
    186      -8.1796      2.00000
    187      -8.1317      2.00000
    188      -8.0991      2.00000
    189      -8.0684      2.00000
    190      -8.0589      2.00000
    191      -8.0392      2.00000
    192      -8.0301      2.00000
    193      -7.9854      2.00000
    194      -7.9611      2.00000
    195      -7.9599      2.00000
    196      -7.8840      2.00000
    197      -7.8352      2.00000
    198      -7.8058      2.00000
    199      -7.7851      2.00000
    200      -7.7607      2.00000
    201      -7.7273      2.00000
    202      -7.7202      2.00000
    203      -7.7165      2.00000
    204      -7.6250      2.00000
    205      -7.5246      2.00000
    206      -7.5076      2.00000
    207      -7.5022      2.00000
    208      -7.4931      2.00000
    209      -7.3830      2.00000
    210      -7.3743      2.00000
    211      -7.3616      2.00000
    212      -7.3611      2.00000
    213      -7.3393      2.00000
    214      -7.3373      2.00000
    215      -7.2481      2.00000
    216      -7.2398      2.00000
    217      -7.2241      2.00000
    218      -7.2100      2.00000
    219      -7.2049      2.00000
    220      -7.1714      2.00000
    221      -7.1704      2.00000
    222      -7.1667      2.00000
    223      -7.1624      2.00000
    224      -7.1037      2.00000
    225      -7.0828      2.00000
    226      -7.0768      2.00000
    227      -7.0589      2.00000
    228      -7.0419      2.00000
    229      -7.0306      2.00000
    230      -7.0211      2.00000
    231      -7.0074      2.00000
    232      -6.9607      2.00000
    233      -6.9466      2.00000
    234      -6.8977      2.00000
    235      -6.8369      2.00000
    236      -6.8150      2.00000
    237      -6.8121      2.00000
    238      -6.7905      2.00000
    239      -6.7774      2.00000
    240      -6.7706      2.00000
    241      -6.7592      2.00000
    242      -6.7356      2.00000
    243      -6.7299      2.00000
    244      -6.6948      2.00000
    245      -6.6924      2.00000
    246      -6.6920      2.00000
    247      -6.6845      2.00000
    248      -6.6105      2.00000
    249      -6.5870      2.00000
    250      -6.5852      2.00000
    251      -6.5832      2.00000
    252      -6.4929      2.00000
    253      -6.4546      2.00000
    254      -6.4471      2.00000
    255      -6.4430      2.00000
    256      -6.4405      2.00000
    257      -6.3724      2.00000
    258      -6.3705      2.00000
    259      -6.3465      2.00000
    260      -6.3385      2.00000
    261      -6.2880      2.00000
    262      -6.2511      2.00000
    263      -6.2473      2.00000
    264      -6.2466      2.00000
    265      -6.2436      2.00000
    266      -6.2095      2.00000
    267      -6.1779      2.00000
    268      -6.1676      2.00000
    269      -6.1399      2.00000
    270      -6.1004      2.00000
    271      -6.0363      2.00000
    272      -6.0313      2.00000
    273      -6.0231      2.00000
    274      -6.0191      2.00000
    275      -5.9863      2.00000
    276      -5.9734      2.00000
    277      -5.9414      2.00000
    278      -5.9173      2.00000
    279      -5.9136      2.00000
    280      -5.9045      2.00000
    281      -5.8805      2.00000
    282      -5.7906      2.00000
    283      -5.7815      2.00000
    284      -5.7541      2.00000
    285      -5.7397      2.00000
    286      -5.7337      2.00000
    287      -5.7296      2.00000
    288      -5.7178      2.00000
    289      -5.7092      2.00000
    290      -5.6978      2.00000
    291      -5.6918      2.00000
    292      -5.6602      2.00000
    293      -5.6488      2.00000
    294      -5.6333      2.00000
    295      -5.6320      2.00000
    296      -5.6081      2.00000
    297      -5.5974      2.00000
    298      -5.5952      2.00000
    299      -5.5669      2.00000
    300      -5.5450      2.00000
    301      -5.5443      2.00000
    302      -5.5276      2.00000
    303      -5.4847      2.00000
    304      -5.4486      2.00000
    305      -5.4337      2.00000
    306      -5.4284      2.00000
    307      -5.4167      2.00000
    308      -5.4131      2.00000
    309      -5.3910      2.00000
    310      -5.3887      2.00000
    311      -5.3856      2.00000
    312      -5.3708      2.00000
    313      -5.3663      2.00000
    314      -5.2458      2.00000
    315      -5.2427      2.00000
    316      -5.2279      2.00000
    317      -5.2047      2.00000
    318      -5.1917      2.00000
    319      -5.1825      2.00000
    320      -5.1798      2.00000
    321      -5.1610      2.00000
    322      -5.1501      2.00000
    323      -5.0548      2.00000
    324      -5.0519      2.00000
    325      -5.0491      2.00000
    326      -5.0164      2.00000
    327      -4.9943      2.00000
    328      -4.9891      2.00000
    329      -4.9820      2.00000
    330      -4.9669      2.00000
    331      -4.9666      2.00000
    332      -4.9496      2.00000
    333      -4.9429      2.00000
    334      -4.9343      2.00000
    335      -4.9318      2.00000
    336      -4.9312      2.00000
    337      -4.9253      2.00000
    338      -4.8800      2.00000
    339      -4.8358      2.00000
    340      -4.8343      2.00000
    341      -4.8310      2.00000
    342      -4.8181      2.00000
    343      -4.8173      2.00000
    344      -4.7404      2.00000
    345      -4.7093      2.00000
    346      -4.6779      2.00000
    347      -4.6774      2.00000
    348      -4.6526      2.00000
    349      -4.6470      2.00000
    350      -4.6340      2.00000
    351      -4.6221      2.00000
    352      -4.6204      2.00000
    353      -4.6195      2.00000
    354      -4.6079      2.00000
    355      -4.4990      2.00000
    356      -4.4515      2.00000
    357      -4.3734      2.00000
    358      -4.3552      2.00000
    359      -4.3539      2.00000
    360      -4.3369      2.00000
    361      -4.3216      2.00000
    362      -4.3170      2.00000
    363      -4.3053      2.00000
    364      -4.2905      2.00000
    365      -4.2570      2.00000
    366      -4.2553      2.00000
    367      -4.2477      2.00000
    368      -4.2416      2.00000
    369      -4.1863      2.00000
    370      -4.1577      2.00000
    371      -4.1283      2.00000
    372      -4.0563      2.00000
    373      -4.0262      2.00000
    374      -3.9827      2.00000
    375      -3.9286      2.00000
    376      -3.9282      2.00000
    377      -3.9245      2.00000
    378      -3.8772      2.00000
    379      -3.7595      2.00000
    380      -3.6494      1.99998
    381      -3.6281      1.99994
    382      -3.6209      1.99991
    383      -3.5718      1.99867
    384      -3.5618      1.99785
    385      -3.3426      0.97403
    386      -3.1985      0.03838
    387      -3.1864      0.02499
    388      -3.0752      0.00014
    389      -3.0170      0.00000
    390      -3.0162      0.00000
    391      -2.8448      0.00000
    392      -2.8441      0.00000
    393      -2.7883      0.00000
    394      -2.6435      0.00000
    395      -2.4250      0.00000
    396      -2.2842      0.00000
    397      -2.2765      0.00000
    398      -2.2563      0.00000
    399      -2.2032      0.00000
    400      -2.1636      0.00000
    401      -2.1566      0.00000
    402      -2.1187      0.00000
    403      -2.1122      0.00000
    404      -2.1098      0.00000
    405      -2.0609      0.00000
    406      -1.6817      0.00000
    407      -1.5544      0.00000
    408      -1.5347      0.00000
    409      -1.4489      0.00000
    410      -1.3985      0.00000
    411      -1.3666      0.00000
    412      -1.2590      0.00000
    413      -1.2535      0.00000
    414      -1.1998      0.00000
    415      -0.8636      0.00000
    416      -0.8302      0.00000
    417      -0.7939      0.00000
    418      -0.7127      0.00000
    419      -0.6923      0.00000
    420      -0.6518      0.00000
    421      -0.5009      0.00000
    422      -0.3653      0.00000
    423      -0.2798      0.00000
    424      -0.2165      0.00000
    425      -0.1341      0.00000
    426      -0.1324      0.00000
    427      -0.1302      0.00000
    428      -0.0514      0.00000
    429      -0.0398      0.00000
    430      -0.0193      0.00000
    431       0.0418      0.00000
    432       0.2081      0.00000
    433       0.2106      0.00000
    434       0.2336      0.00000
    435       0.2464      0.00000
    436       0.2515      0.00000
    437       0.3342      0.00000
    438       0.3919      0.00000
    439       0.4289      0.00000
    440       0.4548      0.00000
    441       0.4696      0.00000
    442       0.4828      0.00000
    443       0.4844      0.00000
    444       0.4919      0.00000
    445       0.4945      0.00000
    446       0.5813      0.00000
    447       0.6002      0.00000
    448       0.6190      0.00000
    449       0.6322      0.00000
    450       0.6810      0.00000
    451       0.6886      0.00000
    452       0.6920      0.00000
    453       0.6930      0.00000
    454       0.6987      0.00000
    455       0.7232      0.00000
    456       0.7685      0.00000
    457       0.7939      0.00000
    458       0.8317      0.00000
    459       0.8880      0.00000
    460       0.9682      0.00000
    461       0.9945      0.00000
    462       1.0100      0.00000
    463       1.0265      0.00000
    464       1.0647      0.00000
    465       1.1053      0.00000
    466       1.1099      0.00000
    467       1.1585      0.00000
    468       1.1777      0.00000
    469       1.2544      0.00000
    470       1.2625      0.00000
    471       1.2685      0.00000
    472       1.2829      0.00000
    473       1.3177      0.00000
    474       1.3292      0.00000
    475       1.3332      0.00000
    476       1.3623      0.00000
    477       1.4011      0.00000
    478       1.4195      0.00000
    479       1.4335      0.00000
    480       1.4606      0.00000
    481       1.4709      0.00000
    482       1.5259      0.00000
    483       1.5308      0.00000
    484       1.5561      0.00000
    485       1.5634      0.00000
    486       1.5740      0.00000
    487       1.5745      0.00000
    488       1.6029      0.00000
    489       1.6110      0.00000
    490       1.6177      0.00000
    491       1.6338      0.00000
    492       1.6424      0.00000
    493       1.6617      0.00000
    494       1.6802      0.00000
    495       1.7203      0.00000
    496       1.7354      0.00000
    497       1.7652      0.00000
    498       1.7929      0.00000
    499       1.8808      0.00000
    500       1.8843      0.00000
    501       1.8930      0.00000
    502       1.9488      0.00000
    503       1.9520      0.00000
    504       1.9605      0.00000
    505       1.9615      0.00000
    506       2.0074      0.00000
    507       2.0138      0.00000
    508       2.0541      0.00000
    509       2.0802      0.00000
    510       2.0829      0.00000
    511       2.0932      0.00000
    512       2.0963      0.00000
    513       2.1012      0.00000
    514       2.1179      0.00000
    515       2.1342      0.00000
    516       2.1399      0.00000
    517       2.1522      0.00000
    518       2.1538      0.00000
    519       2.1720      0.00000
    520       2.1746      0.00000
    521       2.1777      0.00000
    522       2.1884      0.00000
    523       2.2128      0.00000
    524       2.2283      0.00000
    525       2.2626      0.00000
    526       2.3550      0.00000
    527       2.4128      0.00000
    528       2.4312      0.00000

 k-point     5 :      -0.3750    0.3333    0.0000
  band No.  band energies     occupation 
      1     -18.5568      2.00000
      2     -18.5225      2.00000
      3     -18.4888      2.00000
      4     -18.4762      2.00000
      5     -18.4724      2.00000
      6     -18.4134      2.00000
      7     -18.3475      2.00000
      8     -18.3137      2.00000
      9     -18.2806      2.00000
     10     -18.2687      2.00000
     11     -18.2649      2.00000
     12     -18.2070      2.00000
     13     -18.2048      2.00000
     14     -18.1834      2.00000
     15     -18.1780      2.00000
     16     -17.9988      2.00000
     17     -17.9773      2.00000
     18     -17.9742      2.00000
     19     -17.8995      2.00000
     20     -17.8927      2.00000
     21     -17.8662      2.00000
     22     -17.7184      2.00000
     23     -17.7108      2.00000
     24     -17.6848      2.00000
     25     -17.6066      2.00000
     26     -17.5336      2.00000
     27     -17.5177      2.00000
     28     -17.5150      2.00000
     29     -17.4610      2.00000
     30     -17.4292      2.00000
     31     -17.3967      2.00000
     32     -17.3578      2.00000
     33     -17.3426      2.00000
     34     -17.3401      2.00000
     35     -17.2877      2.00000
     36     -17.2254      2.00000
     37     -14.4361      2.00000
     38     -14.4221      2.00000
     39     -14.4054      2.00000
     40     -14.3852      2.00000
     41     -14.3821      2.00000
     42     -14.3407      2.00000
     43     -14.2973      2.00000
     44     -14.2828      2.00000
     45     -14.2438      2.00000
     46     -14.2188      2.00000
     47     -14.2183      2.00000
     48     -14.2084      2.00000
     49     -14.1915      2.00000
     50     -14.1813      2.00000
     51     -14.1546      2.00000
     52     -14.1131      2.00000
     53     -14.1035      2.00000
     54     -14.0990      2.00000
     55     -14.0947      2.00000
     56     -14.0435      2.00000
     57     -14.0113      2.00000
     58     -13.9188      2.00000
     59     -13.9029      2.00000
     60     -13.8690      2.00000
     61     -13.8501      2.00000
     62     -13.8368      2.00000
     63     -13.7983      2.00000
     64     -13.7900      2.00000
     65     -13.7766      2.00000
     66     -13.6886      2.00000
     67     -13.6868      2.00000
     68     -13.6429      2.00000
     69     -13.6357      2.00000
     70     -13.6092      2.00000
     71     -13.5996      2.00000
     72     -13.4734      2.00000
     73     -12.3493      2.00000
     74     -12.1297      2.00000
     75     -12.0145      2.00000
     76     -12.0123      2.00000
     77     -11.9462      2.00000
     78     -11.9087      2.00000
     79     -11.8183      2.00000
     80     -11.8118      2.00000
     81     -11.7875      2.00000
     82     -11.7872      2.00000
     83     -11.7794      2.00000
     84     -11.7741      2.00000
     85     -11.7643      2.00000
     86     -11.7390      2.00000
     87     -11.7240      2.00000
     88     -11.6742      2.00000
     89     -11.6553      2.00000
     90     -11.6290      2.00000
     91     -11.6178      2.00000
     92     -11.5950      2.00000
     93     -11.5368      2.00000
     94     -11.5127      2.00000
     95     -11.4737      2.00000
     96     -11.4277      2.00000
     97     -11.4069      2.00000
     98     -11.3538      2.00000
     99     -11.3466      2.00000
    100     -11.3330      2.00000
    101     -11.2510      2.00000
    102     -11.2497      2.00000
    103     -11.2425      2.00000
    104     -11.2223      2.00000
    105     -11.1325      2.00000
    106     -11.1174      2.00000
    107     -11.0600      2.00000
    108     -11.0099      2.00000
    109     -10.9935      2.00000
    110     -10.9678      2.00000
    111     -10.9598      2.00000
    112     -10.9362      2.00000
    113     -10.8739      2.00000
    114     -10.8532      2.00000
    115     -10.8399      2.00000
    116     -10.6962      2.00000
    117     -10.6738      2.00000
    118     -10.6298      2.00000
    119     -10.5741      2.00000
    120     -10.5613      2.00000
    121     -10.5359      2.00000
    122     -10.5264      2.00000
    123     -10.3785      2.00000
    124     -10.3449      2.00000
    125     -10.3413      2.00000
    126     -10.3337      2.00000
    127     -10.3300      2.00000
    128     -10.3235      2.00000
    129     -10.2393      2.00000
    130     -10.2297      2.00000
    131     -10.2257      2.00000
    132     -10.1587      2.00000
    133     -10.1374      2.00000
    134     -10.1018      2.00000
    135     -10.0940      2.00000
    136     -10.0709      2.00000
    137     -10.0573      2.00000
    138     -10.0284      2.00000
    139     -10.0130      2.00000
    140      -9.9913      2.00000
    141      -9.9770      2.00000
    142      -9.9667      2.00000
    143      -9.9384      2.00000
    144      -9.8062      2.00000
    145      -9.7964      2.00000
    146      -9.7925      2.00000
    147      -9.6793      2.00000
    148      -9.6738      2.00000
    149      -9.5355      2.00000
    150      -9.4822      2.00000
    151      -9.4754      2.00000
    152      -9.3587      2.00000
    153      -9.3496      2.00000
    154      -9.3427      2.00000
    155      -9.3363      2.00000
    156      -9.2656      2.00000
    157      -9.1665      2.00000
    158      -9.0816      2.00000
    159      -9.0796      2.00000
    160      -9.0138      2.00000
    161      -8.9964      2.00000
    162      -8.9689      2.00000
    163      -8.9661      2.00000
    164      -8.9420      2.00000
    165      -8.9075      2.00000
    166      -8.9052      2.00000
    167      -8.8817      2.00000
    168      -8.8587      2.00000
    169      -8.8251      2.00000
    170      -8.7746      2.00000
    171      -8.7276      2.00000
    172      -8.7218      2.00000
    173      -8.7207      2.00000
    174      -8.6682      2.00000
    175      -8.6056      2.00000
    176      -8.5908      2.00000
    177      -8.5568      2.00000
    178      -8.4883      2.00000
    179      -8.3396      2.00000
    180      -8.2767      2.00000
    181      -8.2579      2.00000
    182      -8.2464      2.00000
    183      -8.2443      2.00000
    184      -8.2358      2.00000
    185      -8.2320      2.00000
    186      -8.2172      2.00000
    187      -8.1117      2.00000
    188      -8.0761      2.00000
    189      -8.0694      2.00000
    190      -7.9944      2.00000
    191      -7.9914      2.00000
    192      -7.9845      2.00000
    193      -7.9836      2.00000
    194      -7.9644      2.00000
    195      -7.9129      2.00000
    196      -7.9000      2.00000
    197      -7.8572      2.00000
    198      -7.8405      2.00000
    199      -7.8031      2.00000
    200      -7.7332      2.00000
    201      -7.7004      2.00000
    202      -7.6701      2.00000
    203      -7.6526      2.00000
    204      -7.6442      2.00000
    205      -7.6069      2.00000
    206      -7.5910      2.00000
    207      -7.5185      2.00000
    208      -7.5006      2.00000
    209      -7.4640      2.00000
    210      -7.3976      2.00000
    211      -7.3455      2.00000
    212      -7.3424      2.00000
    213      -7.3364      2.00000
    214      -7.3101      2.00000
    215      -7.2776      2.00000
    216      -7.2709      2.00000
    217      -7.2530      2.00000
    218      -7.2429      2.00000
    219      -7.2421      2.00000
    220      -7.2110      2.00000
    221      -7.1722      2.00000
    222      -7.1597      2.00000
    223      -7.1151      2.00000
    224      -7.1090      2.00000
    225      -7.1078      2.00000
    226      -7.0461      2.00000
    227      -7.0381      2.00000
    228      -7.0342      2.00000
    229      -7.0235      2.00000
    230      -7.0107      2.00000
    231      -6.9526      2.00000
    232      -6.9314      2.00000
    233      -6.9257      2.00000
    234      -6.9228      2.00000
    235      -6.8691      2.00000
    236      -6.8575      2.00000
    237      -6.8554      2.00000
    238      -6.8481      2.00000
    239      -6.8073      2.00000
    240      -6.7715      2.00000
    241      -6.7539      2.00000
    242      -6.7110      2.00000
    243      -6.6916      2.00000
    244      -6.6862      2.00000
    245      -6.6600      2.00000
    246      -6.6420      2.00000
    247      -6.6261      2.00000
    248      -6.5992      2.00000
    249      -6.5890      2.00000
    250      -6.5248      2.00000
    251      -6.4985      2.00000
    252      -6.4959      2.00000
    253      -6.4957      2.00000
    254      -6.4854      2.00000
    255      -6.4846      2.00000
    256      -6.4840      2.00000
    257      -6.4403      2.00000
    258      -6.3538      2.00000
    259      -6.3533      2.00000
    260      -6.2972      2.00000
    261      -6.2775      2.00000
    262      -6.2712      2.00000
    263      -6.2655      2.00000
    264      -6.2565      2.00000
    265      -6.2477      2.00000
    266      -6.2439      2.00000
    267      -6.2289      2.00000
    268      -6.1514      2.00000
    269      -6.1300      2.00000
    270      -6.1171      2.00000
    271      -6.0884      2.00000
    272      -6.0702      2.00000
    273      -6.0503      2.00000
    274      -6.0181      2.00000
    275      -5.9925      2.00000
    276      -5.9328      2.00000
    277      -5.9188      2.00000
    278      -5.9022      2.00000
    279      -5.8900      2.00000
    280      -5.8824      2.00000
    281      -5.8014      2.00000
    282      -5.7910      2.00000
    283      -5.7875      2.00000
    284      -5.7467      2.00000
    285      -5.7363      2.00000
    286      -5.7260      2.00000
    287      -5.7208      2.00000
    288      -5.7166      2.00000
    289      -5.7108      2.00000
    290      -5.7067      2.00000
    291      -5.6708      2.00000
    292      -5.6676      2.00000
    293      -5.6467      2.00000
    294      -5.6152      2.00000
    295      -5.6149      2.00000
    296      -5.6084      2.00000
    297      -5.6079      2.00000
    298      -5.5502      2.00000
    299      -5.5409      2.00000
    300      -5.5216      2.00000
    301      -5.4894      2.00000
    302      -5.4869      2.00000
    303      -5.4729      2.00000
    304      -5.4652      2.00000
    305      -5.4533      2.00000
    306      -5.4470      2.00000
    307      -5.4417      2.00000
    308      -5.4390      2.00000
    309      -5.4029      2.00000
    310      -5.3889      2.00000
    311      -5.3719      2.00000
    312      -5.3601      2.00000
    313      -5.3483      2.00000
    314      -5.2697      2.00000
    315      -5.2291      2.00000
    316      -5.2266      2.00000
    317      -5.2232      2.00000
    318      -5.1753      2.00000
    319      -5.1735      2.00000
    320      -5.1160      2.00000
    321      -5.1018      2.00000
    322      -5.0687      2.00000
    323      -5.0627      2.00000
    324      -5.0559      2.00000
    325      -5.0552      2.00000
    326      -5.0352      2.00000
    327      -5.0329      2.00000
    328      -5.0132      2.00000
    329      -4.9766      2.00000
    330      -4.9711      2.00000
    331      -4.9662      2.00000
    332      -4.9611      2.00000
    333      -4.9595      2.00000
    334      -4.9553      2.00000
    335      -4.9445      2.00000
    336      -4.9319      2.00000
    337      -4.9097      2.00000
    338      -4.9000      2.00000
    339      -4.8922      2.00000
    340      -4.8893      2.00000
    341      -4.8840      2.00000
    342      -4.8797      2.00000
    343      -4.8636      2.00000
    344      -4.8343      2.00000
    345      -4.8301      2.00000
    346      -4.8048      2.00000
    347      -4.7532      2.00000
    348      -4.7051      2.00000
    349      -4.6729      2.00000
    350      -4.6322      2.00000
    351      -4.5482      2.00000
    352      -4.5303      2.00000
    353      -4.5243      2.00000
    354      -4.5072      2.00000
    355      -4.4074      2.00000
    356      -4.3882      2.00000
    357      -4.3770      2.00000
    358      -4.3439      2.00000
    359      -4.3360      2.00000
    360      -4.3338      2.00000
    361      -4.2813      2.00000
    362      -4.2803      2.00000
    363      -4.2725      2.00000
    364      -4.2625      2.00000
    365      -4.2546      2.00000
    366      -4.2197      2.00000
    367      -4.2127      2.00000
    368      -4.1946      2.00000
    369      -4.1138      2.00000
    370      -4.0998      2.00000
    371      -4.0890      2.00000
    372      -4.0597      2.00000
    373      -4.0367      2.00000
    374      -4.0221      2.00000
    375      -4.0173      2.00000
    376      -3.9681      2.00000
    377      -3.9614      2.00000
    378      -3.9036      2.00000
    379      -3.8925      2.00000
    380      -3.8008      2.00000
    381      -3.6302      1.99995
    382      -3.6157      1.99987
    383      -3.5055      1.97686
    384      -3.3787      1.36797
    385      -3.3341      0.87878
    386      -3.3249      0.77726
    387      -3.2861      0.40592
    388      -3.0677      0.00009
    389      -3.0171      0.00000
    390      -2.9601      0.00000
    391      -2.9470      0.00000
    392      -2.7619      0.00000
    393      -2.7510      0.00000
    394      -2.5359      0.00000
    395      -2.4318      0.00000
    396      -2.2839      0.00000
    397      -2.2673      0.00000
    398      -2.2617      0.00000
    399      -2.2322      0.00000
    400      -2.1827      0.00000
    401      -2.1795      0.00000
    402      -2.1404      0.00000
    403      -2.1213      0.00000
    404      -2.1044      0.00000
    405      -2.0615      0.00000
    406      -1.6514      0.00000
    407      -1.5996      0.00000
    408      -1.5183      0.00000
    409      -1.4620      0.00000
    410      -1.3753      0.00000
    411      -1.3301      0.00000
    412      -1.3171      0.00000
    413      -1.2728      0.00000
    414      -1.1726      0.00000
    415      -0.8612      0.00000
    416      -0.7696      0.00000
    417      -0.7638      0.00000
    418      -0.6937      0.00000
    419      -0.6466      0.00000
    420      -0.6208      0.00000
    421      -0.5536      0.00000
    422      -0.5062      0.00000
    423      -0.4788      0.00000
    424      -0.1460      0.00000
    425      -0.1300      0.00000
    426      -0.0869      0.00000
    427      -0.0655      0.00000
    428       0.0289      0.00000
    429       0.0382      0.00000
    430       0.0943      0.00000
    431       0.0983      0.00000
    432       0.1303      0.00000
    433       0.1540      0.00000
    434       0.2289      0.00000
    435       0.2435      0.00000
    436       0.2694      0.00000
    437       0.3422      0.00000
    438       0.3455      0.00000
    439       0.3552      0.00000
    440       0.3565      0.00000
    441       0.4037      0.00000
    442       0.4208      0.00000
    443       0.4736      0.00000
    444       0.4873      0.00000
    445       0.5276      0.00000
    446       0.5341      0.00000
    447       0.6013      0.00000
    448       0.6423      0.00000
    449       0.6476      0.00000
    450       0.6711      0.00000
    451       0.7039      0.00000
    452       0.7155      0.00000
    453       0.7486      0.00000
    454       0.7699      0.00000
    455       0.7913      0.00000
    456       0.7924      0.00000
    457       0.8288      0.00000
    458       0.8443      0.00000
    459       0.9100      0.00000
    460       0.9555      0.00000
    461       0.9822      0.00000
    462       1.0264      0.00000
    463       1.0289      0.00000
    464       1.0330      0.00000
    465       1.0614      0.00000
    466       1.1322      0.00000
    467       1.1634      0.00000
    468       1.2146      0.00000
    469       1.2218      0.00000
    470       1.2333      0.00000
    471       1.2627      0.00000
    472       1.2646      0.00000
    473       1.2683      0.00000
    474       1.2779      0.00000
    475       1.3465      0.00000
    476       1.3767      0.00000
    477       1.4040      0.00000
    478       1.4125      0.00000
    479       1.4151      0.00000
    480       1.4664      0.00000
    481       1.5080      0.00000
    482       1.5275      0.00000
    483       1.5338      0.00000
    484       1.5423      0.00000
    485       1.5426      0.00000
    486       1.5445      0.00000
    487       1.5486      0.00000
    488       1.5543      0.00000
    489       1.6259      0.00000
    490       1.6328      0.00000
    491       1.6836      0.00000
    492       1.7042      0.00000
    493       1.7086      0.00000
    494       1.7413      0.00000
    495       1.7532      0.00000
    496       1.7955      0.00000
    497       1.7978      0.00000
    498       1.7985      0.00000
    499       1.8111      0.00000
    500       1.8176      0.00000
    501       1.8349      0.00000
    502       1.8376      0.00000
    503       1.8630      0.00000
    504       1.8890      0.00000
    505       1.9143      0.00000
    506       1.9405      0.00000
    507       1.9935      0.00000
    508       2.0316      0.00000
    509       2.0748      0.00000
    510       2.0753      0.00000
    511       2.1055      0.00000
    512       2.1116      0.00000
    513       2.1378      0.00000
    514       2.1551      0.00000
    515       2.1637      0.00000
    516       2.1755      0.00000
    517       2.1973      0.00000
    518       2.2055      0.00000
    519       2.2142      0.00000
    520       2.2154      0.00000
    521       2.2299      0.00000
    522       2.2345      0.00000
    523       2.2390      0.00000
    524       2.3113      0.00000
    525       2.3284      0.00000
    526       2.3739      0.00000
    527       2.3751      0.00000
    528       2.4298      0.00000

 k-point     6 :      -0.1250    0.3333    0.0000
  band No.  band energies     occupation 
      1     -18.5859      2.00000
      2     -18.5556      2.00000
      3     -18.4989      2.00000
      4     -18.4001      2.00000
      5     -18.3951      2.00000
      6     -18.3760      2.00000
      7     -18.3462      2.00000
      8     -18.3365      2.00000
      9     -18.3074      2.00000
     10     -18.2907      2.00000
     11     -18.2719      2.00000
     12     -18.2565      2.00000
     13     -18.1934      2.00000
     14     -18.1892      2.00000
     15     -18.1315      2.00000
     16     -18.1021      2.00000
     17     -18.0667      2.00000
     18     -18.0528      2.00000
     19     -17.7990      2.00000
     20     -17.7795      2.00000
     21     -17.7664      2.00000
     22     -17.6945      2.00000
     23     -17.6471      2.00000
     24     -17.6316      2.00000
     25     -17.6177      2.00000
     26     -17.5984      2.00000
     27     -17.5849      2.00000
     28     -17.5151      2.00000
     29     -17.5044      2.00000
     30     -17.4685      2.00000
     31     -17.4532      2.00000
     32     -17.4072      2.00000
     33     -17.3479      2.00000
     34     -17.3294      2.00000
     35     -17.2356      2.00000
     36     -17.1783      2.00000
     37     -14.4772      2.00000
     38     -14.4748      2.00000
     39     -14.3997      2.00000
     40     -14.3798      2.00000
     41     -14.3390      2.00000
     42     -14.3217      2.00000
     43     -14.2969      2.00000
     44     -14.2808      2.00000
     45     -14.2778      2.00000
     46     -14.2493      2.00000
     47     -14.2063      2.00000
     48     -14.1967      2.00000
     49     -14.1811      2.00000
     50     -14.1485      2.00000
     51     -14.1326      2.00000
     52     -14.1305      2.00000
     53     -14.1173      2.00000
     54     -14.0699      2.00000
     55     -14.0116      2.00000
     56     -13.9696      2.00000
     57     -13.9501      2.00000
     58     -13.9479      2.00000
     59     -13.9352      2.00000
     60     -13.8791      2.00000
     61     -13.8758      2.00000
     62     -13.8646      2.00000
     63     -13.7886      2.00000
     64     -13.7785      2.00000
     65     -13.7714      2.00000
     66     -13.7668      2.00000
     67     -13.7196      2.00000
     68     -13.6983      2.00000
     69     -13.6910      2.00000
     70     -13.6151      2.00000
     71     -13.5542      2.00000
     72     -13.3939      2.00000
     73     -12.5234      2.00000
     74     -12.3024      2.00000
     75     -12.0239      2.00000
     76     -11.9243      2.00000
     77     -11.8890      2.00000
     78     -11.8492      2.00000
     79     -11.8288      2.00000
     80     -11.8034      2.00000
     81     -11.8021      2.00000
     82     -11.7800      2.00000
     83     -11.7659      2.00000
     84     -11.7545      2.00000
     85     -11.7071      2.00000
     86     -11.6958      2.00000
     87     -11.6609      2.00000
     88     -11.6389      2.00000
     89     -11.6125      2.00000
     90     -11.5991      2.00000
     91     -11.5754      2.00000
     92     -11.5467      2.00000
     93     -11.4997      2.00000
     94     -11.4964      2.00000
     95     -11.4699      2.00000
     96     -11.4633      2.00000
     97     -11.4406      2.00000
     98     -11.4343      2.00000
     99     -11.3758      2.00000
    100     -11.3423      2.00000
    101     -11.2396      2.00000
    102     -11.2138      2.00000
    103     -11.1614      2.00000
    104     -11.1539      2.00000
    105     -11.1272      2.00000
    106     -11.1169      2.00000
    107     -11.0937      2.00000
    108     -11.0713      2.00000
    109     -11.0275      2.00000
    110     -11.0268      2.00000
    111     -10.9232      2.00000
    112     -10.9135      2.00000
    113     -10.9090      2.00000
    114     -10.8175      2.00000
    115     -10.8150      2.00000
    116     -10.7104      2.00000
    117     -10.7082      2.00000
    118     -10.6757      2.00000
    119     -10.6302      2.00000
    120     -10.5417      2.00000
    121     -10.4823      2.00000
    122     -10.4503      2.00000
    123     -10.4443      2.00000
    124     -10.4128      2.00000
    125     -10.3760      2.00000
    126     -10.3745      2.00000
    127     -10.2999      2.00000
    128     -10.2991      2.00000
    129     -10.2760      2.00000
    130     -10.2388      2.00000
    131     -10.2310      2.00000
    132     -10.2075      2.00000
    133     -10.1986      2.00000
    134     -10.1081      2.00000
    135     -10.0816      2.00000
    136     -10.0668      2.00000
    137     -10.0291      2.00000
    138     -10.0217      2.00000
    139      -9.9851      2.00000
    140      -9.9844      2.00000
    141      -9.9170      2.00000
    142      -9.9062      2.00000
    143      -9.8226      2.00000
    144      -9.7928      2.00000
    145      -9.7927      2.00000
    146      -9.7808      2.00000
    147      -9.7711      2.00000
    148      -9.7499      2.00000
    149      -9.7253      2.00000
    150      -9.6071      2.00000
    151      -9.6019      2.00000
    152      -9.5924      2.00000
    153      -9.5483      2.00000
    154      -9.3530      2.00000
    155      -9.2964      2.00000
    156      -9.2519      2.00000
    157      -9.1800      2.00000
    158      -9.0963      2.00000
    159      -9.0910      2.00000
    160      -9.0831      2.00000
    161      -9.0334      2.00000
    162      -8.9533      2.00000
    163      -8.9516      2.00000
    164      -8.8747      2.00000
    165      -8.8547      2.00000
    166      -8.8434      2.00000
    167      -8.7697      2.00000
    168      -8.7588      2.00000
    169      -8.7188      2.00000
    170      -8.7053      2.00000
    171      -8.6889      2.00000
    172      -8.5108      2.00000
    173      -8.4888      2.00000
    174      -8.4642      2.00000
    175      -8.4596      2.00000
    176      -8.4463      2.00000
    177      -8.4382      2.00000
    178      -8.4098      2.00000
    179      -8.3160      2.00000
    180      -8.2886      2.00000
    181      -8.2398      2.00000
    182      -8.2391      2.00000
    183      -8.2361      2.00000
    184      -8.2235      2.00000
    185      -8.2075      2.00000
    186      -8.1813      2.00000
    187      -8.1583      2.00000
    188      -8.1479      2.00000
    189      -8.1455      2.00000
    190      -8.0729      2.00000
    191      -8.0100      2.00000
    192      -7.9773      2.00000
    193      -7.9618      2.00000
    194      -7.9317      2.00000
    195      -7.9056      2.00000
    196      -7.9054      2.00000
    197      -7.8879      2.00000
    198      -7.8669      2.00000
    199      -7.8477      2.00000
    200      -7.8044      2.00000
    201      -7.8024      2.00000
    202      -7.7843      2.00000
    203      -7.7804      2.00000
    204      -7.7402      2.00000
    205      -7.7196      2.00000
    206      -7.5837      2.00000
    207      -7.5409      2.00000
    208      -7.5219      2.00000
    209      -7.4957      2.00000
    210      -7.4935      2.00000
    211      -7.4010      2.00000
    212      -7.3894      2.00000
    213      -7.3803      2.00000
    214      -7.3467      2.00000
    215      -7.3311      2.00000
    216      -7.3260      2.00000
    217      -7.3162      2.00000
    218      -7.2990      2.00000
    219      -7.2350      2.00000
    220      -7.1261      2.00000
    221      -7.1223      2.00000
    222      -7.0998      2.00000
    223      -7.0992      2.00000
    224      -7.0948      2.00000
    225      -7.0897      2.00000
    226      -7.0864      2.00000
    227      -7.0690      2.00000
    228      -7.0533      2.00000
    229      -7.0259      2.00000
    230      -7.0167      2.00000
    231      -7.0125      2.00000
    232      -6.9761      2.00000
    233      -6.9475      2.00000
    234      -6.9205      2.00000
    235      -6.8847      2.00000
    236      -6.8479      2.00000
    237      -6.8289      2.00000
    238      -6.7400      2.00000
    239      -6.7243      2.00000
    240      -6.6776      2.00000
    241      -6.6723      2.00000
    242      -6.6673      2.00000
    243      -6.6303      2.00000
    244      -6.6300      2.00000
    245      -6.6296      2.00000
    246      -6.6190      2.00000
    247      -6.6076      2.00000
    248      -6.5888      2.00000
    249      -6.5791      2.00000
    250      -6.5768      2.00000
    251      -6.4994      2.00000
    252      -6.4753      2.00000
    253      -6.4662      2.00000
    254      -6.4539      2.00000
    255      -6.4368      2.00000
    256      -6.3648      2.00000
    257      -6.3243      2.00000
    258      -6.3063      2.00000
    259      -6.3044      2.00000
    260      -6.2992      2.00000
    261      -6.2975      2.00000
    262      -6.2864      2.00000
    263      -6.2751      2.00000
    264      -6.2296      2.00000
    265      -6.2287      2.00000
    266      -6.2094      2.00000
    267      -6.2037      2.00000
    268      -6.1889      2.00000
    269      -6.1495      2.00000
    270      -6.1054      2.00000
    271      -6.0571      2.00000
    272      -6.0302      2.00000
    273      -6.0233      2.00000
    274      -6.0195      2.00000
    275      -6.0137      2.00000
    276      -5.9981      2.00000
    277      -5.9741      2.00000
    278      -5.9644      2.00000
    279      -5.9376      2.00000
    280      -5.9254      2.00000
    281      -5.9062      2.00000
    282      -5.8759      2.00000
    283      -5.8671      2.00000
    284      -5.8581      2.00000
    285      -5.8519      2.00000
    286      -5.8384      2.00000
    287      -5.8284      2.00000
    288      -5.8071      2.00000
    289      -5.7863      2.00000
    290      -5.7598      2.00000
    291      -5.7191      2.00000
    292      -5.6878      2.00000
    293      -5.6852      2.00000
    294      -5.6594      2.00000
    295      -5.6513      2.00000
    296      -5.6243      2.00000
    297      -5.6215      2.00000
    298      -5.6103      2.00000
    299      -5.6086      2.00000
    300      -5.5875      2.00000
    301      -5.5403      2.00000
    302      -5.5354      2.00000
    303      -5.4841      2.00000
    304      -5.4232      2.00000
    305      -5.4158      2.00000
    306      -5.4030      2.00000
    307      -5.3903      2.00000
    308      -5.3877      2.00000
    309      -5.3528      2.00000
    310      -5.3490      2.00000
    311      -5.2884      2.00000
    312      -5.2881      2.00000
    313      -5.2661      2.00000
    314      -5.2627      2.00000
    315      -5.2598      2.00000
    316      -5.2489      2.00000
    317      -5.2034      2.00000
    318      -5.1926      2.00000
    319      -5.1826      2.00000
    320      -5.1607      2.00000
    321      -5.1499      2.00000
    322      -5.0942      2.00000
    323      -5.0787      2.00000
    324      -5.0499      2.00000
    325      -5.0176      2.00000
    326      -5.0139      2.00000
    327      -4.9904      2.00000
    328      -4.9786      2.00000
    329      -4.9660      2.00000
    330      -4.9631      2.00000
    331      -4.9454      2.00000
    332      -4.9322      2.00000
    333      -4.9309      2.00000
    334      -4.9249      2.00000
    335      -4.9192      2.00000
    336      -4.9125      2.00000
    337      -4.9110      2.00000
    338      -4.9085      2.00000
    339      -4.9032      2.00000
    340      -4.8878      2.00000
    341      -4.8583      2.00000
    342      -4.8482      2.00000
    343      -4.8398      2.00000
    344      -4.8158      2.00000
    345      -4.8032      2.00000
    346      -4.7449      2.00000
    347      -4.6883      2.00000
    348      -4.6847      2.00000
    349      -4.6574      2.00000
    350      -4.6331      2.00000
    351      -4.5100      2.00000
    352      -4.5076      2.00000
    353      -4.5033      2.00000
    354      -4.4445      2.00000
    355      -4.3992      2.00000
    356      -4.3568      2.00000
    357      -4.3098      2.00000
    358      -4.2979      2.00000
    359      -4.2864      2.00000
    360      -4.2630      2.00000
    361      -4.2555      2.00000
    362      -4.2500      2.00000
    363      -4.2387      2.00000
    364      -4.2371      2.00000
    365      -4.2083      2.00000
    366      -4.1924      2.00000
    367      -4.1809      2.00000
    368      -4.1741      2.00000
    369      -4.1695      2.00000
    370      -4.1377      2.00000
    371      -4.0365      2.00000
    372      -4.0005      2.00000
    373      -3.9665      2.00000
    374      -3.8542      2.00000
    375      -3.8206      2.00000
    376      -3.8178      2.00000
    377      -3.7956      2.00000
    378      -3.7811      2.00000
    379      -3.7588      2.00000
    380      -3.7353      2.00000
    381      -3.7294      2.00000
    382      -3.6931      2.00000
    383      -3.6886      2.00000
    384      -3.5908      1.99949
    385      -3.5451      1.99536
    386      -3.5204      1.98695
    387      -3.3927      1.50074
    388      -3.3872      1.45055
    389      -3.3691      1.26764
    390      -3.3411      0.95747
    391      -3.2448      0.15696
    392      -2.7905      0.00000
    393      -2.6992      0.00000
    394      -2.2953      0.00000
    395      -2.2844      0.00000
    396      -2.2371      0.00000
    397      -2.2352      0.00000
    398      -2.2330      0.00000
    399      -2.2249      0.00000
    400      -2.1888      0.00000
    401      -2.1561      0.00000
    402      -2.1035      0.00000
    403      -2.0683      0.00000
    404      -2.0406      0.00000
    405      -1.7767      0.00000
    406      -1.6106      0.00000
    407      -1.5765      0.00000
    408      -1.5682      0.00000
    409      -1.4786      0.00000
    410      -1.4452      0.00000
    411      -1.3522      0.00000
    412      -1.2941      0.00000
    413      -1.2107      0.00000
    414      -1.1262      0.00000
    415      -0.7525      0.00000
    416      -0.6979      0.00000
    417      -0.6607      0.00000
    418      -0.6442      0.00000
    419      -0.6322      0.00000
    420      -0.5879      0.00000
    421      -0.5476      0.00000
    422      -0.4673      0.00000
    423      -0.3972      0.00000
    424      -0.3960      0.00000
    425      -0.3729      0.00000
    426      -0.2692      0.00000
    427      -0.2272      0.00000
    428      -0.1046      0.00000
    429      -0.0604      0.00000
    430       0.0594      0.00000
    431       0.0817      0.00000
    432       0.1099      0.00000
    433       0.1929      0.00000
    434       0.2557      0.00000
    435       0.2670      0.00000
    436       0.3055      0.00000
    437       0.3258      0.00000
    438       0.3496      0.00000
    439       0.3604      0.00000
    440       0.3891      0.00000
    441       0.3959      0.00000
    442       0.4080      0.00000
    443       0.4687      0.00000
    444       0.4879      0.00000
    445       0.5186      0.00000
    446       0.5639      0.00000
    447       0.5706      0.00000
    448       0.5721      0.00000
    449       0.6606      0.00000
    450       0.6663      0.00000
    451       0.6997      0.00000
    452       0.7336      0.00000
    453       0.7403      0.00000
    454       0.7442      0.00000
    455       0.8014      0.00000
    456       0.8023      0.00000
    457       0.8453      0.00000
    458       0.8593      0.00000
    459       0.8737      0.00000
    460       0.9157      0.00000
    461       0.9341      0.00000
    462       1.0374      0.00000
    463       1.1175      0.00000
    464       1.1302      0.00000
    465       1.1433      0.00000
    466       1.1932      0.00000
    467       1.1958      0.00000
    468       1.2237      0.00000
    469       1.2267      0.00000
    470       1.2297      0.00000
    471       1.2882      0.00000
    472       1.3258      0.00000
    473       1.3446      0.00000
    474       1.3475      0.00000
    475       1.3612      0.00000
    476       1.3791      0.00000
    477       1.3841      0.00000
    478       1.4057      0.00000
    479       1.4210      0.00000
    480       1.4556      0.00000
    481       1.4595      0.00000
    482       1.4841      0.00000
    483       1.5000      0.00000
    484       1.5090      0.00000
    485       1.5376      0.00000
    486       1.5742      0.00000
    487       1.5899      0.00000
    488       1.5908      0.00000
    489       1.6085      0.00000
    490       1.6242      0.00000
    491       1.6284      0.00000
    492       1.6370      0.00000
    493       1.6609      0.00000
    494       1.6670      0.00000
    495       1.6760      0.00000
    496       1.7138      0.00000
    497       1.7710      0.00000
    498       1.7921      0.00000
    499       1.8038      0.00000
    500       1.8234      0.00000
    501       1.8388      0.00000
    502       1.8781      0.00000
    503       1.9284      0.00000
    504       1.9588      0.00000
    505       1.9840      0.00000
    506       1.9924      0.00000
    507       2.0056      0.00000
    508       2.0115      0.00000
    509       2.0763      0.00000
    510       2.0884      0.00000
    511       2.1109      0.00000
    512       2.1230      0.00000
    513       2.1505      0.00000
    514       2.1590      0.00000
    515       2.1594      0.00000
    516       2.1597      0.00000
    517       2.1646      0.00000
    518       2.1790      0.00000
    519       2.2171      0.00000
    520       2.2479      0.00000
    521       2.2703      0.00000
    522       2.2728      0.00000
    523       2.3035      0.00000
    524       2.3505      0.00000
    525       2.3732      0.00000
    526       2.4004      0.00000
    527       2.4231      0.00000
    528       2.4596      0.00000


--------------------------------------------------------------------------------------------------------


 soft charge-density along one line, spin component           1
         0         1         2         3         4         5         6         7         8         9
 total charge-density along one line
 
 pseudopotential strength for first ion, spin component:           1
  6.780  10.348  -0.008  -0.001   0.006  -0.013  -0.002   0.010
 10.348  15.791  -0.012  -0.002   0.009  -0.019  -0.002   0.014
 -0.008  -0.012  -2.337   0.000  -0.001  -4.016   0.001  -0.002
 -0.001  -0.002   0.000  -2.333   0.001   0.001  -4.008   0.002
  0.006   0.009  -0.001   0.001  -2.336  -0.002   0.002  -4.015
 -0.013  -0.019  -4.016   0.001  -0.002  -6.705   0.001  -0.004
 -0.002  -0.002   0.001  -4.008   0.002   0.001  -6.687   0.005
  0.010   0.014  -0.002   0.002  -4.015  -0.004   0.005  -6.703
 total augmentation occupancy for first ion, spin component:           1
  3.820  -1.051  -0.227  -0.410   0.430   0.116   0.158  -0.189
 -1.051   0.316   0.151   0.165  -0.216  -0.054  -0.059   0.082
 -0.227   0.151   3.860  -0.105   0.432  -1.091   0.036  -0.143
 -0.410   0.165  -0.105   2.570  -0.040   0.037  -0.637   0.034
  0.430  -0.216   0.432  -0.040   3.846  -0.143   0.033  -1.061
  0.116  -0.054  -1.091   0.037  -0.143   0.318  -0.011   0.048
  0.158  -0.059   0.036  -0.637   0.033  -0.011   0.166  -0.016
 -0.189   0.082  -0.143   0.034  -1.061   0.048  -0.016   0.304


------------------------ aborting loop because EDIFF is reached ----------------------------------------





 total charge

# of ion       s       p       d       tot
------------------------------------------
    1        0.723   1.422   0.000   2.145
    2        0.723   1.421   0.000   2.144
    3        0.723   1.421   0.000   2.144
    4        0.723   1.421   0.000   2.144
    5        0.723   1.421   0.000   2.144
    6        0.723   1.421   0.000   2.144
    7        0.723   1.421   0.000   2.144
    8        0.723   1.421   0.000   2.144
    9        0.723   1.421   0.000   2.144
   10        0.723   1.421   0.000   2.144
   11        0.723   1.421   0.000   2.144
   12        0.723   1.421   0.000   2.144
   13        0.723   1.421   0.000   2.144
   14        0.723   1.421   0.000   2.144
   15        0.723   1.421   0.000   2.144
   16        0.723   1.421   0.000   2.144
   17        0.723   1.421   0.000   2.144
   18        0.723   1.421   0.000   2.144
   19        0.723   1.421   0.000   2.144
   20        0.723   1.421   0.000   2.144
   21        0.723   1.421   0.000   2.144
   22        0.723   1.421   0.000   2.144
   23        0.723   1.421   0.000   2.144
   24        0.723   1.421   0.000   2.144
   25        0.723   1.421   0.000   2.144
   26        0.723   1.421   0.000   2.144
   27        0.723   1.421   0.000   2.144
   28        0.723   1.421   0.000   2.144
   29        0.723   1.421   0.000   2.144
   30        0.723   1.421   0.000   2.144
   31        0.723   1.421   0.000   2.144
   32        0.723   1.421   0.000   2.144
   33        0.723   1.421   0.000   2.144
   34        0.723   1.421   0.000   2.144
   35        0.723   1.421   0.000   2.144
   36        0.723   1.421   0.000   2.144
   37        0.708   1.355   0.000   2.064
   38        0.708   1.356   0.000   2.064
   39        0.708   1.356   0.000   2.064
   40        0.708   1.356   0.000   2.064
   41        0.708   1.356   0.000   2.064
   42        0.708   1.356   0.000   2.064
   43        0.708   1.356   0.000   2.064
   44        0.708   1.356   0.000   2.064
   45        0.708   1.356   0.000   2.064
   46        0.708   1.356   0.000   2.064
   47        0.708   1.356   0.000   2.064
   48        0.708   1.356   0.000   2.064
   49        0.708   1.356   0.000   2.064
   50        0.708   1.356   0.000   2.064
   51        0.708   1.356   0.000   2.064
   52        0.708   1.356   0.000   2.064
   53        0.708   1.356   0.000   2.064
   54        0.708   1.356   0.000   2.064
   55        0.708   1.356   0.000   2.064
   56        0.708   1.356   0.000   2.064
   57        0.708   1.356   0.000   2.064
   58        0.708   1.356   0.000   2.064
   59        0.708   1.356   0.000   2.064
   60        0.708   1.356   0.000   2.064
   61        0.708   1.356   0.000   2.064
   62        0.708   1.356   0.000   2.064
   63        0.708   1.356   0.000   2.064
   64        0.708   1.356   0.000   2.064
   65        0.708   1.356   0.000   2.064
   66        0.708   1.356   0.000   2.064
   67        0.708   1.356   0.000   2.064
   68        0.708   1.356   0.000   2.064
   69        0.708   1.356   0.000   2.064
   70        0.708   1.356   0.000   2.064
   71        0.708   1.356   0.000   2.064
   72        0.708   1.356   0.000   2.064
   73        0.715   1.319   0.000   2.033
   74        0.714   1.318   0.000   2.032
   75        0.714   1.318   0.000   2.032
   76        0.714   1.318   0.000   2.032
   77        0.714   1.318   0.000   2.032
   78        0.714   1.318   0.000   2.032
   79        0.714   1.318   0.000   2.032
   80        0.714   1.318   0.000   2.032
   81        0.714   1.318   0.000   2.032
   82        0.714   1.318   0.000   2.032
   83        0.714   1.318   0.000   2.032
   84        0.714   1.318   0.000   2.032
   85        0.714   1.318   0.000   2.032
   86        0.714   1.318   0.000   2.032
   87        0.714   1.318   0.000   2.032
   88        0.714   1.318   0.000   2.032
   89        0.714   1.318   0.000   2.032
   90        0.714   1.318   0.000   2.032
   91        0.714   1.318   0.000   2.032
   92        0.714   1.318   0.000   2.032
   93        0.714   1.318   0.000   2.032
   94        0.714   1.318   0.000   2.032
   95        0.714   1.318   0.000   2.032
   96        0.714   1.318   0.000   2.032
   97        0.714   1.318   0.000   2.032
   98        0.714   1.318   0.000   2.032
   99        0.714   1.318   0.000   2.032
  100        0.714   1.318   0.000   2.032
  101        0.714   1.318   0.000   2.032
  102        0.714   1.318   0.000   2.032
  103        0.714   1.318   0.000   2.032
  104        0.714   1.318   0.000   2.032
  105        0.714   1.318   0.000   2.032
  106        0.714   1.318   0.000   2.032
  107        0.714   1.318   0.000   2.032
  108        0.714   1.318   0.000   2.032
  109        0.708   1.291   0.000   1.998
  110        0.708   1.292   0.000   2.000
  111        0.708   1.292   0.000   2.000
  112        0.708   1.292   0.000   1.999
  113        0.708   1.292   0.000   2.000
  114        0.708   1.292   0.000   2.000
  115        0.708   1.292   0.000   1.999
  116        0.708   1.292   0.000   2.000
  117        0.708   1.292   0.000   2.000
  118        0.708   1.292   0.000   1.999
  119        0.708   1.292   0.000   1.999
  120        0.708   1.292   0.000   2.000
  121        0.708   1.292   0.000   1.999
  122        0.708   1.292   0.000   1.999
  123        0.708   1.292   0.000   2.000
  124        0.708   1.292   0.000   1.999
  125        0.708   1.292   0.000   1.999
  126        0.708   1.292   0.000   2.000
  127        0.708   1.292   0.000   2.000
  128        0.708   1.292   0.000   2.000
  129        0.708   1.292   0.000   1.999
  130        0.708   1.292   0.000   2.000
  131        0.708   1.292   0.000   2.000
  132        0.708   1.292   0.000   1.999
  133        0.708   1.292   0.000   2.000
  134        0.708   1.292   0.000   2.000
  135        0.708   1.292   0.000   1.999
  136        0.708   1.292   0.000   2.000
  137        0.708   1.292   0.000   1.999
  138        0.708   1.292   0.000   1.999
  139        0.708   1.292   0.000   2.000
  140        0.708   1.292   0.000   1.999
  141        0.708   1.292   0.000   1.999
  142        0.708   1.292   0.000   2.000
  143        0.708   1.292   0.000   1.999
  144        0.708   1.292   0.000   1.999
  145        0.689   1.276   0.000   1.965
  146        0.689   1.274   0.000   1.963
  147        0.689   1.274   0.000   1.963
  148        0.689   1.274   0.000   1.963
  149        0.689   1.274   0.000   1.963
  150        0.689   1.274   0.000   1.963
  151        0.689   1.274   0.000   1.963
  152        0.689   1.274   0.000   1.963
  153        0.689   1.274   0.000   1.963
  154        0.694   1.121   0.000   1.815
  155        0.694   1.121   0.000   1.815
  156        0.694   1.121   0.000   1.815
  157        0.694   1.121   0.000   1.815
  158        0.694   1.121   0.000   1.815
  159        0.694   1.121   0.000   1.815
  160        0.694   1.121   0.000   1.815
  161        0.694   1.121   0.000   1.815
  162        0.694   1.121   0.000   1.815
  163        0.694   1.121   0.000   1.815
  164        0.694   1.121   0.000   1.815
  165        0.694   1.121   0.000   1.815
  166        0.694   1.121   0.000   1.815
  167        0.694   1.121   0.000   1.815
  168        0.694   1.121   0.000   1.815
  169        0.694   1.121   0.000   1.815
  170        0.694   1.121   0.000   1.815
  171        0.694   1.121   0.000   1.815
  172        0.689   1.274   0.000   1.963
  173        0.689   1.274   0.000   1.963
  174        0.689   1.274   0.000   1.963
  175        0.689   1.274   0.000   1.963
  176        0.689   1.274   0.000   1.963
  177        0.689   1.274   0.000   1.963
  178        0.689   1.274   0.000   1.963
  179        0.689   1.274   0.000   1.963
  180        0.689   1.274   0.000   1.963
  181        0.694   1.119   0.000   1.813
  182        0.694   1.121   0.000   1.815
  183        0.694   1.121   0.000   1.815
  184        0.694   1.121   0.000   1.815
  185        0.694   1.121   0.000   1.815
  186        0.694   1.121   0.000   1.815
  187        0.694   1.121   0.000   1.815
  188        0.694   1.121   0.000   1.815
  189        0.694   1.121   0.000   1.815
  190        0.689   1.274   0.000   1.963
  191        0.689   1.274   0.000   1.963
  192        0.689   1.274   0.000   1.963
  193        0.689   1.274   0.000   1.963
  194        0.689   1.274   0.000   1.963
  195        0.689   1.274   0.000   1.963
  196        0.689   1.274   0.000   1.963
  197        0.689   1.274   0.000   1.963
  198        0.689   1.274   0.000   1.963
  199        0.689   1.274   0.000   1.963
  200        0.689   1.274   0.000   1.963
  201        0.689   1.274   0.000   1.963
  202        0.689   1.274   0.000   1.963
  203        0.689   1.274   0.000   1.963
  204        0.689   1.274   0.000   1.963
  205        0.689   1.274   0.000   1.963
  206        0.689   1.274   0.000   1.963
  207        0.689   1.274   0.000   1.963
  208        0.694   1.121   0.000   1.815
  209        0.694   1.121   0.000   1.815
  210        0.694   1.121   0.000   1.815
  211        0.694   1.121   0.000   1.815
  212        0.694   1.121   0.000   1.815
  213        0.694   1.121   0.000   1.815
  214        0.694   1.121   0.000   1.815
  215        0.694   1.121   0.000   1.815
  216        0.694   1.121   0.000   1.815
  217        0.720   1.444   0.000   2.164
  218        0.720   1.444   0.000   2.164
  219        0.720   1.444   0.000   2.164
  220        0.720   1.444   0.000   2.164
  221        0.720   1.444   0.000   2.164
  222        0.720   1.444   0.000   2.164
  223        0.720   1.444   0.000   2.164
  224        0.720   1.444   0.000   2.164
  225        0.720   1.444   0.000   2.164
  226        0.720   1.444   0.000   2.164
  227        0.720   1.444   0.000   2.164
  228        0.720   1.444   0.000   2.164
  229        0.720   1.444   0.000   2.164
  230        0.720   1.444   0.000   2.164
  231        0.720   1.444   0.000   2.164
  232        0.720   1.444   0.000   2.164
  233        0.720   1.444   0.000   2.164
  234        0.720   1.444   0.000   2.164
  235        0.720   1.444   0.000   2.164
  236        0.720   1.444   0.000   2.164
  237        0.720   1.444   0.000   2.164
  238        0.720   1.444   0.000   2.164
  239        0.720   1.444   0.000   2.164
  240        0.720   1.444   0.000   2.164
  241        0.720   1.444   0.000   2.164
  242        0.720   1.444   0.000   2.164
  243        0.720   1.444   0.000   2.164
  244        0.720   1.444   0.000   2.164
  245        0.720   1.444   0.000   2.164
  246        0.720   1.444   0.000   2.164
  247        0.720   1.444   0.000   2.164
  248        0.720   1.444   0.000   2.164
  249        0.720   1.444   0.000   2.164
  250        0.720   1.444   0.000   2.164
  251        0.720   1.444   0.000   2.164
  252        0.720   1.444   0.000   2.164
  253        0.461   0.009   0.000   0.470
  254        0.461   0.009   0.000   0.470
  255        0.461   0.009   0.000   0.470
  256        0.461   0.009   0.000   0.470
  257        0.461   0.009   0.000   0.470
  258        0.461   0.009   0.000   0.470
  259        0.461   0.009   0.000   0.470
  260        0.461   0.009   0.000   0.470
  261        0.461   0.009   0.000   0.470
  262        0.461   0.009   0.000   0.470
  263        0.461   0.009   0.000   0.470
  264        0.461   0.009   0.000   0.470
  265        0.461   0.009   0.000   0.470
  266        0.461   0.009   0.000   0.470
  267        0.461   0.009   0.000   0.470
  268        0.461   0.009   0.000   0.470
  269        0.461   0.009   0.000   0.470
  270        0.461   0.009   0.000   0.470
--------------------------------------------------
tot        186.714 332.261   0.000 518.975
 
    CHARGE:  cpu time     15.0361: real time     15.1830
    FORLOC:  cpu time      1.0283: real time      1.0334
    FORNL :  cpu time     61.9731: real time     62.5106
    STRESS:  cpu time    186.6723: real time    188.3263
    FORCOR:  cpu time      1.8199: real time      1.8298
    FORHAR:  cpu time      1.2659: real time      1.2725
    MIXING:  cpu time      0.0384: real time      0.0387
    OFIELD:  cpu time      0.0001: real time      0.0001

 ---------------------------------------------------------------------------------------------

         DFTD3 V3.0 Rev 1        
 DF pbe       
 parameters
 k1-k3        =   16.0000    1.3333   -4.0000
 Edisp (eV)  -31.95916

 E6    (eV) :   -21.1434
 E8    (eV) :   -10.8157
 % E8        : 33.84
    FORVDW:  cpu time      4.9751: real time      4.9982

  FORCE on cell =-STRESS in cart. coord.  units (eV):
  Direction    XX          YY          ZZ          XY          YZ          ZX
  --------------------------------------------------------------------------------------
  Alpha Z   489.09710   489.09710   489.09710
  Ewald  253235.96237251829.75103************   753.24206    -0.12800     0.15366
  Hartree252460.54795251568.24699************   439.61648     0.04163    -0.00973
  E(xc)   -2475.63089 -2476.45305 -2499.20238     3.78446     0.00028    -0.00011
  Local  ************************508328.24518 -1177.49916     0.06631    -0.12799
  n-local  -222.93786  -236.28448  -218.75042    -6.25654     0.00753    -0.00281
  augment    24.84838    25.12177    27.28537    -0.16487     0.00034    -0.00024
  Kinetic  8251.89557  8284.86828  8663.14411   -13.71376    -0.04892     0.02794
  Fock        0.00000     0.00000     0.00000     0.00000     0.00000     0.00000
  vdW       -33.20226   -32.38570   -21.01117     0.34358     0.00002    -0.00004
  -------------------------------------------------------------------------------------
  Total       2.11507    -0.84952    -4.36812    -0.64775    -0.06081     0.04068
  in kB       0.36776    -0.14771    -0.75952    -0.11263    -0.01057     0.00707
  external pressure =       -0.18 kB  Pullay stress =        0.00 kB


 VOLUME and BASIS-vectors are now :
 -----------------------------------------------------------------------------
  energy-cutoff  :      600.00
  volume of cell :     9214.37
      direct lattice vectors                 reciprocal lattice vectors
    16.815971753 -0.335952693  0.000000000     0.059491848  0.001230031  0.000000000
    -0.376692365 18.219153744  0.000000000     0.001097002  0.054909973  0.000000000
     0.000000000  0.000000000 30.088116646     0.000000000  0.000000000  0.033235713

  length of vectors
    16.819327282 18.223047503 30.088116646     0.059504562  0.054920930  0.033235713


 FORCES acting on ions
    electron-ion (+dipol)            ewald-force                    non-local-force                 convergence-correction
 -----------------------------------------------------------------------------------------------
   0.464E+02 -.344E+02 0.166E+03   -.487E+02 0.374E+02 -.166E+03   0.226E+01 -.308E+01 -.357E+00   -.626E-06 -.443E-06 -.966E-06
   0.464E+02 -.346E+02 0.166E+03   -.486E+02 0.377E+02 -.165E+03   0.225E+01 -.306E+01 -.388E+00   0.476E-06 -.448E-06 -.111E-05
   0.464E+02 -.346E+02 0.166E+03   -.486E+02 0.377E+02 -.165E+03   0.225E+01 -.306E+01 -.387E+00   -.365E-06 -.450E-06 -.882E-06
   0.464E+02 -.346E+02 0.166E+03   -.486E+02 0.377E+02 -.165E+03   0.225E+01 -.306E+01 -.386E+00   -.553E-06 -.254E-05 -.657E-06
   0.464E+02 -.346E+02 0.166E+03   -.486E+02 0.377E+02 -.165E+03   0.225E+01 -.306E+01 -.388E+00   0.662E-06 -.244E-05 -.474E-06
   0.464E+02 -.346E+02 0.166E+03   -.486E+02 0.377E+02 -.165E+03   0.225E+01 -.306E+01 -.387E+00   -.484E-06 -.258E-05 -.360E-06
   0.464E+02 -.346E+02 0.166E+03   -.486E+02 0.377E+02 -.165E+03   0.225E+01 -.306E+01 -.386E+00   -.589E-06 -.280E-05 -.131E-05
   0.464E+02 -.346E+02 0.166E+03   -.486E+02 0.377E+02 -.165E+03   0.225E+01 -.306E+01 -.388E+00   0.564E-06 -.270E-05 -.121E-05
   0.464E+02 -.346E+02 0.166E+03   -.486E+02 0.377E+02 -.165E+03   0.225E+01 -.306E+01 -.387E+00   -.394E-06 -.289E-05 -.103E-05
   0.464E+02 -.346E+02 -.166E+03   -.486E+02 0.376E+02 0.165E+03   0.225E+01 -.305E+01 0.387E+00   0.764E-08 -.791E-06 0.349E-05
   0.463E+02 -.346E+02 -.166E+03   -.486E+02 0.377E+02 0.165E+03   0.225E+01 -.305E+01 0.390E+00   0.105E-05 -.811E-06 0.349E-05
   0.464E+02 -.346E+02 -.166E+03   -.486E+02 0.377E+02 0.165E+03   0.225E+01 -.306E+01 0.389E+00   0.124E-06 -.906E-06 0.332E-05
   0.464E+02 -.346E+02 -.166E+03   -.486E+02 0.377E+02 0.165E+03   0.225E+01 -.305E+01 0.387E+00   0.488E-07 -.299E-05 0.309E-05
   0.463E+02 -.346E+02 -.166E+03   -.486E+02 0.377E+02 0.165E+03   0.225E+01 -.305E+01 0.391E+00   0.122E-05 -.282E-05 0.298E-05
   0.464E+02 -.346E+02 -.166E+03   -.486E+02 0.377E+02 0.165E+03   0.225E+01 -.306E+01 0.389E+00   0.159E-06 -.300E-05 0.283E-05
   0.464E+02 -.346E+02 -.166E+03   -.486E+02 0.377E+02 0.165E+03   0.225E+01 -.305E+01 0.387E+00   -.399E-07 -.312E-05 0.371E-05
   0.464E+02 -.346E+02 -.166E+03   -.486E+02 0.377E+02 0.165E+03   0.225E+01 -.305E+01 0.391E+00   0.115E-05 -.306E-05 0.360E-05
   0.464E+02 -.346E+02 -.166E+03   -.486E+02 0.377E+02 0.165E+03   0.225E+01 -.306E+01 0.389E+00   0.185E-06 -.332E-05 0.354E-05
   -.464E+02 0.346E+02 0.166E+03   0.486E+02 -.377E+02 -.165E+03   -.225E+01 0.306E+01 -.384E+00   -.653E-07 0.297E-05 -.120E-05
   -.464E+02 0.346E+02 0.166E+03   0.486E+02 -.377E+02 -.165E+03   -.225E+01 0.306E+01 -.388E+00   0.108E-05 0.308E-05 -.123E-05
   -.464E+02 0.346E+02 0.166E+03   0.486E+02 -.377E+02 -.165E+03   -.225E+01 0.306E+01 -.386E+00   0.242E-06 0.299E-05 -.108E-05
   -.463E+02 0.346E+02 0.166E+03   0.486E+02 -.376E+02 -.165E+03   -.225E+01 0.306E+01 -.388E+00   -.591E-06 0.218E-05 -.573E-06
   -.464E+02 0.346E+02 0.166E+03   0.486E+02 -.377E+02 -.165E+03   -.225E+01 0.306E+01 -.388E+00   0.732E-06 0.227E-05 -.497E-06
   -.464E+02 0.346E+02 0.166E+03   0.486E+02 -.377E+02 -.165E+03   -.225E+01 0.306E+01 -.386E+00   -.260E-06 0.222E-05 -.236E-06
   -.464E+02 0.346E+02 0.166E+03   0.486E+02 -.377E+02 -.165E+03   -.225E+01 0.306E+01 -.387E+00   -.449E-06 0.440E-06 -.124E-05
   -.464E+02 0.346E+02 0.166E+03   0.486E+02 -.377E+02 -.165E+03   -.225E+01 0.306E+01 -.388E+00   0.806E-06 0.536E-06 -.110E-05
   -.464E+02 0.346E+02 0.166E+03   0.486E+02 -.377E+02 -.165E+03   -.225E+01 0.306E+01 -.386E+00   -.583E-07 0.385E-06 -.861E-06
   -.463E+02 0.346E+02 -.166E+03   0.486E+02 -.377E+02 0.165E+03   -.225E+01 0.306E+01 0.390E+00   -.723E-06 0.329E-05 0.373E-05
   -.464E+02 0.346E+02 -.166E+03   0.486E+02 -.377E+02 0.165E+03   -.225E+01 0.305E+01 0.390E+00   0.454E-06 0.342E-05 0.359E-05
   -.463E+02 0.346E+02 -.166E+03   0.486E+02 -.377E+02 0.165E+03   -.225E+01 0.305E+01 0.387E+00   -.389E-06 0.338E-05 0.350E-05
   -.463E+02 0.346E+02 -.166E+03   0.486E+02 -.376E+02 0.165E+03   -.225E+01 0.306E+01 0.389E+00   -.113E-05 0.258E-05 0.302E-05
   -.464E+02 0.346E+02 -.166E+03   0.486E+02 -.377E+02 0.165E+03   -.225E+01 0.305E+01 0.391E+00   0.969E-07 0.275E-05 0.298E-05
   -.463E+02 0.346E+02 -.166E+03   0.486E+02 -.377E+02 0.165E+03   -.225E+01 0.305E+01 0.387E+00   -.802E-06 0.262E-05 0.272E-05
   -.464E+02 0.346E+02 -.166E+03   0.486E+02 -.377E+02 0.165E+03   -.225E+01 0.306E+01 0.389E+00   -.107E-05 0.893E-06 0.361E-05
   -.464E+02 0.346E+02 -.166E+03   0.486E+02 -.377E+02 0.165E+03   -.225E+01 0.305E+01 0.391E+00   0.219E-06 0.889E-06 0.350E-05
   -.464E+02 0.346E+02 -.166E+03   0.486E+02 -.377E+02 0.165E+03   -.225E+01 0.305E+01 0.387E+00   -.660E-06 0.857E-06 0.337E-05
   -.506E+02 -.265E+02 0.263E+03   0.528E+02 0.299E+02 -.263E+03   -.222E+01 -.344E+01 -.649E+00   0.182E-06 -.204E-05 0.170E-05
   -.506E+02 -.265E+02 0.263E+03   0.528E+02 0.299E+02 -.263E+03   -.221E+01 -.343E+01 -.653E+00   0.239E-06 -.207E-05 0.194E-05
   -.506E+02 -.265E+02 0.263E+03   0.528E+02 0.299E+02 -.263E+03   -.221E+01 -.343E+01 -.653E+00   -.641E-06 -.203E-05 0.187E-05
   -.506E+02 -.265E+02 0.263E+03   0.528E+02 0.299E+02 -.263E+03   -.221E+01 -.344E+01 -.652E+00   -.868E-07 -.394E-05 0.225E-05
   -.506E+02 -.265E+02 0.263E+03   0.528E+02 0.299E+02 -.263E+03   -.221E+01 -.343E+01 -.653E+00   0.128E-06 -.391E-05 0.276E-05
   -.506E+02 -.265E+02 0.263E+03   0.528E+02 0.299E+02 -.263E+03   -.221E+01 -.343E+01 -.654E+00   -.672E-06 -.407E-05 0.249E-05
   -.506E+02 -.265E+02 0.263E+03   0.528E+02 0.299E+02 -.263E+03   -.221E+01 -.344E+01 -.652E+00   -.113E-06 -.442E-05 0.142E-05
   -.506E+02 -.265E+02 0.263E+03   0.528E+02 0.299E+02 -.263E+03   -.221E+01 -.343E+01 -.653E+00   0.105E-06 -.437E-05 0.179E-05
   -.506E+02 -.265E+02 0.263E+03   0.528E+02 0.299E+02 -.263E+03   -.221E+01 -.343E+01 -.653E+00   -.653E-06 -.454E-05 0.162E-05
   -.506E+02 -.265E+02 -.263E+03   0.528E+02 0.299E+02 0.263E+03   -.221E+01 -.343E+01 0.652E+00   -.484E-06 -.233E-05 -.314E-06
   -.506E+02 -.265E+02 -.263E+03   0.528E+02 0.299E+02 0.263E+03   -.221E+01 -.344E+01 0.654E+00   -.234E-06 -.238E-05 -.620E-06
   -.506E+02 -.265E+02 -.263E+03   0.528E+02 0.299E+02 0.263E+03   -.221E+01 -.343E+01 0.651E+00   -.111E-05 -.245E-05 -.458E-06
   -.506E+02 -.265E+02 -.263E+03   0.528E+02 0.299E+02 0.263E+03   -.221E+01 -.343E+01 0.651E+00   -.570E-06 -.432E-05 -.959E-06
   -.506E+02 -.265E+02 -.263E+03   0.528E+02 0.299E+02 0.263E+03   -.221E+01 -.344E+01 0.654E+00   -.477E-06 -.421E-05 -.143E-05
   -.506E+02 -.265E+02 -.263E+03   0.528E+02 0.299E+02 0.263E+03   -.221E+01 -.343E+01 0.651E+00   -.127E-05 -.440E-05 -.117E-05
   -.506E+02 -.265E+02 -.263E+03   0.528E+02 0.299E+02 0.263E+03   -.221E+01 -.343E+01 0.651E+00   -.602E-06 -.475E-05 -.107E-06
   -.506E+02 -.265E+02 -.263E+03   0.528E+02 0.299E+02 0.263E+03   -.221E+01 -.344E+01 0.654E+00   -.345E-06 -.476E-05 -.438E-06
   -.506E+02 -.265E+02 -.263E+03   0.528E+02 0.299E+02 0.263E+03   -.221E+01 -.343E+01 0.651E+00   -.124E-05 -.491E-05 -.252E-06
   0.506E+02 0.265E+02 0.263E+03   -.528E+02 -.299E+02 -.263E+03   0.221E+01 0.343E+01 -.653E+00   -.600E-06 0.459E-05 0.163E-05
   0.506E+02 0.265E+02 0.263E+03   -.528E+02 -.299E+02 -.263E+03   0.221E+01 0.343E+01 -.653E+00   0.214E-06 0.467E-05 0.142E-05
   0.506E+02 0.265E+02 0.263E+03   -.528E+02 -.299E+02 -.263E+03   0.221E+01 0.344E+01 -.652E+00   0.298E-06 0.457E-05 0.168E-05
   0.506E+02 0.265E+02 0.263E+03   -.528E+02 -.299E+02 -.263E+03   0.221E+01 0.343E+01 -.658E+00   -.140E-06 0.365E-05 0.264E-05
   0.506E+02 0.265E+02 0.263E+03   -.528E+02 -.299E+02 -.263E+03   0.221E+01 0.343E+01 -.653E+00   0.479E-06 0.374E-05 0.231E-05
   0.506E+02 0.265E+02 0.263E+03   -.528E+02 -.299E+02 -.263E+03   0.221E+01 0.344E+01 -.652E+00   0.679E-06 0.380E-05 0.282E-05
   0.506E+02 0.265E+02 0.263E+03   -.528E+02 -.299E+02 -.263E+03   0.221E+01 0.343E+01 -.653E+00   -.319E-06 0.202E-05 0.182E-05
   0.506E+02 0.265E+02 0.263E+03   -.528E+02 -.299E+02 -.263E+03   0.221E+01 0.343E+01 -.653E+00   0.277E-06 0.206E-05 0.157E-05
   0.506E+02 0.265E+02 0.263E+03   -.528E+02 -.299E+02 -.263E+03   0.221E+01 0.344E+01 -.652E+00   0.492E-06 0.201E-05 0.198E-05
   0.506E+02 0.265E+02 -.263E+03   -.528E+02 -.299E+02 0.263E+03   0.221E+01 0.343E+01 0.651E+00   0.490E-07 0.481E-05 -.214E-06
   0.506E+02 0.265E+02 -.263E+03   -.528E+02 -.299E+02 0.263E+03   0.221E+01 0.344E+01 0.654E+00   0.697E-06 0.498E-05 -.586E-07
   0.506E+02 0.265E+02 -.263E+03   -.528E+02 -.299E+02 0.263E+03   0.221E+01 0.343E+01 0.651E+00   0.928E-06 0.490E-05 -.385E-06
   0.506E+02 0.265E+02 -.263E+03   -.528E+02 -.299E+02 0.263E+03   0.221E+01 0.343E+01 0.651E+00   0.369E-06 0.407E-05 -.131E-05
   0.506E+02 0.265E+02 -.263E+03   -.528E+02 -.299E+02 0.263E+03   0.221E+01 0.344E+01 0.654E+00   0.106E-05 0.414E-05 -.990E-06
   0.506E+02 0.265E+02 -.263E+03   -.528E+02 -.299E+02 0.263E+03   0.221E+01 0.343E+01 0.651E+00   0.123E-05 0.419E-05 -.149E-05
   0.506E+02 0.265E+02 -.263E+03   -.528E+02 -.299E+02 0.263E+03   0.221E+01 0.343E+01 0.651E+00   0.101E-06 0.248E-05 -.480E-06
   0.506E+02 0.265E+02 -.263E+03   -.528E+02 -.299E+02 0.263E+03   0.221E+01 0.344E+01 0.654E+00   0.842E-06 0.247E-05 -.241E-06
   0.506E+02 0.265E+02 -.263E+03   -.528E+02 -.299E+02 0.263E+03   0.221E+01 0.343E+01 0.651E+00   0.110E-05 0.244E-05 -.626E-06
   0.265E+02 -.540E+02 0.267E+03   -.290E+02 0.585E+02 -.267E+03   0.252E+01 -.442E+01 -.117E-01   -.141E-05 0.133E-06 0.774E-06
   0.265E+02 -.539E+02 0.269E+03   -.290E+02 0.583E+02 -.269E+03   0.251E+01 -.443E+01 0.718E-01   -.483E-06 0.566E-09 0.788E-06
   0.265E+02 -.539E+02 0.269E+03   -.290E+02 0.583E+02 -.269E+03   0.251E+01 -.443E+01 0.665E-01   -.125E-05 0.533E-07 0.102E-05
   0.265E+02 -.539E+02 0.269E+03   -.290E+02 0.583E+02 -.269E+03   0.251E+01 -.443E+01 0.694E-01   -.127E-05 -.235E-05 0.783E-06
   0.265E+02 -.539E+02 0.269E+03   -.290E+02 0.583E+02 -.269E+03   0.251E+01 -.443E+01 0.718E-01   -.250E-06 -.244E-05 0.106E-05
   0.265E+02 -.539E+02 0.269E+03   -.290E+02 0.583E+02 -.269E+03   0.251E+01 -.443E+01 0.670E-01   -.127E-05 -.232E-05 0.115E-05
   0.265E+02 -.539E+02 0.269E+03   -.290E+02 0.583E+02 -.269E+03   0.251E+01 -.443E+01 0.694E-01   -.139E-05 -.145E-05 0.928E-07
   0.265E+02 -.539E+02 0.269E+03   -.290E+02 0.583E+02 -.269E+03   0.251E+01 -.443E+01 0.718E-01   -.460E-06 -.146E-05 0.258E-06
   0.265E+02 -.539E+02 0.269E+03   -.290E+02 0.583E+02 -.269E+03   0.251E+01 -.443E+01 0.667E-01   -.136E-05 -.140E-05 0.337E-06
   0.265E+02 -.539E+02 -.269E+03   -.290E+02 0.583E+02 0.269E+03   0.251E+01 -.443E+01 -.690E-01   -.890E-06 -.709E-06 0.326E-06
   0.265E+02 -.539E+02 -.269E+03   -.290E+02 0.583E+02 0.269E+03   0.251E+01 -.443E+01 -.694E-01   -.393E-07 -.734E-06 0.253E-06
   0.265E+02 -.539E+02 -.269E+03   -.290E+02 0.583E+02 0.269E+03   0.251E+01 -.443E+01 -.706E-01   -.855E-06 -.699E-06 0.758E-07
   0.265E+02 -.539E+02 -.269E+03   -.290E+02 0.583E+02 0.269E+03   0.251E+01 -.443E+01 -.683E-01   -.753E-06 -.332E-05 0.199E-06
   0.265E+02 -.539E+02 -.269E+03   -.290E+02 0.583E+02 0.269E+03   0.251E+01 -.443E+01 -.693E-01   0.230E-06 -.344E-05 -.316E-07
   0.265E+02 -.539E+02 -.269E+03   -.290E+02 0.583E+02 0.269E+03   0.251E+01 -.443E+01 -.705E-01   -.736E-06 -.321E-05 -.118E-06
   0.265E+02 -.539E+02 -.269E+03   -.290E+02 0.583E+02 0.269E+03   0.251E+01 -.443E+01 -.683E-01   -.902E-06 -.226E-05 0.949E-06
   0.265E+02 -.539E+02 -.269E+03   -.290E+02 0.583E+02 0.269E+03   0.251E+01 -.443E+01 -.694E-01   0.136E-06 -.234E-05 0.768E-06
   0.265E+02 -.539E+02 -.269E+03   -.290E+02 0.583E+02 0.269E+03   0.251E+01 -.443E+01 -.705E-01   -.798E-06 -.236E-05 0.705E-06
   -.265E+02 0.539E+02 0.269E+03   0.290E+02 -.583E+02 -.269E+03   -.251E+01 0.443E+01 0.663E-01   0.775E-06 0.141E-05 0.694E-07
   -.265E+02 0.539E+02 0.269E+03   0.290E+02 -.583E+02 -.269E+03   -.251E+01 0.443E+01 0.711E-01   0.187E-05 0.146E-05 0.116E-06
   -.265E+02 0.539E+02 0.269E+03   0.290E+02 -.583E+02 -.269E+03   -.251E+01 0.443E+01 0.692E-01   0.109E-05 0.154E-05 0.305E-06
   -.265E+02 0.539E+02 0.269E+03   0.290E+02 -.583E+02 -.269E+03   -.251E+01 0.443E+01 0.594E-01   0.320E-06 0.250E-05 0.106E-05
   -.265E+02 0.539E+02 0.269E+03   0.290E+02 -.583E+02 -.269E+03   -.251E+01 0.443E+01 0.712E-01   0.144E-05 0.232E-05 0.100E-05
   -.265E+02 0.539E+02 0.269E+03   0.290E+02 -.583E+02 -.269E+03   -.251E+01 0.443E+01 0.693E-01   0.761E-06 0.246E-05 0.139E-05
   -.265E+02 0.539E+02 0.269E+03   0.290E+02 -.583E+02 -.269E+03   -.251E+01 0.443E+01 0.667E-01   0.426E-06 -.336E-07 0.601E-06
   -.265E+02 0.539E+02 0.269E+03   0.290E+02 -.583E+02 -.269E+03   -.251E+01 0.443E+01 0.717E-01   0.155E-05 -.144E-06 0.701E-06
   -.265E+02 0.539E+02 0.269E+03   0.290E+02 -.583E+02 -.269E+03   -.251E+01 0.443E+01 0.694E-01   0.832E-06 -.343E-07 0.102E-05
   -.265E+02 0.539E+02 -.269E+03   0.290E+02 -.583E+02 0.269E+03   -.251E+01 0.443E+01 -.706E-01   0.193E-06 0.234E-05 0.102E-05
   -.265E+02 0.539E+02 -.269E+03   0.290E+02 -.583E+02 0.269E+03   -.251E+01 0.443E+01 -.695E-01   0.133E-05 0.232E-05 0.885E-06
   -.265E+02 0.539E+02 -.269E+03   0.290E+02 -.583E+02 0.269E+03   -.251E+01 0.443E+01 -.683E-01   0.631E-06 0.236E-05 0.706E-06
   -.265E+02 0.539E+02 -.269E+03   0.290E+02 -.583E+02 0.269E+03   -.251E+01 0.443E+01 -.703E-01   -.104E-06 0.340E-05 -.210E-07
   -.265E+02 0.539E+02 -.269E+03   0.290E+02 -.583E+02 0.269E+03   -.251E+01 0.443E+01 -.693E-01   0.923E-06 0.332E-05 0.102E-07
   -.265E+02 0.539E+02 -.269E+03   0.290E+02 -.583E+02 0.269E+03   -.251E+01 0.443E+01 -.683E-01   0.290E-06 0.346E-05 -.353E-06
   -.265E+02 0.539E+02 -.269E+03   0.290E+02 -.583E+02 0.269E+03   -.251E+01 0.443E+01 -.705E-01   -.489E-07 0.707E-06 0.408E-06
   -.265E+02 0.539E+02 -.269E+03   0.290E+02 -.583E+02 0.269E+03   -.251E+01 0.443E+01 -.693E-01   0.106E-05 0.537E-06 0.349E-06
   -.265E+02 0.539E+02 -.269E+03   0.290E+02 -.583E+02 0.269E+03   -.251E+01 0.443E+01 -.683E-01   0.403E-06 0.821E-06 0.449E-07
   -.250E+02 -.432E+02 0.335E+03   0.277E+02 0.472E+02 -.336E+03   -.270E+01 -.407E+01 0.820E+00   -.997E-06 -.909E-06 0.141E-05
   -.252E+02 -.432E+02 0.335E+03   0.278E+02 0.472E+02 -.336E+03   -.268E+01 -.408E+01 0.798E+00   -.779E-06 -.974E-06 0.177E-05
   -.252E+02 -.432E+02 0.335E+03   0.278E+02 0.472E+02 -.336E+03   -.269E+01 -.407E+01 0.797E+00   -.161E-05 -.959E-06 0.177E-05
   -.252E+02 -.432E+02 0.335E+03   0.278E+02 0.472E+02 -.336E+03   -.269E+01 -.407E+01 0.795E+00   -.134E-05 -.330E-05 0.156E-05
   -.252E+02 -.432E+02 0.335E+03   0.278E+02 0.472E+02 -.336E+03   -.268E+01 -.408E+01 0.798E+00   -.911E-06 -.340E-05 0.212E-05
   -.252E+02 -.432E+02 0.335E+03   0.278E+02 0.472E+02 -.336E+03   -.269E+01 -.407E+01 0.797E+00   -.175E-05 -.322E-05 0.188E-05
   -.252E+02 -.432E+02 0.335E+03   0.278E+02 0.472E+02 -.336E+03   -.269E+01 -.407E+01 0.795E+00   -.137E-05 -.238E-05 0.579E-06
   -.252E+02 -.432E+02 0.335E+03   0.278E+02 0.472E+02 -.336E+03   -.268E+01 -.408E+01 0.798E+00   -.949E-06 -.238E-05 0.993E-06
   -.252E+02 -.432E+02 0.335E+03   0.278E+02 0.472E+02 -.336E+03   -.269E+01 -.407E+01 0.797E+00   -.175E-05 -.238E-05 0.851E-06
   -.252E+02 -.432E+02 -.335E+03   0.279E+02 0.472E+02 0.336E+03   -.269E+01 -.408E+01 -.797E+00   -.128E-05 -.184E-05 -.150E-05
   -.252E+02 -.432E+02 -.335E+03   0.278E+02 0.472E+02 0.336E+03   -.268E+01 -.408E+01 -.794E+00   -.949E-06 -.185E-05 -.186E-05
   -.251E+02 -.432E+02 -.335E+03   0.278E+02 0.472E+02 0.336E+03   -.269E+01 -.408E+01 -.799E+00   -.173E-05 -.180E-05 -.177E-05
   -.252E+02 -.432E+02 -.335E+03   0.278E+02 0.472E+02 0.336E+03   -.269E+01 -.408E+01 -.797E+00   -.148E-05 -.426E-05 -.173E-05
   -.252E+02 -.432E+02 -.335E+03   0.278E+02 0.472E+02 0.336E+03   -.268E+01 -.408E+01 -.794E+00   -.120E-05 -.434E-05 -.225E-05
   -.252E+02 -.432E+02 -.335E+03   0.278E+02 0.472E+02 0.336E+03   -.269E+01 -.408E+01 -.799E+00   -.202E-05 -.418E-05 -.205E-05
   -.252E+02 -.432E+02 -.335E+03   0.278E+02 0.472E+02 0.336E+03   -.269E+01 -.408E+01 -.797E+00   -.151E-05 -.336E-05 -.728E-06
   -.252E+02 -.432E+02 -.335E+03   0.278E+02 0.472E+02 0.336E+03   -.268E+01 -.407E+01 -.794E+00   -.109E-05 -.339E-05 -.114E-05
   -.252E+02 -.432E+02 -.335E+03   0.278E+02 0.472E+02 0.336E+03   -.269E+01 -.408E+01 -.799E+00   -.188E-05 -.337E-05 -.973E-06
   0.252E+02 0.432E+02 0.335E+03   -.278E+02 -.472E+02 -.336E+03   0.269E+01 0.407E+01 0.796E+00   0.663E-06 0.250E-05 0.744E-06
   0.252E+02 0.432E+02 0.335E+03   -.278E+02 -.472E+02 -.336E+03   0.268E+01 0.408E+01 0.797E+00   0.146E-05 0.247E-05 0.529E-06
   0.252E+02 0.432E+02 0.335E+03   -.278E+02 -.472E+02 -.336E+03   0.269E+01 0.407E+01 0.795E+00   0.141E-05 0.253E-05 0.949E-06
   0.251E+02 0.432E+02 0.335E+03   -.278E+02 -.472E+02 -.336E+03   0.269E+01 0.407E+01 0.794E+00   0.882E-06 0.334E-05 0.207E-05
   0.252E+02 0.432E+02 0.335E+03   -.279E+02 -.472E+02 -.336E+03   0.269E+01 0.407E+01 0.797E+00   0.169E-05 0.321E-05 0.171E-05
   0.252E+02 0.432E+02 0.335E+03   -.278E+02 -.472E+02 -.336E+03   0.269E+01 0.407E+01 0.795E+00   0.162E-05 0.333E-05 0.227E-05
   0.252E+02 0.432E+02 0.335E+03   -.278E+02 -.472E+02 -.336E+03   0.269E+01 0.407E+01 0.797E+00   0.821E-06 0.102E-05 0.156E-05
   0.252E+02 0.432E+02 0.335E+03   -.278E+02 -.472E+02 -.336E+03   0.268E+01 0.408E+01 0.798E+00   0.148E-05 0.876E-06 0.131E-05
   0.252E+02 0.432E+02 0.335E+03   -.278E+02 -.472E+02 -.336E+03   0.269E+01 0.407E+01 0.795E+00   0.151E-05 0.888E-06 0.186E-05
   0.252E+02 0.432E+02 -.335E+03   -.278E+02 -.472E+02 0.336E+03   0.269E+01 0.408E+01 -.799E+00   0.880E-06 0.342E-05 -.830E-06
   0.252E+02 0.432E+02 -.335E+03   -.278E+02 -.472E+02 0.336E+03   0.268E+01 0.407E+01 -.794E+00   0.157E-05 0.336E-05 -.651E-06
   0.252E+02 0.432E+02 -.335E+03   -.278E+02 -.472E+02 0.336E+03   0.269E+01 0.408E+01 -.797E+00   0.157E-05 0.335E-05 -.109E-05
   0.252E+02 0.432E+02 -.335E+03   -.278E+02 -.472E+02 0.336E+03   0.269E+01 0.408E+01 -.799E+00   0.114E-05 0.429E-05 -.216E-05
   0.251E+02 0.432E+02 -.335E+03   -.278E+02 -.472E+02 0.336E+03   0.268E+01 0.407E+01 -.794E+00   0.191E-05 0.419E-05 -.185E-05
   0.252E+02 0.432E+02 -.335E+03   -.278E+02 -.472E+02 0.336E+03   0.269E+01 0.408E+01 -.797E+00   0.189E-05 0.427E-05 -.239E-05
   0.252E+02 0.432E+02 -.335E+03   -.278E+02 -.472E+02 0.336E+03   0.269E+01 0.408E+01 -.799E+00   0.823E-06 0.194E-05 -.169E-05
   0.252E+02 0.432E+02 -.335E+03   -.278E+02 -.472E+02 0.336E+03   0.268E+01 0.407E+01 -.794E+00   0.168E-05 0.175E-05 -.144E-05
   0.252E+02 0.432E+02 -.335E+03   -.278E+02 -.472E+02 0.336E+03   0.269E+01 0.408E+01 -.797E+00   0.166E-05 0.185E-05 -.197E-05
   -.217E+02 -.437E+02 0.572E+02   0.227E+02 0.455E+02 -.519E+02   -.915E+00 -.181E+01 -.528E+01   0.825E-07 -.730E-06 0.855E-07
   -.215E+02 -.439E+02 0.573E+02   0.224E+02 0.457E+02 -.520E+02   -.921E+00 -.179E+01 -.531E+01   0.728E-06 -.762E-06 -.234E-07
   -.215E+02 -.439E+02 0.573E+02   0.224E+02 0.457E+02 -.520E+02   -.925E+00 -.179E+01 -.531E+01   -.245E-06 -.735E-06 -.787E-07
   -.215E+02 -.439E+02 0.573E+02   0.224E+02 0.457E+02 -.520E+02   -.925E+00 -.179E+01 -.531E+01   -.602E-07 -.324E-05 -.769E-07
   -.215E+02 -.439E+02 0.573E+02   0.224E+02 0.457E+02 -.520E+02   -.921E+00 -.179E+01 -.531E+01   0.717E-06 -.333E-05 0.885E-07
   -.215E+02 -.439E+02 0.573E+02   0.224E+02 0.457E+02 -.520E+02   -.925E+00 -.179E+01 -.531E+01   -.428E-06 -.330E-05 -.549E-08
   -.215E+02 -.439E+02 0.573E+02   0.224E+02 0.457E+02 -.520E+02   -.925E+00 -.179E+01 -.531E+01   -.106E-06 -.276E-05 -.380E-07
   -.215E+02 -.439E+02 0.573E+02   0.224E+02 0.457E+02 -.520E+02   -.921E+00 -.179E+01 -.531E+01   0.594E-06 -.283E-05 0.111E-07
   -.215E+02 -.439E+02 0.573E+02   0.224E+02 0.457E+02 -.520E+02   -.925E+00 -.179E+01 -.531E+01   -.382E-06 -.292E-05 -.111E-07
   0.190E+01 -.375E+01 -.469E+03   -.329E+01 0.383E+01 0.469E+03   0.137E+01 -.993E-01 0.110E+00   -.848E-06 -.131E-05 -.395E-05
   0.190E+01 -.375E+01 -.469E+03   -.329E+01 0.384E+01 0.469E+03   0.137E+01 -.101E+00 0.114E+00   -.269E-06 -.133E-05 -.426E-05
   0.191E+01 -.375E+01 -.469E+03   -.330E+01 0.384E+01 0.469E+03   0.137E+01 -.100E+00 0.109E+00   -.953E-06 -.138E-05 -.443E-05
   0.190E+01 -.376E+01 -.469E+03   -.329E+01 0.385E+01 0.469E+03   0.137E+01 -.101E+00 0.111E+00   -.814E-06 -.292E-05 -.526E-05
   0.190E+01 -.376E+01 -.469E+03   -.329E+01 0.384E+01 0.469E+03   0.137E+01 -.101E+00 0.114E+00   -.189E-06 -.283E-05 -.577E-05
   0.190E+01 -.376E+01 -.469E+03   -.330E+01 0.384E+01 0.469E+03   0.137E+01 -.100E+00 0.109E+00   -.914E-06 -.290E-05 -.583E-05
   0.190E+01 -.375E+01 -.469E+03   -.329E+01 0.384E+01 0.469E+03   0.137E+01 -.101E+00 0.111E+00   -.923E-06 -.315E-05 -.355E-05
   0.190E+01 -.375E+01 -.469E+03   -.329E+01 0.384E+01 0.469E+03   0.137E+01 -.101E+00 0.114E+00   -.205E-06 -.314E-05 -.391E-05
   0.190E+01 -.375E+01 -.469E+03   -.329E+01 0.384E+01 0.469E+03   0.137E+01 -.100E+00 0.109E+00   -.985E-06 -.327E-05 -.409E-05
   -.191E+01 0.374E+01 0.469E+03   0.330E+01 -.383E+01 -.469E+03   -.137E+01 0.104E+00 -.116E+00   0.608E-06 0.298E-05 0.144E-05
   -.190E+01 0.375E+01 0.469E+03   0.329E+01 -.384E+01 -.469E+03   -.137E+01 0.102E+00 -.112E+00   0.153E-05 0.308E-05 0.145E-05
   -.190E+01 0.375E+01 0.469E+03   0.329E+01 -.384E+01 -.469E+03   -.137E+01 0.102E+00 -.111E+00   0.106E-05 0.297E-05 0.193E-05
   -.192E+01 0.379E+01 0.469E+03   0.331E+01 -.387E+01 -.469E+03   -.136E+01 0.941E-01 -.111E+00   0.490E-06 0.246E-05 0.324E-05
   -.190E+01 0.376E+01 0.469E+03   0.329E+01 -.384E+01 -.469E+03   -.137E+01 0.990E-01 -.112E+00   0.133E-05 0.242E-05 0.308E-05
   -.190E+01 0.376E+01 0.469E+03   0.329E+01 -.384E+01 -.469E+03   -.137E+01 0.102E+00 -.111E+00   0.923E-06 0.248E-05 0.373E-05
   -.190E+01 0.375E+01 0.469E+03   0.329E+01 -.384E+01 -.469E+03   -.137E+01 0.103E+00 -.114E+00   0.500E-06 0.870E-06 0.206E-05
   -.190E+01 0.375E+01 0.469E+03   0.329E+01 -.384E+01 -.469E+03   -.137E+01 0.999E-01 -.112E+00   0.136E-05 0.923E-06 0.197E-05
   -.190E+01 0.375E+01 0.469E+03   0.329E+01 -.384E+01 -.469E+03   -.137E+01 0.102E+00 -.111E+00   0.101E-05 0.862E-06 0.251E-05
   0.215E+02 0.439E+02 -.573E+02   -.224E+02 -.457E+02 0.520E+02   0.922E+00 0.179E+01 0.531E+01   -.846E-06 0.340E-05 0.412E-05
   0.215E+02 0.439E+02 -.573E+02   -.224E+02 -.457E+02 0.520E+02   0.927E+00 0.179E+01 0.531E+01   0.233E-06 0.345E-05 0.404E-05
   0.215E+02 0.439E+02 -.573E+02   -.224E+02 -.457E+02 0.520E+02   0.922E+00 0.179E+01 0.531E+01   -.115E-06 0.348E-05 0.402E-05
   0.215E+02 0.439E+02 -.573E+02   -.224E+02 -.457E+02 0.520E+02   0.923E+00 0.179E+01 0.531E+01   -.703E-06 0.360E-05 0.385E-05
   0.215E+02 0.439E+02 -.573E+02   -.224E+02 -.457E+02 0.520E+02   0.928E+00 0.179E+01 0.531E+01   0.361E-06 0.356E-05 0.399E-05
   0.215E+02 0.439E+02 -.573E+02   -.224E+02 -.457E+02 0.520E+02   0.922E+00 0.179E+01 0.531E+01   0.704E-07 0.371E-05 0.371E-05
   0.215E+02 0.439E+02 -.573E+02   -.224E+02 -.457E+02 0.520E+02   0.922E+00 0.179E+01 0.531E+01   -.103E-05 0.121E-05 0.400E-05
   0.215E+02 0.439E+02 -.573E+02   -.224E+02 -.457E+02 0.520E+02   0.928E+00 0.179E+01 0.531E+01   0.111E-06 0.108E-05 0.403E-05
   0.215E+02 0.439E+02 -.573E+02   -.224E+02 -.457E+02 0.520E+02   0.922E+00 0.179E+01 0.531E+01   -.110E-06 0.122E-05 0.395E-05
   0.205E+01 -.403E+01 0.469E+03   -.342E+01 0.413E+01 -.469E+03   0.136E+01 -.942E-01 -.105E+00   -.113E-05 -.102E-05 0.186E-05
   0.190E+01 -.375E+01 0.469E+03   -.330E+01 0.384E+01 -.469E+03   0.137E+01 -.100E+00 -.113E+00   -.567E-06 -.104E-05 0.219E-05
   0.190E+01 -.376E+01 0.469E+03   -.329E+01 0.384E+01 -.469E+03   0.137E+01 -.103E+00 -.114E+00   -.121E-05 -.100E-05 0.242E-05
   0.190E+01 -.375E+01 0.469E+03   -.329E+01 0.383E+01 -.469E+03   0.137E+01 -.102E+00 -.110E+00   -.110E-05 -.253E-05 0.295E-05
   0.190E+01 -.375E+01 0.469E+03   -.329E+01 0.384E+01 -.469E+03   0.137E+01 -.999E-01 -.112E+00   -.386E-06 -.253E-05 0.343E-05
   0.190E+01 -.375E+01 0.469E+03   -.329E+01 0.384E+01 -.469E+03   0.137E+01 -.103E+00 -.114E+00   -.121E-05 -.255E-05 0.349E-05
   0.190E+01 -.376E+01 0.469E+03   -.329E+01 0.384E+01 -.469E+03   0.137E+01 -.102E+00 -.111E+00   -.128E-05 -.287E-05 0.135E-05
   0.190E+01 -.376E+01 0.469E+03   -.329E+01 0.384E+01 -.469E+03   0.137E+01 -.998E-01 -.112E+00   -.620E-06 -.284E-05 0.173E-05
   0.190E+01 -.376E+01 0.469E+03   -.329E+01 0.384E+01 -.469E+03   0.137E+01 -.103E+00 -.114E+00   -.133E-05 -.292E-05 0.182E-05
   -.215E+02 -.439E+02 -.574E+02   0.224E+02 0.456E+02 0.521E+02   -.918E+00 -.180E+01 0.531E+01   0.197E-06 -.113E-05 0.388E-05
   -.215E+02 -.439E+02 -.573E+02   0.224E+02 0.457E+02 0.520E+02   -.927E+00 -.179E+01 0.531E+01   0.874E-06 -.117E-05 0.382E-05
   -.215E+02 -.439E+02 -.573E+02   0.224E+02 0.457E+02 0.520E+02   -.922E+00 -.179E+01 0.531E+01   -.126E-06 -.118E-05 0.382E-05
   -.215E+02 -.439E+02 -.573E+02   0.224E+02 0.457E+02 0.520E+02   -.922E+00 -.179E+01 0.531E+01   0.560E-07 -.373E-05 0.407E-05
   -.215E+02 -.439E+02 -.573E+02   0.224E+02 0.457E+02 0.520E+02   -.928E+00 -.179E+01 0.531E+01   0.732E-06 -.379E-05 0.398E-05
   -.215E+02 -.439E+02 -.573E+02   0.224E+02 0.457E+02 0.520E+02   -.922E+00 -.179E+01 0.531E+01   -.320E-06 -.377E-05 0.407E-05
   -.215E+02 -.439E+02 -.573E+02   0.224E+02 0.457E+02 0.520E+02   -.922E+00 -.179E+01 0.531E+01   0.974E-07 -.321E-05 0.399E-05
   -.215E+02 -.439E+02 -.573E+02   0.224E+02 0.457E+02 0.520E+02   -.928E+00 -.179E+01 0.531E+01   0.810E-06 -.327E-05 0.394E-05
   -.215E+02 -.439E+02 -.573E+02   0.224E+02 0.457E+02 0.520E+02   -.923E+00 -.179E+01 0.531E+01   -.224E-06 -.340E-05 0.408E-05
   0.215E+02 0.439E+02 0.573E+02   -.224E+02 -.457E+02 -.520E+02   0.926E+00 0.178E+01 -.531E+01   -.730E-06 0.299E-05 -.871E-07
   0.215E+02 0.439E+02 0.573E+02   -.224E+02 -.457E+02 -.520E+02   0.921E+00 0.179E+01 -.531E+01   0.387E-06 0.303E-05 -.163E-06
   0.215E+02 0.439E+02 0.573E+02   -.224E+02 -.457E+02 -.520E+02   0.925E+00 0.179E+01 -.531E+01   -.102E-07 0.304E-05 -.142E-06
   0.215E+02 0.438E+02 0.573E+02   -.224E+02 -.456E+02 -.520E+02   0.920E+00 0.179E+01 -.531E+01   -.644E-06 0.313E-05 0.119E-06
   0.215E+02 0.439E+02 0.573E+02   -.224E+02 -.457E+02 -.520E+02   0.921E+00 0.179E+01 -.531E+01   0.424E-06 0.306E-05 0.542E-07
   0.215E+02 0.439E+02 0.573E+02   -.224E+02 -.457E+02 -.520E+02   0.925E+00 0.179E+01 -.531E+01   0.116E-06 0.323E-05 0.243E-06
   0.215E+02 0.439E+02 0.573E+02   -.224E+02 -.457E+02 -.520E+02   0.926E+00 0.179E+01 -.531E+01   -.778E-06 0.721E-06 -.147E-06
   0.215E+02 0.439E+02 0.573E+02   -.224E+02 -.457E+02 -.520E+02   0.921E+00 0.179E+01 -.531E+01   0.296E-06 0.674E-06 -.126E-06
   0.215E+02 0.439E+02 0.573E+02   -.224E+02 -.457E+02 -.520E+02   0.925E+00 0.179E+01 -.531E+01   0.311E-07 0.703E-06 0.292E-07
   -.190E+01 0.376E+01 -.469E+03   0.329E+01 -.385E+01 0.469E+03   -.137E+01 0.101E+00 0.110E+00   0.295E-06 0.325E-05 -.361E-05
   -.191E+01 0.376E+01 -.469E+03   0.330E+01 -.384E+01 0.469E+03   -.137E+01 0.101E+00 0.114E+00   0.118E-05 0.338E-05 -.360E-05
   -.190E+01 0.376E+01 -.469E+03   0.329E+01 -.384E+01 0.469E+03   -.137E+01 0.101E+00 0.111E+00   0.812E-06 0.335E-05 -.409E-05
   -.190E+01 0.375E+01 -.469E+03   0.329E+01 -.383E+01 0.469E+03   -.137E+01 0.100E+00 0.109E+00   0.249E-06 0.279E-05 -.550E-05
   -.191E+01 0.375E+01 -.469E+03   0.330E+01 -.384E+01 0.469E+03   -.137E+01 0.101E+00 0.114E+00   0.107E-05 0.281E-05 -.541E-05
   -.190E+01 0.375E+01 -.469E+03   0.329E+01 -.384E+01 0.469E+03   -.137E+01 0.101E+00 0.111E+00   0.734E-06 0.283E-05 -.597E-05
   -.190E+01 0.375E+01 -.469E+03   0.329E+01 -.384E+01 0.469E+03   -.137E+01 0.100E+00 0.109E+00   0.840E-07 0.132E-05 -.421E-05
   -.190E+01 0.375E+01 -.469E+03   0.329E+01 -.384E+01 0.469E+03   -.137E+01 0.101E+00 0.114E+00   0.100E-05 0.123E-05 -.412E-05
   -.190E+01 0.375E+01 -.469E+03   0.329E+01 -.384E+01 0.469E+03   -.137E+01 0.101E+00 0.111E+00   0.714E-06 0.130E-05 -.474E-05
   0.137E+02 -.618E+02 0.205E+03   -.137E+02 0.648E+02 -.204E+03   0.236E-01 -.302E+01 -.421E+00   -.105E-05 0.990E-06 0.180E-06
   0.137E+02 -.618E+02 0.205E+03   -.137E+02 0.648E+02 -.204E+03   0.175E-01 -.301E+01 -.418E+00   0.470E-07 0.105E-05 0.473E-07
   0.137E+02 -.618E+02 0.205E+03   -.137E+02 0.648E+02 -.204E+03   0.307E-01 -.301E+01 -.419E+00   -.396E-06 0.973E-06 0.325E-06
   0.137E+02 -.618E+02 0.205E+03   -.137E+02 0.649E+02 -.204E+03   0.215E-01 -.302E+01 -.421E+00   -.101E-05 -.109E-05 0.829E-06
   0.137E+02 -.618E+02 0.205E+03   -.137E+02 0.648E+02 -.204E+03   0.200E-01 -.302E+01 -.420E+00   0.597E-08 -.857E-06 0.766E-06
   0.137E+02 -.618E+02 0.205E+03   -.137E+02 0.648E+02 -.204E+03   0.307E-01 -.301E+01 -.419E+00   -.455E-06 -.925E-06 0.117E-05
   0.137E+02 -.618E+02 0.205E+03   -.137E+02 0.648E+02 -.204E+03   0.218E-01 -.302E+01 -.419E+00   -.103E-05 -.185E-05 0.556E-07
   0.137E+02 -.618E+02 0.205E+03   -.137E+02 0.648E+02 -.204E+03   0.203E-01 -.302E+01 -.420E+00   0.488E-07 -.170E-05 0.347E-07
   0.137E+02 -.618E+02 0.205E+03   -.137E+02 0.648E+02 -.204E+03   0.308E-01 -.301E+01 -.419E+00   -.370E-06 -.180E-05 0.372E-06
   0.137E+02 -.618E+02 -.205E+03   -.137E+02 0.648E+02 0.204E+03   0.226E-01 -.302E+01 0.417E+00   -.125E-05 0.138E-06 0.206E-05
   0.137E+02 -.618E+02 -.205E+03   -.137E+02 0.648E+02 0.204E+03   0.244E-01 -.302E+01 0.419E+00   -.235E-06 0.289E-06 0.208E-05
   0.137E+02 -.618E+02 -.205E+03   -.137E+02 0.648E+02 0.204E+03   0.222E-01 -.302E+01 0.422E+00   -.576E-06 0.223E-06 0.182E-05
   0.137E+02 -.618E+02 -.205E+03   -.137E+02 0.649E+02 0.204E+03   0.228E-01 -.302E+01 0.417E+00   -.121E-05 -.181E-05 0.132E-05
   0.137E+02 -.618E+02 -.205E+03   -.137E+02 0.649E+02 0.204E+03   0.243E-01 -.302E+01 0.419E+00   -.123E-06 -.156E-05 0.141E-05
   0.137E+02 -.618E+02 -.205E+03   -.137E+02 0.648E+02 0.204E+03   0.222E-01 -.302E+01 0.422E+00   -.592E-06 -.166E-05 0.997E-06
   0.137E+02 -.618E+02 -.205E+03   -.137E+02 0.648E+02 0.204E+03   0.228E-01 -.302E+01 0.417E+00   -.147E-05 -.250E-05 0.211E-05
   0.137E+02 -.618E+02 -.205E+03   -.137E+02 0.648E+02 0.204E+03   0.243E-01 -.302E+01 0.419E+00   -.365E-06 -.236E-05 0.212E-05
   0.137E+02 -.618E+02 -.205E+03   -.137E+02 0.648E+02 0.204E+03   0.221E-01 -.302E+01 0.422E+00   -.630E-06 -.252E-05 0.185E-05
   -.137E+02 0.618E+02 0.205E+03   0.137E+02 -.649E+02 -.204E+03   -.310E-01 0.301E+01 -.418E+00   0.380E-06 0.174E-05 0.109E-06
   -.137E+02 0.618E+02 0.205E+03   0.137E+02 -.648E+02 -.204E+03   -.209E-01 0.302E+01 -.420E+00   0.101E-05 0.178E-05 0.161E-06
   -.137E+02 0.618E+02 0.205E+03   0.137E+02 -.648E+02 -.204E+03   -.215E-01 0.302E+01 -.419E+00   0.121E-06 0.172E-05 0.260E-06
   -.137E+02 0.618E+02 0.205E+03   0.137E+02 -.648E+02 -.204E+03   -.307E-01 0.301E+01 -.420E+00   0.264E-06 0.569E-06 0.707E-06
   -.137E+02 0.618E+02 0.205E+03   0.137E+02 -.648E+02 -.204E+03   -.202E-01 0.302E+01 -.420E+00   0.112E-05 0.673E-06 0.104E-05
   -.137E+02 0.618E+02 0.205E+03   0.137E+02 -.648E+02 -.204E+03   -.220E-01 0.302E+01 -.419E+00   0.631E-07 0.409E-06 0.103E-05
   -.137E+02 0.618E+02 0.205E+03   0.137E+02 -.648E+02 -.204E+03   -.308E-01 0.301E+01 -.419E+00   0.212E-06 -.658E-06 -.593E-07
   -.137E+02 0.618E+02 0.205E+03   0.137E+02 -.648E+02 -.204E+03   -.204E-01 0.302E+01 -.420E+00   0.981E-06 -.588E-06 0.215E-06
   -.137E+02 0.618E+02 0.205E+03   0.137E+02 -.648E+02 -.204E+03   -.217E-01 0.302E+01 -.419E+00   0.515E-07 -.792E-06 0.258E-06
   -.137E+02 0.618E+02 -.205E+03   0.137E+02 -.649E+02 0.204E+03   -.223E-01 0.302E+01 0.423E+00   0.590E-06 0.250E-05 0.213E-05
   -.137E+02 0.618E+02 -.205E+03   0.137E+02 -.648E+02 0.204E+03   -.243E-01 0.302E+01 0.419E+00   0.124E-05 0.251E-05 0.194E-05
   -.137E+02 0.618E+02 -.205E+03   0.137E+02 -.649E+02 0.204E+03   -.228E-01 0.302E+01 0.417E+00   0.349E-06 0.237E-05 0.193E-05
   -.137E+02 0.618E+02 -.205E+03   0.137E+02 -.648E+02 0.204E+03   -.222E-01 0.302E+01 0.422E+00   0.460E-06 0.128E-05 0.143E-05
   -.137E+02 0.618E+02 -.205E+03   0.137E+02 -.648E+02 0.204E+03   -.243E-01 0.302E+01 0.419E+00   0.119E-05 0.147E-05 0.111E-05
   -.137E+02 0.618E+02 -.205E+03   0.137E+02 -.648E+02 0.204E+03   -.229E-01 0.302E+01 0.417E+00   0.247E-06 0.117E-05 0.113E-05
   -.137E+02 0.618E+02 -.205E+03   0.137E+02 -.648E+02 0.204E+03   -.222E-01 0.302E+01 0.422E+00   0.618E-06 0.148E-06 0.218E-05
   -.137E+02 0.618E+02 -.205E+03   0.137E+02 -.648E+02 0.204E+03   -.243E-01 0.302E+01 0.419E+00   0.141E-05 0.148E-06 0.195E-05
   -.137E+02 0.618E+02 -.205E+03   0.137E+02 -.648E+02 0.204E+03   -.228E-01 0.302E+01 0.417E+00   0.363E-06 -.227E-07 0.196E-05
   -.222E-02 -.173E-01 0.166E+03   0.441E-02 0.218E-01 -.167E+03   0.369E-03 0.121E-02 0.643E+00   -.839E-07 0.282E-06 0.267E-07
   0.124E-02 -.906E-03 0.166E+03   -.143E-02 0.748E-03 -.167E+03   -.707E-04 -.438E-04 0.643E+00   0.221E-06 0.373E-06 0.130E-06
   -.855E-03 -.355E-03 0.166E+03   0.852E-03 0.384E-03 -.167E+03   0.286E-04 -.552E-04 0.643E+00   0.137E-10 0.299E-06 0.237E-06
   -.924E-03 0.740E-02 0.166E+03   0.119E-02 -.711E-02 -.167E+03   0.172E-04 0.108E-03 0.643E+00   -.149E-06 -.773E-07 0.464E-06
   0.102E-02 0.758E-03 0.166E+03   -.100E-02 -.754E-03 -.167E+03   0.258E-05 0.270E-05 0.643E+00   0.116E-06 -.354E-07 0.522E-06
   -.465E-03 0.368E-03 0.166E+03   0.476E-03 -.367E-03 -.167E+03   0.272E-04 -.561E-04 0.643E+00   -.909E-07 -.648E-07 0.666E-06
   -.440E-05 -.162E-03 0.166E+03   0.285E-04 0.162E-03 -.167E+03   -.217E-04 0.625E-04 0.643E+00   -.115E-06 -.292E-06 0.116E-07
   0.114E-03 -.452E-04 0.166E+03   -.113E-03 0.423E-04 -.167E+03   -.312E-05 0.324E-05 0.643E+00   0.169E-06 -.214E-06 0.669E-07
   -.560E-04 -.350E-04 0.166E+03   0.908E-04 0.587E-04 -.167E+03   0.302E-04 -.466E-04 0.643E+00   -.345E-07 -.274E-06 0.185E-06
   0.210E-03 0.156E-02 -.166E+03   -.352E-03 -.175E-02 0.167E+03   -.112E-03 0.184E-04 -.643E+00   -.739E-07 0.291E-06 -.153E-05
   -.920E-03 0.496E-03 -.166E+03   0.879E-03 -.507E-03 0.167E+03   -.482E-05 -.598E-05 -.643E+00   0.221E-06 0.381E-06 -.162E-05
   0.642E-03 0.344E-03 -.166E+03   -.650E-03 -.348E-03 0.167E+03   0.934E-05 -.153E-04 -.643E+00   0.770E-08 0.309E-06 -.173E-05
   0.322E-03 -.164E-02 -.166E+03   -.278E-03 0.167E-02 0.167E+03   -.234E-05 0.249E-04 -.643E+00   -.152E-06 -.938E-07 -.201E-05
   -.736E-03 -.597E-03 -.166E+03   0.716E-03 0.587E-03 0.167E+03   -.377E-05 -.499E-05 -.643E+00   0.109E-06 -.254E-07 -.208E-05
   0.429E-03 -.398E-03 -.166E+03   -.433E-03 0.394E-03 0.167E+03   0.103E-04 -.159E-04 -.643E+00   -.931E-07 -.848E-07 -.221E-05
   0.461E-04 0.164E-03 -.166E+03   -.390E-04 -.168E-03 0.167E+03   -.948E-05 0.136E-04 -.643E+00   -.133E-06 -.271E-06 -.151E-05
   -.164E-03 0.616E-04 -.166E+03   0.170E-03 -.575E-04 0.167E+03   0.118E-05 0.228E-05 -.643E+00   0.173E-06 -.217E-06 -.156E-05
   0.132E-03 0.793E-04 -.166E+03   -.137E-03 -.817E-04 0.167E+03   0.877E-05 -.130E-04 -.643E+00   -.426E-07 -.272E-06 -.173E-05
 -----------------------------------------------------------------------------------------------
   0.667E-02 0.533E-02 0.164E-01   -.673E-12 0.971E-13 0.344E-11   -.608E-02 -.772E-02 -.138E-01   0.109E-06 -.610E-06 0.142E-03
 
 
 POSITION                                       TOTAL-FORCE (eV/Angst)
 -----------------------------------------------------------------------------------
      2.83732      3.83783      4.49202        -0.042134     -0.018778     -0.003443
      8.44265      3.72585      4.49202        -0.030304      0.016567     -0.011019
     14.04797      3.61386      4.49202        -0.032253      0.015015     -0.009012
      2.71176      9.91088      4.49202        -0.031952      0.014166     -0.008089
      8.31708      9.79890      4.49202        -0.032353      0.016058     -0.010297
     13.92241      9.68691      4.49202        -0.031992      0.014671     -0.009077
      2.58620     15.98393      4.49202        -0.031718      0.014680     -0.008404
      8.19152     15.87195      4.49202        -0.032198      0.016286     -0.010109
     13.79684     15.75997      4.49202        -0.032160      0.014622     -0.008859
      2.83732      3.83783      7.59610        -0.034167      0.021162      0.008419
      8.44265      3.72585      7.59610        -0.029287      0.019484      0.012696
     14.04797      3.61386      7.59610        -0.035557      0.015391      0.011292
      2.71176      9.91088      7.59610        -0.035114      0.020991      0.009349
      8.31708      9.79890      7.59610        -0.029131      0.019533      0.012759
     13.92241      9.68691      7.59610        -0.035682      0.015469      0.011347
      2.58620     15.98393      7.59610        -0.035036      0.020992      0.009352
      8.19152     15.87195      7.59610        -0.029340      0.019599      0.012712
     13.79684     15.75997      7.59610        -0.035376      0.015466      0.011368
      2.64244      2.12323      4.49202         0.032049     -0.012717     -0.003568
      8.24776      2.01125      4.49202         0.032309     -0.016104     -0.009101
     13.85308      1.89927      4.49202         0.031939     -0.014893     -0.008576
      2.51687      8.19629      4.49202         0.031042     -0.013210     -0.007513
      8.12220      8.08430      4.49202         0.031771     -0.016533     -0.010306
     13.72752      7.97232      4.49202         0.031987     -0.014434     -0.008335
      2.39131     14.26934      4.49202         0.032008     -0.014584     -0.009010
      7.99663     14.15735      4.49202         0.032246     -0.016197     -0.010192
     13.60196     14.04537      4.49202         0.031914     -0.014536     -0.008371
      2.64244      2.12323      7.59610         0.035141     -0.015578      0.011643
      8.24776      2.01125      7.59610         0.029193     -0.019428      0.012686
     13.85308      1.89927      7.59610         0.035062     -0.020859      0.009294
      2.51687      8.19629      7.59610         0.035654     -0.015455      0.011292
      8.12220      8.08430      7.59610         0.029098     -0.019555      0.012769
     13.72752      7.97232      7.59610         0.035166     -0.020941      0.009353
      2.39131     14.26934      7.59610         0.035663     -0.015450      0.011365
      7.99663     14.15735      7.59610         0.029292     -0.019559      0.012706
     13.60196     14.04537      7.59610         0.034940     -0.020944      0.009443
      5.42990      3.78375      4.07539         0.004529      0.000179      0.005520
     11.03523      3.67176      4.07539         0.005243      0.009632      0.007091
     16.64055      3.55978      4.07539         0.007302      0.013409      0.006406
      5.30434      9.85680      4.07539         0.001768      0.006042      0.007918
     10.90966      9.74481      4.07539         0.004661      0.009352      0.007096
     16.51499      9.63283      4.07539         0.008458      0.013329      0.004609
      5.17878     15.92985      4.07539         0.001798      0.006495      0.007758
     10.78410     15.81787      4.07539         0.004751      0.009378      0.006963
     16.38942     15.70588      4.07539         0.008475      0.013105      0.006413
      5.42990      3.78375      8.01273         0.005710      0.006931     -0.007574
     11.03523      3.67176      8.01273         0.007036      0.004553     -0.005287
     16.64055      3.55978      8.01273         0.004399      0.007281     -0.008451
      5.30434      9.85680      8.01273         0.006181      0.007721     -0.008719
     10.90966      9.74481      8.01273         0.007064      0.004659     -0.005453
     16.51499      9.63283      8.01273         0.004511      0.007267     -0.008546
      5.17878     15.92985      8.01273         0.006218      0.007760     -0.008772
     10.78410     15.81787      8.01273         0.007066      0.004644     -0.005360
     16.38942     15.70588      8.01273         0.004416      0.007360     -0.008594
      0.04985      2.17732      4.07539        -0.009744     -0.012617      0.005257
      5.65518      2.06534      4.07539        -0.005369     -0.009273      0.007157
     11.26050      1.95335      4.07539        -0.002073     -0.006642      0.007808
     -0.07571      8.25037      4.07539        -0.007753     -0.013107      0.007869
      5.52961      8.13839      4.07539        -0.004544     -0.010247      0.007318
     11.13494      8.02640      4.07539        -0.001861     -0.006139      0.007907
     -0.20127     14.32342      4.07539        -0.008506     -0.013059      0.006359
      5.40405     14.21144      4.07539        -0.004714     -0.009327      0.006999
     11.00937     14.09945      4.07539        -0.001931     -0.006430      0.007892
      0.04985      2.17732      8.01273        -0.004266     -0.007312     -0.008585
      5.65518      2.06534      8.01273        -0.007308     -0.004333     -0.005337
     11.26050      1.95335      8.01273        -0.006187     -0.007554     -0.008731
     -0.07571      8.25037      8.01273        -0.004457     -0.007292     -0.008649
      5.52961      8.13839      8.01273        -0.007082     -0.004714     -0.005389
     11.13494      8.02640      8.01273        -0.006177     -0.007667     -0.008764
     -0.20127     14.32342      8.01273        -0.004490     -0.007270     -0.008476
      5.40405     14.21144      8.01273        -0.007125     -0.004623     -0.005413
     11.00937     14.09945      8.01273        -0.006176     -0.007703     -0.008815
      3.22793      5.39529      4.00541         0.010693      0.022873     -0.100368
      8.83325      5.28330      3.99541        -0.003602      0.005801     -0.003178
     14.43858      5.17132      3.99541        -0.001796      0.004032     -0.008265
      3.10237     11.46834      3.99541        -0.001096      0.005663     -0.005063
      8.70769     11.35635      3.99541        -0.003334      0.006069     -0.002828
     14.31301     11.24437      3.99541        -0.002110      0.004165     -0.008083
      2.97680     17.54139      3.99541        -0.000596      0.005115     -0.005061
      8.58213     17.42940      3.99541        -0.003012      0.005971     -0.002998
     14.18745     17.31742      3.99541        -0.002093      0.004263     -0.007911
      3.22793      5.39529      8.09270        -0.003087     -0.001298      0.005821
      8.83325      5.28330      8.09270        -0.001011      0.001140      0.005119
     14.43858      5.17132      8.09270         0.000490      0.005025      0.003950
      3.10237     11.46834      8.09270        -0.003212     -0.001662      0.006307
      8.70769     11.35635      8.09270        -0.001105      0.001101      0.005306
     14.31301     11.24437      8.09270         0.000501      0.005039      0.004090
      2.97680     17.54139      8.09270        -0.003202     -0.001667      0.006307
      8.58213     17.42940      8.09270        -0.001047      0.001144      0.005260
     14.18745     17.31742      8.09270         0.000524      0.004951      0.004136
      2.25183      0.56578      3.99541         0.003218     -0.004803     -0.006124
      7.85715      0.45380      3.99541         0.002649     -0.005937     -0.002805
     13.46248      0.34181      3.99541         0.000726     -0.005673     -0.005409
      2.12626      6.63883      3.99541         0.001156     -0.004386      0.017479
      7.73159      6.52685      3.99541         0.003402     -0.005761     -0.003285
     13.33691      6.41486      3.99541         0.001005     -0.005607     -0.005256
      2.00070     12.71188      3.99541         0.002156     -0.004096     -0.007976
      7.60602     12.59990      3.99541         0.003294     -0.006070     -0.002906
     13.21135     12.48792      3.99541         0.000949     -0.005546     -0.005099
      2.25183      0.56578      8.09270        -0.000505     -0.005002      0.004239
      7.85715      0.45380      8.09270         0.001022     -0.001201      0.005109
     13.46248      0.34181      8.09270         0.003186      0.001701      0.006233
      2.12626      6.63883      8.09270        -0.000474     -0.005036      0.004382
      7.73159      6.52685      8.09270         0.000986     -0.001057      0.005226
     13.33691      6.41486      8.09270         0.003186      0.001687      0.006313
      2.00070     12.71188      8.09270        -0.000502     -0.005031      0.004070
      7.60602     12.59990      8.09270         0.001071     -0.001161      0.005308
     13.21135     12.48792      8.09270         0.003234      0.001762      0.006381
      4.92835      5.33932      3.65558        -0.022023     -0.008215      0.016068
     10.53367      5.22733      3.65558         0.002526     -0.005514      0.017505
     16.13900      5.11535      3.65558        -0.000009     -0.004529      0.017356
      4.80279     11.41237      3.65558         0.001679     -0.004207      0.014837
     10.40811     11.30038      3.65558         0.003003     -0.005489      0.017448
     16.01343     11.18840      3.65558        -0.000772     -0.004364      0.016826
      4.67722     17.48542      3.65558         0.001092     -0.004938      0.015060
     10.28255     17.37343      3.65558         0.003104     -0.005341      0.017473
     15.88787     17.26145      3.65558        -0.000565     -0.004558      0.017148
      4.92835      5.33932      8.43253        -0.000817     -0.005991     -0.017120
     10.53367      5.22733      8.43253         0.003565     -0.004941     -0.013775
     16.13900      5.11535      8.43253        -0.000631     -0.006560     -0.018946
      4.80279     11.41237      8.43253        -0.000487     -0.005716     -0.016685
     10.40811     11.30038      8.43253         0.003515     -0.005002     -0.013902
     16.01343     11.18840      8.43253        -0.000594     -0.006460     -0.018992
      4.67722     17.48542      8.43253        -0.000569     -0.005758     -0.016710
     10.28255     17.37343      8.43253         0.003548     -0.004942     -0.013874
     15.88787     17.26145      8.43253        -0.000723     -0.006691     -0.019136
      0.55141      0.62175      3.65558         0.000696      0.004780      0.015863
      6.15673      0.50977      3.65558        -0.003168      0.006231      0.017444
     11.76206      0.39778      3.65558        -0.001330      0.004261      0.014739
      0.42585      6.69480      3.65558         0.001600      0.002656      0.017800
      6.03117      6.58282      3.65558        -0.003251      0.007153      0.019131
     11.63649      6.47083      3.65558        -0.001445      0.004412      0.014894
      0.30028     12.76785      3.65558         0.000413      0.004513      0.016897
      5.90561     12.65587      3.65558        -0.003057      0.005423      0.017391
     11.51093     12.54389      3.65558        -0.001421      0.004446      0.014743
      0.55141      0.62175      8.43253         0.000778      0.006693     -0.019069
      6.15673      0.50977      8.43253        -0.003474      0.004916     -0.013937
     11.76206      0.39778      8.43253         0.000518      0.005765     -0.016625
      0.42585      6.69480      8.43253         0.000654      0.006551     -0.019057
      6.03117      6.58282      8.43253        -0.003339      0.005202     -0.014073
     11.63649      6.47083      8.43253         0.000496      0.005750     -0.016706
      0.30028     12.76785      8.43253         0.000597      0.006505     -0.018974
      5.90561     12.65587      8.43253        -0.003573      0.004880     -0.013885
     11.51093     12.54389      8.43253         0.000540      0.005836     -0.016737
      4.28389      4.56161      5.19347         0.029351     -0.000399      0.040120
      9.88922      4.44963      5.19347         0.013410      0.002242      0.000526
     15.49454      4.33764      5.19347         0.008475      0.009499     -0.002160
      4.15833     10.63466      5.19347         0.008819      0.003959      0.002987
      9.76365     10.52268      5.19347         0.013542      0.002426      0.000576
     15.36897     10.41069      5.19347         0.008719      0.009340     -0.001752
      4.03276     16.70771      5.19347         0.008772      0.003892      0.002640
      9.63809     16.59573      5.19347         0.013371      0.002458      0.000624
     15.24341     16.48374      5.19347         0.008731      0.009706     -0.002000
      3.82928      4.03481      9.03532        -0.010686     -0.008456     -0.021201
      9.43461      3.92282      9.03532        -0.009684     -0.008858     -0.017783
     15.03993      3.81084      9.03532        -0.009668     -0.007594     -0.021995
      3.70372     10.10786      9.03532        -0.011084     -0.008297     -0.020743
      9.30904      9.99587      9.03532        -0.009861     -0.008712     -0.017739
     14.91437      9.88389      9.03532        -0.009808     -0.007602     -0.022078
      3.57816     16.18091      9.03532        -0.011085     -0.008320     -0.020801
      9.18348     16.06892      9.03532        -0.009874     -0.008806     -0.017768
     14.78880     15.95694      9.03532        -0.009815     -0.007454     -0.022010
      1.65048      1.92626      3.05280         0.010377      0.010795      0.021100
      7.25580      1.81428      3.05280         0.009066      0.007635      0.017918
     12.86112      1.70229      3.05280         0.009737      0.009163      0.020835
      1.52491      7.99931      3.05280         0.018932      0.005602      0.016367
      7.13024      7.88733      3.05280         0.009849      0.006759      0.018913
     12.73556      7.77534      3.05280         0.009720      0.009066      0.020645
      1.39935     14.07236      3.05280         0.014787      0.010317      0.017225
      7.00467     13.96038      3.05280         0.009595      0.007223      0.019073
     12.61000     13.84840      3.05280         0.009561      0.009213      0.020722
      1.19587      1.39946      6.89465        -0.011396     -0.002624     -0.000209
      6.80119      1.28747      6.89465        -0.006581     -0.002614     -0.000682
     12.40652      1.17549      6.89465        -0.011805     -0.000626     -0.000820
      1.07030      7.47251      6.89465        -0.011310     -0.002970     -0.000675
      6.67563      7.36052      6.89465        -0.006509     -0.002586     -0.000689
     12.28095      7.24854      6.89465        -0.011889     -0.000584     -0.000760
      0.94474     13.54556      6.89465        -0.011618     -0.002912     -0.000319
      6.55006     13.43358      6.89465        -0.006538     -0.002609     -0.000889
     12.15539     13.32159      6.89465        -0.011844     -0.000512     -0.000678
      3.82928      4.03481      3.05280        -0.011306      0.015566      0.042675
      9.43461      3.92282      3.05280        -0.009485     -0.006849      0.019615
     15.03993      3.81084      3.05280        -0.015207     -0.010352      0.017427
      3.70372     10.10786      3.05280        -0.009801     -0.009508      0.020386
      9.30904      9.99587      3.05280        -0.009492     -0.007124      0.019021
     14.91437      9.88389      3.05280        -0.014881     -0.010015      0.017357
      3.57816     16.18091      3.05280        -0.009676     -0.009101      0.020585
      9.18348     16.06892      3.05280        -0.009618     -0.007155      0.019052
     14.78880     15.95694      3.05280        -0.014839     -0.010534      0.017194
      4.28389      4.56161      6.89465         0.016113     -0.004106      0.003132
      9.88922      4.44963      6.89465         0.006487      0.002699     -0.000890
     15.49454      4.33764      6.89465         0.011578      0.002973     -0.000264
      4.15833     10.63466      6.89465         0.011848      0.000586     -0.000769
      9.76365     10.52268      6.89465         0.006514      0.002568     -0.000819
     15.36897     10.41069      6.89465         0.011594      0.002917     -0.000323
      4.03276     16.70771      6.89465         0.011844      0.000559     -0.000603
      9.63809     16.59573      6.89465         0.006538      0.002657     -0.000885
     15.24341     16.48374      6.89465         0.011499      0.002749     -0.000168
      1.19587      1.39946      5.19347        -0.007670     -0.010745     -0.002612
      6.80119      1.28747      5.19347        -0.012755     -0.002515      0.000456
     12.40652      1.17549      5.19347        -0.008796     -0.003732      0.002841
      1.07030      7.47251      5.19347        -0.011978     -0.004293     -0.004598
      6.67563      7.36052      5.19347        -0.013578     -0.001776      0.000400
     12.28095      7.24854      5.19347        -0.008889     -0.003818      0.002884
      0.94474     13.54556      5.19347        -0.008432     -0.009592     -0.001869
      6.55006     13.43358      5.19347        -0.013474     -0.002403      0.000736
     12.15539     13.32159      5.19347        -0.008860     -0.003776      0.002845
      1.65048      1.92626      9.03532         0.009976      0.007493     -0.021894
      7.25580      1.81428      9.03532         0.009873      0.008981     -0.017798
     12.86112      1.70229      9.03532         0.011014      0.008339     -0.020706
      1.52491      7.99931      9.03532         0.009860      0.007488     -0.022058
      7.13024      7.88733      9.03532         0.009795      0.008779     -0.017715
     12.73556      7.77534      9.03532         0.011109      0.008327     -0.020790
      1.39935     14.07236      9.03532         0.009750      0.007624     -0.022076
      7.00467     13.96038      9.03532         0.009899      0.008807     -0.017784
     12.61000     13.84840      9.03532         0.011091      0.008174     -0.020743
      1.34311      3.14706      4.32689        -0.009904      0.014599     -0.008770
      6.94843      3.03507      4.32689        -0.014981      0.020639     -0.004439
     12.55375      2.92309      4.32689        -0.002380      0.024269     -0.005029
      1.21754      9.22011      4.32689        -0.012830      0.016257     -0.004550
      6.82287      9.10812      4.32689        -0.012628      0.019293     -0.006142
     12.42819      8.99614      4.32689        -0.002425      0.024308     -0.005167
      1.09198     15.29316      4.32689        -0.011424      0.015338     -0.004818
      6.69730     15.18117      4.32689        -0.012876      0.019204     -0.006397
     12.30263     15.06919      4.32689        -0.002229      0.024333     -0.005263
      1.34311      3.14706      7.76122        -0.010360      0.019607      0.003107
      6.94843      3.03507      7.76122        -0.008563      0.019830      0.005396
     12.55375      2.92309      7.76122        -0.010936      0.018958      0.007965
      1.21754      9.22011      7.76122        -0.010404      0.019906      0.003256
      6.82287      9.10812      7.76122        -0.008749      0.019888      0.005185
     12.42819      8.99614      7.76122        -0.010952      0.019026      0.007980
      1.09198     15.29316      7.76122        -0.010379      0.019979      0.003377
      6.69730     15.18117      7.76122        -0.008829      0.019984      0.005242
     12.30263     15.06919      7.76122        -0.010935      0.018916      0.007834
      4.13665      2.81401      4.32689         0.000535     -0.026798     -0.008833
      9.74198      2.70203      4.32689         0.012458     -0.019070     -0.006118
     15.34730      2.59004      4.32689         0.011964     -0.015323     -0.004837
      4.01109      8.88706      4.32689         0.002268     -0.023723     -0.004957
      9.61641      8.77508      4.32689         0.013064     -0.019073     -0.006301
     15.22174      8.66309      4.32689         0.011389     -0.015338     -0.004954
      3.88552     14.96011      4.32689         0.002190     -0.024237     -0.005053
      9.49085     14.84813      4.32689         0.012851     -0.019174     -0.006316
     15.09617     14.73614      4.32689         0.011348     -0.015346     -0.005191
      4.13665      2.81401      7.76122         0.011324     -0.018753      0.009025
      9.74198      2.70203      7.76122         0.008813     -0.019939      0.005389
     15.34730      2.59004      7.76122         0.010283     -0.019902      0.003430
      4.01109      8.88706      7.76122         0.010965     -0.018985      0.007893
      9.61641      8.77508      7.76122         0.008765     -0.019849      0.005208
     15.22174      8.66309      7.76122         0.010406     -0.020015      0.003316
      3.88552     14.96011      7.76122         0.010894     -0.018952      0.007908
      9.49085     14.84813      7.76122         0.008832     -0.019994      0.005282
     15.09617     14.73614      7.76122         0.010331     -0.019852      0.003186
      2.73988      2.98053      2.26308         0.002553      0.005760      0.001297
      8.34520      2.86855      2.26308        -0.000266     -0.000193      0.000230
     13.95053      2.75657      2.26308         0.000024     -0.000018      0.000164
      2.61432      9.05358      2.26308         0.000280      0.000419      0.000071
      8.21964      8.94160      2.26308         0.000017      0.000015      0.000190
     13.82496      8.82962      2.26308         0.000036     -0.000047      0.000152
      2.48875     15.12664      2.26308         0.000000      0.000072      0.000157
      8.09408     15.01465      2.26308        -0.000004      0.000009      0.000199
     13.69940     14.90267      2.26308         0.000063     -0.000014      0.000157
      2.73988      2.98053      9.82504        -0.000257     -0.000164     -0.000228
      8.34520      2.86855      9.82504        -0.000048     -0.000008     -0.000280
     13.95053      2.75657      9.82504        -0.000001     -0.000010     -0.000197
      2.61432      9.05358      9.82504         0.000039      0.000065     -0.000194
      8.21964      8.94160      9.82504        -0.000026     -0.000006     -0.000278
     13.82496      8.82962      9.82504         0.000004     -0.000011     -0.000195
      2.48875     15.12664      9.82504        -0.000005      0.000018     -0.000201
      8.09408     15.01465      9.82504         0.000005      0.000015     -0.000262
     13.69940     14.90267      9.82504         0.000001     -0.000007     -0.000213
 -----------------------------------------------------------------------------------
    total drift:                                0.000584     -0.002397      0.002753


--------------------------------------------------------------------------------------------------------



  FREE ENERGIE OF THE ION-ELECTRON SYSTEM (eV)
  ---------------------------------------------------
  free  energy   TOTEN  =     -1665.83319974 eV

  energy  without entropy=    -1665.68868575  energy(sigma->0) =    -1665.76094275
 


--------------------------------------------------------------------------------------------------------


    POTLOK:  cpu time      1.0328: real time      1.0392


--------------------------------------------------------------------------------------------------------


     LOOP+:  cpu time   7655.9353: real time   7720.3387
 vacuum level on the upper side and lower side of the slab         2.134         2.134
    4ORBIT:  cpu time      0.0000: real time      0.0000



 total charge

# of ion       s       p       d       tot
------------------------------------------
    1        0.723   1.422   0.000   2.145
    2        0.723   1.421   0.000   2.144
    3        0.723   1.421   0.000   2.144
    4        0.723   1.421   0.000   2.144
    5        0.723   1.421   0.000   2.144
    6        0.723   1.421   0.000   2.144
    7        0.723   1.421   0.000   2.144
    8        0.723   1.421   0.000   2.144
    9        0.723   1.421   0.000   2.144
   10        0.723   1.421   0.000   2.144
   11        0.723   1.421   0.000   2.144
   12        0.723   1.421   0.000   2.144
   13        0.723   1.421   0.000   2.144
   14        0.723   1.421   0.000   2.144
   15        0.723   1.421   0.000   2.144
   16        0.723   1.421   0.000   2.144
   17        0.723   1.421   0.000   2.144
   18        0.723   1.421   0.000   2.144
   19        0.723   1.421   0.000   2.144
   20        0.723   1.421   0.000   2.144
   21        0.723   1.421   0.000   2.144
   22        0.723   1.421   0.000   2.144
   23        0.723   1.421   0.000   2.144
   24        0.723   1.421   0.000   2.144
   25        0.723   1.421   0.000   2.144
   26        0.723   1.421   0.000   2.144
   27        0.723   1.421   0.000   2.144
   28        0.723   1.421   0.000   2.144
   29        0.723   1.421   0.000   2.144
   30        0.723   1.421   0.000   2.144
   31        0.723   1.421   0.000   2.144
   32        0.723   1.421   0.000   2.144
   33        0.723   1.421   0.000   2.144
   34        0.723   1.421   0.000   2.144
   35        0.723   1.421   0.000   2.144
   36        0.723   1.421   0.000   2.144
   37        0.708   1.355   0.000   2.064
   38        0.708   1.356   0.000   2.064
   39        0.708   1.356   0.000   2.064
   40        0.708   1.356   0.000   2.064
   41        0.708   1.356   0.000   2.064
   42        0.708   1.356   0.000   2.064
   43        0.708   1.356   0.000   2.064
   44        0.708   1.356   0.000   2.064
   45        0.708   1.356   0.000   2.064
   46        0.708   1.356   0.000   2.064
   47        0.708   1.356   0.000   2.064
   48        0.708   1.356   0.000   2.064
   49        0.708   1.356   0.000   2.064
   50        0.708   1.356   0.000   2.064
   51        0.708   1.356   0.000   2.064
   52        0.708   1.356   0.000   2.064
   53        0.708   1.356   0.000   2.064
   54        0.708   1.356   0.000   2.064
   55        0.708   1.356   0.000   2.064
   56        0.708   1.356   0.000   2.064
   57        0.708   1.356   0.000   2.064
   58        0.708   1.356   0.000   2.064
   59        0.708   1.356   0.000   2.064
   60        0.708   1.356   0.000   2.064
   61        0.708   1.356   0.000   2.064
   62        0.708   1.356   0.000   2.064
   63        0.708   1.356   0.000   2.064
   64        0.708   1.356   0.000   2.064
   65        0.708   1.356   0.000   2.064
   66        0.708   1.356   0.000   2.064
   67        0.708   1.356   0.000   2.064
   68        0.708   1.356   0.000   2.064
   69        0.708   1.356   0.000   2.064
   70        0.708   1.356   0.000   2.064
   71        0.708   1.356   0.000   2.064
   72        0.708   1.356   0.000   2.064
   73        0.715   1.319   0.000   2.033
   74        0.714   1.318   0.000   2.032
   75        0.714   1.318   0.000   2.032
   76        0.714   1.318   0.000   2.032
   77        0.714   1.318   0.000   2.032
   78        0.714   1.318   0.000   2.032
   79        0.714   1.318   0.000   2.032
   80        0.714   1.318   0.000   2.032
   81        0.714   1.318   0.000   2.032
   82        0.714   1.318   0.000   2.032
   83        0.714   1.318   0.000   2.032
   84        0.714   1.318   0.000   2.032
   85        0.714   1.318   0.000   2.032
   86        0.714   1.318   0.000   2.032
   87        0.714   1.318   0.000   2.032
   88        0.714   1.318   0.000   2.032
   89        0.714   1.318   0.000   2.032
   90        0.714   1.318   0.000   2.032
   91        0.714   1.318   0.000   2.032
   92        0.714   1.318   0.000   2.032
   93        0.714   1.318   0.000   2.032
   94        0.714   1.318   0.000   2.032
   95        0.714   1.318   0.000   2.032
   96        0.714   1.318   0.000   2.032
   97        0.714   1.318   0.000   2.032
   98        0.714   1.318   0.000   2.032
   99        0.714   1.318   0.000   2.032
  100        0.714   1.318   0.000   2.032
  101        0.714   1.318   0.000   2.032
  102        0.714   1.318   0.000   2.032
  103        0.714   1.318   0.000   2.032
  104        0.714   1.318   0.000   2.032
  105        0.714   1.318   0.000   2.032
  106        0.714   1.318   0.000   2.032
  107        0.714   1.318   0.000   2.032
  108        0.714   1.318   0.000   2.032
  109        0.708   1.291   0.000   1.998
  110        0.708   1.292   0.000   2.000
  111        0.708   1.292   0.000   2.000
  112        0.708   1.292   0.000   1.999
  113        0.708   1.292   0.000   2.000
  114        0.708   1.292   0.000   2.000
  115        0.708   1.292   0.000   1.999
  116        0.708   1.292   0.000   2.000
  117        0.708   1.292   0.000   2.000
  118        0.708   1.292   0.000   1.999
  119        0.708   1.292   0.000   1.999
  120        0.708   1.292   0.000   2.000
  121        0.708   1.292   0.000   1.999
  122        0.708   1.292   0.000   1.999
  123        0.708   1.292   0.000   2.000
  124        0.708   1.292   0.000   1.999
  125        0.708   1.292   0.000   1.999
  126        0.708   1.292   0.000   2.000
  127        0.708   1.292   0.000   2.000
  128        0.708   1.292   0.000   2.000
  129        0.708   1.292   0.000   1.999
  130        0.708   1.292   0.000   2.000
  131        0.708   1.292   0.000   2.000
  132        0.708   1.292   0.000   1.999
  133        0.708   1.292   0.000   2.000
  134        0.708   1.292   0.000   2.000
  135        0.708   1.292   0.000   1.999
  136        0.708   1.292   0.000   2.000
  137        0.708   1.292   0.000   1.999
  138        0.708   1.292   0.000   1.999
  139        0.708   1.292   0.000   2.000
  140        0.708   1.292   0.000   1.999
  141        0.708   1.292   0.000   1.999
  142        0.708   1.292   0.000   2.000
  143        0.708   1.292   0.000   1.999
  144        0.708   1.292   0.000   1.999
  145        0.689   1.276   0.000   1.965
  146        0.689   1.274   0.000   1.963
  147        0.689   1.274   0.000   1.963
  148        0.689   1.274   0.000   1.963
  149        0.689   1.274   0.000   1.963
  150        0.689   1.274   0.000   1.963
  151        0.689   1.274   0.000   1.963
  152        0.689   1.274   0.000   1.963
  153        0.689   1.274   0.000   1.963
  154        0.694   1.121   0.000   1.815
  155        0.694   1.121   0.000   1.815
  156        0.694   1.121   0.000   1.815
  157        0.694   1.121   0.000   1.815
  158        0.694   1.121   0.000   1.815
  159        0.694   1.121   0.000   1.815
  160        0.694   1.121   0.000   1.815
  161        0.694   1.121   0.000   1.815
  162        0.694   1.121   0.000   1.815
  163        0.694   1.121   0.000   1.815
  164        0.694   1.121   0.000   1.815
  165        0.694   1.121   0.000   1.815
  166        0.694   1.121   0.000   1.815
  167        0.694   1.121   0.000   1.815
  168        0.694   1.121   0.000   1.815
  169        0.694   1.121   0.000   1.815
  170        0.694   1.121   0.000   1.815
  171        0.694   1.121   0.000   1.815
  172        0.689   1.274   0.000   1.963
  173        0.689   1.274   0.000   1.963
  174        0.689   1.274   0.000   1.963
  175        0.689   1.274   0.000   1.963
  176        0.689   1.274   0.000   1.963
  177        0.689   1.274   0.000   1.963
  178        0.689   1.274   0.000   1.963
  179        0.689   1.274   0.000   1.963
  180        0.689   1.274   0.000   1.963
  181        0.694   1.119   0.000   1.813
  182        0.694   1.121   0.000   1.815
  183        0.694   1.121   0.000   1.815
  184        0.694   1.121   0.000   1.815
  185        0.694   1.121   0.000   1.815
  186        0.694   1.121   0.000   1.815
  187        0.694   1.121   0.000   1.815
  188        0.694   1.121   0.000   1.815
  189        0.694   1.121   0.000   1.815
  190        0.689   1.274   0.000   1.963
  191        0.689   1.274   0.000   1.963
  192        0.689   1.274   0.000   1.963
  193        0.689   1.274   0.000   1.963
  194        0.689   1.274   0.000   1.963
  195        0.689   1.274   0.000   1.963
  196        0.689   1.274   0.000   1.963
  197        0.689   1.274   0.000   1.963
  198        0.689   1.274   0.000   1.963
  199        0.689   1.274   0.000   1.963
  200        0.689   1.274   0.000   1.963
  201        0.689   1.274   0.000   1.963
  202        0.689   1.274   0.000   1.963
  203        0.689   1.274   0.000   1.963
  204        0.689   1.274   0.000   1.963
  205        0.689   1.274   0.000   1.963
  206        0.689   1.274   0.000   1.963
  207        0.689   1.274   0.000   1.963
  208        0.694   1.121   0.000   1.815
  209        0.694   1.121   0.000   1.815
  210        0.694   1.121   0.000   1.815
  211        0.694   1.121   0.000   1.815
  212        0.694   1.121   0.000   1.815
  213        0.694   1.121   0.000   1.815
  214        0.694   1.121   0.000   1.815
  215        0.694   1.121   0.000   1.815
  216        0.694   1.121   0.000   1.815
  217        0.720   1.444   0.000   2.164
  218        0.720   1.444   0.000   2.164
  219        0.720   1.444   0.000   2.164
  220        0.720   1.444   0.000   2.164
  221        0.720   1.444   0.000   2.164
  222        0.720   1.444   0.000   2.164
  223        0.720   1.444   0.000   2.164
  224        0.720   1.444   0.000   2.164
  225        0.720   1.444   0.000   2.164
  226        0.720   1.444   0.000   2.164
  227        0.720   1.444   0.000   2.164
  228        0.720   1.444   0.000   2.164
  229        0.720   1.444   0.000   2.164
  230        0.720   1.444   0.000   2.164
  231        0.720   1.444   0.000   2.164
  232        0.720   1.444   0.000   2.164
  233        0.720   1.444   0.000   2.164
  234        0.720   1.444   0.000   2.164
  235        0.720   1.444   0.000   2.164
  236        0.720   1.444   0.000   2.164
  237        0.720   1.444   0.000   2.164
  238        0.720   1.444   0.000   2.164
  239        0.720   1.444   0.000   2.164
  240        0.720   1.444   0.000   2.164
  241        0.720   1.444   0.000   2.164
  242        0.720   1.444   0.000   2.164
  243        0.720   1.444   0.000   2.164
  244        0.720   1.444   0.000   2.164
  245        0.720   1.444   0.000   2.164
  246        0.720   1.444   0.000   2.164
  247        0.720   1.444   0.000   2.164
  248        0.720   1.444   0.000   2.164
  249        0.720   1.444   0.000   2.164
  250        0.720   1.444   0.000   2.164
  251        0.720   1.444   0.000   2.164
  252        0.720   1.444   0.000   2.164
  253        0.461   0.009   0.000   0.470
  254        0.461   0.009   0.000   0.470
  255        0.461   0.009   0.000   0.470
  256        0.461   0.009   0.000   0.470
  257        0.461   0.009   0.000   0.470
  258        0.461   0.009   0.000   0.470
  259        0.461   0.009   0.000   0.470
  260        0.461   0.009   0.000   0.470
  261        0.461   0.009   0.000   0.470
  262        0.461   0.009   0.000   0.470
  263        0.461   0.009   0.000   0.470
  264        0.461   0.009   0.000   0.470
  265        0.461   0.009   0.000   0.470
  266        0.461   0.009   0.000   0.470
  267        0.461   0.009   0.000   0.470
  268        0.461   0.009   0.000   0.470
  269        0.461   0.009   0.000   0.470
  270        0.461   0.009   0.000   0.470
--------------------------------------------------
tot        186.714 332.261   0.000 518.975
 

 total amount of memory used by VASP MPI-rank0   566661. kBytes
=======================================================================

   base                                    :      30000. kBytes
   nonlr-proj                              :      22360. kBytes
   fftplans                                :      54945. kBytes
   grid                                    :      85464. kBytes
   one-center                              :        119. kBytes
   wavefun                                 :     373773. kBytes
 
  
  
 General timing and accounting informations for this job:
 ========================================================
  
                  Total CPU time used (sec):     7716.908
                            User time (sec):     7263.342
                          System time (sec):      453.565
                         Elapsed time (sec):     7782.413
  
                   Maximum memory used (kb):     1188976.
                   Average memory used (kb):          N/A
  
                          Minor page faults:       253798
                          Major page faults:          116
                 Voluntary context switches:         3014
