       N       E                     dE             d eps       ncg     rms          rms(c)
DAV:   1     0.204246510407E+03    0.20425E+03   -0.14396E+04 15120   0.757E+02
DAV:   2    -0.678864788125E+02   -0.27213E+03   -0.27122E+03 23100   0.986E+01
DAV:   3    -0.852900825043E+02   -0.17404E+02   -0.17356E+02 26082   0.428E+01
DAV:   4    -0.853361168748E+02   -0.46034E-01   -0.45990E-01 22932   0.231E+00
DAV:   5    -0.853361974370E+02   -0.80562E-04   -0.80561E-04 25956   0.885E-02
DAV:   6    -0.853361975297E+02   -0.92643E-07   -0.92636E-07 22680   0.255E-03
   1 F= -.85336198E+02 E0= -.85306071E+02  d E =-.602538E-01  mag=     0.0000
