o-B14
  0.999500000000000     
     5.6970000000000001    0.0000000000000000    0.0000000000000000
     0.0000000000000000    4.0479000000000003    0.0000000000000000
     0.0000000000000000    0.0000000000000000    6.2042000000000002
  B
    14
Direct
  0.5212300000000027  0.5000000000000000  0.6379599999999996
  0.4787699999999973  0.5000000000000000  0.3620400000000004
  0.9787699999999973  0.5000000000000000  0.6379599999999996
  0.0212300000000027  0.5000000000000000  0.3620400000000004
  0.6009000000000029  0.5000000000000000  0.8999099999999984
  0.3990999999999971  0.5000000000000000  0.1000900000000016
  0.8990999999999971  0.5000000000000000  0.8999099999999984
  0.1009000000000029  0.5000000000000000  0.1000900000000016
  0.7500000000000000  0.7917100000000019  0.7297300000000035
  0.2500000000000000  0.2082899999999981  0.2702699999999965
  0.7500000000000000  0.2082899999999981  0.7297300000000035
  0.2500000000000000  0.7917100000000019  0.2702699999999965
  0.2500000000000000  0.5000000000000000  0.5236700000000027
  0.7500000000000000  0.5000000000000000  0.4763299999999973
 
  0.00000000E+00  0.00000000E+00  0.00000000E+00
  0.00000000E+00  0.00000000E+00  0.00000000E+00
  0.00000000E+00  0.00000000E+00  0.00000000E+00
  0.00000000E+00  0.00000000E+00  0.00000000E+00
  0.00000000E+00  0.00000000E+00  0.00000000E+00
  0.00000000E+00  0.00000000E+00  0.00000000E+00
  0.00000000E+00  0.00000000E+00  0.00000000E+00
  0.00000000E+00  0.00000000E+00  0.00000000E+00
  0.00000000E+00  0.00000000E+00  0.00000000E+00
  0.00000000E+00  0.00000000E+00  0.00000000E+00
  0.00000000E+00  0.00000000E+00  0.00000000E+00
  0.00000000E+00  0.00000000E+00  0.00000000E+00
  0.00000000E+00  0.00000000E+00  0.00000000E+00
  0.00000000E+00  0.00000000E+00  0.00000000E+00
