 running   64 mpi-ranks, on    1 nodes
 distrk:  each k-point on   16 cores,    4 groups
 distr:  one band on    1 cores,   16 groups
 vasp.6.5.1 10Mar25 (build Mar 14 2025 17:12:02) complex                        
  
 POSCAR found type information on POSCAR B 
 POSCAR found :  1 types and      14 ions
 Reading from existing POTCAR
 scaLAPACK will be used
 -----------------------------------------------------------------------------
|                                                                             |
|           W    W    AA    RRRRR   N    N  II  N    N   GGGG   !!!           |
|           W    W   A  A   R    R  NN   N  II  NN   N  G    G  !!!           |
|           W    W  A    A  R    R  N N  N  II  N N  N  G       !!!           |
|           W WW W  AAAAAA  RRRRR   N  N N  II  N  N N  G  GGG   !            |
|           WW  WW  A    A  R   R   N   NN  II  N   NN  G    G                |
|           W    W  A    A  R    R  N    N  II  N    N   GGGG   !!!           |
|                                                                             |
|     For optimal performance we recommend to set                             |
|       NCORE = 2 up to number-of-cores-per-socket                            |
|     NCORE specifies how many cores store one orbital (NPAR=cpu/NCORE).      |
|     This setting can greatly improve the performance of VASP for DFT.       |
|     The default, NCORE=1 might be grossly inefficient on modern             |
|     multi-core architectures or massively parallel machines. Do your        |
|     own testing! More info at https://www.vasp.at/wiki/index.php/NCORE      |
|     Unfortunately you need to use the default for GW and RPA                |
|     calculations (for HF NCORE is supported but not extensively tested      |
|     yet).                                                                   |
|                                                                             |
 -----------------------------------------------------------------------------

 Reading from existing POTCAR
 LDA part: xc-table for (Slater+PW92), standard interpolation
 found WAVECAR, reading the header
 POSCAR, INCAR and KPOINTS ok, starting setup
 FFT: planning ... GRIDC
 FFT: planning ... GRID_SOFT
 FFT: planning ... GRID
 HFRCUT set to (new)   26.4917484340347     
 reading WAVECAR
 the WAVECAR file was read successfully
 initial charge from wavefunction
 entering main loop
       N       E                     dE             d eps       ncg     rms           ort
SDA:   1    -0.949861526542E+02   -0.94986E+02   -0.11571E+00   800   0.289E+00   0.000E+00
DMP:   2    -0.950758232629E+02   -0.89671E-01   -0.69267E-01   800   0.109E+00   0.169E+00
DMP:   3    -0.951321809887E+02   -0.56358E-01   -0.27500E-01   800   0.409E-01   0.730E-01
DMP:   4    -0.951502706014E+02   -0.18090E-01   -0.13329E-01   800   0.204E-01   0.338E-01
DMP:   5    -0.951630330875E+02   -0.12762E-01   -0.10302E-01   800   0.151E-01   0.279E-01
DMP:   6    -0.951712841979E+02   -0.82511E-02   -0.52734E-02   800   0.743E-02   0.151E-01
DMP:   7    -0.951752282188E+02   -0.39440E-02   -0.22290E-02   800   0.298E-02   0.679E-02
DMP:   8    -0.951769213378E+02   -0.16931E-02   -0.98346E-03   800   0.131E-02   0.300E-02
DMP:   9    -0.951777047755E+02   -0.78344E-03   -0.47545E-03   800   0.621E-03   0.148E-02
DMP:  10    -0.951780957336E+02   -0.39096E-03   -0.23896E-03   800   0.303E-03   0.770E-03
DMP:  11    -0.951782960592E+02   -0.20033E-03   -0.12306E-03   800   0.153E-03   0.404E-03
DMP:  12    -0.951784008489E+02   -0.10479E-03   -0.65610E-04   800   0.817E-04   0.215E-03
DMP:  13    -0.951784575130E+02   -0.56664E-04   -0.36159E-04   800   0.450E-04   0.119E-03
DMP:  14    -0.951784891043E+02   -0.31591E-04   -0.20555E-04   800   0.256E-04   0.675E-04
DMP:  15    -0.951785072383E+02   -0.18134E-04   -0.12104E-04   800   0.152E-04   0.394E-04
DMP:  16    -0.951785180268E+02   -0.10789E-04   -0.74260E-05   800   0.948E-05   0.238E-04
DMP:  17    -0.951785247239E+02   -0.66971E-05   -0.47855E-05   800   0.625E-05   0.150E-04
DMP:  18    -0.951785290916E+02   -0.43677E-05   -0.32429E-05   800   0.435E-05   0.985E-05
DMP:  19    -0.951785320778E+02   -0.29862E-05   -0.23263E-05   800   0.323E-05   0.678E-05
DMP:  20    -0.951785342198E+02   -0.21420E-05   -0.17921E-05   800   0.262E-05   0.486E-05
DMP:  21    -0.951785358364E+02   -0.16166E-05   -0.14810E-05   800   0.234E-05   0.357E-05
DMP:  22    -0.951785370926E+02   -0.12563E-05   -0.13246E-05   800   0.234E-05   0.255E-05
DMP:  23    -0.951785380880E+02   -0.99539E-06   -0.12476E-05   800   0.249E-05   0.164E-05
DMP:  24    -0.951785388611E+02   -0.77303E-06   -0.12190E-05   800   0.277E-05   0.721E-06
DMP:  25    -0.951785394866E+02   -0.62553E-06   -0.11747E-05   800   0.292E-05   0.568E-07
DMP:  26    -0.951785398995E+02   -0.41289E-06   -0.18585E-05   800   0.499E-05  -0.895E-06
DMP:  27    -0.951785392875E+02    0.61202E-06   -0.91513E-05   800   0.258E-04  -0.772E-05
DMP:  28    -0.951785324624E+02    0.68251E-05   -0.57238E-04   800   0.165E-03  -0.570E-04
DMP:  29    -0.951784917633E+02    0.40699E-04   -0.30559E-03   800   0.896E-03  -0.346E-03
DMP:  30    -0.951783205743E+02    0.17119E-03   -0.12439E-02   800   0.373E-02  -0.162E-02
DMP:  31    -0.951777994277E+02    0.52115E-03   -0.37546E-02   800   0.116E-01  -0.571E-02
DMP:  32    -0.951767685918E+02    0.10308E-02   -0.80313E-02   800   0.256E-01  -0.145E-01
DMP:  33    -0.951756238122E+02    0.11448E-02   -0.11734E-01   800   0.392E-01  -0.258E-01
DMP:  34    -0.951754168903E+02    0.20692E-03   -0.11143E-01   800   0.394E-01  -0.303E-01
DMP:  35    -0.951764141687E+02   -0.99728E-03   -0.68499E-02   800   0.259E-01  -0.229E-01
DMP:  36    -0.951774440556E+02   -0.10299E-02   -0.37171E-02   800   0.139E-01  -0.120E-01
DMP:  37    -0.951776143771E+02   -0.17032E-03   -0.36836E-02   800   0.124E-01  -0.844E-02
DMP:  38    -0.951774179726E+02    0.19640E-03   -0.42658E-02   800   0.146E-01  -0.102E-01
DMP:  39    -0.951775378942E+02   -0.11992E-03   -0.33920E-02   800   0.123E-01  -0.100E-01
DMP:  40    -0.951780077258E+02   -0.46983E-03   -0.15272E-02   800   0.615E-02  -0.612E-02
DMP:  41    -0.951784145740E+02   -0.40685E-03   -0.27289E-03   800   0.136E-02  -0.178E-02
DMP:  42    -0.951785236809E+02   -0.10911E-03   -0.48389E-04   800   0.173E-03  -0.136E-03
DMP:  43    -0.951785230921E+02    0.58882E-06   -0.49507E-04   800   0.171E-03  -0.124E-03
DMP:  44    -0.951785372545E+02   -0.14162E-04   -0.84004E-05   800   0.412E-04  -0.529E-04
DMP:  45    -0.951785400965E+02   -0.28420E-05   -0.51832E-05   800   0.156E-04  -0.679E-05
DMP:  46    -0.951785411139E+02   -0.10174E-05   -0.18423E-05   800   0.761E-05  -0.787E-05
DMP:  47    -0.951785417424E+02   -0.62849E-06   -0.85130E-06   800   0.269E-05  -0.146E-05
 final diagonalization occupied
   1 F= -.95178542E+02 E0= -.95178541E+02  d E =-.160249E-05  mag=     0.0000
 Start KPOINTS_OPT (optional k-point list driver)
k-point batch [1-25\120]
       N       E                     dE             ncg
DAV:   1     0.423047993629E+04   -0.18957E+04     4512
DAV:   2    -0.339875803345E+04   -0.76292E+04     6400
DAV:   3    -0.735186881193E+04   -0.39531E+04     6400
DAV:   4    -0.941219374587E+04   -0.20603E+04     6400
DAV:   5    -0.104725694597E+05   -0.10604E+04     6400
DAV:   6    -0.109678454477E+05   -0.49528E+03     6400
DAV:   7    -0.111832716577E+05   -0.21543E+03     6400
DAV:   8    -0.112770124366E+05   -0.93741E+02     6400
DAV:   9    -0.113192816334E+05   -0.42269E+02     6400
DAV:  10    -0.113390373159E+05   -0.19756E+02     6400
DAV:  11    -0.113486994996E+05   -0.96622E+01     6400
DAV:  12    -0.113535820883E+05   -0.48826E+01     6400
DAV:  13    -0.113561062255E+05   -0.25241E+01     6400
DAV:  14    -0.113574357751E+05   -0.13295E+01     6400
DAV:  15    -0.113581446566E+05   -0.70888E+00     6400
DAV:  16    -0.113585280142E+05   -0.38336E+00     6400
DAV:  17    -0.113587374470E+05   -0.20943E+00     6400
DAV:  18    -0.113588530413E+05   -0.11559E+00     6400
DAV:  19    -0.113589172303E+05   -0.64189E-01     6400
DAV:  20    -0.113589530990E+05   -0.35869E-01     6400
DAV:  21    -0.113589732060E+05   -0.20107E-01     6400
DAV:  22    -0.113589845201E+05   -0.11314E-01     6400
DAV:  23    -0.113589908953E+05   -0.63752E-02     6320
DAV:  24    -0.113589944953E+05   -0.36000E-02     5536
DAV:  25    -0.113589965289E+05   -0.20336E-02     4480
DAV:  26    -0.113589976794E+05   -0.11505E-02     4016
DAV:  27    -0.113589983302E+05   -0.65088E-03     4000
DAV:  28    -0.113589986987E+05   -0.36845E-03     4000
DAV:  29    -0.113589989072E+05   -0.20851E-03     4000
DAV:  30    -0.113589990252E+05   -0.11803E-03     4000
DAV:  31    -0.113589990920E+05   -0.66796E-04     4000
DAV:  32    -0.113589991298E+05   -0.37820E-04     4000
DAV:  33    -0.113589991513E+05   -0.21422E-04     4000
DAV:  34    -0.113589991634E+05   -0.12148E-04     4000
DAV:  35    -0.113589991703E+05   -0.69023E-05     4000
DAV:  36    -0.113589991742E+05   -0.39342E-05     4000
DAV:  37    -0.113589991765E+05   -0.22537E-05     4000
DAV:  38    -0.113589991778E+05   -0.13023E-05     4000
DAV:  39    -0.113589991786E+05   -0.76231E-06     4000
k-point batch [26-50\120]
       N       E                     dE             ncg
DAV:   1     0.403202774668E+04   -0.14891E+05     4560
DAV:   2    -0.324296375210E+04   -0.72750E+04     6400
DAV:   3    -0.723761156783E+04   -0.39946E+04     6400
DAV:   4    -0.946753771800E+04   -0.22299E+04     6400
DAV:   5    -0.105455402143E+05   -0.10780E+04     6400
DAV:   6    -0.110263408717E+05   -0.48080E+03     6400
DAV:   7    -0.112327636711E+05   -0.20642E+03     6400
DAV:   8    -0.113202364341E+05   -0.87473E+02     6400
DAV:   9    -0.113581486906E+05   -0.37912E+02     6400
DAV:  10    -0.113751596094E+05   -0.17011E+02     6400
DAV:  11    -0.113833277467E+05   -0.81681E+01     6400
DAV:  12    -0.113876234230E+05   -0.42957E+01     6400
DAV:  13    -0.113900093709E+05   -0.23859E+01     6400
DAV:  14    -0.113913654374E+05   -0.13561E+01     6400
DAV:  15    -0.113921386516E+05   -0.77321E+00     6400
DAV:  16    -0.113925797024E+05   -0.44105E+00     6400
DAV:  17    -0.113928304677E+05   -0.25077E+00     6400
DAV:  18    -0.113929730873E+05   -0.14262E+00     6400
DAV:  19    -0.113930541306E+05   -0.81043E-01     6400
DAV:  20    -0.113931002778E+05   -0.46147E-01     6400
DAV:  21    -0.113931265829E+05   -0.26305E-01     6400
DAV:  22    -0.113931416254E+05   -0.15042E-01     6400
DAV:  23    -0.113931502463E+05   -0.86209E-02     5968
DAV:  24    -0.113931552047E+05   -0.49584E-02     5104
DAV:  25    -0.113931580640E+05   -0.28593E-02     4080
DAV:  26    -0.113931597188E+05   -0.16548E-02     4000
DAV:  27    -0.113931606789E+05   -0.96004E-03     4000
DAV:  28    -0.113931612374E+05   -0.55859E-03     4000
DAV:  29    -0.113931615631E+05   -0.32562E-03     4000
DAV:  30    -0.113931617533E+05   -0.19026E-03     4000
DAV:  31    -0.113931618647E+05   -0.11133E-03     4000
DAV:  32    -0.113931619299E+05   -0.65261E-04     4000
DAV:  33    -0.113931619682E+05   -0.38295E-04     4000
DAV:  34    -0.113931619907E+05   -0.22508E-04     4000
DAV:  35    -0.113931620040E+05   -0.13244E-04     4000
DAV:  36    -0.113931620118E+05   -0.78090E-05     4000
DAV:  37    -0.113931620164E+05   -0.46108E-05     4000
DAV:  38    -0.113931620191E+05   -0.27328E-05     4000
DAV:  39    -0.113931620207E+05   -0.16266E-05     4000
DAV:  40    -0.113931620217E+05   -0.97431E-06     4000
k-point batch [51-75\120]
       N       E                     dE             ncg
DAV:   1     0.389591279419E+04   -0.21301E+05     4592
DAV:   2    -0.306554692966E+04   -0.69615E+04     6400
DAV:   3    -0.708119810878E+04   -0.40157E+04     6400
DAV:   4    -0.933529395873E+04   -0.22541E+04     6400
DAV:   5    -0.104717795995E+05   -0.11365E+04     6400
DAV:   6    -0.110282397080E+05   -0.55646E+03     6400
DAV:   7    -0.112816559013E+05   -0.25342E+03     6400
DAV:   8    -0.113873922428E+05   -0.10574E+03     6400
DAV:   9    -0.114298943551E+05   -0.42502E+02     6400
DAV:  10    -0.114468701693E+05   -0.16976E+02     6400
DAV:  11    -0.114536932335E+05   -0.68231E+01     6400
DAV:  12    -0.114564662691E+05   -0.27730E+01     6400
DAV:  13    -0.114576062780E+05   -0.11400E+01     6400
DAV:  14    -0.114580804702E+05   -0.47419E+00     6400
DAV:  15    -0.114582797927E+05   -0.19932E+00     6400
DAV:  16    -0.114583644354E+05   -0.84643E-01     6400
DAV:  17    -0.114584006984E+05   -0.36263E-01     6400
DAV:  18    -0.114584163690E+05   -0.15671E-01     6400
DAV:  19    -0.114584231907E+05   -0.68217E-02     6400
DAV:  20    -0.114584261820E+05   -0.29913E-02     6400
DAV:  21    -0.114584275016E+05   -0.13196E-02     6400
DAV:  22    -0.114584280874E+05   -0.58576E-03     6400
DAV:  23    -0.114584283486E+05   -0.26125E-03     6256
DAV:  24    -0.114584284653E+05   -0.11666E-03     5424
DAV:  25    -0.114584285173E+05   -0.51982E-04     4176
DAV:  26    -0.114584285408E+05   -0.23540E-04     4000
DAV:  27    -0.114584285516E+05   -0.10763E-04     4000
DAV:  28    -0.114584285565E+05   -0.49652E-05     4000
DAV:  29    -0.114584285589E+05   -0.23194E-05     4000
DAV:  30    -0.114584285600E+05   -0.11112E-05     4000
DAV:  31    -0.114584285605E+05   -0.55264E-06     4000
k-point batch [76-100\120]
       N       E                     dE             ncg
DAV:   1     0.404852541871E+04   -0.16102E+05     4608
DAV:   2    -0.326229096631E+04   -0.73108E+04     6400
DAV:   3    -0.720343110611E+04   -0.39411E+04     6400
DAV:   4    -0.946224771643E+04   -0.22588E+04     6400
DAV:   5    -0.105796878404E+05   -0.11174E+04     6400
DAV:   6    -0.110954004341E+05   -0.51571E+03     6400
DAV:   7    -0.113159447442E+05   -0.22054E+03     6400
DAV:   8    -0.114029528842E+05   -0.87008E+02     6400
DAV:   9    -0.114362807865E+05   -0.33328E+02     6400
DAV:  10    -0.114490676757E+05   -0.12787E+02     6400
DAV:  11    -0.114540353424E+05   -0.49677E+01     6400
DAV:  12    -0.114560008414E+05   -0.19655E+01     6400
DAV:  13    -0.114567918592E+05   -0.79102E+00     6400
DAV:  14    -0.114571158613E+05   -0.32400E+00     6400
DAV:  15    -0.114572505008E+05   -0.13464E+00     6400
DAV:  16    -0.114573072570E+05   -0.56756E-01     6400
DAV:  17    -0.114573314490E+05   -0.24192E-01     6400
DAV:  18    -0.114573418753E+05   -0.10426E-01     6400
DAV:  19    -0.114573464057E+05   -0.45304E-02     6400
DAV:  20    -0.114573483907E+05   -0.19849E-02     6400
DAV:  21    -0.114573492654E+05   -0.87473E-03     6400
DAV:  22    -0.114573496532E+05   -0.38784E-03     6400
DAV:  23    -0.114573498255E+05   -0.17223E-03     5952
DAV:  24    -0.114573499014E+05   -0.75987E-04     4288
DAV:  25    -0.114573499355E+05   -0.34077E-04     4000
DAV:  26    -0.114573499510E+05   -0.15441E-04     4000
DAV:  27    -0.114573499580E+05   -0.70430E-05     4000
DAV:  28    -0.114573499612E+05   -0.32501E-05     4000
DAV:  29    -0.114573499628E+05   -0.15355E-05     4000
DAV:  30    -0.114573499635E+05   -0.75341E-06     4000
k-point batch [101-120\120]
       N       E                     dE             ncg
DAV:   1     0.661218308449E+04   -0.90668E+03     3712
DAV:   2     0.547642217611E+03   -0.60645E+04     5120
DAV:   3    -0.255098735736E+04   -0.30986E+04     5120
DAV:   4    -0.416661310972E+04   -0.16156E+04     5120
DAV:   5    -0.502164964541E+04   -0.85504E+03     5120
DAV:   6    -0.544147007076E+04   -0.41982E+03     5120
DAV:   7    -0.563279213488E+04   -0.19132E+03     5120
DAV:   8    -0.571213980844E+04   -0.79348E+02     5120
DAV:   9    -0.574386980852E+04   -0.31730E+02     5120
DAV:  10    -0.575651036188E+04   -0.12641E+02     5120
DAV:  11    -0.576158664559E+04   -0.50763E+01     5120
DAV:  12    -0.576365546274E+04   -0.20688E+01     5120
DAV:  13    -0.576451100294E+04   -0.85554E+00     5120
DAV:  14    -0.576487037600E+04   -0.35937E+00     5120
DAV:  15    -0.576502344649E+04   -0.15307E+00     5120
DAV:  16    -0.576508955245E+04   -0.66106E-01     5120
DAV:  17    -0.576511845164E+04   -0.28899E-01     5120
DAV:  18    -0.576513123656E+04   -0.12785E-01     5120
DAV:  19    -0.576513695192E+04   -0.57154E-02     5120
DAV:  20    -0.576513953245E+04   -0.25805E-02     5120
DAV:  21    -0.576514070765E+04   -0.11752E-02     5120
DAV:  22    -0.576514124711E+04   -0.53946E-03     5120
DAV:  23    -0.576514149602E+04   -0.24891E-03     5056
DAV:  24    -0.576514161121E+04   -0.11519E-03     4416
DAV:  25    -0.576514166447E+04   -0.53261E-04     3440
DAV:  26    -0.576514168945E+04   -0.24984E-04     3200
DAV:  27    -0.576514170131E+04   -0.11855E-04     3200
DAV:  28    -0.576514170698E+04   -0.56717E-05     3200
DAV:  29    -0.576514170972E+04   -0.27437E-05     3200
DAV:  30    -0.576514171108E+04   -0.13556E-05     3200
DAV:  31    -0.576514171177E+04   -0.68981E-06     3200
 writing wavefunctions
