BS                                      
           1
     5.699758    0.000000    0.000000
     0.000000    6.314134    0.000000
     0.000000    0.000000   24.044058
   B 
    14
Direct configuration=     1
   0.51172619  0.64341793  0.08409683
   0.48827381  0.35658207  0.08409683
   0.98827381  0.64341793  0.08409683
   0.01172619  0.35658207  0.08409683
   0.59720407  0.90258230  0.08409683
   0.40279593  0.09741769  0.08409683
   0.90279593  0.90258230  0.08409683
   0.09720407  0.09741769  0.08409683
   0.75000000  0.72357099  0.12465534
   0.25000000  0.27642901  0.04353833
   0.75000000  0.72357099  0.04353833
   0.25000000  0.27642901  0.12465534
   0.25000000  0.51603999  0.08409683
   0.75000000  0.48395998  0.08409683
