  28  28   0   0
  0.6180874E+02  0.1139952E-08  0.6314134E-09  0.2404406E-08  0.5000000E-15
  1.000000000000000E-004
  CAR 
 Parameters                              
      3.18462465    -21.06333693  301     -4.35356490      1.00000000
    -21.063  0.0000E+00  0.0000E+00
    -20.983  0.0000E+00  0.0000E+00
    -20.902  0.0000E+00  0.0000E+00
    -20.821  0.0000E+00  0.0000E+00
    -20.740  0.0000E+00  0.0000E+00
    -20.659  0.0000E+00  0.0000E+00
    -20.578  0.0000E+00  0.0000E+00
    -20.498  0.0000E+00  0.0000E+00
    -20.417  0.0000E+00  0.0000E+00
    -20.336  0.0000E+00  0.0000E+00
    -20.255  0.4753E-19  0.3842E-20
    -20.174  0.2274E-11  0.1838E-12
    -20.093  0.3805E-06  0.3076E-07
    -20.013  0.5794E-03  0.4686E-04
    -19.932  0.1784E-01  0.1489E-02
    -19.851  0.4757E-01  0.5334E-02
    -19.770  0.3722E-01  0.8342E-02
    -19.689  0.2790E-01  0.1060E-01
    -19.608  0.2485E-01  0.1261E-01
    -19.528  0.2389E-01  0.1454E-01
    -19.447  0.2444E-01  0.1651E-01
    -19.366  0.2709E-01  0.1870E-01
    -19.285  0.3597E-01  0.2161E-01
    -19.204  0.4120E-01  0.2494E-01
    -19.123  0.1979E-01  0.2654E-01
    -19.043  0.1571E-02  0.2667E-01
    -18.962  0.3747E-05  0.2667E-01
    -18.881  0.9479E-10  0.2667E-01
    -18.800  0.1749E-16  0.2667E-01
    -18.719  0.0000E+00  0.2667E-01
    -18.639  0.0000E+00  0.2667E-01
    -18.558  0.0000E+00  0.2667E-01
    -18.477  0.0000E+00  0.2667E-01
    -18.396  0.0000E+00  0.2667E-01
    -18.315  0.0000E+00  0.2667E-01
    -18.234  0.0000E+00  0.2667E-01
    -18.154  0.0000E+00  0.2667E-01
    -18.073  0.0000E+00  0.2667E-01
    -17.992  0.0000E+00  0.2667E-01
    -17.911  0.0000E+00  0.2667E-01
    -17.830  0.0000E+00  0.2667E-01
    -17.749  0.0000E+00  0.2667E-01
    -17.669  0.0000E+00  0.2667E-01
    -17.588  0.0000E+00  0.2667E-01
    -17.507  0.0000E+00  0.2667E-01
    -17.426  0.0000E+00  0.2667E-01
    -17.345  0.0000E+00  0.2667E-01
    -17.264  0.0000E+00  0.2667E-01
    -17.184  0.0000E+00  0.2667E-01
    -17.103  0.0000E+00  0.2667E-01
    -17.022  0.0000E+00  0.2667E-01
    -16.941  0.0000E+00  0.2667E-01
    -16.860  0.0000E+00  0.2667E-01
    -16.780  0.0000E+00  0.2667E-01
    -16.699  0.0000E+00  0.2667E-01
    -16.618  0.0000E+00  0.2667E-01
    -16.537  0.0000E+00  0.2667E-01
    -16.456  0.0000E+00  0.2667E-01
    -16.375  0.0000E+00  0.2667E-01
    -16.295  0.0000E+00  0.2667E-01
    -16.214  0.0000E+00  0.2667E-01
    -16.133  0.0000E+00  0.2667E-01
    -16.052  0.0000E+00  0.2667E-01
    -15.971  0.0000E+00  0.2667E-01
    -15.890  0.0000E+00  0.2667E-01
    -15.810  0.6407E-16  0.2667E-01
    -15.729  0.2630E-09  0.2667E-01
    -15.648  0.7919E-05  0.2667E-01
    -15.567  0.2589E-02  0.2688E-01
    -15.486  0.2619E-01  0.2899E-01
    -15.405  0.4555E-01  0.3267E-01
    -15.325  0.6508E-01  0.3793E-01
    -15.244  0.7225E-01  0.4377E-01
    -15.163  0.6109E-01  0.4871E-01
    -15.082  0.3626E-01  0.5164E-01
    -15.001  0.1699E-01  0.5302E-01
    -14.921  0.3846E-02  0.5333E-01
    -14.840  0.7312E-04  0.5333E-01
    -14.759  0.2417E-07  0.5333E-01
    -14.678  0.6771E-13  0.5333E-01
    -14.597  0.0000E+00  0.5333E-01
    -14.516  0.0000E+00  0.5333E-01
    -14.436  0.0000E+00  0.5333E-01
    -14.355  0.0000E+00  0.5333E-01
    -14.274  0.0000E+00  0.5333E-01
    -14.193  0.0000E+00  0.5333E-01
    -14.112  0.0000E+00  0.5333E-01
    -14.031  0.2256E-15  0.5333E-01
    -13.951  0.3736E-09  0.5333E-01
    -13.870  0.4496E-05  0.5333E-01
    -13.789  0.6111E-03  0.5338E-01
    -13.708  0.3583E-02  0.5367E-01
    -13.627  0.5010E-02  0.5408E-01
    -13.546  0.5678E-02  0.5454E-01
    -13.466  0.7453E-02  0.5514E-01
    -13.385  0.8581E-02  0.5583E-01
    -13.304  0.1405E-01  0.5697E-01
    -13.223  0.3169E-01  0.5953E-01
    -13.142  0.2999E-01  0.6195E-01
    -13.062  0.2261E-01  0.6378E-01
    -12.981  0.2131E-01  0.6550E-01
    -12.900  0.2420E-01  0.6746E-01
    -12.819  0.2180E-01  0.6922E-01
    -12.738  0.2222E-01  0.7102E-01
    -12.657  0.2487E-01  0.7303E-01
    -12.577  0.3106E-01  0.7554E-01
    -12.496  0.2590E-01  0.7763E-01
    -12.415  0.1693E-01  0.7900E-01
    -12.334  0.1061E-01  0.7986E-01
    -12.253  0.1742E-02  0.8000E-01
    -12.172  0.1223E-04  0.8000E-01
    -12.092  0.1084E-08  0.8000E-01
    -12.011  0.7435E-15  0.8000E-01
    -11.930  0.0000E+00  0.8000E-01
    -11.849  0.0000E+00  0.8000E-01
    -11.768  0.0000E+00  0.8000E-01
    -11.687  0.2750E-12  0.8000E-01
    -11.607  0.8508E-07  0.8000E-01
    -11.526  0.2319E-03  0.8002E-01
    -11.445  0.1053E-01  0.8087E-01
    -11.364  0.2892E-01  0.8321E-01
    -11.283  0.3081E-01  0.8570E-01
    -11.202  0.3728E-01  0.8871E-01
    -11.122  0.3962E-01  0.9191E-01
    -11.041  0.4192E-01  0.9530E-01
    -10.960  0.3722E-01  0.9831E-01
    -10.879  0.3127E-01  0.1008E+00
    -10.798  0.2863E-01  0.1032E+00
    -10.718  0.2779E-01  0.1054E+00
    -10.637  0.2669E-01  0.1076E+00
    -10.556  0.2604E-01  0.1097E+00
    -10.475  0.2218E-01  0.1115E+00
    -10.394  0.2357E-01  0.1134E+00
    -10.313  0.2346E-01  0.1153E+00
    -10.233  0.2764E-01  0.1175E+00
    -10.152  0.3483E-01  0.1203E+00
    -10.071  0.4110E-01  0.1236E+00
     -9.990  0.3429E-01  0.1264E+00
     -9.909  0.3304E-01  0.1291E+00
     -9.828  0.3364E-01  0.1318E+00
     -9.748  0.2554E-01  0.1338E+00
     -9.667  0.2143E-01  0.1356E+00
     -9.586  0.2098E-01  0.1373E+00
     -9.505  0.2930E-01  0.1396E+00
     -9.424  0.2773E-01  0.1419E+00
     -9.343  0.1574E-01  0.1432E+00
     -9.263  0.1188E-01  0.1441E+00
     -9.182  0.9796E-02  0.1449E+00
     -9.101  0.9657E-02  0.1457E+00
     -9.020  0.1207E-01  0.1467E+00
     -8.939  0.1085E-01  0.1475E+00
     -8.859  0.1186E-01  0.1485E+00
     -8.778  0.1232E-01  0.1495E+00
     -8.697  0.1573E-01  0.1508E+00
     -8.616  0.2509E-01  0.1528E+00
     -8.535  0.2726E-01  0.1550E+00
     -8.454  0.2148E-01  0.1567E+00
     -8.374  0.1343E-01  0.1578E+00
     -8.293  0.1016E-01  0.1586E+00
     -8.212  0.1037E-01  0.1595E+00
     -8.131  0.9303E-02  0.1602E+00
     -8.050  0.1124E-01  0.1611E+00
     -7.969  0.1477E-01  0.1623E+00
     -7.889  0.2896E-01  0.1647E+00
     -7.808  0.4394E-01  0.1682E+00
     -7.727  0.5323E-01  0.1725E+00
     -7.646  0.6011E-01  0.1774E+00
     -7.565  0.6180E-01  0.1824E+00
     -7.484  0.6309E-01  0.1875E+00
     -7.404  0.5505E-01  0.1919E+00
     -7.323  0.5102E-01  0.1961E+00
     -7.242  0.5238E-01  0.2003E+00
     -7.161  0.6009E-01  0.2051E+00
     -7.080  0.4985E-01  0.2092E+00
     -7.000  0.3348E-01  0.2119E+00
     -6.919  0.2608E-01  0.2140E+00
     -6.838  0.2546E-01  0.2160E+00
     -6.757  0.2315E-01  0.2179E+00
     -6.676  0.1661E-01  0.2193E+00
     -6.595  0.1265E-01  0.2203E+00
     -6.515  0.1854E-01  0.2218E+00
     -6.434  0.1599E-01  0.2231E+00
     -6.353  0.1572E-01  0.2243E+00
     -6.272  0.2784E-01  0.2266E+00
     -6.191  0.4070E-01  0.2299E+00
     -6.110  0.4148E-01  0.2332E+00
     -6.030  0.3318E-01  0.2359E+00
     -5.949  0.2902E-01  0.2383E+00
     -5.868  0.2881E-01  0.2406E+00
     -5.787  0.3040E-01  0.2431E+00
     -5.706  0.3291E-01  0.2457E+00
     -5.625  0.3887E-01  0.2489E+00
     -5.545  0.3490E-01  0.2517E+00
     -5.464  0.2823E-01  0.2540E+00
     -5.383  0.2707E-01  0.2561E+00
     -5.302  0.2199E-01  0.2579E+00
     -5.221  0.8994E-02  0.2587E+00
     -5.141  0.5247E-02  0.2591E+00
     -5.060  0.6761E-02  0.2596E+00
     -4.979  0.4640E-02  0.2600E+00
     -4.898  0.8405E-02  0.2607E+00
     -4.817  0.6984E-02  0.2612E+00
     -4.736  0.6184E-02  0.2617E+00
     -4.656  0.7999E-02  0.2624E+00
     -4.575  0.2819E-01  0.2647E+00
     -4.494  0.6354E-01  0.2698E+00
     -4.413  0.6422E-01  0.2750E+00
     -4.332  0.8842E-01  0.2821E+00
     -4.251  0.7307E-01  0.2880E+00
     -4.171  0.2331E-01  0.2899E+00
     -4.090  0.7890E-02  0.2906E+00
     -4.009  0.3951E-02  0.2909E+00
     -3.928  0.3371E-02  0.2912E+00
     -3.847  0.3507E-02  0.2914E+00
     -3.766  0.3839E-02  0.2918E+00
     -3.686  0.2073E-02  0.2919E+00
     -3.605  0.2333E-02  0.2921E+00
     -3.524  0.3139E-02  0.2924E+00
     -3.443  0.1745E-02  0.2925E+00
     -3.362  0.2352E-02  0.2927E+00
     -3.281  0.1725E-02  0.2928E+00
     -3.201  0.1997E-02  0.2930E+00
     -3.120  0.1550E-02  0.2931E+00
     -3.039  0.1545E-02  0.2932E+00
     -2.958  0.9917E-03  0.2933E+00
     -2.877  0.1318E-03  0.2933E+00
     -2.797  0.6040E-06  0.2933E+00
     -2.716  0.2371E-10  0.2933E+00
     -2.635  0.5894E-17  0.2933E+00
     -2.554  0.0000E+00  0.2933E+00
     -2.473  0.0000E+00  0.2933E+00
     -2.392  0.0000E+00  0.2933E+00
     -2.312  0.0000E+00  0.2933E+00
     -2.231  0.0000E+00  0.2933E+00
     -2.150  0.6207E-15  0.2933E+00
     -2.069  0.6203E-09  0.2933E+00
     -1.988  0.4123E-05  0.2933E+00
     -1.907  0.3179E-03  0.2934E+00
     -1.827  0.1716E-02  0.2935E+00
     -1.746  0.1863E-02  0.2936E+00
     -1.665  0.2969E-02  0.2939E+00
     -1.584  0.3112E-02  0.2941E+00
     -1.503  0.1626E-01  0.2955E+00
     -1.422  0.2643E-01  0.2976E+00
     -1.342  0.4055E-01  0.3009E+00
     -1.261  0.4206E-01  0.3043E+00
     -1.180  0.4720E-01  0.3081E+00
     -1.099  0.5355E-01  0.3124E+00
     -1.018  0.4740E-01  0.3162E+00
     -0.938  0.4144E-01  0.3196E+00
     -0.857  0.3533E-01  0.3224E+00
     -0.776  0.3453E-01  0.3252E+00
     -0.695  0.3522E-01  0.3281E+00
     -0.614  0.2763E-01  0.3303E+00
     -0.533  0.3268E-01  0.3330E+00
     -0.453  0.4360E-01  0.3365E+00
     -0.372  0.3497E-01  0.3393E+00
     -0.291  0.2697E-01  0.3415E+00
     -0.210  0.3905E-01  0.3446E+00
     -0.129  0.3727E-01  0.3477E+00
     -0.048  0.3249E-01  0.3503E+00
      0.032  0.2877E-01  0.3526E+00
      0.113  0.3287E-01  0.3553E+00
      0.194  0.4138E-01  0.3586E+00
      0.275  0.4299E-01  0.3621E+00
      0.356  0.3677E-01  0.3651E+00
      0.437  0.2782E-01  0.3673E+00
      0.517  0.1811E-01  0.3688E+00
      0.598  0.1628E-01  0.3701E+00
      0.679  0.1441E-01  0.3713E+00
      0.760  0.1574E-01  0.3725E+00
      0.841  0.1980E-01  0.3741E+00
      0.921  0.2494E-01  0.3761E+00
      1.002  0.2307E-01  0.3780E+00
      1.083  0.2988E-01  0.3804E+00
      1.164  0.5267E-01  0.3847E+00
      1.245  0.6345E-01  0.3898E+00
      1.326  0.5789E-01  0.3945E+00
      1.406  0.5830E-01  0.3992E+00
      1.487  0.5235E-01  0.4034E+00
      1.568  0.5918E-01  0.4082E+00
      1.649  0.5360E-01  0.4125E+00
      1.730  0.4004E-01  0.4158E+00
      1.811  0.2702E-01  0.4180E+00
      1.891  0.1462E-01  0.4191E+00
      1.972  0.6998E-02  0.4197E+00
      2.053  0.2480E-02  0.4199E+00
      2.134  0.9944E-03  0.4200E+00
      2.215  0.8321E-04  0.4200E+00
      2.296  0.1040E-06  0.4200E+00
      2.376  0.9434E-12  0.4200E+00
      2.457  0.0000E+00  0.4200E+00
      2.538  0.0000E+00  0.4200E+00
      2.619  0.0000E+00  0.4200E+00
      2.700  0.0000E+00  0.4200E+00
      2.780  0.0000E+00  0.4200E+00
      2.861  0.0000E+00  0.4200E+00
      2.942  0.0000E+00  0.4200E+00
      3.023  0.0000E+00  0.4200E+00
      3.104  0.0000E+00  0.4200E+00
      3.185  0.0000E+00  0.4200E+00
