Parameters                              
           1
    11.399516    0.000000    0.000000
     0.000000    6.314134    0.000000
     0.000000    0.000000   24.044058
   B 
    28
Direct configuration=     1
   0.25691115  0.64076397  0.08409683
   0.75691115  0.64076397  0.08405524
   0.24308885  0.35923603  0.08409683
   0.74308885  0.36081978  0.08422160
   0.49308885  0.64234772  0.08409683
   0.99308885  0.64076397  0.08409683
   0.00603392  0.35923603  0.08409683
   0.50691115  0.35923603  0.08825586
   0.29804543  0.90122213  0.08409683
   0.79804543  0.90122213  0.08838064
   0.20195457  0.09877786  0.08409683
   0.70370903  0.09877786  0.08867177
   0.45195457  0.90122213  0.08409683
   0.95195457  0.90122213  0.08409683
   0.04804543  0.09877786  0.08409683
   0.54979989  0.09941136  0.08409683
   0.37500000  0.72378395  0.13373606
   0.87500000  0.72441745  0.12541800
   0.12500000  0.27621605  0.04277567
   0.62500000  0.27621605  0.04277567
   0.37500000  0.72378395  0.04277567
   0.87500000  0.72378395  0.04277567
   0.12500000  0.27621605  0.12541384
   0.62500000  0.27463230  0.12541800
   0.12500000  0.51696278  0.08409683
   0.62500000  0.51648766  0.08783996
   0.37500263  0.48351231  0.08409683
   0.87500000  0.48351231  0.08409683
Direct configuration=     2
   0.25862349  0.64168810  0.08511084
   0.75685181  0.64095425  0.08429205
   0.24332036  0.35997639  0.08417601
   0.74268815  0.35948631  0.08387136
   0.49196821  0.64088108  0.08503306
   0.99302472  0.64083507  0.08419402
   0.00746291  0.35902951  0.08402590
   0.50618934  0.36051360  0.08727389
   0.29875918  0.89950535  0.08507504
   0.79815739  0.90101716  0.08743342
   0.20212627  0.09827180  0.08404053
   0.70316929  0.10028316  0.08743124
   0.45194797  0.90139281  0.08521137
   0.95216260  0.90141792  0.08411415
   0.04771244  0.09876610  0.08404129
   0.54773899  0.09574487  0.08366709
   0.37454095  0.72531148  0.12831279
   0.87665470  0.72142168  0.12599330
   0.12454151  0.27651029  0.04293732
   0.62596678  0.27579817  0.04414252
   0.37542231  0.72315985  0.04418819
   0.87378490  0.72547369  0.04325462
   0.12490113  0.27654154  0.12523041
   0.62532159  0.27727311  0.12684770
   0.12448064  0.51614524  0.08398656
   0.62497499  0.51745635  0.08700406
   0.37532167  0.48415594  0.08485188
   0.87482002  0.48431495  0.08412871
Direct configuration=     3
   0.25866662  0.64171137  0.08513638
   0.75685032  0.64095904  0.08429801
   0.24332619  0.35999504  0.08417800
   0.74267806  0.35945273  0.08386254
   0.49193998  0.64084414  0.08505664
   0.99302311  0.64083686  0.08419647
   0.00749890  0.35902431  0.08402411
   0.50617116  0.36054578  0.08724916
   0.29877715  0.89946211  0.08509967
   0.79816021  0.90101200  0.08740956
   0.20213060  0.09825905  0.08403911
   0.70315570  0.10032107  0.08740000
   0.45194780  0.90139711  0.08523945
   0.95216784  0.90142285  0.08411459
   0.04770405  0.09876580  0.08403989
   0.54768708  0.09565252  0.08365627
   0.37452939  0.72534995  0.12817620
   0.87669637  0.72134623  0.12600779
   0.12452997  0.27651770  0.04294139
   0.62599113  0.27578765  0.04417694
   0.37543295  0.72314414  0.04422377
   0.87375429  0.72551625  0.04326669
   0.12489864  0.27654974  0.12522579
   0.62532969  0.27733962  0.12688370
   0.12446756  0.51612465  0.08398378
   0.62497436  0.51748075  0.08698301
   0.37532970  0.48417215  0.08487090
   0.87481549  0.48433517  0.08412952
Direct configuration=     4
   0.25643007  0.63923406  0.08564271
   0.75678188  0.64115045  0.08469592
   0.24302885  0.36003783  0.08426689
   0.74340358  0.36058920  0.08400724
   0.49338647  0.64052249  0.08554647
   0.99323419  0.64054203  0.08413463
   0.00627247  0.35967689  0.08395572
   0.50760444  0.35833729  0.08666428
   0.29791150  0.90244791  0.08542883
   0.79821247  0.90121719  0.08677845
   0.20231033  0.09833894  0.08410962
   0.70240247  0.09918992  0.08676816
   0.45126460  0.89945876  0.08573313
   0.95185387  0.90072222  0.08420951
   0.04811712  0.09900008  0.08406884
   0.54908107  0.10071514  0.08392742
   0.37481338  0.72543683  0.12571286
   0.87694785  0.72075095  0.12621403
   0.12521422  0.27637140  0.04285774
   0.62486078  0.27496650  0.04482248
   0.37598013  0.72318212  0.04435038
   0.87344102  0.72649787  0.04360727
   0.12505425  0.27616859  0.12524234
   0.62461758  0.27755232  0.12720382
   0.12616954  0.51738000  0.08393663
   0.62434814  0.51711547  0.08646219
   0.37471060  0.48327380  0.08535979
   0.87518143  0.48344951  0.08416196
Direct configuration=     5
   0.25748153  0.64039871  0.08540467
   0.75681405  0.64106047  0.08450885
   0.24316864  0.36001771  0.08422510
   0.74306250  0.36005491  0.08393922
   0.49270644  0.64067370  0.08531619
   0.99313495  0.64068064  0.08416370
   0.00684905  0.35937010  0.08398787
   0.50693062  0.35937556  0.08693925
   0.29831847  0.90104422  0.08527408
   0.79818790  0.90112073  0.08707515
   0.20222583  0.09830138  0.08407647
   0.70275658  0.09972170  0.08706521
   0.45158579  0.90037002  0.08550104
   0.95200148  0.90105161  0.08416488
   0.04792293  0.09888994  0.08405523
   0.54842572  0.09833508  0.08379995
   0.37467987  0.72539599  0.12687094
   0.87682962  0.72103081  0.12611707
   0.12489253  0.27644018  0.04289706
   0.62539219  0.27535254  0.04451900
   0.37572289  0.72316426  0.04429086
   0.87358830  0.72603639  0.04344716
   0.12498110  0.27634778  0.12523456
   0.62495236  0.27745233  0.12705333
   0.12536939  0.51678983  0.08395880
   0.62464255  0.51728720  0.08670704
   0.37500166  0.48369614  0.08512995
   0.87500939  0.48386588  0.08414671
Direct configuration=     6
   0.25675675  0.64066473  0.08542973
   0.75684542  0.64110867  0.08482750
   0.24304133  0.35894400  0.08429714
   0.74309767  0.36035748  0.08420809
   0.49332439  0.64054024  0.08536128
   0.99333908  0.64062840  0.08407861
   0.00684897  0.35952002  0.08393134
   0.50707776  0.35876356  0.08670094
   0.29784684  0.90153079  0.08514664
   0.79822656  0.90113353  0.08678076
   0.20200073  0.09928407  0.08418172
   0.70240691  0.09938853  0.08688091
   0.45251270  0.90204801  0.08548316
   0.95206682  0.90108054  0.08427848
   0.04805374  0.09890371  0.08409063
   0.54824795  0.09875673  0.08434584
   0.37462012  0.72435928  0.12658294
   0.87649892  0.72140457  0.12613860
   0.12543667  0.27646611  0.04281511
   0.62497236  0.27578132  0.04445395
   0.37552580  0.72295495  0.04410026
   0.87367931  0.72600785  0.04354743
   0.12492097  0.27619783  0.12528821
   0.62500220  0.27711424  0.12700557
   0.12503237  0.51680486  0.08395073
   0.62505738  0.51675382  0.08649548
   0.37514424  0.48307253  0.08529598
   0.87505034  0.48375541  0.08417229
Direct configuration=     7
   0.25683229  0.64063700  0.08542712
   0.75684215  0.64110365  0.08479429
   0.24305460  0.35905590  0.08428963
   0.74309401  0.36032595  0.08418007
   0.49325999  0.64055415  0.08535658
   0.99331781  0.64063384  0.08408748
   0.00684898  0.35950440  0.08393723
   0.50706242  0.35882734  0.08672578
   0.29789599  0.90148008  0.08515992
   0.79822253  0.90113220  0.08681144
   0.20202419  0.09918165  0.08417075
   0.70244335  0.09942325  0.08690011
   0.45241610  0.90187313  0.08548502
   0.95206001  0.90107753  0.08426664
   0.04804011  0.09890227  0.08408694
   0.54826648  0.09871279  0.08428895
   0.37462634  0.72446733  0.12661296
   0.87653339  0.72136562  0.12613635
   0.12537997  0.27646341  0.04282365
   0.62501612  0.27573663  0.04446073
   0.37554634  0.72297676  0.04412013
   0.87366983  0.72601083  0.04353698
   0.12492723  0.27621346  0.12528262
   0.62499700  0.27714947  0.12701055
   0.12506749  0.51680330  0.08395157
   0.62501415  0.51680941  0.08651753
   0.37512938  0.48313752  0.08527868
   0.87504607  0.48376692  0.08416963
Direct configuration=     8
   0.25680201  0.64098040  0.08535675
   0.75703498  0.64117719  0.08512066
   0.24320227  0.35903414  0.08437661
   0.74304417  0.35984043  0.08446221
   0.49335831  0.64083661  0.08531908
   0.99312751  0.64093767  0.08402326
   0.00704041  0.35929214  0.08386943
   0.50692636  0.35897417  0.08649239
   0.29798160  0.90125375  0.08495989
   0.79814586  0.90136010  0.08650269
   0.20194169  0.09923973  0.08429801
   0.70226002  0.09928176  0.08668650
   0.45227375  0.90137320  0.08540150
   0.95218124  0.90118560  0.08441314
   0.04806726  0.09901221  0.08410408
   0.54838144  0.09921376  0.08488960
   0.37465513  0.72395078  0.12647557
   0.87632144  0.72182712  0.12613838
   0.12558525  0.27657613  0.04273654
   0.62489574  0.27616952  0.04434039
   0.37547650  0.72320274  0.04406835
   0.87382127  0.72563482  0.04360199
   0.12462657  0.27631871  0.12538424
   0.62525851  0.27679482  0.12698970
   0.12494383  0.51632133  0.08395442
   0.62511996  0.51636813  0.08631065
   0.37511274  0.48327100  0.08540024
   0.87504852  0.48389783  0.08419303
Direct configuration=     9
   0.25679001  0.64111651  0.08532886
   0.75711141  0.64120634  0.08525002
   0.24326080  0.35902552  0.08441108
   0.74302442  0.35964800  0.08457403
   0.49339728  0.64094857  0.08530422
   0.99305208  0.64105809  0.08399781
   0.00711629  0.35920802  0.08384256
   0.50687244  0.35903237  0.08639989
   0.29801553  0.90116404  0.08488061
   0.79811548  0.90145042  0.08638032
   0.20190899  0.09926275  0.08434845
   0.70218736  0.09922568  0.08660184
   0.45221733  0.90117505  0.08536840
   0.95222929  0.90122843  0.08447121
   0.04807802  0.09905578  0.08411088
   0.54842700  0.09941231  0.08512766
   0.37466654  0.72374606  0.12642112
   0.87623743  0.72201004  0.12613918
   0.12566661  0.27662080  0.04270202
   0.62484803  0.27634109  0.04429269
   0.37544882  0.72329231  0.04404783
   0.87388129  0.72548579  0.04362776
   0.12450740  0.27636042  0.12542452
   0.62536216  0.27665425  0.12698144
   0.12489481  0.51613030  0.08395555
   0.62516189  0.51619324  0.08622865
   0.37510614  0.48332390  0.08544843
   0.87504949  0.48394971  0.08420230
Direct configuration=    10
   0.25678774  0.64071071  0.08519790
   0.75690759  0.64084830  0.08555289
   0.24327531  0.35946185  0.08451125
   0.74327960  0.35932534  0.08482775
   0.49334228  0.64078803  0.08524827
   0.99319153  0.64080779  0.08398322
   0.00686699  0.35938861  0.08377405
   0.50691429  0.35945166  0.08614340
   0.29808563  0.90131216  0.08469987
   0.79816129  0.90160128  0.08601533
   0.20208453  0.09864658  0.08448090
   0.70214204  0.09909256  0.08627060
   0.45214834  0.90113056  0.08530504
   0.95216892  0.90138074  0.08463116
   0.04809446  0.09907542  0.08410251
   0.54807604  0.09877102  0.08566255
   0.37466560  0.72358968  0.12640198
   0.87621900  0.72272506  0.12617630
   0.12572013  0.27655744  0.04272474
   0.62485793  0.27653769  0.04429342
   0.37551030  0.72338294  0.04396979
   0.87391345  0.72513584  0.04365245
   0.12435423  0.27658765  0.12548678
   0.62552124  0.27675667  0.12702321
   0.12515547  0.51625956  0.08397469
   0.62509424  0.51641384  0.08599767
   0.37500290  0.48388464  0.08554610
   0.87509326  0.48370218  0.08421552
Direct configuration=    11
   0.25678803  0.64076291  0.08521475
   0.75693380  0.64089436  0.08551393
   0.24327344  0.35940572  0.08449836
   0.74324678  0.35936684  0.08479511
   0.49334936  0.64080868  0.08525547
   0.99317359  0.64083999  0.08398510
   0.00689906  0.35936537  0.08378286
   0.50690891  0.35939773  0.08617640
   0.29807661  0.90129310  0.08472312
   0.79815540  0.90158188  0.08606228
   0.20206194  0.09872584  0.08446386
   0.70214787  0.09910968  0.08631321
   0.45215721  0.90113628  0.08531319
   0.95217669  0.90136114  0.08461058
   0.04809235  0.09907289  0.08410358
   0.54812118  0.09885351  0.08559375
   0.37466572  0.72360980  0.12640444
   0.87622137  0.72263308  0.12617153
   0.12571324  0.27656559  0.04272182
   0.62485666  0.27651240  0.04429332
   0.37550239  0.72337128  0.04397983
   0.87390931  0.72518086  0.04364928
   0.12437393  0.27655842  0.12547877
   0.62550078  0.27674349  0.12701784
   0.12512194  0.51624293  0.08397223
   0.62510294  0.51638546  0.08602738
   0.37501618  0.48381250  0.08553353
   0.87508763  0.48373402  0.08421381
Direct configuration=    12
   0.25695355  0.64083043  0.08510679
   0.75692542  0.64089392  0.08562750
   0.24311375  0.35920910  0.08455238
   0.74330190  0.35928507  0.08490476
   0.49317449  0.64075373  0.08523880
   0.99327596  0.64077773  0.08402539
   0.00692403  0.35938919  0.08376855
   0.50706210  0.35935587  0.08603510
   0.29816633  0.90109040  0.08468019
   0.79820352  0.90135243  0.08583776
   0.20203580  0.09899269  0.08451865
   0.70207593  0.09909103  0.08607413
   0.45208312  0.90108797  0.08533280
   0.95209966  0.90127801  0.08466912
   0.04811137  0.09908501  0.08409949
   0.54807830  0.09896431  0.08576451
   0.37458271  0.72385327  0.12644254
   0.87630452  0.72296318  0.12619554
   0.12569548  0.27633475  0.04285621
   0.62483891  0.27620544  0.04443515
   0.37557405  0.72335303  0.04390019
   0.87384124  0.72491521  0.04365812
   0.12447897  0.27664572  0.12544020
   0.62541548  0.27691939  0.12703304
   0.12507055  0.51648708  0.08399199
   0.62510717  0.51653608  0.08590126
   0.37510337  0.48391372  0.08556508
   0.87503665  0.48376201  0.08421410
Direct configuration=    13
   0.25694310  0.64082617  0.08511361
   0.75692595  0.64089395  0.08562033
   0.24312384  0.35922152  0.08454897
   0.74329842  0.35929023  0.08489783
   0.49318553  0.64075720  0.08523985
   0.99326949  0.64078166  0.08402284
   0.00692245  0.35938769  0.08376945
   0.50705242  0.35935851  0.08604403
   0.29816067  0.90110320  0.08468290
   0.79820048  0.90136693  0.08585194
   0.20203745  0.09897584  0.08451519
   0.70208048  0.09909220  0.08608923
   0.45208780  0.90109102  0.08533156
   0.95210452  0.90128326  0.08466542
   0.04811017  0.09908425  0.08409975
   0.54808101  0.09895731  0.08575372
   0.37458795  0.72383789  0.12644014
   0.87629927  0.72294233  0.12619402
   0.12569660  0.27634933  0.04284772
   0.62484003  0.27622483  0.04442619
   0.37556953  0.72335419  0.04390522
   0.87384554  0.72493199  0.04365757
   0.12447234  0.27664020  0.12544263
   0.62542086  0.27690828  0.12703208
   0.12507379  0.51647166  0.08399074
   0.62510691  0.51652657  0.08590922
   0.37509786  0.48390732  0.08556309
   0.87503987  0.48376024  0.08421408
Direct configuration=    14
   0.25699157  0.64080608  0.08501385
   0.75700687  0.64099401  0.08565508
   0.24321241  0.35937606  0.08458033
   0.74322710  0.35933327  0.08497637
   0.49317710  0.64076607  0.08524920
   0.99315937  0.64092342  0.08407445
   0.00697043  0.35936952  0.08379477
   0.50701959  0.35941820  0.08596994
   0.29806523  0.90125481  0.08468920
   0.79808625  0.90136156  0.08570761
   0.20211421  0.09891412  0.08453179
   0.70211299  0.09889799  0.08594928
   0.45211272  0.90118740  0.08538023
   0.95214829  0.90126507  0.08466096
   0.04805196  0.09895833  0.08412422
   0.54808294  0.09904554  0.08579681
   0.37452833  0.72401198  0.12647012
   0.87634143  0.72297488  0.12620528
   0.12562412  0.27624264  0.04292607
   0.62483500  0.27600357  0.04450833
   0.37563542  0.72334114  0.04384410
   0.87386029  0.72462990  0.04365405
   0.12452871  0.27670937  0.12544188
   0.62536532  0.27699124  0.12703315
   0.12509031  0.51658230  0.08400772
   0.62513609  0.51657552  0.08584339
   0.37506866  0.48354287  0.08556622
   0.87508163  0.48384891  0.08421493
Direct configuration=    15
   0.25698171  0.64081016  0.08503413
   0.75699042  0.64097366  0.08564802
   0.24319440  0.35934463  0.08457395
   0.74324160  0.35932452  0.08496040
   0.49317881  0.64076427  0.08524730
   0.99318176  0.64089459  0.08406395
   0.00696067  0.35937321  0.08378962
   0.50702627  0.35940606  0.08598501
   0.29808464  0.90122398  0.08468792
   0.79810948  0.90136265  0.08573696
   0.20209860  0.09892667  0.08452841
   0.70210638  0.09893748  0.08597774
   0.45210765  0.90116780  0.08537034
   0.95213939  0.90126877  0.08466187
   0.04806380  0.09898394  0.08411924
   0.54808255  0.09902760  0.08578805
   0.37454045  0.72397658  0.12646402
   0.87633286  0.72296826  0.12620299
   0.12563886  0.27626434  0.04291014
   0.62483602  0.27604856  0.04449162
   0.37562202  0.72334379  0.04385653
   0.87385729  0.72469133  0.04365477
   0.12451725  0.27669531  0.12544203
   0.62537661  0.27697437  0.12703293
   0.12508695  0.51655980  0.08400427
   0.62513015  0.51656557  0.08585678
   0.37507459  0.48361698  0.08556558
   0.87507314  0.48383088  0.08421476
Direct configuration=    16
   0.25698950  0.64081487  0.08496149
   0.75699408  0.64094352  0.08563906
   0.24322257  0.35939468  0.08458692
   0.74323144  0.35941146  0.08501687
   0.49319140  0.64078361  0.08526659
   0.99318323  0.64090836  0.08410444
   0.00696715  0.35941918  0.08383196
   0.50697084  0.35944536  0.08596561
   0.29809464  0.90119186  0.08470578
   0.79812650  0.90127374  0.08567010
   0.20208302  0.09897364  0.08452434
   0.70208129  0.09897510  0.08593692
   0.45210422  0.90120594  0.08540998
   0.95210418  0.90123422  0.08463089
   0.04808376  0.09899368  0.08415906
   0.54807715  0.09898416  0.08578231
   0.37451027  0.72400216  0.12645379
   0.87628429  0.72300946  0.12620554
   0.12561228  0.27625667  0.04292826
   0.62484050  0.27604125  0.04447767
   0.37565287  0.72342184  0.04385386
   0.87391571  0.72458312  0.04363498
   0.12454310  0.27669432  0.12546810
   0.62538801  0.27691638  0.12702447
   0.12508982  0.51654476  0.08401432
   0.62512896  0.51657796  0.08583935
   0.37507810  0.48353796  0.08555474
   0.87508545  0.48378653  0.08422191
Direct configuration=    17
   0.25699678  0.64081928  0.08489347
   0.75699750  0.64091528  0.08563068
   0.24324894  0.35944155  0.08459906
   0.74322192  0.35949288  0.08506976
   0.49320319  0.64080172  0.08528465
   0.99318461  0.64092125  0.08414236
   0.00697322  0.35946223  0.08387161
   0.50691893  0.35948216  0.08594744
   0.29810400  0.90116177  0.08472251
   0.79814244  0.90119049  0.08560750
   0.20206844  0.09901762  0.08452053
   0.70205779  0.09901032  0.08589869
   0.45210101  0.90124165  0.08544710
   0.95207121  0.90120187  0.08460189
   0.04810246  0.09900281  0.08419634
   0.54807210  0.09894348  0.08577694
   0.37448201  0.72402612  0.12644420
   0.87623881  0.72304804  0.12620792
   0.12558740  0.27624950  0.04294524
   0.62484469  0.27603439  0.04446461
   0.37568176  0.72349492  0.04385135
   0.87397041  0.72448178  0.04361644
   0.12456731  0.27669340  0.12549252
   0.62539868  0.27686207  0.12701654
   0.12509251  0.51653067  0.08402374
   0.62512784  0.51658956  0.08582304
   0.37508139  0.48346397  0.08554458
   0.87509698  0.48374500  0.08422861
Direct configuration=    18
   0.25700166  0.64081856  0.08485510
   0.75700222  0.64089588  0.08562078
   0.24323785  0.35943175  0.08460596
   0.74321117  0.35950355  0.08509810
   0.49320140  0.64081930  0.08529637
   0.99319315  0.64091536  0.08416614
   0.00697969  0.35946607  0.08389639
   0.50692820  0.35945550  0.08593861
   0.29809792  0.90117540  0.08473229
   0.79813317  0.90118805  0.08557496
   0.20207575  0.09902018  0.08451814
   0.70206836  0.09900314  0.08587876
   0.45209399  0.90124131  0.08546615
   0.95206709  0.90121458  0.08458631
   0.04809894  0.09899696  0.08421835
   0.54807275  0.09895273  0.08577174
   0.37446850  0.72400887  0.12643879
   0.87620983  0.72307117  0.12620481
   0.12557456  0.27626221  0.04295420
   0.62483950  0.27606384  0.04445451
   0.37570311  0.72353426  0.04385287
   0.87400190  0.72441731  0.04360526
   0.12458491  0.27670056  0.12550820
   0.62539591  0.27683301  0.12700992
   0.12509665  0.51653031  0.08402875
   0.62511239  0.51658366  0.08581568
   0.37508513  0.48349636  0.08553708
   0.87509864  0.48372591  0.08423512
Direct configuration=    19
   0.25701628  0.64081641  0.08474002
   0.75701640  0.64083766  0.08559108
   0.24320457  0.35940235  0.08462663
   0.74317891  0.35953554  0.08518311
   0.49319602  0.64087204  0.08533152
   0.99321879  0.64089771  0.08423748
   0.00699910  0.35947759  0.08397074
   0.50695602  0.35937550  0.08591212
   0.29807968  0.90121629  0.08476163
   0.79810534  0.90118074  0.08547735
   0.20209768  0.09902787  0.08451099
   0.70210005  0.09898157  0.08581897
   0.45207294  0.90124030  0.08552328
   0.95205475  0.90125271  0.08453956
   0.04808837  0.09897942  0.08428438
   0.54807471  0.09898047  0.08575614
   0.37442798  0.72395714  0.12642254
   0.87612288  0.72314057  0.12619549
   0.12553604  0.27630033  0.04298108
   0.62482395  0.27615219  0.04442420
   0.37576718  0.72365228  0.04385741
   0.87409637  0.72422390  0.04357170
   0.12463769  0.27672203  0.12555523
   0.62538758  0.27674584  0.12699006
   0.12510908  0.51652924  0.08404377
   0.62506601  0.51656596  0.08579361
   0.37509633  0.48359352  0.08551458
   0.87510363  0.48366861  0.08425465
Direct configuration=    20
   0.25704551  0.64081212  0.08450985
   0.75704475  0.64072123  0.08553167
   0.24313801  0.35934355  0.08466799
   0.74311441  0.35959952  0.08535314
   0.49318527  0.64097753  0.08540183
   0.99327006  0.64086240  0.08438017
   0.00703792  0.35950063  0.08411945
   0.50701166  0.35921552  0.08585915
   0.29804319  0.90129807  0.08482031
   0.79804968  0.90116612  0.08528212
   0.20214154  0.09904324  0.08449667
   0.70216344  0.09893843  0.08569940
   0.45203084  0.90123828  0.08563755
   0.95203005  0.90132896  0.08444606
   0.04806724  0.09894433  0.08441643
   0.54807863  0.09903596  0.08572493
   0.37434693  0.72385367  0.12639005
   0.87594899  0.72327937  0.12617684
   0.12545901  0.27637657  0.04303485
   0.62479285  0.27632888  0.04436358
   0.37589531  0.72388834  0.04386650
   0.87428530  0.72383707  0.04350458
   0.12474327  0.27676498  0.12564931
   0.62537092  0.27657149  0.12695034
   0.12513394  0.51652710  0.08407381
   0.62497326  0.51653056  0.08574946
   0.37511874  0.48378785  0.08546959
   0.87511361  0.48355403  0.08429371
Direct configuration=    21
   0.25702557  0.64081505  0.08466686
   0.75702541  0.64080065  0.08557219
   0.24318341  0.35938366  0.08463978
   0.74315841  0.35955587  0.08523716
   0.49319260  0.64090557  0.08535387
   0.99323509  0.64088649  0.08428284
   0.00701144  0.35948491  0.08401801
   0.50697371  0.35932465  0.08589528
   0.29806808  0.90124229  0.08478028
   0.79808764  0.90117609  0.08541529
   0.20211162  0.09903275  0.08450643
   0.70212020  0.09896786  0.08578096
   0.45205956  0.90123966  0.08555960
   0.95204690  0.90127695  0.08450984
   0.04808165  0.09896826  0.08432635
   0.54807596  0.09899811  0.08574622
   0.37440221  0.72392425  0.12641221
   0.87606761  0.72318469  0.12618956
   0.12551156  0.27632456  0.04299817
   0.62481406  0.27620835  0.04440493
   0.37580790  0.72372732  0.04386030
   0.87415642  0.72410094  0.04355036
   0.12467125  0.27673568  0.12558514
   0.62538228  0.27669042  0.12697743
   0.12511698  0.51652856  0.08405332
   0.62503653  0.51655470  0.08577957
   0.37510345  0.48365529  0.08550028
   0.87510680  0.48363219  0.08426706
Direct configuration=    22
   0.25701657  0.64081505  0.08463720
   0.75702097  0.64078921  0.08554910
   0.24319253  0.35938376  0.08464809
   0.74315322  0.35949668  0.08525253
   0.49319904  0.64089452  0.08536841
   0.99322636  0.64088788  0.08431096
   0.00701079  0.35944122  0.08404301
   0.50697402  0.35931838  0.08588380
   0.29806460  0.90125357  0.08478824
   0.79808777  0.90116329  0.08538969
   0.20210756  0.09902961  0.08450765
   0.70212285  0.09899287  0.08575392
   0.45207136  0.90128410  0.08556688
   0.95204727  0.90126679  0.08450694
   0.04808550  0.09899415  0.08434182
   0.54807745  0.09898230  0.08573887
   0.37437822  0.72386271  0.12641736
   0.87605176  0.72324736  0.12616712
   0.12548718  0.27632299  0.04301282
   0.62481493  0.27626108  0.04439947
   0.37582685  0.72375311  0.04385980
   0.87417487  0.72404783  0.04354971
   0.12469639  0.27672660  0.12559966
   0.62536997  0.27665814  0.12697355
   0.12511911  0.51655168  0.08405677
   0.62504992  0.51655462  0.08577399
   0.37510076  0.48369883  0.08548875
   0.87510648  0.48364746  0.08428323
Direct configuration=    23
   0.25700005  0.64081507  0.08458279
   0.75701284  0.64076823  0.08550674
   0.24320925  0.35938394  0.08466334
   0.74314369  0.35938809  0.08528073
   0.49321084  0.64087425  0.08539507
   0.99321035  0.64089042  0.08436254
   0.00700961  0.35936109  0.08408886
   0.50697458  0.35930689  0.08586272
   0.29805822  0.90127428  0.08480283
   0.79808799  0.90113979  0.08534272
   0.20210011  0.09902386  0.08450989
   0.70212772  0.09903875  0.08570431
   0.45209301  0.90136562  0.08558023
   0.95204796  0.90124815  0.08450163
   0.04809256  0.09904162  0.08437019
   0.54808020  0.09895330  0.08572539
   0.37433422  0.72374983  0.12642681
   0.87602270  0.72336230  0.12612595
   0.12544247  0.27632009  0.04303968
   0.62481653  0.27635779  0.04438944
   0.37586160  0.72380042  0.04385889
   0.87420870  0.72395042  0.04354852
   0.12474252  0.27670993  0.12562629
   0.62534739  0.27659893  0.12696642
   0.12512302  0.51659409  0.08406310
   0.62507448  0.51655447  0.08576374
   0.37509582  0.48377869  0.08546761
   0.87510589  0.48367547  0.08431289
Direct configuration=    24
   0.25699035  0.64085762  0.08455894
   0.75700078  0.64076029  0.08546648
   0.24322560  0.35939873  0.08467358
   0.74318212  0.35935673  0.08528908
   0.49321846  0.64088156  0.08541760
   0.99321516  0.64086449  0.08439512
   0.00699142  0.35936583  0.08412092
   0.50695849  0.35935195  0.08584299
   0.29807523  0.90125481  0.08481137
   0.79807763  0.90116028  0.08531636
   0.20208844  0.09902279  0.08451614
   0.70212258  0.09901861  0.08566332
   0.45207489  0.90132027  0.08557759
   0.95207061  0.90126560  0.08450761
   0.04808533  0.09901427  0.08438256
   0.54811189  0.09897944  0.08571492
   0.37431184  0.72370601  0.12643287
   0.87599690  0.72344615  0.12610124
   0.12541641  0.27632142  0.04306171
   0.62481377  0.27640907  0.04438371
   0.37588137  0.72383422  0.04386128
   0.87422444  0.72390702  0.04354920
   0.12478296  0.27670249  0.12564240
   0.62532840  0.27656075  0.12696302
   0.12510153  0.51658950  0.08406633
   0.62508788  0.51653534  0.08576027
   0.37510168  0.48377492  0.08544871
   0.87509815  0.48366559  0.08434401
Direct configuration=    25
   0.25698427  0.64088430  0.08454398
   0.75699322  0.64075530  0.08544124
   0.24323586  0.35940800  0.08468000
   0.74320621  0.35933707  0.08529431
   0.49322324  0.64088615  0.08543171
   0.99321817  0.64084824  0.08441554
   0.00698002  0.35936880  0.08414103
   0.50694840  0.35938020  0.08583062
   0.29808589  0.90124261  0.08481673
   0.79807114  0.90117313  0.08529983
   0.20208113  0.09902212  0.08452006
   0.70211936  0.09900599  0.08563762
   0.45206354  0.90129184  0.08557593
   0.95208481  0.90127654  0.08451136
   0.04808081  0.09899713  0.08439030
   0.54813176  0.09899583  0.08570836
   0.37429780  0.72367854  0.12643667
   0.87598073  0.72349871  0.12608574
   0.12540008  0.27632225  0.04307551
   0.62481204  0.27644122  0.04438012
   0.37589376  0.72385541  0.04386279
   0.87423432  0.72387982  0.04354962
   0.12480831  0.27669782  0.12565250
   0.62531649  0.27653682  0.12696090
   0.12508805  0.51658663  0.08406835
   0.62509628  0.51652335  0.08575810
   0.37510535  0.48377256  0.08543687
   0.87509330  0.48365941  0.08436352
Direct configuration=    26
   0.25698147  0.64090398  0.08454029
   0.75698886  0.64077843  0.08540567
   0.24322162  0.35941762  0.08468596
   0.74322033  0.35933170  0.08529665
   0.49322145  0.64090902  0.08545279
   0.99321521  0.64084222  0.08443083
   0.00697671  0.35937791  0.08416748
   0.50696321  0.35940052  0.08581021
   0.29808850  0.90125639  0.08482210
   0.79806912  0.90119268  0.08528269
   0.20208981  0.09899690  0.08452876
   0.70210745  0.09898917  0.08560492
   0.45207489  0.90127682  0.08556624
   0.95208947  0.90125353  0.08451850
   0.04808666  0.09899831  0.08439646
   0.54811680  0.09896930  0.08570059
   0.37429728  0.72368218  0.12643770
   0.87594360  0.72353817  0.12608643
   0.12538615  0.27633221  0.04309213
   0.62481326  0.27646612  0.04437403
   0.37589604  0.72384481  0.04386385
   0.87425746  0.72388452  0.04354742
   0.12482597  0.27669932  0.12566072
   0.62532342  0.27653718  0.12695099
   0.12509099  0.51654203  0.08407136
   0.62509886  0.51649577  0.08576012
   0.37509391  0.48374822  0.08541897
   0.87509580  0.48366075  0.08439544
Direct configuration=    27
   0.25697667  0.64093770  0.08453397
   0.75698139  0.64081808  0.08534472
   0.24319722  0.35943411  0.08469616
   0.74324453  0.35932251  0.08530066
   0.49321838  0.64094823  0.08548891
   0.99321015  0.64083191  0.08445703
   0.00697104  0.35939352  0.08421282
   0.50698859  0.35943535  0.08577523
   0.29809299  0.90128001  0.08483130
   0.79806565  0.90122618  0.08525332
   0.20210470  0.09895367  0.08454367
   0.70208703  0.09896036  0.08554888
   0.45209435  0.90125108  0.08554963
   0.95209747  0.90121410  0.08453073
   0.04809670  0.09900033  0.08440701
   0.54809118  0.09892382  0.08568726
   0.37429638  0.72368842  0.12643948
   0.87587997  0.72360581  0.12608761
   0.12536228  0.27634927  0.04312059
   0.62481535  0.27650878  0.04436361
   0.37589995  0.72382664  0.04386568
   0.87429713  0.72389256  0.04354364
   0.12485625  0.27670189  0.12567482
   0.62533529  0.27653778  0.12693401
   0.12509604  0.51646561  0.08407652
   0.62510329  0.51644852  0.08576359
   0.37507430  0.48370650  0.08538830
   0.87510008  0.48366306  0.08445015
Direct configuration=    28
   0.25697204  0.64092745  0.08453781
   0.75697841  0.64083064  0.08531416
   0.24319505  0.35942253  0.08470092
   0.74324151  0.35931406  0.08530289
   0.49321788  0.64092447  0.08550820
   0.99320788  0.64082862  0.08446557
   0.00697456  0.35938200  0.08423779
   0.50699125  0.35942999  0.08575454
   0.29810471  0.90127910  0.08483519
   0.79807288  0.90123257  0.08523852
   0.20210260  0.09896809  0.08455232
   0.70207298  0.09896288  0.08552188
   0.45209630  0.90124260  0.08553872
   0.95210356  0.90121135  0.08453767
   0.04809762  0.09899679  0.08441358
   0.54808662  0.09894684  0.08568085
   0.37429996  0.72370543  0.12643824
   0.87584101  0.72361782  0.12609559
   0.12535464  0.27634733  0.04313028
   0.62481596  0.27650743  0.04435355
   0.37589216  0.72380681  0.04386605
   0.87432449  0.72389956  0.04354048
   0.12486186  0.27669034  0.12568416
   0.62534952  0.27652757  0.12691957
   0.12509836  0.51647215  0.08408106
   0.62510756  0.51646026  0.08576664
   0.37507777  0.48370856  0.08537146
   0.87509518  0.48368255  0.08448162
Direct configuration=    29
   0.25695813  0.64089672  0.08454933
   0.75696948  0.64086832  0.08522248
   0.24318856  0.35938779  0.08471520
   0.74323246  0.35928868  0.08530959
   0.49321638  0.64085319  0.08556606
   0.99320106  0.64081878  0.08449120
   0.00698512  0.35934742  0.08431268
   0.50699925  0.35941390  0.08569248
   0.29813987  0.90127638  0.08484687
   0.79809459  0.90125173  0.08519411
   0.20209630  0.09901133  0.08457827
   0.70203083  0.09897044  0.08544087
   0.45210215  0.90121716  0.08550598
   0.95212182  0.90120313  0.08455850
   0.04810037  0.09898618  0.08443328
   0.54807296  0.09901590  0.08566160
   0.37431071  0.72375645  0.12643452
   0.87572414  0.72365386  0.12611956
   0.12533171  0.27634152  0.04315934
   0.62481779  0.27650338  0.04432336
   0.37586878  0.72374733  0.04386715
   0.87440658  0.72392054  0.04353099
   0.12487870  0.27665570  0.12571220
   0.62539221  0.27649693  0.12687625
   0.12510532  0.51649179  0.08409468
   0.62512035  0.51649548  0.08577580
   0.37508821  0.48371475  0.08532094
   0.87508050  0.48374102  0.08457603
Direct configuration=    30
   0.25697135  0.64087710  0.08456482
   0.75697178  0.64087689  0.08519060
   0.24321096  0.35938181  0.08472250
   0.74323646  0.35932035  0.08531008
   0.49321262  0.64081842  0.08558638
   0.99319136  0.64082492  0.08449796
   0.00697850  0.35935827  0.08434471
   0.50698452  0.35941165  0.08566171
   0.29812434  0.90129880  0.08484927
   0.79809224  0.90128658  0.08517584
   0.20210675  0.09899816  0.08458939
   0.70205558  0.09891501  0.08541026
   0.45211377  0.90122696  0.08548994
   0.95211869  0.90120502  0.08457167
   0.04810164  0.09897981  0.08444539
   0.54806001  0.09903213  0.08565205
   0.37432053  0.72375798  0.12643277
   0.87569213  0.72364961  0.12612211
   0.12532152  0.27633908  0.04316364
   0.62481568  0.27650875  0.04429725
   0.37585749  0.72371587  0.04386803
   0.87444598  0.72390722  0.04353173
   0.12487585  0.27663872  0.12573136
   0.62540019  0.27648377  0.12685810
   0.12508976  0.51652262  0.08410633
   0.62511776  0.51653451  0.08577688
   0.37508666  0.48371798  0.08529978
   0.87508019  0.48373778  0.08461876
