       N       E                     dE             d eps       ncg     rms          rms(c)
DAV:   1     0.417403213030E+03    0.41740E+03   -0.31542E+04 15120   0.864E+02
DAV:   2    -0.150882954072E+03   -0.56829E+03   -0.52878E+03 26376   0.149E+02
DAV:   3    -0.194449898029E+03   -0.43567E+02   -0.43119E+02 22596   0.484E+01
DAV:   4    -0.195019336325E+03   -0.56944E+00   -0.56893E+00 20874   0.650E+00
DAV:   5    -0.195032589354E+03   -0.13253E-01   -0.13251E-01 25158   0.934E-01
DAV:   6    -0.195032758124E+03   -0.16877E-03   -0.16877E-03 21672   0.817E-02
DAV:   7    -0.195032760108E+03   -0.19831E-05   -0.19832E-05 25242   0.785E-03
DAV:   8    -0.195032760152E+03   -0.44602E-07   -0.43585E-07 20874   0.761E-04
   1 F= -.19503276E+03 E0= -.19501859E+03  d E =-.283327E-01
