       N       E                     dE             d eps       ncg     rms          rms(c)
DAV:   1    -0.195702398397E+03   -0.19570E+03   -0.30103E+01 36120   0.795E+00    0.181E+01
DAV:   2    -0.182759718126E+03    0.12943E+02   -0.98812E+00 36372   0.714E+00    0.101E+01
DAV:   3    -0.177922604292E+03    0.48371E+01   -0.93634E+00 43134   0.464E+00    0.260E+00
DAV:   4    -0.177834422355E+03    0.88182E-01   -0.98729E-01 38514   0.134E+00    0.138E+00
DAV:   5    -0.177730282559E+03    0.10414E+00   -0.87841E-02 41580   0.459E-01    0.461E-01
DAV:   6    -0.177712289325E+03    0.17993E-01   -0.14992E-02 38724   0.205E-01    0.222E-01
DAV:   7    -0.177695639311E+03    0.16650E-01   -0.12123E-02 39522   0.189E-01    0.151E-01
DAV:   8    -0.177692968623E+03    0.26707E-02   -0.24746E-03 38178   0.896E-02    0.879E-02
DAV:   9    -0.177696231494E+03   -0.32629E-02   -0.13577E-03 38220   0.518E-02    0.378E-02
DAV:  10    -0.177698101243E+03   -0.18697E-02   -0.26000E-04 37968   0.240E-02    0.319E-02
DAV:  11    -0.177701115490E+03   -0.30142E-02   -0.26289E-04 36750   0.231E-02    0.154E-02
DAV:  12    -0.177702751083E+03   -0.16356E-02   -0.58975E-05 36750   0.105E-02    0.789E-03
DAV:  13    -0.177703708429E+03   -0.95735E-03   -0.27884E-05 36834   0.669E-03    0.544E-03
DAV:  14    -0.177704024365E+03   -0.31594E-03   -0.61516E-06 37002   0.339E-03    0.224E-03
DAV:  15    -0.177704202468E+03   -0.17810E-03   -0.28835E-06 36792   0.215E-03    0.151E-03
DAV:  16    -0.177704241003E+03   -0.38536E-04   -0.43510E-07 37464   0.890E-04    0.642E-04
DAV:  17    -0.177704251636E+03   -0.10633E-04   -0.85303E-08 33012   0.417E-04    0.233E-04
DAV:  18    -0.177704255597E+03   -0.39611E-05   -0.22670E-08 31080   0.212E-04    0.154E-04
DAV:  19    -0.177704256465E+03   -0.86763E-06    0.45704E-10 32214   0.988E-05
   1 F= -.17770426E+03 E0= -.17770426E+03  d E =-.121886E-13
 imaginary and real dielectric function
