o-B14 monolayer
1.0
5.7009706497	0.0000000000	0.0000000000
0.0000000000	6.2018713951	0.0000000000
0.0000000000	0.0000000000	24.044058323
B		
14		
Cartesian		
2.971858335	3.956531562	2.022029161
2.729112315	2.245339833	2.022029161
5.57959764	3.956531562	2.022029161
0.12137301	2.245339833	2.022029161
3.406042978	5.580867528	2.022029161
2.294927672	0.621003821	2.022029161
5.145412997	5.580867528	2.022029161
0.555557653	0.621003821	2.022029161
4.275727987	4.524757544	3.201134789
1.425242662	1.677113851	0.842923594
4.275727987	4.524757544	0.842923594
1.425242662	1.677113851	3.201134789
1.425242662	3.249737293	2.022029161
4.275727987	2.952133918	2.022029161