  28  28   0   0
  0.3642788E+02  0.5719493E-09  0.6349096E-09  0.2808812E-08  0.5000000E-15
  1.000000000000000E-004
  CAR 
 SCF                                     
      7.39855211    -19.53668193  301     -1.45407240      1.00000000
    -19.537  0.0000E+00  0.0000E+00
    -19.447  0.0000E+00  0.0000E+00
    -19.357  0.0000E+00  0.0000E+00
    -19.267  0.0000E+00  0.0000E+00
    -19.178  0.0000E+00  0.0000E+00
    -19.088  0.0000E+00  0.0000E+00
    -18.998  0.0000E+00  0.0000E+00
    -18.908  0.0000E+00  0.0000E+00
    -18.818  0.3073E-12  0.2759E-13
    -18.729  0.1715E-08  0.1540E-09
    -18.639  0.2066E-05  0.1857E-06
    -18.549  0.5584E-03  0.5032E-04
    -18.459  0.3599E-01  0.3282E-02
    -18.369  0.6117E+00  0.5820E-01
    -18.280  0.3228E+01  0.3480E+00
    -18.190  0.7111E+01  0.9865E+00
    -18.100  0.9935E+01  0.1878E+01
    -18.010  0.1033E+02  0.2806E+01
    -17.921  0.8814E+01  0.3597E+01
    -17.831  0.8005E+01  0.4316E+01
    -17.741  0.8376E+01  0.5068E+01
    -17.651  0.9667E+01  0.5936E+01
    -17.561  0.1009E+02  0.6842E+01
    -17.472  0.7912E+01  0.7553E+01
    -17.382  0.3941E+01  0.7907E+01
    -17.292  0.9558E+00  0.7992E+01
    -17.202  0.8331E-01  0.8000E+01
    -17.113  0.2065E-02  0.8000E+01
    -17.023  0.1264E-04  0.8000E+01
    -16.933  0.1768E-07  0.8000E+01
    -16.843  0.5393E-11  0.8000E+01
    -16.753  0.3572E-15  0.8000E+01
    -16.664  0.0000E+00  0.8000E+01
    -16.574  0.0000E+00  0.8000E+01
    -16.484  0.0000E+00  0.8000E+01
    -16.394  0.0000E+00  0.8000E+01
    -16.304  0.0000E+00  0.8000E+01
    -16.215  0.0000E+00  0.8000E+01
    -16.125  0.0000E+00  0.8000E+01
    -16.035  0.0000E+00  0.8000E+01
    -15.945  0.0000E+00  0.8000E+01
    -15.856  0.0000E+00  0.8000E+01
    -15.766  0.0000E+00  0.8000E+01
    -15.676  0.0000E+00  0.8000E+01
    -15.586  0.0000E+00  0.8000E+01
    -15.496  0.0000E+00  0.8000E+01
    -15.407  0.0000E+00  0.8000E+01
    -15.317  0.0000E+00  0.8000E+01
    -15.227  0.0000E+00  0.8000E+01
    -15.137  0.0000E+00  0.8000E+01
    -15.047  0.0000E+00  0.8000E+01
    -14.958  0.0000E+00  0.8000E+01
    -14.868  0.0000E+00  0.8000E+01
    -14.778  0.0000E+00  0.8000E+01
    -14.688  0.0000E+00  0.8000E+01
    -14.599  0.0000E+00  0.8000E+01
    -14.509  0.0000E+00  0.8000E+01
    -14.419  0.1470E-14  0.8000E+01
    -14.329  0.1880E-10  0.8000E+01
    -14.239  0.5095E-07  0.8000E+01
    -14.150  0.3018E-04  0.8000E+01
    -14.060  0.4080E-02  0.8000E+01
    -13.970  0.1356E+00  0.8013E+01
    -13.880  0.1262E+01  0.8126E+01
    -13.790  0.4260E+01  0.8508E+01
    -13.701  0.8514E+01  0.9273E+01
    -13.611  0.1439E+02  0.1056E+02
    -13.521  0.1861E+02  0.1224E+02
    -13.431  0.1823E+02  0.1387E+02
    -13.342  0.1378E+02  0.1511E+02
    -13.252  0.7058E+01  0.1574E+02
    -13.162  0.2376E+01  0.1596E+02
    -13.072  0.4473E+00  0.1600E+02
    -12.982  0.3273E-01  0.1600E+02
    -12.893  0.7038E-03  0.1600E+02
    -12.803  0.3804E-05  0.1600E+02
    -12.713  0.4737E-08  0.1600E+02
    -12.623  0.5012E-11  0.1600E+02
    -12.534  0.9588E-08  0.1600E+02
    -12.444  0.5275E-05  0.1600E+02
    -12.354  0.6490E-03  0.1600E+02
    -12.264  0.1946E-01  0.1600E+02
    -12.174  0.1648E+00  0.1602E+02
    -12.085  0.5038E+00  0.1606E+02
    -11.995  0.8840E+00  0.1614E+02
    -11.905  0.1461E+01  0.1627E+02
    -11.815  0.2496E+01  0.1650E+02
    -11.725  0.4466E+01  0.1690E+02
    -11.636  0.5988E+01  0.1744E+02
    -11.546  0.6661E+01  0.1803E+02
    -11.456  0.8140E+01  0.1876E+02
    -11.366  0.8328E+01  0.1951E+02
    -11.277  0.7517E+01  0.2019E+02
    -11.187  0.7829E+01  0.2089E+02
    -11.097  0.8258E+01  0.2163E+02
    -11.007  0.7799E+01  0.2233E+02
    -10.917  0.7005E+01  0.2296E+02
    -10.828  0.5786E+01  0.2348E+02
    -10.738  0.4463E+01  0.2388E+02
    -10.648  0.4483E+01  0.2428E+02
    -10.558  0.4586E+01  0.2469E+02
    -10.468  0.4326E+01  0.2508E+02
    -10.379  0.3585E+01  0.2540E+02
    -10.289  0.3042E+01  0.2568E+02
    -10.199  0.2851E+01  0.2593E+02
    -10.109  0.2878E+01  0.2619E+02
    -10.020  0.3194E+01  0.2648E+02
     -9.930  0.3970E+01  0.2684E+02
     -9.840  0.4460E+01  0.2724E+02
     -9.750  0.4595E+01  0.2765E+02
     -9.660  0.6075E+01  0.2819E+02
     -9.571  0.7870E+01  0.2890E+02
     -9.481  0.7937E+01  0.2961E+02
     -9.391  0.6668E+01  0.3021E+02
     -9.301  0.5524E+01  0.3071E+02
     -9.212  0.4938E+01  0.3115E+02
     -9.122  0.4744E+01  0.3158E+02
     -9.032  0.4887E+01  0.3202E+02
     -8.942  0.5962E+01  0.3255E+02
     -8.852  0.7192E+01  0.3320E+02
     -8.763  0.7432E+01  0.3386E+02
     -8.673  0.7011E+01  0.3449E+02
     -8.583  0.6340E+01  0.3506E+02
     -8.493  0.6272E+01  0.3563E+02
     -8.403  0.6941E+01  0.3625E+02
     -8.314  0.7398E+01  0.3691E+02
     -8.224  0.7919E+01  0.3762E+02
     -8.134  0.8096E+01  0.3835E+02
     -8.044  0.8386E+01  0.3910E+02
     -7.955  0.9245E+01  0.3993E+02
     -7.865  0.9701E+01  0.4081E+02
     -7.775  0.8650E+01  0.4158E+02
     -7.685  0.7753E+01  0.4228E+02
     -7.595  0.6262E+01  0.4284E+02
     -7.506  0.4963E+01  0.4329E+02
     -7.416  0.4163E+01  0.4366E+02
     -7.326  0.3570E+01  0.4398E+02
     -7.236  0.3264E+01  0.4427E+02
     -7.146  0.3680E+01  0.4460E+02
     -7.057  0.4864E+01  0.4504E+02
     -6.967  0.6063E+01  0.4558E+02
     -6.877  0.7283E+01  0.4624E+02
     -6.787  0.8869E+01  0.4703E+02
     -6.698  0.9223E+01  0.4786E+02
     -6.608  0.9628E+01  0.4873E+02
     -6.518  0.1041E+02  0.4966E+02
     -6.428  0.9948E+01  0.5056E+02
     -6.338  0.9985E+01  0.5145E+02
     -6.249  0.1057E+02  0.5240E+02
     -6.159  0.1068E+02  0.5336E+02
     -6.069  0.1003E+02  0.5426E+02
     -5.979  0.9681E+01  0.5513E+02
     -5.889  0.1005E+02  0.5603E+02
     -5.800  0.1041E+02  0.5697E+02
     -5.710  0.1130E+02  0.5798E+02
     -5.620  0.1145E+02  0.5901E+02
     -5.530  0.1094E+02  0.5999E+02
     -5.441  0.1250E+02  0.6111E+02
     -5.351  0.1503E+02  0.6246E+02
     -5.261  0.1649E+02  0.6394E+02
     -5.171  0.1511E+02  0.6530E+02
     -5.081  0.1477E+02  0.6663E+02
     -4.992  0.1438E+02  0.6792E+02
     -4.902  0.1492E+02  0.6926E+02
     -4.812  0.1498E+02  0.7060E+02
     -4.722  0.1347E+02  0.7181E+02
     -4.633  0.1211E+02  0.7290E+02
     -4.543  0.1152E+02  0.7393E+02
     -4.453  0.1054E+02  0.7488E+02
     -4.363  0.8861E+01  0.7567E+02
     -4.273  0.5912E+01  0.7620E+02
     -4.184  0.3126E+01  0.7648E+02
     -4.094  0.2722E+01  0.7673E+02
     -4.004  0.4161E+01  0.7710E+02
     -3.914  0.5376E+01  0.7759E+02
     -3.824  0.5739E+01  0.7810E+02
     -3.735  0.5700E+01  0.7861E+02
     -3.645  0.5966E+01  0.7915E+02
     -3.555  0.6136E+01  0.7970E+02
     -3.465  0.5952E+01  0.8023E+02
     -3.376  0.5772E+01  0.8075E+02
     -3.286  0.5702E+01  0.8126E+02
     -3.196  0.5366E+01  0.8175E+02
     -3.106  0.4624E+01  0.8216E+02
     -3.016  0.3508E+01  0.8248E+02
     -2.927  0.2488E+01  0.8270E+02
     -2.837  0.1817E+01  0.8286E+02
     -2.747  0.1172E+01  0.8297E+02
     -2.657  0.9353E+00  0.8305E+02
     -2.567  0.1150E+01  0.8315E+02
     -2.478  0.1341E+01  0.8328E+02
     -2.388  0.1008E+01  0.8337E+02
     -2.298  0.7087E+00  0.8343E+02
     -2.208  0.8398E+00  0.8350E+02
     -2.119  0.9953E+00  0.8359E+02
     -2.029  0.8288E+00  0.8367E+02
     -1.939  0.6055E+00  0.8372E+02
     -1.849  0.6195E+00  0.8378E+02
     -1.759  0.6979E+00  0.8384E+02
     -1.670  0.6179E+00  0.8390E+02
     -1.580  0.4538E+00  0.8394E+02
     -1.490  0.4639E+00  0.8398E+02
     -1.400  0.8298E+00  0.8405E+02
     -1.311  0.2643E+01  0.8429E+02
     -1.221  0.5621E+01  0.8480E+02
     -1.131  0.6744E+01  0.8540E+02
     -1.041  0.5065E+01  0.8586E+02
     -0.951  0.4248E+01  0.8624E+02
     -0.862  0.5034E+01  0.8669E+02
     -0.772  0.7166E+01  0.8733E+02
     -0.682  0.7407E+01  0.8800E+02
     -0.592  0.4601E+01  0.8841E+02
     -0.502  0.4312E+01  0.8880E+02
     -0.413  0.5927E+01  0.8933E+02
     -0.323  0.6371E+01  0.8990E+02
     -0.233  0.5729E+01  0.9042E+02
     -0.143  0.5383E+01  0.9090E+02
     -0.054  0.4834E+01  0.9133E+02
      0.036  0.4462E+01  0.9173E+02
      0.126  0.4280E+01  0.9212E+02
      0.216  0.4056E+01  0.9248E+02
      0.306  0.4980E+01  0.9293E+02
      0.395  0.6283E+01  0.9349E+02
      0.485  0.7722E+01  0.9419E+02
      0.575  0.8133E+01  0.9492E+02
      0.665  0.7680E+01  0.9561E+02
      0.755  0.8467E+01  0.9637E+02
      0.844  0.8917E+01  0.9717E+02
      0.934  0.8250E+01  0.9791E+02
      1.024  0.7449E+01  0.9858E+02
      1.114  0.6401E+01  0.9915E+02
      1.203  0.6169E+01  0.9971E+02
      1.293  0.7192E+01  0.1004E+03
      1.383  0.8246E+01  0.1011E+03
      1.473  0.9227E+01  0.1019E+03
      1.563  0.9462E+01  0.1028E+03
      1.652  0.8442E+01  0.1035E+03
      1.742  0.8075E+01  0.1043E+03
      1.832  0.9413E+01  0.1051E+03
      1.922  0.9992E+01  0.1060E+03
      2.012  0.9643E+01  0.1069E+03
      2.101  0.1017E+02  0.1078E+03
      2.191  0.1238E+02  0.1089E+03
      2.281  0.1411E+02  0.1102E+03
      2.371  0.1288E+02  0.1113E+03
      2.460  0.1132E+02  0.1123E+03
      2.550  0.1099E+02  0.1133E+03
      2.640  0.1139E+02  0.1143E+03
      2.730  0.1208E+02  0.1154E+03
      2.820  0.1117E+02  0.1164E+03
      2.909  0.1063E+02  0.1174E+03
      2.999  0.1152E+02  0.1184E+03
      3.089  0.1328E+02  0.1196E+03
      3.179  0.1625E+02  0.1211E+03
      3.268  0.1737E+02  0.1226E+03
      3.358  0.1615E+02  0.1241E+03
      3.448  0.1475E+02  0.1254E+03
      3.538  0.1540E+02  0.1268E+03
      3.628  0.1671E+02  0.1283E+03
      3.717  0.1644E+02  0.1298E+03
      3.807  0.1571E+02  0.1312E+03
      3.897  0.1552E+02  0.1326E+03
      3.987  0.1465E+02  0.1339E+03
      4.077  0.1441E+02  0.1352E+03
      4.166  0.1642E+02  0.1366E+03
      4.256  0.1852E+02  0.1383E+03
      4.346  0.1866E+02  0.1400E+03
      4.436  0.1904E+02  0.1417E+03
      4.525  0.1971E+02  0.1435E+03
      4.615  0.2081E+02  0.1453E+03
      4.705  0.2074E+02  0.1472E+03
      4.795  0.2039E+02  0.1490E+03
      4.885  0.2068E+02  0.1509E+03
      4.974  0.2044E+02  0.1527E+03
      5.064  0.1947E+02  0.1545E+03
      5.154  0.1856E+02  0.1561E+03
      5.244  0.1885E+02  0.1578E+03
      5.334  0.1978E+02  0.1596E+03
      5.423  0.1964E+02  0.1614E+03
      5.513  0.1917E+02  0.1631E+03
      5.603  0.1736E+02  0.1646E+03
      5.693  0.1379E+02  0.1659E+03
      5.782  0.9875E+01  0.1668E+03
      5.872  0.6432E+01  0.1673E+03
      5.962  0.3724E+01  0.1677E+03
      6.052  0.2096E+01  0.1679E+03
      6.142  0.1073E+01  0.1680E+03
      6.231  0.3690E+00  0.1680E+03
      6.321  0.6978E-01  0.1680E+03
      6.411  0.5138E-02  0.1680E+03
      6.501  0.1040E-03  0.1680E+03
      6.590  0.4859E-06  0.1680E+03
      6.680  0.4883E-09  0.1680E+03
      6.770  0.1024E-12  0.1680E+03
      6.860  0.0000E+00  0.1680E+03
      6.950  0.0000E+00  0.1680E+03
      7.039  0.0000E+00  0.1680E+03
      7.129  0.0000E+00  0.1680E+03
      7.219  0.0000E+00  0.1680E+03
      7.309  0.0000E+00  0.1680E+03
      7.399  0.0000E+00  0.1680E+03
