 running   42 mpi-ranks, on    1 nodes
 distrk:  each k-point on   42 cores,    1 groups
 distr:  one band on    1 cores,   42 groups
 vasp.6.5.0 16Dec24 (build Jan 08 2025 16:17:04) complex                        
  
 POSCAR found type information on POSCAR B 
 POSCAR found :  1 types and      28 ions
 Reading from existing POTCAR
 scaLAPACK will be used
 -----------------------------------------------------------------------------
|                                                                             |
|           W    W    AA    RRRRR   N    N  II  N    N   GGGG   !!!           |
|           W    W   A  A   R    R  NN   N  II  NN   N  G    G  !!!           |
|           W    W  A    A  R    R  N N  N  II  N N  N  G       !!!           |
|           W WW W  AAAAAA  RRRRR   N  N N  II  N  N N  G  GGG   !            |
|           WW  WW  A    A  R   R   N   NN  II  N   NN  G    G                |
|           W    W  A    A  R    R  N    N  II  N    N   GGGG   !!!           |
|                                                                             |
|     The value NCORE = 8 specified in the INCAR file was overwritten,        |
|     because it was not compatible with the 42 processes available:          |
|     NCORE = 1                                                               |
|     was used instead, please check that this makes sense for your           |
|     machine.                                                                |
|                                                                             |
 -----------------------------------------------------------------------------

 -----------------------------------------------------------------------------
|                                                                             |
|           W    W    AA    RRRRR   N    N  II  N    N   GGGG   !!!           |
|           W    W   A  A   R    R  NN   N  II  NN   N  G    G  !!!           |
|           W    W  A    A  R    R  N N  N  II  N N  N  G       !!!           |
|           W WW W  AAAAAA  RRRRR   N  N N  II  N  N N  G  GGG   !            |
|           WW  WW  A    A  R   R   N   NN  II  N   NN  G    G                |
|           W    W  A    A  R    R  N    N  II  N    N   GGGG   !!!           |
|                                                                             |
|     For optimal performance we recommend to set                             |
|       NCORE = 2 up to number-of-cores-per-socket                            |
|     NCORE specifies how many cores store one orbital (NPAR=cpu/NCORE).      |
|     This setting can greatly improve the performance of VASP for DFT.       |
|     The default, NCORE=1 might be grossly inefficient on modern             |
|     multi-core architectures or massively parallel machines. Do your        |
|     own testing! More info at https://www.vasp.at/wiki/index.php/NCORE      |
|     Unfortunately you need to use the default for GW and RPA                |
|     calculations (for HF NCORE is supported but not extensively tested      |
|     yet).                                                                   |
|                                                                             |
 -----------------------------------------------------------------------------

 Reading from existing POTCAR
 -----------------------------------------------------------------------------
|                                                                             |
|               ----> ADVICE to this user running VASP <----                  |
|                                                                             |
|     You have a (more or less) 'large supercell' and for larger cells it     |
|     might be more efficient to use real-space projection operators.         |
|     Therefore, try LREAL= Auto in the INCAR file.                           |
|     Mind: For very accurate calculation, you might also keep the            |
|     reciprocal projection scheme (i.e. LREAL=.FALSE.).                      |
|                                                                             |
 -----------------------------------------------------------------------------

 LDA part: xc-table for (Slater+PW92), standard interpolation
 POSCAR, INCAR and KPOINTS ok, starting setup
 FFT: planning ... GRIDC
 FFT: planning ... GRID_SOFT
 FFT: planning ... GRID
 WAVECAR not read
 entering main loop
       N       E                     dE             d eps       ncg     rms          rms(c)
DAV:   1     0.489468802296E+03    0.48947E+03   -0.31393E+04 15120   0.825E+02
DAV:   2    -0.151068372587E+03   -0.64054E+03   -0.59123E+03 24948   0.173E+02
DAV:   3    -0.196099694566E+03   -0.45031E+02   -0.44423E+02 22680   0.506E+01
DAV:   4    -0.196780921785E+03   -0.68123E+00   -0.68043E+00 21798   0.747E+00
DAV:   5    -0.196798270397E+03   -0.17349E-01   -0.17344E-01 23268   0.113E+00    0.185E+01
DAV:   6    -0.182277317963E+03    0.14521E+02   -0.11597E+01 22638   0.896E+00    0.992E+00
DAV:   7    -0.177966336517E+03    0.43110E+01   -0.10537E+01 22680   0.764E+00    0.279E+00
DAV:   8    -0.177805426386E+03    0.16091E+00   -0.10317E+00 22638   0.250E+00    0.998E-01
DAV:   9    -0.177727937034E+03    0.77489E-01   -0.91775E-02 22554   0.882E-01    0.396E-01
DAV:  10    -0.177712117506E+03    0.15820E-01   -0.12942E-02 21252   0.316E-01    0.200E-01
DAV:  11    -0.177695218030E+03    0.16899E-01   -0.13856E-02 22554   0.265E-01    0.121E-01
DAV:  12    -0.177694459791E+03    0.75824E-03   -0.42928E-03 22302   0.146E-01    0.787E-02
DAV:  13    -0.177697334370E+03   -0.28746E-02   -0.15514E-03 21420   0.808E-02    0.376E-02
DAV:  14    -0.177699445515E+03   -0.21111E-02   -0.39641E-04 20454   0.411E-02    0.232E-02
DAV:  15    -0.177702405021E+03   -0.29595E-02   -0.29754E-04 19614   0.337E-02    0.132E-02
DAV:  16    -0.177703919506E+03   -0.15145E-02   -0.10475E-04 20202   0.198E-02    0.817E-03
DAV:  17    -0.177704884259E+03   -0.96475E-03   -0.75306E-05 19698   0.150E-02    0.416E-03
DAV:  18    -0.177705129262E+03   -0.24500E-03   -0.98726E-06 20706   0.569E-03    0.244E-03
DAV:  19    -0.177705320293E+03   -0.19103E-03   -0.81834E-06 20328   0.429E-03    0.127E-03
DAV:  20    -0.177705347195E+03   -0.26902E-04   -0.36390E-07 18144   0.130E-03    0.601E-04
DAV:  21    -0.177705370282E+03   -0.23087E-04   -0.60668E-07 19026   0.114E-03    0.267E-04
DAV:  22    -0.177705374504E+03   -0.42222E-05   -0.46023E-08 17598   0.458E-04    0.107E-04
DAV:  23    -0.177705376790E+03   -0.22857E-05   -0.35745E-08 13944   0.268E-04    0.508E-05
DAV:  24    -0.177705377364E+03   -0.57488E-06   -0.24383E-09 17178   0.138E-04
   1 F= -.18085854E+03 E0= -.18085684E+03  d E =-.341647E-02
 writing wavefunctions
