k-points
0
Monkhorst-pack
6   8   6
0   0   0