       N       E                     dE             d eps       ncg     rms          rms(c)
DAV:   1     0.637141584490E+03    0.63714E+03   -0.32111E+04  5670   0.113E+03
DAV:   2    -0.111814074472E+03   -0.74896E+03   -0.71854E+03  8316   0.236E+02
DAV:   3    -0.196973783522E+03   -0.85160E+02   -0.83614E+02  6832   0.872E+01
DAV:   4    -0.199351277937E+03   -0.23775E+01   -0.23665E+01  7693   0.159E+01
DAV:   5    -0.199423820972E+03   -0.72543E-01   -0.72488E-01  8113   0.248E+00    0.197E+01
DAV:   6    -0.181523326222E+03    0.17900E+02   -0.26754E+01  6881   0.148E+01    0.994E+00
DAV:   7    -0.178950232761E+03    0.25731E+01   -0.61641E+00  6832   0.769E+00    0.478E+00
DAV:   8    -0.178451895697E+03    0.49834E+00   -0.18414E+00  7266   0.401E+00    0.144E+00
DAV:   9    -0.178439242640E+03    0.12653E-01   -0.15223E-01  7168   0.144E+00    0.568E-01
DAV:  10    -0.178446497010E+03   -0.72544E-02   -0.33320E-02  7518   0.595E-01    0.222E-01
DAV:  11    -0.178449831906E+03   -0.33349E-02   -0.55772E-03  6923   0.240E-01    0.106E-01
DAV:  12    -0.178451871506E+03   -0.20396E-02   -0.29782E-03  6930   0.144E-01    0.541E-02
DAV:  13    -0.178453511798E+03   -0.16403E-02   -0.16432E-03  6951   0.925E-02    0.293E-02
DAV:  14    -0.178454688418E+03   -0.11766E-02   -0.33937E-04  6636   0.525E-02    0.149E-02
DAV:  15    -0.178455270111E+03   -0.58169E-03   -0.82857E-05  6930   0.279E-02    0.869E-03
DAV:  16    -0.178455674539E+03   -0.40443E-03   -0.41994E-05  7063   0.161E-02    0.490E-03
DAV:  17    -0.178455943797E+03   -0.26926E-03   -0.15827E-05  6545   0.832E-03    0.280E-03
DAV:  18    -0.178456083093E+03   -0.13930E-03   -0.49361E-06  6181   0.378E-03    0.186E-03
DAV:  19    -0.178456212620E+03   -0.12953E-03   -0.74276E-06  6146   0.387E-03    0.932E-04
DAV:  20    -0.178456255804E+03   -0.43184E-04   -0.12238E-06  5810   0.179E-03    0.488E-04
DAV:  21    -0.178456274419E+03   -0.18615E-04   -0.42597E-07  5656   0.101E-03    0.243E-04
DAV:  22    -0.178456281269E+03   -0.68504E-05   -0.14303E-07  5187   0.581E-04    0.108E-04
DAV:  23    -0.178456283330E+03   -0.20611E-05   -0.49968E-08  5110   0.316E-04    0.464E-05
DAV:  24    -0.178456283865E+03   -0.53446E-06   -0.17535E-08  4725   0.187E-04
   1 F= -.18176288E+03 E0= -.18176099E+03  d E =-.181763E+03
       N       E                     dE             d eps       ncg     rms          rms(c)
DAV:   1    -0.179588398843E+03   -0.11321E+01   -0.10948E+02  5740   0.388E+01    0.293E+00
DAV:   2    -0.179567330068E+03    0.21069E-01   -0.25046E+00  7518   0.593E+00    0.157E+00
DAV:   3    -0.179533006085E+03    0.34324E-01   -0.28134E-01  7238   0.184E+00    0.575E-01
DAV:   4    -0.179533656272E+03   -0.65019E-03   -0.26928E-02  7224   0.633E-01    0.333E-01
DAV:   5    -0.179532706221E+03    0.95005E-03   -0.61094E-03  7175   0.249E-01    0.190E-01
DAV:   6    -0.179532471000E+03    0.23522E-03   -0.10460E-03  6930   0.107E-01    0.443E-02
DAV:   7    -0.179532571022E+03   -0.10002E-03   -0.22799E-04  7000   0.493E-02    0.183E-02
DAV:   8    -0.179532681244E+03   -0.11022E-03   -0.44970E-05  6986   0.212E-02    0.688E-03
DAV:   9    -0.179532740738E+03   -0.59494E-04   -0.79720E-06  7196   0.816E-03    0.326E-03
DAV:  10    -0.179532789632E+03   -0.48894E-04   -0.52687E-06  5943   0.466E-03    0.144E-03
DAV:  11    -0.179532816489E+03   -0.26857E-04   -0.21836E-06  5971   0.243E-03    0.739E-04
DAV:  12    -0.179532834104E+03   -0.17615E-04   -0.15604E-06  5516   0.173E-03    0.371E-04
DAV:  13    -0.179532840133E+03   -0.60290E-05   -0.30041E-07  5733   0.781E-04    0.178E-04
DAV:  14    -0.179532843266E+03   -0.31331E-05   -0.15676E-07  5222   0.504E-04    0.114E-04
DAV:  15    -0.179532844733E+03   -0.14663E-05   -0.68065E-08  4942   0.335E-04    0.498E-05
DAV:  16    -0.179532845083E+03   -0.35043E-06   -0.15768E-08  5061   0.169E-04
   2 F= -.18283666E+03 E0= -.18282853E+03  d E =-.107378E+01
       N       E                     dE             d eps       ncg     rms          rms(c)
DAV:   1    -0.179575837187E+03   -0.42992E-01   -0.32785E+00  5936   0.672E+00    0.724E-01
DAV:   2    -0.179573615984E+03    0.22212E-02   -0.91652E-02  7231   0.106E+00    0.623E-01
DAV:   3    -0.179566250200E+03    0.73658E-02   -0.20790E-02  6846   0.347E-01    0.225E-01
DAV:   4    -0.179565340659E+03    0.90954E-03   -0.33673E-03  6734   0.199E-01    0.697E-02
DAV:   5    -0.179565341401E+03   -0.74198E-06   -0.45249E-04  7042   0.726E-02    0.242E-02
DAV:   6    -0.179565354354E+03   -0.12953E-04   -0.61910E-05  7420   0.263E-02    0.733E-03
DAV:   7    -0.179565367252E+03   -0.12898E-04   -0.50048E-06  7028   0.840E-03    0.335E-03
DAV:   8    -0.179565380441E+03   -0.13188E-04   -0.16440E-06  5726   0.378E-03    0.144E-03
DAV:   9    -0.179565389657E+03   -0.92162E-05   -0.59260E-07  5796   0.185E-03    0.799E-04
DAV:  10    -0.179565399012E+03   -0.93550E-05   -0.68437E-07  5677   0.126E-03    0.400E-04
DAV:  11    -0.179565405442E+03   -0.64304E-05   -0.52148E-07  5677   0.880E-04    0.261E-04
DAV:  12    -0.179565409743E+03   -0.43010E-05   -0.43721E-07  5691   0.705E-04    0.147E-04
DAV:  13    -0.179565411018E+03   -0.12752E-05   -0.63747E-08  5362   0.370E-04    0.802E-05
DAV:  14    -0.179565411695E+03   -0.67629E-06   -0.39200E-08  5082   0.226E-04
   3 F= -.18286973E+03 E0= -.18286220E+03  d E =-.110685E+01
       N       E                     dE             d eps       ncg     rms          rms(c)
DAV:   1    -0.180046923363E+03   -0.48151E+00   -0.34792E+01  5670   0.230E+01    0.155E+00
DAV:   2    -0.180052242755E+03   -0.53194E-02   -0.59961E-01  7476   0.294E+00    0.923E-01
DAV:   3    -0.180045971451E+03    0.62713E-02   -0.79824E-02  6979   0.867E-01    0.697E-01
DAV:   4    -0.180038739845E+03    0.72316E-02   -0.24155E-02  6909   0.442E-01    0.184E-01
DAV:   5    -0.180038115938E+03    0.62391E-03   -0.33123E-03  6937   0.227E-01    0.780E-02
DAV:   6    -0.180038211570E+03   -0.95631E-04   -0.61598E-04  7301   0.826E-02    0.274E-02
DAV:   7    -0.180038209220E+03    0.23497E-05   -0.49834E-05  7406   0.272E-02    0.958E-03
DAV:   8    -0.180038213928E+03   -0.47078E-05   -0.11122E-05  7021   0.124E-02    0.286E-03
DAV:   9    -0.180038216236E+03   -0.23081E-05   -0.12467E-06  5215   0.407E-03    0.144E-03
DAV:  10    -0.180038217958E+03   -0.17215E-05   -0.37929E-07  5026   0.194E-03    0.562E-04
DAV:  11    -0.180038218798E+03   -0.84029E-06   -0.11859E-07  4844   0.989E-04
   4 F= -.18332323E+03 E0= -.18331447E+03  d E =-.453504E+00
       N       E                     dE             d eps       ncg     rms          rms(c)
DAV:   1    -0.180045487410E+03   -0.72695E-02   -0.45997E-01  5754   0.266E+00    0.180E-01
DAV:   2    -0.180045488439E+03   -0.10291E-05   -0.77016E-03  7448   0.333E-01    0.106E-01
DAV:   3    -0.180045405630E+03    0.82810E-04   -0.88626E-04  6811   0.105E-01    0.756E-02
DAV:   4    -0.180045318076E+03    0.87554E-04   -0.23151E-04  6839   0.482E-02    0.213E-02
DAV:   5    -0.180045309253E+03    0.88223E-05   -0.40844E-05  6881   0.256E-02    0.911E-03
DAV:   6    -0.180045310506E+03   -0.12529E-05   -0.82364E-06  7091   0.970E-03    0.321E-03
DAV:   7    -0.180045310461E+03    0.44959E-07   -0.57696E-07  4172   0.304E-03
   5 F= -.18332814E+03 E0= -.18331932E+03  d E =-.458411E+00
       N       E                     dE             d eps       ncg     rms          rms(c)
DAV:   1    -0.180214233078E+03   -0.16892E+00   -0.17501E+01  5670   0.163E+01    0.113E+00
DAV:   2    -0.180202174765E+03    0.12058E-01   -0.36964E-01  7434   0.228E+00    0.635E-01
DAV:   3    -0.180197703737E+03    0.44710E-02   -0.47887E-02  7084   0.729E-01    0.474E-01
DAV:   4    -0.180193796178E+03    0.39076E-02   -0.12228E-02  6846   0.346E-01    0.172E-01
DAV:   5    -0.180193302630E+03    0.49355E-03   -0.20888E-03  6874   0.164E-01    0.605E-02
DAV:   6    -0.180193341560E+03   -0.38930E-04   -0.29370E-04  7238   0.624E-02    0.177E-02
DAV:   7    -0.180193339541E+03    0.20187E-05   -0.30675E-05  7028   0.204E-02    0.830E-03
DAV:   8    -0.180193343300E+03   -0.37594E-05   -0.68378E-06  7168   0.871E-03    0.217E-03
DAV:   9    -0.180193345349E+03   -0.20490E-05   -0.70495E-07  5250   0.327E-03    0.100E-03
DAV:  10    -0.180193347222E+03   -0.18721E-05   -0.31916E-07  5264   0.168E-03    0.405E-04
DAV:  11    -0.180193348019E+03   -0.79757E-06   -0.64924E-08  5089   0.784E-04
   6 F= -.18348187E+03 E0= -.18347315E+03  d E =-.153730E+00
       N       E                     dE             d eps       ncg     rms          rms(c)
DAV:   1    -0.180193570208E+03   -0.22299E-03   -0.89186E-03  5992   0.366E-01    0.258E-02
DAV:   2    -0.180193563435E+03    0.67735E-05   -0.17957E-04  7427   0.507E-02    0.149E-02
DAV:   3    -0.180193561420E+03    0.20145E-05   -0.19977E-05  6965   0.160E-02    0.117E-02
DAV:   4    -0.180193559085E+03    0.23354E-05   -0.63431E-06  6664   0.834E-03    0.362E-03
DAV:   5    -0.180193558913E+03    0.17235E-06   -0.93233E-07  4207   0.389E-03
   7 F= -.18348195E+03 E0= -.18347322E+03  d E =-.153812E+00
       N       E                     dE             d eps       ncg     rms          rms(c)
DAV:   1    -0.180330804103E+03   -0.13725E+00   -0.91456E+00  5670   0.115E+01    0.645E-01
DAV:   2    -0.180332107323E+03   -0.13032E-02   -0.16142E-01  7539   0.151E+00    0.379E-01
DAV:   3    -0.180330075893E+03    0.20314E-02   -0.16045E-02  7035   0.452E-01    0.207E-01
DAV:   4    -0.180329809448E+03    0.26644E-03   -0.31465E-03  7007   0.174E-01    0.124E-01
DAV:   5    -0.180329502533E+03    0.30692E-03   -0.63497E-04  6853   0.850E-02    0.398E-02
DAV:   6    -0.180329507163E+03   -0.46303E-05   -0.81776E-05  7168   0.333E-02    0.126E-02
DAV:   7    -0.180329506189E+03    0.97396E-06   -0.18886E-05  7133   0.152E-02    0.440E-03
DAV:   8    -0.180329507619E+03   -0.14298E-05   -0.23480E-06  6111   0.551E-03    0.164E-03
DAV:   9    -0.180329508458E+03   -0.83866E-06   -0.44886E-07  4802   0.235E-03
   8 F= -.18363517E+03 E0= -.18362627E+03  d E =-.153214E+00
       N       E                     dE             d eps       ncg     rms          rms(c)
DAV:   1    -0.180418499633E+03   -0.88992E-01   -0.31345E+01  5670   0.213E+01    0.121E+00
DAV:   2    -0.180425782105E+03   -0.72825E-02   -0.57706E-01  7588   0.284E+00    0.722E-01
DAV:   3    -0.180418906992E+03    0.68751E-02   -0.48769E-02  7084   0.801E-01    0.379E-01
DAV:   4    -0.180417302705E+03    0.16043E-02   -0.11408E-02  7119   0.341E-01    0.237E-01
DAV:   5    -0.180416362436E+03    0.94027E-03   -0.19081E-03  6909   0.149E-01    0.618E-02
DAV:   6    -0.180416397103E+03   -0.34666E-04   -0.23011E-04  7308   0.578E-02    0.224E-02
DAV:   7    -0.180416395714E+03    0.13889E-05   -0.47983E-05  7322   0.246E-02    0.766E-03
DAV:   8    -0.180416399347E+03   -0.36337E-05   -0.73708E-06  7343   0.952E-03    0.300E-03
DAV:   9    -0.180416401303E+03   -0.19554E-05   -0.92294E-07  5180   0.358E-03    0.112E-03
DAV:  10    -0.180416402495E+03   -0.11919E-05   -0.31521E-07  5089   0.193E-03    0.453E-04
DAV:  11    -0.180416403279E+03   -0.78410E-06   -0.88148E-08  4655   0.970E-04
   9 F= -.18375474E+03 E0= -.18374670E+03  d E =-.272787E+00
       N       E                     dE             d eps       ncg     rms          rms(c)
DAV:   1    -0.180591512934E+03   -0.17511E+00   -0.12122E+01  5670   0.133E+01    0.857E-01
DAV:   2    -0.180583862069E+03    0.76509E-02   -0.22134E-01  7665   0.177E+00    0.478E-01
DAV:   3    -0.180580902566E+03    0.29595E-02   -0.18675E-02  6951   0.496E-01    0.264E-01
DAV:   4    -0.180579925902E+03    0.97666E-03   -0.40606E-03  7133   0.218E-01    0.960E-02
DAV:   5    -0.180579851096E+03    0.74807E-04   -0.66053E-04  6909   0.949E-02    0.326E-02
DAV:   6    -0.180579864739E+03   -0.13643E-04   -0.88121E-05  7259   0.374E-02    0.109E-02
DAV:   7    -0.180579868335E+03   -0.35967E-05   -0.16092E-05  7252   0.140E-02    0.458E-03
DAV:   8    -0.180579872044E+03   -0.37085E-05   -0.24306E-06  6237   0.577E-03    0.161E-03
DAV:   9    -0.180579873771E+03   -0.17276E-05   -0.47693E-07  5313   0.236E-03    0.709E-04
DAV:  10    -0.180579874988E+03   -0.12166E-05   -0.17546E-07  5019   0.125E-03    0.256E-04
DAV:  11    -0.180579875463E+03   -0.47469E-06   -0.50004E-08  5110   0.598E-04
  10 F= -.18394498E+03 E0= -.18393971E+03  d E =-.190239E+00
       N       E                     dE             d eps       ncg     rms          rms(c)
DAV:   1    -0.180853045160E+03   -0.27317E+00   -0.10879E+02  5670   0.400E+01    0.232E+00
DAV:   2    -0.180837059236E+03    0.15986E-01   -0.21471E+00  7322   0.554E+00    0.127E+00
DAV:   3    -0.180815264824E+03    0.21794E-01   -0.22300E-01  7329   0.169E+00    0.516E-01
DAV:   4    -0.180812637589E+03    0.26272E-02   -0.27073E-02  7021   0.615E-01    0.218E-01
DAV:   5    -0.180812475735E+03    0.16185E-03   -0.31890E-03  7434   0.217E-01    0.537E-02
DAV:   6    -0.180812486170E+03   -0.10435E-04   -0.48494E-04  7700   0.748E-02    0.282E-02
DAV:   7    -0.180812531032E+03   -0.44862E-04   -0.63306E-05  7483   0.275E-02    0.920E-03
DAV:   8    -0.180812576486E+03   -0.45454E-04   -0.12365E-05  6944   0.119E-02    0.490E-03
DAV:   9    -0.180812642519E+03   -0.66033E-04   -0.87799E-06  6790   0.700E-03    0.274E-03
DAV:  10    -0.180812676524E+03   -0.34005E-04   -0.23069E-06  5992   0.296E-03    0.152E-03
DAV:  11    -0.180812709287E+03   -0.32763E-04   -0.34902E-06  5978   0.282E-03    0.869E-04
DAV:  12    -0.180812719716E+03   -0.10429E-04   -0.69494E-07  5964   0.140E-03    0.500E-04
DAV:  13    -0.180812727907E+03   -0.81911E-05   -0.41968E-07  5761   0.114E-03    0.297E-04
DAV:  14    -0.180812733171E+03   -0.52644E-05   -0.10041E-07  5404   0.634E-04    0.183E-04
DAV:  15    -0.180812736956E+03   -0.37840E-05   -0.65148E-08  5117   0.379E-04    0.109E-04
DAV:  16    -0.180812739181E+03   -0.22255E-05   -0.37773E-08  5026   0.269E-04    0.591E-05
DAV:  17    -0.180812739862E+03   -0.68120E-06   -0.90586E-09  5110   0.155E-04
  11 F= -.18426049E+03 E0= -.18425946E+03  d E =-.505752E+00
       N       E                     dE             d eps       ncg     rms          rms(c)
DAV:   1    -0.180985988858E+03   -0.17325E+00   -0.10735E+01  5670   0.125E+01    0.641E-01
DAV:   2    -0.180987308369E+03   -0.13195E-02   -0.12504E-01  7427   0.128E+00    0.381E-01
DAV:   3    -0.180985353659E+03    0.19547E-02   -0.10364E-02  7441   0.383E-01    0.117E-01
DAV:   4    -0.180985223822E+03    0.12984E-03   -0.16009E-03  7231   0.149E-01    0.417E-02
DAV:   5    -0.180985218009E+03    0.58132E-05   -0.18024E-04  7497   0.465E-02    0.176E-02
DAV:   6    -0.180985221627E+03   -0.36180E-05   -0.25066E-05  7679   0.171E-02    0.706E-03
DAV:   7    -0.180985234551E+03   -0.12924E-04   -0.52665E-06  6846   0.718E-03    0.311E-03
DAV:   8    -0.180985252816E+03   -0.18266E-04   -0.17785E-06  5852   0.334E-03    0.185E-03
DAV:   9    -0.180985277924E+03   -0.25108E-04   -0.31502E-06  5936   0.325E-03    0.102E-03
DAV:  10    -0.180985290632E+03   -0.12708E-04   -0.89295E-07  5593   0.154E-03    0.557E-04
DAV:  11    -0.180985298730E+03   -0.80975E-05   -0.47935E-07  5502   0.101E-03    0.308E-04
DAV:  12    -0.180985303053E+03   -0.43228E-05   -0.15791E-07  5362   0.604E-04    0.187E-04
DAV:  13    -0.180985305816E+03   -0.27630E-05   -0.10552E-07  5061   0.472E-04    0.104E-04
DAV:  14    -0.180985307581E+03   -0.17657E-05   -0.33660E-08  5152   0.288E-04    0.635E-05
DAV:  15    -0.180985308521E+03   -0.93981E-06   -0.15317E-08  5047   0.171E-04
  12 F= -.18444847E+03 E0= -.18444740E+03  d E =-.187982E+00
       N       E                     dE             d eps       ncg     rms          rms(c)
DAV:   1    -0.181146747055E+03   -0.16144E+00   -0.87979E+01  5670   0.359E+01    0.187E+00
DAV:   2    -0.181170001841E+03   -0.23255E-01   -0.11752E+00  7483   0.391E+00    0.110E+00
DAV:   3    -0.181153863461E+03    0.16138E-01   -0.85651E-02  7420   0.110E+00    0.381E-01
DAV:   4    -0.181152644573E+03    0.12189E-02   -0.12830E-02  7343   0.410E-01    0.124E-01
DAV:   5    -0.181152602001E+03    0.42572E-04   -0.14689E-03  7588   0.130E-01    0.527E-02
DAV:   6    -0.181152590474E+03    0.11527E-04   -0.21427E-04  7826   0.504E-02    0.213E-02
DAV:   7    -0.181152647676E+03   -0.57202E-04   -0.43288E-05  7112   0.210E-02    0.934E-03
DAV:   8    -0.181152731526E+03   -0.83850E-04   -0.12956E-05  6832   0.985E-03    0.549E-03
DAV:   9    -0.181152857341E+03   -0.12582E-03   -0.18880E-05  6643   0.907E-03    0.290E-03
DAV:  10    -0.181152915708E+03   -0.58366E-04   -0.54064E-06  6377   0.434E-03    0.166E-03
DAV:  11    -0.181152947751E+03   -0.32044E-04   -0.36851E-06  6167   0.325E-03    0.915E-04
DAV:  12    -0.181152968629E+03   -0.20877E-04   -0.99543E-07  5992   0.239E-03    0.564E-04
DAV:  13    -0.181152981792E+03   -0.13163E-04   -0.46603E-07  5824   0.132E-03    0.303E-04
DAV:  14    -0.181152990015E+03   -0.82231E-05   -0.90998E-08  5194   0.674E-04    0.180E-04
DAV:  15    -0.181152993878E+03   -0.38633E-05   -0.70812E-08  5082   0.414E-04    0.110E-04
DAV:  16    -0.181152996436E+03   -0.25576E-05   -0.43996E-08  4970   0.315E-04    0.518E-05
DAV:  17    -0.181152997292E+03   -0.85593E-06   -0.11764E-08  5012   0.181E-04
  13 F= -.18466059E+03 E0= -.18465935E+03  d E =-.400094E+00
       N       E                     dE             d eps       ncg     rms          rms(c)
DAV:   1    -0.181302023075E+03   -0.14903E+00   -0.19709E+01  5670   0.169E+01    0.842E-01
DAV:   2    -0.181310998630E+03   -0.89756E-02   -0.23451E-01  7462   0.165E+00    0.510E-01
DAV:   3    -0.181307712916E+03    0.32857E-02   -0.16133E-02  6937   0.463E-01    0.139E-01
DAV:   4    -0.181307802567E+03   -0.89652E-04   -0.21907E-03  7364   0.160E-01    0.476E-02
DAV:   5    -0.181307799049E+03    0.35184E-05   -0.21492E-04  7847   0.519E-02    0.200E-02
DAV:   6    -0.181307812389E+03   -0.13340E-04   -0.27484E-05  7413   0.192E-02    0.662E-03
DAV:   7    -0.181307821423E+03   -0.90342E-05   -0.35444E-06  7049   0.660E-03    0.268E-03
DAV:   8    -0.181307828409E+03   -0.69860E-05   -0.98219E-07  5698   0.286E-03    0.115E-03
DAV:   9    -0.181307833217E+03   -0.48075E-05   -0.48829E-07  5467   0.157E-03    0.500E-04
DAV:  10    -0.181307835898E+03   -0.26816E-05   -0.19454E-07  4984   0.873E-04    0.273E-04
DAV:  11    -0.181307838050E+03   -0.21515E-05   -0.19497E-07  4802   0.709E-04    0.163E-04
DAV:  12    -0.181307839613E+03   -0.15628E-05   -0.92106E-08  4879   0.458E-04    0.829E-05
DAV:  13    -0.181307840182E+03   -0.56978E-06   -0.25702E-08  5264   0.257E-04
  14 F= -.18482535E+03 E0= -.18482382E+03  d E =-.164762E+00
       N       E                     dE             d eps       ncg     rms          rms(c)
DAV:   1    -0.181328535502E+03   -0.20696E-01   -0.78976E+00  5670   0.107E+01    0.531E-01
DAV:   2    -0.181332196830E+03   -0.36613E-02   -0.95133E-02  7476   0.106E+00    0.321E-01
DAV:   3    -0.181330894900E+03    0.13019E-02   -0.66510E-03  6972   0.297E-01    0.876E-02
DAV:   4    -0.181330927312E+03   -0.32412E-04   -0.89086E-04  7420   0.102E-01    0.306E-02
DAV:   5    -0.181330924610E+03    0.27018E-05   -0.92225E-05  7931   0.336E-02    0.126E-02
DAV:   6    -0.181330929701E+03   -0.50912E-05   -0.11648E-05  7476   0.125E-02    0.434E-03
DAV:   7    -0.181330933429E+03   -0.37277E-05   -0.14451E-06  6244   0.432E-03    0.173E-03
DAV:   8    -0.181330936392E+03   -0.29625E-05   -0.47907E-07  5208   0.202E-03    0.739E-04
DAV:   9    -0.181330938524E+03   -0.21327E-05   -0.24561E-07  4977   0.114E-03    0.303E-04
DAV:  10    -0.181330939557E+03   -0.10326E-05   -0.93370E-08  5068   0.615E-04    0.175E-04
DAV:  11    -0.181330940457E+03   -0.90039E-06   -0.84458E-08  4571   0.496E-04
  15 F= -.18485416E+03 E0= -.18485261E+03  d E =-.193569E+00
       N       E                     dE             d eps       ncg     rms          rms(c)
DAV:   1    -0.181414627808E+03   -0.83688E-01   -0.22651E+00  5684   0.581E+00    0.417E-01
DAV:   2    -0.181412667706E+03    0.19601E-02   -0.41359E-02  7630   0.773E-01    0.235E-01
DAV:   3    -0.181411368586E+03    0.12991E-02   -0.60850E-03  6993   0.275E-01    0.665E-02
DAV:   4    -0.181411322382E+03    0.46204E-04   -0.72528E-04  6979   0.103E-01    0.290E-02
DAV:   5    -0.181411327363E+03   -0.49805E-05   -0.86753E-05  7301   0.320E-02    0.852E-03
DAV:   6    -0.181411326696E+03    0.66634E-06   -0.88165E-06  7336   0.110E-02
  16 F= -.18494359E+03 E0= -.18494220E+03  d E =-.894359E-01
       N       E                     dE             d eps       ncg     rms          rms(c)
DAV:   1    -0.181465428916E+03   -0.54102E-01   -0.66597E+00  5670   0.996E+00    0.714E-01
DAV:   2    -0.181459892352E+03    0.55366E-02   -0.12228E-01  7574   0.133E+00    0.402E-01
DAV:   3    -0.181456190097E+03    0.37023E-02   -0.17208E-02  7070   0.463E-01    0.116E-01
DAV:   4    -0.181456042122E+03    0.14798E-03   -0.20507E-03  6986   0.173E-01    0.493E-02
DAV:   5    -0.181456057049E+03   -0.14928E-04   -0.24632E-04  7182   0.544E-02    0.145E-02
DAV:   6    -0.181456055839E+03    0.12102E-05   -0.26030E-05  7238   0.189E-02    0.660E-03
DAV:   7    -0.181456058958E+03   -0.31192E-05   -0.46983E-06  6923   0.735E-03    0.207E-03
DAV:   8    -0.181456060065E+03   -0.11066E-05   -0.43425E-07  5348   0.266E-03    0.933E-04
DAV:   9    -0.181456060965E+03   -0.89994E-06   -0.19783E-07  4858   0.146E-03
  17 F= -.18500393E+03 E0= -.18500222E+03  d E =-.149771E+00
       N       E                     dE             d eps       ncg     rms          rms(c)
DAV:   1    -0.181492314604E+03   -0.36255E-01   -0.30892E+00  5670   0.674E+00    0.508E-01
DAV:   2    -0.181491237984E+03    0.10766E-02   -0.66158E-02  7413   0.978E-01    0.293E-01
DAV:   3    -0.181488697313E+03    0.25407E-02   -0.86935E-03  6783   0.351E-01    0.593E-02
DAV:   4    -0.181488708208E+03   -0.10895E-04   -0.12210E-03  7021   0.127E-01    0.302E-02
DAV:   5    -0.181488703128E+03    0.50807E-05   -0.88545E-05  7574   0.322E-02    0.114E-02
DAV:   6    -0.181488700050E+03    0.30776E-05   -0.12637E-05  7210   0.126E-02    0.414E-03
DAV:   7    -0.181488702127E+03   -0.20771E-05   -0.29736E-06  6181   0.566E-03    0.168E-03
DAV:   8    -0.181488704772E+03   -0.26452E-05   -0.38835E-07  4865   0.203E-03    0.919E-04
DAV:   9    -0.181488708369E+03   -0.35965E-05   -0.52157E-07  5194   0.171E-03    0.467E-04
DAV:  10    -0.181488711449E+03   -0.30798E-05   -0.23743E-07  4942   0.102E-03    0.253E-04
DAV:  11    -0.181488713257E+03   -0.18081E-05   -0.11749E-07  4921   0.617E-04    0.146E-04
DAV:  12    -0.181488714439E+03   -0.11822E-05   -0.60628E-08  4907   0.435E-04    0.834E-05
DAV:  13    -0.181488715084E+03   -0.64490E-06   -0.25959E-08  5089   0.275E-04
  18 F= -.18504867E+03 E0= -.18504725E+03  d E =-.447474E-01
       N       E                     dE             d eps       ncg     rms          rms(c)
DAV:   1    -0.181487738906E+03    0.97553E-03   -0.72071E-02  5817   0.103E+00    0.774E-02
DAV:   2    -0.181487715448E+03    0.23458E-04   -0.15416E-03  7518   0.149E-01    0.448E-02
DAV:   3    -0.181487659138E+03    0.56310E-04   -0.20149E-04  6867   0.534E-02    0.914E-03
DAV:   4    -0.181487660119E+03   -0.98158E-06   -0.28312E-05  6727   0.193E-02    0.464E-03
DAV:   5    -0.181487660276E+03   -0.15652E-06   -0.18350E-06  5880   0.493E-03
  19 F= -.18504948E+03 E0= -.18504809E+03  d E =-.455494E-01
       N       E                     dE             d eps       ncg     rms          rms(c)
DAV:   1    -0.181507963924E+03   -0.20304E-01   -0.90597E-01  5684   0.368E+00    0.271E-01
DAV:   2    -0.181506359431E+03    0.16045E-02   -0.18976E-02  7077   0.554E-01    0.140E-01
DAV:   3    -0.181505939491E+03    0.41994E-03   -0.35801E-03  7196   0.216E-01    0.455E-02
DAV:   4    -0.181505914577E+03    0.24915E-04   -0.53723E-04  6867   0.896E-02    0.247E-02
DAV:   5    -0.181505919054E+03   -0.44775E-05   -0.54108E-05  7203   0.282E-02    0.682E-03
DAV:   6    -0.181505918802E+03    0.25201E-06   -0.80756E-06  7231   0.105E-02
  20 F= -.18506366E+03 E0= -.18506237E+03  d E =-.141803E-01
       N       E                     dE             d eps       ncg     rms          rms(c)
DAV:   1    -0.181507155796E+03   -0.12367E-02   -0.33134E-02  5866   0.703E-01    0.516E-02
DAV:   2    -0.181507097247E+03    0.58549E-04   -0.70121E-04  7154   0.106E-01    0.268E-02
DAV:   3    -0.181507081323E+03    0.15924E-04   -0.13025E-04  7098   0.412E-02    0.866E-03
DAV:   4    -0.181507080993E+03    0.32995E-06   -0.19647E-05  6923   0.171E-02    0.473E-03
DAV:   5    -0.181507081378E+03   -0.38524E-06   -0.18584E-06  5866   0.535E-03
  21 F= -.18506404E+03 E0= -.18506277E+03  d E =-.145666E-01
       N       E                     dE             d eps       ncg     rms          rms(c)
DAV:   1    -0.181523086172E+03   -0.16005E-01   -0.65961E-01  5698   0.316E+00    0.195E-01
DAV:   2    -0.181522972073E+03    0.11410E-03   -0.10115E-02  7371   0.377E-01    0.114E-01
DAV:   3    -0.181522702667E+03    0.26941E-03   -0.11491E-03  7245   0.125E-01    0.290E-02
DAV:   4    -0.181522705866E+03   -0.31988E-05   -0.16878E-04  6832   0.483E-02    0.124E-02
DAV:   5    -0.181522708422E+03   -0.25558E-05   -0.16168E-05  7217   0.137E-02    0.469E-03
DAV:   6    -0.181522709536E+03   -0.11138E-05   -0.18271E-06  5131   0.507E-03    0.161E-03
DAV:   7    -0.181522710739E+03   -0.12032E-05   -0.50855E-07  5194   0.248E-03    0.489E-04
DAV:   8    -0.181522711551E+03   -0.81210E-06   -0.95942E-08  5033   0.120E-03
  22 F= -.18507371E+03 E0= -.18507242E+03  d E =-.966926E-02
       N       E                     dE             d eps       ncg     rms          rms(c)
DAV:   1    -0.181527287158E+03   -0.45764E-02   -0.18819E-01  5698   0.169E+00    0.104E-01
DAV:   2    -0.181527250263E+03    0.36895E-04   -0.28811E-03  7336   0.201E-01    0.606E-02
DAV:   3    -0.181527171667E+03    0.78596E-04   -0.32747E-04  7189   0.667E-02    0.155E-02
DAV:   4    -0.181527173405E+03   -0.17377E-05   -0.47989E-05  6811   0.258E-02    0.663E-03
DAV:   5    -0.181527174276E+03   -0.87138E-06   -0.46081E-06  7238   0.734E-03
  23 F= -.18507499E+03 E0= -.18507370E+03  d E =-.109508E-01
       N       E                     dE             d eps       ncg     rms          rms(c)
DAV:   1    -0.181530152333E+03   -0.29789E-02   -0.55785E-01  5719   0.294E+00    0.188E-01
DAV:   2    -0.181529834050E+03    0.31828E-03   -0.86375E-03  7364   0.343E-01    0.107E-01
DAV:   3    -0.181529612577E+03    0.22147E-03   -0.11074E-03  7028   0.120E-01    0.331E-02
DAV:   4    -0.181529596849E+03    0.15728E-04   -0.14469E-04  6965   0.454E-02    0.137E-02
DAV:   5    -0.181529594549E+03    0.23003E-05   -0.19459E-05  7238   0.148E-02    0.460E-03
DAV:   6    -0.181529594242E+03    0.30661E-06   -0.14552E-06  5411   0.456E-03
  24 F= -.18508064E+03 E0= -.18507932E+03  d E =-.564560E-02
       N       E                     dE             d eps       ncg     rms          rms(c)
DAV:   1    -0.181529161818E+03    0.43273E-03   -0.18996E-02  5999   0.543E-01    0.346E-02
DAV:   2    -0.181529151813E+03    0.10005E-04   -0.29869E-04  7434   0.637E-02    0.198E-02
DAV:   3    -0.181529144942E+03    0.68711E-05   -0.37805E-05  6986   0.222E-02    0.612E-03
DAV:   4    -0.181529145690E+03   -0.74806E-06   -0.50225E-06  6853   0.840E-03
  25 F= -.18508078E+03 E0= -.18507946E+03  d E =-.578887E-02
       N       E                     dE             d eps       ncg     rms          rms(c)
DAV:   1    -0.181529926244E+03   -0.78130E-03   -0.20514E-01  5684   0.171E+00    0.125E-01
DAV:   2    -0.181529700817E+03    0.22543E-03   -0.40038E-03  7392   0.244E-01    0.682E-02
DAV:   3    -0.181529596521E+03    0.10430E-03   -0.68464E-04  7049   0.912E-02    0.218E-02
DAV:   4    -0.181529592291E+03    0.42305E-05   -0.85098E-05  6853   0.345E-02    0.104E-02
DAV:   5    -0.181529593080E+03   -0.78932E-06   -0.90011E-06  7091   0.103E-02
  26 F= -.18508282E+03 E0= -.18508149E+03  d E =-.204226E-02
       N       E                     dE             d eps       ncg     rms          rms(c)
DAV:   1    -0.181529445102E+03    0.14719E-03   -0.25652E-03  6020   0.191E-01    0.141E-02
DAV:   2    -0.181529443685E+03    0.14174E-05   -0.50531E-05  7280   0.273E-02    0.784E-03
DAV:   3    -0.181529443558E+03    0.12677E-06   -0.83846E-06  6909   0.102E-02
  27 F= -.18508285E+03 E0= -.18508151E+03  d E =-.206890E-02
       N       E                     dE             d eps       ncg     rms          rms(c)
DAV:   1    -0.181532614466E+03   -0.31708E-02   -0.15180E-01  5670   0.150E+00    0.882E-02
DAV:   2    -0.181532565704E+03    0.48762E-04   -0.17767E-03  7427   0.154E-01    0.510E-02
DAV:   3    -0.181532525313E+03    0.40392E-04   -0.21654E-04  7210   0.522E-02    0.143E-02
DAV:   4    -0.181532526339E+03   -0.10258E-05   -0.27030E-05  6860   0.196E-02    0.569E-03
DAV:   5    -0.181532527057E+03   -0.71839E-06   -0.27276E-06  6090   0.603E-03
  28 F= -.18508491E+03 E0= -.18508354E+03  d E =-.206164E-02
       N       E                     dE             d eps       ncg     rms          rms(c)
DAV:   1    -0.181534950168E+03   -0.24238E-02   -0.25192E-01  5670   0.193E+00    0.113E-01
DAV:   2    -0.181534871489E+03    0.78679E-04   -0.29593E-03  7420   0.199E-01    0.654E-02
DAV:   3    -0.181534805469E+03    0.66020E-04   -0.35666E-04  7154   0.670E-02    0.185E-02
DAV:   4    -0.181534806705E+03   -0.12361E-05   -0.44360E-05  6972   0.251E-02    0.731E-03
DAV:   5    -0.181534807519E+03   -0.81419E-06   -0.46869E-06  7280   0.774E-03
  29 F= -.18508588E+03 E0= -.18508444E+03  d E =-.302656E-02
       N       E                     dE             d eps       ncg     rms          rms(c)
DAV:   1    -0.181536522463E+03   -0.17158E-02   -0.14009E-01  5684   0.142E+00    0.951E-02
DAV:   2    -0.181536449013E+03    0.73450E-04   -0.20040E-03  7546   0.169E-01    0.550E-02
DAV:   3    -0.181536384437E+03    0.64576E-04   -0.32503E-04  7091   0.653E-02    0.133E-02
DAV:   4    -0.181536384510E+03   -0.72374E-07   -0.44720E-05  6853   0.253E-02    0.629E-03
DAV:   5    -0.181536385623E+03   -0.11137E-05   -0.45913E-06  7133   0.710E-03    0.213E-03
DAV:   6    -0.181536386251E+03   -0.62744E-06   -0.37879E-07  5222   0.232E-03
  30 F= -.18508672E+03 E0= -.18508525E+03  d E =-.844099E-03
       N       E                     dE             d eps       ncg     rms          rms(c)
DAV:   1    -0.181536332232E+03    0.53391E-04   -0.10337E-03  6230   0.122E-01    0.818E-03
DAV:   2    -0.181536332405E+03   -0.17286E-06   -0.14574E-05  7455   0.145E-02    0.472E-03
DAV:   3    -0.181536332620E+03   -0.21461E-06   -0.23467E-06  6160   0.562E-03
  31 F= -.18508673E+03 E0= -.18508526E+03  d E =-.853728E-03
       N       E                     dE             d eps       ncg     rms          rms(c)
DAV:   1    -0.181535530643E+03    0.80176E-03   -0.34456E-02  5789   0.723E-01    0.492E-02
DAV:   2    -0.181535503117E+03    0.27526E-04   -0.61555E-04  7287   0.976E-02    0.272E-02
DAV:   3    -0.181535491782E+03    0.11335E-04   -0.90900E-05  7168   0.349E-02    0.907E-03
DAV:   4    -0.181535491070E+03    0.71157E-06   -0.12889E-05  7084   0.143E-02    0.392E-03
DAV:   5    -0.181535491504E+03   -0.43389E-06   -0.14904E-06  5012   0.470E-03
  32 F= -.18508701E+03 E0= -.18508556E+03  d E =-.274313E-03
       N       E                     dE             d eps       ncg     rms          rms(c)
DAV:   1    -0.181535640424E+03   -0.14935E-03   -0.55359E-04  6188   0.917E-02    0.632E-03
DAV:   2    -0.181535639604E+03    0.82020E-06   -0.98382E-06  7259   0.124E-02
  33 F= -.18508701E+03 E0= -.18508556E+03  d E =-.280421E-03
       N       E                     dE             d eps       ncg     rms          rms(c)
DAV:   1    -0.181535746268E+03   -0.10584E-03   -0.10348E-02  5782   0.398E-01    0.216E-02
DAV:   2    -0.181535747410E+03   -0.11424E-05   -0.14276E-04  7581   0.431E-02    0.126E-02
DAV:   3    -0.181535744052E+03    0.33580E-05   -0.12081E-05  7280   0.127E-02    0.326E-03
DAV:   4    -0.181535744105E+03   -0.52517E-07   -0.14889E-06  5523   0.431E-03
  34 F= -.18508715E+03 E0= -.18508570E+03  d E =-.136192E-03
       N       E                     dE             d eps       ncg     rms          rms(c)
DAV:   1    -0.181535744770E+03   -0.71770E-06   -0.19074E-03  5866   0.171E-01    0.942E-03
DAV:   2    -0.181535745031E+03   -0.26073E-06   -0.26384E-05  7518   0.186E-02    0.551E-03
DAV:   3    -0.181535744497E+03    0.53359E-06   -0.20728E-06  5565   0.547E-03
  35 F= -.18508716E+03 E0= -.18508572E+03  d E =-.150173E-03
       N       E                     dE             d eps       ncg     rms          rms(c)
DAV:   1    -0.181536269360E+03   -0.52433E-03   -0.94883E-03  5768   0.380E-01    0.243E-02
DAV:   2    -0.181536266342E+03    0.30180E-05   -0.17896E-04  7385   0.507E-02    0.140E-02
DAV:   3    -0.181536262109E+03    0.42329E-05   -0.23485E-05  6874   0.177E-02    0.421E-03
DAV:   4    -0.181536261601E+03    0.50823E-06   -0.35241E-06  5957   0.727E-03
  36 F= -.18508724E+03 E0= -.18508578E+03  d E =-.755131E-04
