 vasp.6.5.0 16Dec24 (build Jan 08 2025 16:17:04) complex                        
  
 executed on             LinuxIFC date 2026.01.16  17:21:49
 running   42 mpi-ranks, on    1 nodes
 distrk:  each k-point on   42 cores,    1 groups
 distr:  one band on NCORE=   6 cores,    7 groups


--------------------------------------------------------------------------------------------------------


 INCAR:
   SYSTEM = Parameters
   ISTART = 0
   ICHARG = 2
   PREC = Accurate
   ENCUT = 600
   LCHARG = .FALSE.
   LWAVE = .FALSE.
   ALGO = Normal
   NELM = 60
   EDIFF = 1E-6
   EDIFFG = -0.01
   SIGMA = 0.05
   ISMEAR = 0
   ISPIN = 1
   NSW = 300
   IBRION = 2
   POTIM = .5
   ISIF = 3
   LATTICE_CONSTRAINTS = .TRUE. .TRUE. .FALSE.
   NCORE = 6
   GGA = PE
   IVDW = 12
   LDIPOL = .TRUE.
   IDIPOL = 3
   DIPOL = 0.5 0.5 0.200879

 POTCAR:    PAW_PBE B 06Sep2000                   
 POTCAR:    PAW_PBE H 15Jun2001                   
 POTCAR:    PAW_PBE B 06Sep2000                   
   SHA256 =  a32ced30f5ae56fd4d10b4325ff17eb3e4e38ee0f4288bc219fb012fddfa6e97 B/POTCAR              
   COPYR  = (c) Copyright 06Sep2000 Georg Kresse                                                    
   COPYR  = This file is part of the software VASP. Any use, copying, and all other rights are regul
   COPYR  = If you do not have a valid VASP license, you may not use, copy or distribute this file. 
   VRHFIN =B: s2p1                                                                                  
   LEXCH  = PE                                                                                      
   EATOM  =    71.1703 eV,    5.2309 Ry                                                             
                                                                                                    
   TITEL  = PAW_PBE B 06Sep2000                                                                     
   LULTRA =        F    use ultrasoft PP ?                                                          
   IUNSCR =        1    unscreen: 0-lin 1-nonlin 2-no                                               
   RPACOR =    1.200    partial core radius                                                         
   POMASS =   10.811; ZVAL   =    3.000    mass and valenz                                          
   RCORE  =    1.700    outmost cutoff radius                                                       
   RWIGS  =    1.710; RWIGS  =    0.905    wigner-seitz radius (au A)                               
   ENMAX  =  318.614; ENMIN  =  238.960 eV                                                          
   ICORE  =        2    local potential                                                             
   LCOR   =        T    correct aug charges                                                         
   LPAW   =        T    paw PP                                                                      
   EAUG   =  535.514                                                                                
   DEXC   =    0.000                                                                                
   RMAX   =    1.732    core radius for proj-oper                                                   
   RAUG   =    1.300    factor for augmentation sphere                                              
   RDEP   =    1.757    radius for radial grids                                                     
   RDEPT  =    1.436    core radius for aug-charge                                                  
                                                                                                    
   Atomic configuration                                                                             
    4 entries                                                                                       
     n  l   j            E        occ.                                                              
     1  0  0.50      -180.5896   2.0000                                                             
     2  0  0.50        -9.4431   2.0000                                                             
     2  1  0.50        -3.6068   1.0000                                                             
     3  2  1.50        -4.0817   0.0000                                                             
   Description                                                                                      
     l       E           TYP  RCUT    TYP  RCUT                                                     
     0     -9.4430752     23  1.500                                                                 
     0      0.8675899     23  1.500                                                                 
     1     -3.6067955     23  1.700                                                                 
     1      6.1086146     23  1.700                                                                 
     2     -4.0817478      7  1.700                                                                 
  local pseudopotential read in
  partial core-charges read in
  partial kinetic energy density read in
  atomic valenz-charges read in
  non local Contribution for L=           0  read in
    real space projection operators read in
  non local Contribution for L=           0  read in
    real space projection operators read in
  non local Contribution for L=           1  read in
    real space projection operators read in
  non local Contribution for L=           1  read in
    real space projection operators read in
    PAW grid and wavefunctions read in
 
   number of l-projection  operators is LMAX  =           4
   number of lm-projection operators is LMMAX =           8
 
 POTCAR:    PAW_PBE H 15Jun2001                   
   SHA256 =  030f79b5d3ab3cf0e668861823c8fb652ff669f3e15e46930bd03bfd63a607b6 H/POTCAR              
   COPYR  = (c) Copyright 15Jun2001 Georg Kresse                                                    
   COPYR  = This file is part of the software VASP. Any use, copying, and all other rights are regul
   COPYR  = If you do not have a valid VASP license, you may not use, copy or distribute this file. 
   VRHFIN =H: ultrasoft test                                                                        
   LEXCH  = PE                                                                                      
   EATOM  =    12.4884 eV,    0.9179 Ry                                                             
                                                                                                    
   TITEL  = PAW_PBE H 15Jun2001                                                                     
   LULTRA =        F    use ultrasoft PP ?                                                          
   IUNSCR =        0    unscreen: 0-lin 1-nonlin 2-no                                               
   RPACOR =    0.000    partial core radius                                                         
   POMASS =    1.000; ZVAL   =    1.000    mass and valenz                                          
   RCORE  =    1.100    outmost cutoff radius                                                       
   RWIGS  =    0.700; RWIGS  =    0.370    wigner-seitz radius (au A)                               
   ENMAX  =  250.000; ENMIN  =  200.000 eV                                                          
   RCLOC  =    0.701    cutoff for local pot                                                        
   LCOR   =        T    correct aug charges                                                         
   LPAW   =        T    paw PP                                                                      
   EAUG   =  400.000                                                                                
   RMAX   =    1.123    core radius for proj-oper                                                   
   RAUG   =    1.200    factor for augmentation sphere                                              
   RDEP   =    1.112    radius for radial grids                                                     
   RDEPT  =    0.926    core radius for aug-charge                                                  
                                                                                                    
   Atomic configuration                                                                             
    2 entries                                                                                       
     n  l   j            E        occ.                                                              
     1  0  0.50        -6.4927   1.0000                                                             
     2  1  0.50        -3.4015   0.0000                                                             
   Description                                                                                      
     l       E           TYP  RCUT    TYP  RCUT                                                     
     0     -6.4927494     23  1.100                                                                 
     0      6.8029130     23  1.100                                                                 
     1     -4.0817478     23  1.100                                                                 
  local pseudopotential read in
  atomic valenz-charges read in
  non local Contribution for L=           0  read in
    real space projection operators read in
  non local Contribution for L=           0  read in
    real space projection operators read in
  non local Contribution for L=           1  read in
    real space projection operators read in
    PAW grid and wavefunctions read in
 
   number of l-projection  operators is LMAX  =           3
   number of lm-projection operators is LMMAX =           5
 
 -----------------------------------------------------------------------------
|                                                                             |
|               ----> ADVICE to this user running VASP <----                  |
|                                                                             |
|     You have a (more or less) 'large supercell' and for larger cells it     |
|     might be more efficient to use real-space projection operators.         |
|     Therefore, try LREAL= Auto in the INCAR file.                           |
|     Mind: For very accurate calculation, you might also keep the            |
|     reciprocal projection scheme (i.e. LREAL=.FALSE.).                      |
|                                                                             |
 -----------------------------------------------------------------------------

  PAW_PBE B 06Sep2000                   :
 energy of atom  1       EATOM=  -71.1703
 kinetic energy error for atom=    0.0007 (will be added to EATOM!!)
  PAW_PBE H 15Jun2001                   :
 energy of atom  2       EATOM=  -12.4884
 kinetic energy error for atom=    0.0004 (will be added to EATOM!!)
 
 
 POSCAR: o-B14 bilayer with Hydrogen bridge
  positions in direct lattice
  No initial velocities read in
 IVDW         = 12
 VDW_S6       =    1.0000
 VDW_S8       =    0.7875
 VDW_A1       =    0.4289
 VDW_A2       =    4.4407
 VDW_RADIUS   =   50.2022 A
 VDW_CNRADIUS =   21.1671 A


 exchange-correlation table for PE
   RHO(1)=    0.500       N(1)  =     2000
   RHO(2)=  100.500       N(2)  =     4000
 


--------------------------------------------------------------------------------------------------------


 ion  position               nearest neighbor table
   1  0.523  0.638  0.134-  27 1.64   9 1.67  25 1.69   3 1.71  21 1.84  17 1.86
   2  0.523  0.638  0.268-  28 1.64  10 1.67  26 1.69   4 1.71  18 1.84  22 1.86
   3  0.477  0.362  0.134-  25 1.64  11 1.67  27 1.69   1 1.71  19 1.84  23 1.86
   4  0.477  0.362  0.268-  26 1.64  12 1.67  28 1.69   2 1.71  24 1.84  20 1.86
   5  0.977  0.638  0.134-  27 1.64  13 1.67  25 1.69   7 1.71  21 1.84  17 1.86
   6  0.977  0.638  0.268-  28 1.64  14 1.67  26 1.69   8 1.71  18 1.84  22 1.86
   7  0.023  0.362  0.134-  25 1.64  15 1.67  27 1.69   5 1.71  19 1.84  23 1.86
   8  0.023  0.362  0.268-  26 1.64  16 1.67  28 1.69   6 1.71  24 1.84  20 1.86
   9  0.598  0.900  0.133-  11 1.66   1 1.67  13 1.73  21 1.80  17 1.81
  10  0.598  0.900  0.269-  12 1.66   2 1.67  14 1.73  18 1.80  22 1.81
  11  0.402  0.100  0.133-   9 1.66   3 1.67  15 1.73  19 1.80  23 1.81
  12  0.402  0.100  0.269-  10 1.66   4 1.67  16 1.73  24 1.80  20 1.81
  13  0.902  0.900  0.133-  15 1.66   5 1.67   9 1.73  21 1.80  17 1.81
  14  0.902  0.900  0.269-  16 1.66   6 1.67  10 1.73  18 1.80  22 1.81
  15  0.098  0.100  0.133-  13 1.66   7 1.67  11 1.73  19 1.80  23 1.81
  16  0.098  0.100  0.269-  14 1.66   8 1.67  12 1.73  24 1.80  20 1.81
  17  0.750  0.733  0.174-  22 1.65   9 1.81  13 1.81   1 1.86   5 1.86  27 1.99
  18  0.750  0.729  0.308-  10 1.80  14 1.80   2 1.84   6 1.84  28 1.97
  19  0.250  0.271  0.094-  15 1.80  11 1.80   7 1.84   3 1.84  25 1.97
  20  0.250  0.267  0.228-  23 1.65  16 1.81  12 1.81   8 1.86   4 1.86  26 1.99
  21  0.750  0.729  0.094-   9 1.80  13 1.80   1 1.84   5 1.84  27 1.97
  22  0.750  0.733  0.228-  17 1.65  10 1.81  14 1.81   2 1.86   6 1.86  28 1.99
  23  0.250  0.267  0.174-  20 1.65  15 1.81  11 1.81   7 1.86   3 1.86  25 1.99
  24  0.250  0.271  0.308-  16 1.80  12 1.80   8 1.84   4 1.84  26 1.97
  25  0.250  0.526  0.134-   7 1.64   3 1.64   5 1.69   1 1.69  19 1.97  23 1.99
  26  0.250  0.526  0.268-   8 1.64   4 1.64   6 1.69   2 1.69  24 1.97  20 1.99
  27  0.750  0.474  0.134-   1 1.64   5 1.64   3 1.69   7 1.69  21 1.97  17 1.99
  28  0.750  0.474  0.268-   2 1.64   6 1.64   4 1.69   8 1.69  18 1.97  22 1.99
  29  0.500  0.500  0.054-
  30  0.500  0.500  0.347-
 
  LATTYP: Found a simple orthorhombic cell.
 ALAT       =     5.6799960512
 B/A-ratio  =     1.0822386373
 C/A-ratio  =     5.2972073175
  
  Lattice vectors:
  
 A1 = (   5.6799960512,   0.0000000000,   0.0000000000)
 A2 = (   0.0000000000,   6.1471111863,   0.0000000000)
 A3 = (   0.0000000000,   0.0000000000,  30.0881166460)


Analysis of symmetry for initial positions (statically):
=====================================================================
 Subroutine PRICEL returns:
 Original cell was already a primitive cell.
 

 Routine SETGRP: Setting up the symmetry group for a 
 simple orthorhombic supercell.


 Subroutine GETGRP returns: Found  4 space group operations
 (whereof  2 operations were pure point group operations)
 out of a pool of  8 trial point group operations.


The static configuration has the point symmetry C_2 .
 The point group associated with its full space group is C_2h.


Analysis of symmetry for dynamics (positions and initial velocities):
=====================================================================
 Subroutine PRICEL returns:
 Original cell was already a primitive cell.
 

 Routine SETGRP: Setting up the symmetry group for a 
 simple orthorhombic supercell.


 Subroutine GETGRP returns: Found  4 space group operations
 (whereof  2 operations were pure point group operations)
 out of a pool of  8 trial point group operations.


The dynamic configuration has the point symmetry C_2 .
 The point group associated with its full space group is C_2h.


 Subroutine INISYM returns: Found  4 space group operations
 (whereof  2 operations are pure point group operations),
 and found     1 'primitive' translations


----------------------------------------------------------------------------------------

                                     Primitive cell                                     

  volume of cell :    1050.5437

  direct lattice vectors                    reciprocal lattice vectors
     5.679996051  0.000000000  0.000000000     0.176056460  0.000000000  0.000000000
     0.000000000  6.147111186  0.000000000     0.000000000  0.162678040  0.000000000
     0.000000000  0.000000000 30.088116646     0.000000000  0.000000000  0.033235713

  length of vectors
     5.679996051  6.147111186 30.088116646     0.176056460  0.162678040  0.033235713

  position of ions in fractional coordinates (direct lattice)
     0.522544594  0.637722951  0.133576343
     0.522544594  0.637722951  0.268180829
     0.477455406  0.362277049  0.133576343
     0.477455406  0.362277049  0.268180829
     0.977455406  0.637722951  0.133576343
     0.977455406  0.637722951  0.268180829
     0.022544594  0.362277049  0.133576343
     0.022544594  0.362277049  0.268180829
     0.598003454  0.900119093  0.132944581
     0.598003454  0.900119093  0.268812591
     0.401996546  0.099880900  0.132944581
     0.401996546  0.099880900  0.268812591
     0.901996546  0.900119093  0.132944581
     0.901996546  0.900119093  0.268812591
     0.098003454  0.099880900  0.132944581
     0.098003454  0.099880900  0.268812591
     0.750000000  0.733356163  0.173537855
     0.750000000  0.728793644  0.307767495
     0.250000000  0.271206356  0.093989678
     0.250000000  0.266643837  0.228219319
     0.750000000  0.728793644  0.093989678
     0.750000000  0.733356163  0.228219319
     0.250000000  0.266643837  0.173537855
     0.250000000  0.271206356  0.307767495
     0.250000000  0.525736376  0.133717215
     0.250000000  0.525736376  0.268039956
     0.750000000  0.474263595  0.133717215
     0.750000000  0.474263595  0.268039956
     0.500000000  0.500000000  0.054498269
     0.500000000  0.500000000  0.347258905

  ion indices of the primitive-cell ions
   primitive index   ion index
                 1           1
                 2           2
                 3           3
                 4           4
                 5           5
                 6           6
                 7           7
                 8           8
                 9           9
                10          10
                11          11
                12          12
                13          13
                14          14
                15          15
                16          16
                17          17
                18          18
                19          19
                20          20
                21          21
                22          22
                23          23
                24          24
                25          25
                26          26
                27          27
                28          28
                29          29
                30          30

----------------------------------------------------------------------------------------

 
 
 KPOINTS: k-points                                

Automatic generation of k-mesh.
 Grid dimensions read from file:
 generate k-points for:   10    9    1

 Generating k-lattice:

  Cartesian coordinates                     Fractional coordinates (reciprocal lattice)
     0.017605646  0.000000000  0.000000000     0.100000000  0.000000000  0.000000000
     0.000000000  0.018075338  0.000000000     0.000000000  0.111111111  0.000000000
     0.000000000  0.000000000  0.033235713     0.000000000  0.000000000  1.000000000

  Length of vectors
     0.017605646  0.018075338  0.033235713

  Shift w.r.t. Gamma in fractional coordinates (k-lattice)
     0.500000000  0.000000000  0.000000000

 
 Subroutine IBZKPT returns following result:
 ===========================================
 
 Found     45 irreducible k-points:
 
 Following reciprocal coordinates:
            Coordinates               Weight
  0.050000  0.000000  0.000000      2.000000
  0.150000  0.000000  0.000000      2.000000
  0.250000  0.000000  0.000000      2.000000
  0.350000  0.000000  0.000000      2.000000
  0.450000  0.000000  0.000000      2.000000
  0.050000  0.111111  0.000000      2.000000
  0.050000 -0.111111  0.000000      2.000000
  0.150000  0.111111  0.000000      2.000000
  0.150000 -0.111111  0.000000      2.000000
  0.250000  0.111111  0.000000      2.000000
  0.250000 -0.111111  0.000000      2.000000
  0.350000  0.111111  0.000000      2.000000
  0.350000 -0.111111  0.000000      2.000000
  0.450000  0.111111  0.000000      2.000000
  0.450000 -0.111111  0.000000      2.000000
  0.050000  0.222222  0.000000      2.000000
  0.050000 -0.222222  0.000000      2.000000
  0.150000  0.222222  0.000000      2.000000
  0.150000 -0.222222  0.000000      2.000000
  0.250000  0.222222  0.000000      2.000000
  0.250000 -0.222222  0.000000      2.000000
  0.350000  0.222222  0.000000      2.000000
  0.350000 -0.222222  0.000000      2.000000
  0.450000  0.222222  0.000000      2.000000
  0.450000 -0.222222  0.000000      2.000000
  0.050000  0.333333  0.000000      2.000000
  0.050000 -0.333333  0.000000      2.000000
  0.150000  0.333333  0.000000      2.000000
  0.150000 -0.333333  0.000000      2.000000
  0.250000  0.333333  0.000000      2.000000
  0.250000 -0.333333  0.000000      2.000000
  0.350000  0.333333  0.000000      2.000000
  0.350000 -0.333333  0.000000      2.000000
  0.450000  0.333333  0.000000      2.000000
  0.450000 -0.333333  0.000000      2.000000
  0.050000  0.444444  0.000000      2.000000
  0.050000 -0.444444  0.000000      2.000000
  0.150000  0.444444  0.000000      2.000000
  0.150000 -0.444444  0.000000      2.000000
  0.250000  0.444444  0.000000      2.000000
  0.250000 -0.444444  0.000000      2.000000
  0.350000  0.444444  0.000000      2.000000
  0.350000 -0.444444  0.000000      2.000000
  0.450000  0.444444  0.000000      2.000000
  0.450000 -0.444444  0.000000      2.000000
 
 Following cartesian coordinates:
            Coordinates               Weight
  0.008803  0.000000  0.000000      2.000000
  0.026408  0.000000  0.000000      2.000000
  0.044014  0.000000  0.000000      2.000000
  0.061620  0.000000  0.000000      2.000000
  0.079225  0.000000  0.000000      2.000000
  0.008803  0.018075  0.000000      2.000000
  0.008803 -0.018075  0.000000      2.000000
  0.026408  0.018075  0.000000      2.000000
  0.026408 -0.018075  0.000000      2.000000
  0.044014  0.018075  0.000000      2.000000
  0.044014 -0.018075  0.000000      2.000000
  0.061620  0.018075  0.000000      2.000000
  0.061620 -0.018075  0.000000      2.000000
  0.079225  0.018075  0.000000      2.000000
  0.079225 -0.018075  0.000000      2.000000
  0.008803  0.036151  0.000000      2.000000
  0.008803 -0.036151  0.000000      2.000000
  0.026408  0.036151  0.000000      2.000000
  0.026408 -0.036151  0.000000      2.000000
  0.044014  0.036151  0.000000      2.000000
  0.044014 -0.036151  0.000000      2.000000
  0.061620  0.036151  0.000000      2.000000
  0.061620 -0.036151  0.000000      2.000000
  0.079225  0.036151  0.000000      2.000000
  0.079225 -0.036151  0.000000      2.000000
  0.008803  0.054226  0.000000      2.000000
  0.008803 -0.054226  0.000000      2.000000
  0.026408  0.054226  0.000000      2.000000
  0.026408 -0.054226  0.000000      2.000000
  0.044014  0.054226  0.000000      2.000000
  0.044014 -0.054226  0.000000      2.000000
  0.061620  0.054226  0.000000      2.000000
  0.061620 -0.054226  0.000000      2.000000
  0.079225  0.054226  0.000000      2.000000
  0.079225 -0.054226  0.000000      2.000000
  0.008803  0.072301  0.000000      2.000000
  0.008803 -0.072301  0.000000      2.000000
  0.026408  0.072301  0.000000      2.000000
  0.026408 -0.072301  0.000000      2.000000
  0.044014  0.072301  0.000000      2.000000
  0.044014 -0.072301  0.000000      2.000000
  0.061620  0.072301  0.000000      2.000000
  0.061620 -0.072301  0.000000      2.000000
  0.079225  0.072301  0.000000      2.000000
  0.079225 -0.072301  0.000000      2.000000
 


--------------------------------------------------------------------------------------------------------




 Dimension of arrays:
   k-points           NKPTS =     45   k-points in BZ     NKDIM =     45   number of bands    NBANDS=     63
   number of dos      NEDOS =    301   number of ions     NIONS =     30
   non local maximal  LDIM  =      4   non local SUM 2l+1 LMDIM =      8
   total plane-waves  NPLWV = 576000
   max r-space proj   IRMAX =      1   max aug-charges    IRDMAX=   8749
   dimension x,y,z NGX =    48 NGY =   50 NGZ =  240
   dimension x,y,z NGXF=    96 NGYF=  100 NGZF=  480
   support grid    NGXF=    96 NGYF=  100 NGZF=  480
   ions per type =              28   2
   NGX,Y,Z   is equivalent  to a cutoff of  14.05, 13.52, 13.26 a.u.
   NGXF,Y,Z  is equivalent  to a cutoff of  28.10, 27.04, 26.52 a.u.

 SYSTEM =  Parameters                              
 POSCAR =  o-B14 bilayer with Hydrogen bridge      

 Startparameter for this run:
   NWRITE =      2    write-flag & timer
   PREC   = accura    normal or accurate (medium, high low for compatibility)
   ISTART =      0    job   : 0-new  1-cont  2-samecut
   ICHARG =      2    charge: 1-file 2-atom 10-const
   ISPIN  =      1    spin polarized calculation?
   LNONCOLLINEAR =      F non collinear calculations
   LSORBIT =      F    spin-orbit coupling
   INIWAV =      1    electr: 0-lowe 1-rand  2-diag
   LASPH  =      F    aspherical Exc in radial PAW
 Electronic Relaxation 1
   ENCUT  =  600.0 eV  44.10 Ry    6.64 a.u.  11.34 12.28 60.09*2*pi/ulx,y,z
   ENINI  =  600.0     initial cutoff
   ENAUG  =  535.5 eV  augmentation charge cutoff
   NELM   =     60;   NELMIN=  2; NELMDL= -5     # of ELM steps 
   EDIFF  = 0.1E-05   stopping-criterion for ELM
   LREAL  =      F    real-space projection
   NLSPLINE    = F    spline interpolate recip. space projectors
   LCOMPAT=      F    compatible to vasp.4.4
   GGA_COMPAT  = T    GGA compatible to vasp.4.4-vasp.4.6
   LMAXPAW     = -100 max onsite density
   LMAXMIX     =    2 max onsite mixed and CHGCAR
   VOSKOWN=      0    Vosko Wilk Nusair interpolation
   ROPT   =    0.00000   0.00000
 Ionic relaxation
   EDIFFG = -.1E-01   stopping-criterion for IOM
   NSW    =    300    number of steps for IOM
   NBLOCK =      1;   KBLOCK =    300    inner block; outer block 
   IBRION =      2    ionic relax: 0-MD 1-quasi-New 2-CG
   NFREE  =      1    steps in history (QN), initial steepest desc. (CG)
   ISIF   =      3    stress and relaxation
   IWAVPR =     11    prediction:  0-non 1-charg 2-wave 3-comb
   ISYM   =      2    0-nonsym 1-usesym 2-fastsym
   LCORR  =      T    Harris-Foulkes like correction to forces

   POTIM  = 0.5000    time-step for ionic-motion
   TEIN   =    0.0    initial temperature
   TEBEG  =    0.0;   TEEND  =   0.0 temperature during run
   SMASS  =  -3.00    Nose mass-parameter (am)
   estimated Nose-frequenzy (Omega)   =  0.10E-29 period in steps = 0.13E+47 mass=  -0.737E-27a.u.
   SCALEE = 1.0000    scale energy and forces
   NPACO  =    256;   APACO  = 10.0  distance and # of slots for P.C.
   PSTRESS=    0.0 pullay stress

  Mass of Ions in am
   POMASS =  10.81  1.00
  Ionic Valenz
   ZVAL   =   3.00  1.00
  Atomic Wigner-Seitz radii
   RWIGS  =  -1.00 -1.00
  virtual crystal weights 
   VCA    =   1.00  1.00
   NELECT =      86.0000    total number of electrons
   NUPDOWN=      -1.0000    fix difference up-down

 DOS related values:
   EMIN   =  10.00;   EMAX   =-10.00  energy-range for DOS
   EFERMI =   0.00;   METHOD = LEGACY      
   ISMEAR =     0;   SIGMA  =   0.05  broadening in eV -4-tet -1-fermi 0-gaus
   EFERMI_NEDOS =   21; number of points for ismear=-14 and -15

 Electronic relaxation 2 (details)
   IALGO  =     38    algorithm
   LDIAG  =      T    sub-space diagonalisation (order eigenvalues)
   LSUBROT=      F    optimize rotation matrix (better conditioning)
   TURBO    =      0    0=normal 1=particle mesh
   IRESTART =      0    0=no restart 2=restart with 2 vectors
   NREBOOT  =      0    no. of reboots
   NMIN     =      0    reboot dimension
   EREF     =   0.00    reference energy to select bands
   IMIX   =      4    mixing-type and parameters
     AMIX     =   0.40;   BMIX     =  1.00
     AMIX_MAG =   1.60;   BMIX_MAG =  1.00
     AMIN     =   0.10
     WC   =   100.;   INIMIX=   1;  MIXPRE=   1;  MAXMIX= -45

 Intra band minimization:
   WEIMIN = 0.0010     energy-eigenvalue tresh-hold
   EBREAK =  0.40E-08  absolut break condition
   DEPER  =   0.30     relativ break condition  

   TIME   =   0.40     timestep for ELM

  volume/ion in A,a.u.               =      35.02       236.31
  Fermi-wavevector in a.u.,A,eV,Ry     =   0.710836  1.343286  6.874864  0.505288
  Thomas-Fermi vector in A             =   1.797789
 
 Write flags
   LWAVE        =      F    write WAVECAR
   LDOWNSAMPLE  =      F    k-point downsampling of WAVECAR
   LCHARG       =      F    write CHGCAR
   LVTOT        =      F    write LOCPOT, total local potential
   LVHAR        =      F    write LOCPOT, Hartree potential only
   WRT_POTENTIAL= false  ! write potential to hdf5 file
   LELF         =      F    write electronic localiz. function (ELF)
   LORBIT       =      0    0 simple, 1 ext, 2 COOP (PROOUT), +10 PAW based schemes


 Python interface
   PLUGINS active      =      F    recompile with -DPLUGINS to activate
 
 Dipole corrections
   LMONO      =      F    monopole corrections only (constant potential shift)
   LDIPOL     =      T    correct potential (dipole corrections)
   IDIPOL     =      3    1-x, 2-y, 3-z, 4-all directions 
   EPSILON    =  1.0000000 bulk dielectric constant
   LVACPOTAV  =      F  vacuum potentials using an averaging scheme for the charge density
   VACPOTFLAT =  0.1000000 required flatness to determine vacuum potential
 
Coulomb truncation method
  LTRUNCATE          =      F  Coulomb kernel truncation to be used
  IDIMENSIONALITY    =      3  Dimensionality of cutoff (0 molecules / 2 surfaces)
  ISURFACE           =     -1  Direction of surface normal
  LCOARSEN           =      F  Coarsen the charge grid before padding, preferred

 
 Exchange correlation treatment:
   GGA     = PE    functional components
   XC_C    = 1    coefficients multiplying the functional components
   LIBXC   =     F    Libxc                    
   VOSKOWN =     0    Vosko Wilk Nusair interpolation
   LHFCALC =     F    Hartree Fock is set to
   LHFONE  =     F    Hartree Fock one center treatment
   AEXX    =    0.0000 exact exchange contribution

 Parameters of functionals:
   PE:
     No parameter
 
 Van der Waals corrections
   IVDW    =    12    specifies the selected vdW correction

 Linear response parameters
   LEPSILON=     F    determine dielectric tensor
   LRPA    =     F    only Hartree local field effects (RPA)
   LNABLA  =     F    use nabla operator in PAW spheres
   LVEL    =     F    velocity operator in full k-point grid
   CSHIFT  =0.1000    complex shift for real part using Kramers Kronig
   OMEGAMAX=  -1.0    maximum frequency
   DEG_THRESHOLD= 0.2000000E-02 threshold for treating states as degnerate
   RTIME   =   -0.100 relaxation time in fs
  (WPLASMAI=    0.000 imaginary part of plasma frequency in eV, 0.658/RTIME)
   DFIELD  = 0.0000000 0.0000000 0.0000000 field for delta impulse in time
 
  Optional k-point grid parameters
   LKPOINTS_OPT  =     F    use optional k-point grid
   KPOINTS_OPT_MODE=     1    mode for optional k-point grid
 
 Orbital magnetization related:
   ORBITALMAG=     F  switch on orbital magnetization
   LCHIMAG   =     F  perturbation theory with respect to B field
   DQ        =  0.001000  dq finite difference perturbation B field
   LLRAUG    =     F  two centre corrections for induced B field
   LBONE     =     F  B-component reconstruction in AE one-centre
   LVGVCALC  =     T  calculate vGv susceptibility
   LVGVAPPL  =     F  apply vGv susceptibility instead of pGv for G=0

 Random number generation:
   RANDOM_GENERATOR = DEFAULT
   PCG_SEED         = not used


--------------------------------------------------------------------------------------------------------


 conjugate gradient relaxation of ions
 charge density and potential will be updated during run
 non-spin polarized calculation
 Variant of blocked Davidson
 Davidson routine will perform the subspace rotation
 perform sub-space diagonalisation
    after iterative eigenvector-optimisation
 modified Broyden-mixing scheme, WC =      100.0
 initial mixing is a Kerker type mixing with AMIX =  0.4000 and BMIX =      1.0000
 Hartree-type preconditioning will be used
 using additional bands           20
 reciprocal scheme for non local part
 use partial core corrections
 calculate Harris-corrections to forces 
   (improved forces if not selfconsistent)
 use gradient corrections 
 use of overlap-Matrix (Vanderbilt PP)
 Gauss-broadening in eV      SIGMA  =   0.05


--------------------------------------------------------------------------------------------------------


  energy-cutoff  :      600.00
  volume of cell :     1050.54
      direct lattice vectors                 reciprocal lattice vectors
     5.679996051  0.000000000  0.000000000     0.176056460  0.000000000  0.000000000
     0.000000000  6.147111186  0.000000000     0.000000000  0.162678040  0.000000000
     0.000000000  0.000000000 30.088116646     0.000000000  0.000000000  0.033235713

  length of vectors
     5.679996051  6.147111186 30.088116646     0.176056460  0.162678040  0.033235713


 
 k-points in units of 2pi/SCALE and weight: k-points                                
   0.00880282  0.00000000  0.00000000       0.022
   0.02640847  0.00000000  0.00000000       0.022
   0.04401412  0.00000000  0.00000000       0.022
   0.06161976  0.00000000  0.00000000       0.022
   0.07922541  0.00000000  0.00000000       0.022
   0.00880282  0.01807534  0.00000000       0.022
   0.00880282 -0.01807534  0.00000000       0.022
   0.02640847  0.01807534  0.00000000       0.022
   0.02640847 -0.01807534  0.00000000       0.022
   0.04401412  0.01807534  0.00000000       0.022
   0.04401412 -0.01807534  0.00000000       0.022
   0.06161976  0.01807534  0.00000000       0.022
   0.06161976 -0.01807534  0.00000000       0.022
   0.07922541  0.01807534  0.00000000       0.022
   0.07922541 -0.01807534  0.00000000       0.022
   0.00880282  0.03615068  0.00000000       0.022
   0.00880282 -0.03615068  0.00000000       0.022
   0.02640847  0.03615068  0.00000000       0.022
   0.02640847 -0.03615068  0.00000000       0.022
   0.04401412  0.03615068  0.00000000       0.022
   0.04401412 -0.03615068  0.00000000       0.022
   0.06161976  0.03615068  0.00000000       0.022
   0.06161976 -0.03615068  0.00000000       0.022
   0.07922541  0.03615068  0.00000000       0.022
   0.07922541 -0.03615068  0.00000000       0.022
   0.00880282  0.05422601  0.00000000       0.022
   0.00880282 -0.05422601  0.00000000       0.022
   0.02640847  0.05422601  0.00000000       0.022
   0.02640847 -0.05422601  0.00000000       0.022
   0.04401412  0.05422601  0.00000000       0.022
   0.04401412 -0.05422601  0.00000000       0.022
   0.06161976  0.05422601  0.00000000       0.022
   0.06161976 -0.05422601  0.00000000       0.022
   0.07922541  0.05422601  0.00000000       0.022
   0.07922541 -0.05422601  0.00000000       0.022
   0.00880282  0.07230135  0.00000000       0.022
   0.00880282 -0.07230135  0.00000000       0.022
   0.02640847  0.07230135  0.00000000       0.022
   0.02640847 -0.07230135  0.00000000       0.022
   0.04401412  0.07230135  0.00000000       0.022
   0.04401412 -0.07230135  0.00000000       0.022
   0.06161976  0.07230135  0.00000000       0.022
   0.06161976 -0.07230135  0.00000000       0.022
   0.07922541  0.07230135  0.00000000       0.022
   0.07922541 -0.07230135  0.00000000       0.022
 
 k-points in reciprocal lattice and weights: k-points                                
   0.05000000  0.00000000  0.00000000       0.022
   0.15000000  0.00000000  0.00000000       0.022
   0.25000000  0.00000000  0.00000000       0.022
   0.35000000  0.00000000  0.00000000       0.022
   0.45000000  0.00000000  0.00000000       0.022
   0.05000000  0.11111111  0.00000000       0.022
   0.05000000 -0.11111111  0.00000000       0.022
   0.15000000  0.11111111  0.00000000       0.022
   0.15000000 -0.11111111  0.00000000       0.022
   0.25000000  0.11111111  0.00000000       0.022
   0.25000000 -0.11111111  0.00000000       0.022
   0.35000000  0.11111111  0.00000000       0.022
   0.35000000 -0.11111111  0.00000000       0.022
   0.45000000  0.11111111  0.00000000       0.022
   0.45000000 -0.11111111  0.00000000       0.022
   0.05000000  0.22222222  0.00000000       0.022
   0.05000000 -0.22222222  0.00000000       0.022
   0.15000000  0.22222222  0.00000000       0.022
   0.15000000 -0.22222222  0.00000000       0.022
   0.25000000  0.22222222  0.00000000       0.022
   0.25000000 -0.22222222  0.00000000       0.022
   0.35000000  0.22222222  0.00000000       0.022
   0.35000000 -0.22222222  0.00000000       0.022
   0.45000000  0.22222222  0.00000000       0.022
   0.45000000 -0.22222222  0.00000000       0.022
   0.05000000  0.33333333  0.00000000       0.022
   0.05000000 -0.33333333  0.00000000       0.022
   0.15000000  0.33333333  0.00000000       0.022
   0.15000000 -0.33333333  0.00000000       0.022
   0.25000000  0.33333333  0.00000000       0.022
   0.25000000 -0.33333333  0.00000000       0.022
   0.35000000  0.33333333  0.00000000       0.022
   0.35000000 -0.33333333  0.00000000       0.022
   0.45000000  0.33333333  0.00000000       0.022
   0.45000000 -0.33333333  0.00000000       0.022
   0.05000000  0.44444444  0.00000000       0.022
   0.05000000 -0.44444444  0.00000000       0.022
   0.15000000  0.44444444  0.00000000       0.022
   0.15000000 -0.44444444  0.00000000       0.022
   0.25000000  0.44444444  0.00000000       0.022
   0.25000000 -0.44444444  0.00000000       0.022
   0.35000000  0.44444444  0.00000000       0.022
   0.35000000 -0.44444444  0.00000000       0.022
   0.45000000  0.44444444  0.00000000       0.022
   0.45000000 -0.44444444  0.00000000       0.022
 
 position of ions in fractional coordinates (direct lattice) 
   0.52254459  0.63772295  0.13357634
   0.52254459  0.63772295  0.26818083
   0.47745541  0.36227705  0.13357634
   0.47745541  0.36227705  0.26818083
   0.97745541  0.63772295  0.13357634
   0.97745541  0.63772295  0.26818083
   0.02254459  0.36227705  0.13357634
   0.02254459  0.36227705  0.26818083
   0.59800345  0.90011909  0.13294458
   0.59800345  0.90011909  0.26881259
   0.40199655  0.09988090  0.13294458
   0.40199655  0.09988090  0.26881259
   0.90199655  0.90011909  0.13294458
   0.90199655  0.90011909  0.26881259
   0.09800345  0.09988090  0.13294458
   0.09800345  0.09988090  0.26881259
   0.75000000  0.73335616  0.17353786
   0.75000000  0.72879364  0.30776750
   0.25000000  0.27120636  0.09398968
   0.25000000  0.26664384  0.22821932
   0.75000000  0.72879364  0.09398968
   0.75000000  0.73335616  0.22821932
   0.25000000  0.26664384  0.17353786
   0.25000000  0.27120636  0.30776750
   0.25000000  0.52573638  0.13371722
   0.25000000  0.52573638  0.26803996
   0.75000000  0.47426359  0.13371722
   0.75000000  0.47426359  0.26803996
   0.50000000  0.50000000  0.05449827
   0.50000000  0.50000000  0.34725890
 
 position of ions in cartesian coordinates  (Angst):
   2.96805123  3.92015388  4.01906059
   2.96805123  3.92015388  8.06905606
   2.71194482  2.22695730  4.01906059
   2.71194482  2.22695730  8.06905606
   5.55194285  3.92015388  4.01906059
   5.55194285  3.92015388  8.06905606
   0.12805320  2.22695730  4.01906059
   0.12805320  2.22695730  8.06905606
   3.39665726  5.53313214  4.00005206
   3.39665726  5.53313214  8.08806459
   2.28333879  0.61397900  4.00005206
   2.28333879  0.61397900  8.08806459
   5.12333682  5.53313214  4.00005206
   5.12333682  5.53313214  8.08806459
   0.55665923  0.61397900  4.00005206
   0.55665923  0.61397900  8.08806459
   4.25999704  4.50802188  5.22142723
   4.25999704  4.47997556  9.26014430
   1.41999901  1.66713563  2.82797241
   1.41999901  1.63908931  6.86668948
   4.25999704  4.47997556  2.82797241
   4.25999704  4.50802188  6.86668948
   1.41999901  1.63908931  5.22142723
   1.41999901  1.66713563  9.26014430
   1.41999901  3.23175996  4.02329917
   1.41999901  3.23175996  8.06481747
   4.25999704  2.91535105  4.02329917
   4.25999704  2.91535105  8.06481747
   2.83999803  3.07355559  1.63975028
   2.83999803  3.07355559 10.44836643
 


--------------------------------------------------------------------------------------------------------


 k-point     1 :   0.0500 0.0000 0.0000  plane waves:   35083
 k-point     2 :   0.1500 0.0000 0.0000  plane waves:   35105
 k-point     3 :   0.2500 0.0000 0.0000  plane waves:   35059
 k-point     4 :   0.3500 0.0000 0.0000  plane waves:   35022
 k-point     5 :   0.4500 0.0000 0.0000  plane waves:   35038
 k-point     6 :   0.0500 0.1111 0.0000  plane waves:   35080
 k-point     7 :   0.0500-0.1111 0.0000  plane waves:   35080
 k-point     8 :   0.1500 0.1111 0.0000  plane waves:   35087
 k-point     9 :   0.1500-0.1111 0.0000  plane waves:   35087
 k-point    10 :   0.2500 0.1111 0.0000  plane waves:   35064
 k-point    11 :   0.2500-0.1111 0.0000  plane waves:   35064
 k-point    12 :   0.3500 0.1111 0.0000  plane waves:   35049
 k-point    13 :   0.3500-0.1111 0.0000  plane waves:   35049
 k-point    14 :   0.4500 0.1111 0.0000  plane waves:   35077
 k-point    15 :   0.4500-0.1111 0.0000  plane waves:   35077
 k-point    16 :   0.0500 0.2222 0.0000  plane waves:   35084
 k-point    17 :   0.0500-0.2222 0.0000  plane waves:   35084
 k-point    18 :   0.1500 0.2222 0.0000  plane waves:   35091
 k-point    19 :   0.1500-0.2222 0.0000  plane waves:   35091
 k-point    20 :   0.2500 0.2222 0.0000  plane waves:   35064
 k-point    21 :   0.2500-0.2222 0.0000  plane waves:   35064
 k-point    22 :   0.3500 0.2222 0.0000  plane waves:   35032
 k-point    23 :   0.3500-0.2222 0.0000  plane waves:   35032
 k-point    24 :   0.4500 0.2222 0.0000  plane waves:   35009
 k-point    25 :   0.4500-0.2222 0.0000  plane waves:   35009
 k-point    26 :   0.0500 0.3333 0.0000  plane waves:   35096
 k-point    27 :   0.0500-0.3333 0.0000  plane waves:   35096
 k-point    28 :   0.1500 0.3333 0.0000  plane waves:   35067
 k-point    29 :   0.1500-0.3333 0.0000  plane waves:   35067
 k-point    30 :   0.2500 0.3333 0.0000  plane waves:   35070
 k-point    31 :   0.2500-0.3333 0.0000  plane waves:   35070
 k-point    32 :   0.3500 0.3333 0.0000  plane waves:   35011
 k-point    33 :   0.3500-0.3333 0.0000  plane waves:   35011
 k-point    34 :   0.4500 0.3333 0.0000  plane waves:   35033
 k-point    35 :   0.4500-0.3333 0.0000  plane waves:   35033
 k-point    36 :   0.0500 0.4444 0.0000  plane waves:   35060
 k-point    37 :   0.0500-0.4444 0.0000  plane waves:   35060
 k-point    38 :   0.1500 0.4444 0.0000  plane waves:   35023
 k-point    39 :   0.1500-0.4444 0.0000  plane waves:   35023
 k-point    40 :   0.2500 0.4444 0.0000  plane waves:   35066
 k-point    41 :   0.2500-0.4444 0.0000  plane waves:   35066
 k-point    42 :   0.3500 0.4444 0.0000  plane waves:   35053
 k-point    43 :   0.3500-0.4444 0.0000  plane waves:   35053
 k-point    44 :   0.4500 0.4444 0.0000  plane waves:   35083
 k-point    45 :   0.4500-0.4444 0.0000  plane waves:   35083

 maximum and minimum number of plane-waves per node :      5925     5765

 maximum number of plane-waves:     35105
 maximum index in each direction: 
   IXMAX=   11   IYMAX=   12   IZMAX=   60
   IXMIN=  -11   IYMIN=  -12   IZMIN=  -60


 parallel 3D FFT for wavefunctions:
    minimum data exchange during FFTs selected (reduces bandwidth)
 parallel 3D FFT for charge:
    minimum data exchange during FFTs selected (reduces bandwidth)


 total amount of memory used by VASP MPI-rank0   124109. kBytes
=======================================================================

   base                                    :      30000. kBytes
   nonl-proj                               :      36516. kBytes
   fftplans                                :       7451. kBytes
   grid                                    :      11934. kBytes
   one-center                              :         15. kBytes
   wavefun                                 :      38193. kBytes
 
     INWAV:  cpu time      0.0000: real time      0.0006
 Broyden mixing: mesh for mixing (old mesh)
   NGX = 23   NGY = 25   NGZ =121
  (NGX  = 96   NGY  =100   NGZ  =480)
  gives a total of  69575 points

 initial charge density was supplied:
 charge density of overlapping atoms calculated
 number of electron      86.0000000 magnetization 
 keeping initial charge density in first step


--------------------------------------------------------------------------------------------------------


 Maximum index for augmentation-charges          697 (set IRDMAX)


--------------------------------------------------------------------------------------------------------


 First call to EWALD:  gamma=   0.174
 Maximum number of real-space cells   5x   4x   1
 Maximum number of reciprocal cells   2x   2x   7

    FEWALD:  cpu time      0.0014: real time      0.0014


--------------------------------------- Ionic step        1  -------------------------------------------




--------------------------------------- Iteration      1(   1)  ---------------------------------------


    POTLOK:  cpu time      0.0778: real time      0.0785
    SETDIJ:  cpu time      0.0016: real time      0.0016
     EDDAV:  cpu time     10.6111: real time     10.6853
       DOS:  cpu time      0.0005: real time      0.0005
    --------------------------------------------
      LOOP:  cpu time     10.6913: real time     10.7662

 eigenvalue-minimisations  :  5670
 total energy-change (2. order) : 0.6371416E+03  (-0.3211132E+04)
 number of electron      86.0000000 magnetization 
 augmentation part       86.0000000 magnetization 

 DIPCOR: dipole corrections for dipol
 direction  3 min pos   337,
 dipolmoment           0.000000      0.000000     -0.000002 electrons x Angstroem
 Tr[quadrupol]      -536.676910

 energy correction for charged system         0.000000 eV
 dipol+quadrupol energy correction           -0.000000 eV
 added-field ion interaction          0.000001 eV  (added to PSCEN)


 Free energy of the ion-electron system (eV)
  ---------------------------------------------------
  alpha Z        PSCENC =        52.96167578
  Ewald energy   TEWEN  =     25013.04175315
  -Hartree energ DENC   =    -26372.12127338
  -exchange      EXHF   =         0.00000000
  -V(xc)+E(xc)   XCENC  =       197.27066018
  PAW double counting   =      1222.26428903    -1198.33308607
  entropy T*S    EENTRO =        -0.00795455
  eigenvalues    EBANDS =      -295.65927760
  atomic energy  EATOM  =      2017.72479794
  Solvation  Ediel_sol  =         0.00000000
  ---------------------------------------------------
  free energy    TOTEN  =       637.14158449 eV

  energy without entropy =      637.14953904  energy(sigma->0) =      637.14556176


--------------------------------------------------------------------------------------------------------




--------------------------------------- Iteration      1(   2)  ---------------------------------------


     EDDAV:  cpu time     14.1640: real time     14.2649
       DOS:  cpu time      0.0005: real time      0.0005
    --------------------------------------------
      LOOP:  cpu time     14.1646: real time     14.2654

 eigenvalue-minimisations  :  8316
 total energy-change (2. order) :-0.7489557E+03  (-0.7185400E+03)
 number of electron      86.0000000 magnetization 
 augmentation part       86.0000000 magnetization 

 DIPCOR: dipole corrections for dipol
 direction  3 min pos   337,
 dipolmoment           0.000000      0.000000     -0.000002 electrons x Angstroem
 Tr[quadrupol]      -536.676910

 energy correction for charged system         0.000000 eV
 dipol+quadrupol energy correction           -0.000000 eV
 added-field ion interaction          0.000001 eV  (added to PSCEN)


 Free energy of the ion-electron system (eV)
  ---------------------------------------------------
  alpha Z        PSCENC =        52.96167578
  Ewald energy   TEWEN  =     25013.04175315
  -Hartree energ DENC   =    -26372.12127338
  -exchange      EXHF   =         0.00000000
  -V(xc)+E(xc)   XCENC  =       197.27066018
  PAW double counting   =      1222.26428903    -1198.33308607
  entropy T*S    EENTRO =        -0.00649033
  eigenvalues    EBANDS =     -1044.61640078
  atomic energy  EATOM  =      2017.72479794
  Solvation  Ediel_sol  =         0.00000000
  ---------------------------------------------------
  free energy    TOTEN  =      -111.81407447 eV

  energy without entropy =     -111.80758415  energy(sigma->0) =     -111.81082931


--------------------------------------------------------------------------------------------------------




--------------------------------------- Iteration      1(   3)  ---------------------------------------


     EDDAV:  cpu time     12.1130: real time     12.2002
       DOS:  cpu time      0.0005: real time      0.0005
    --------------------------------------------
      LOOP:  cpu time     12.1134: real time     12.2006

 eigenvalue-minimisations  :  6832
 total energy-change (2. order) :-0.8515971E+02  (-0.8361383E+02)
 number of electron      86.0000000 magnetization 
 augmentation part       86.0000000 magnetization 

 DIPCOR: dipole corrections for dipol
 direction  3 min pos   337,
 dipolmoment           0.000000      0.000000     -0.000002 electrons x Angstroem
 Tr[quadrupol]      -536.676910

 energy correction for charged system         0.000000 eV
 dipol+quadrupol energy correction           -0.000000 eV
 added-field ion interaction          0.000001 eV  (added to PSCEN)


 Free energy of the ion-electron system (eV)
  ---------------------------------------------------
  alpha Z        PSCENC =        52.96167578
  Ewald energy   TEWEN  =     25013.04175315
  -Hartree energ DENC   =    -26372.12127338
  -exchange      EXHF   =         0.00000000
  -V(xc)+E(xc)   XCENC  =       197.27066018
  PAW double counting   =      1222.26428903    -1198.33308607
  entropy T*S    EENTRO =        -0.01349029
  eigenvalues    EBANDS =     -1129.76910986
  atomic energy  EATOM  =      2017.72479794
  Solvation  Ediel_sol  =         0.00000000
  ---------------------------------------------------
  free energy    TOTEN  =      -196.97378352 eV

  energy without entropy =     -196.96029323  energy(sigma->0) =     -196.96703838


--------------------------------------------------------------------------------------------------------




--------------------------------------- Iteration      1(   4)  ---------------------------------------


     EDDAV:  cpu time     13.2757: real time     13.3699
       DOS:  cpu time      0.0005: real time      0.0005
    --------------------------------------------
      LOOP:  cpu time     13.2762: real time     13.3704

 eigenvalue-minimisations  :  7693
 total energy-change (2. order) :-0.2377494E+01  (-0.2366511E+01)
 number of electron      86.0000000 magnetization 
 augmentation part       86.0000000 magnetization 

 DIPCOR: dipole corrections for dipol
 direction  3 min pos   337,
 dipolmoment           0.000000      0.000000     -0.000002 electrons x Angstroem
 Tr[quadrupol]      -536.676910

 energy correction for charged system         0.000000 eV
 dipol+quadrupol energy correction           -0.000000 eV
 added-field ion interaction          0.000001 eV  (added to PSCEN)


 Free energy of the ion-electron system (eV)
  ---------------------------------------------------
  alpha Z        PSCENC =        52.96167578
  Ewald energy   TEWEN  =     25013.04175315
  -Hartree energ DENC   =    -26372.12127338
  -exchange      EXHF   =         0.00000000
  -V(xc)+E(xc)   XCENC  =       197.27066018
  PAW double counting   =      1222.26428903    -1198.33308607
  entropy T*S    EENTRO =        -0.01481402
  eigenvalues    EBANDS =     -1132.14528055
  atomic energy  EATOM  =      2017.72479794
  Solvation  Ediel_sol  =         0.00000000
  ---------------------------------------------------
  free energy    TOTEN  =      -199.35127794 eV

  energy without entropy =     -199.33646391  energy(sigma->0) =     -199.34387093


--------------------------------------------------------------------------------------------------------




--------------------------------------- Iteration      1(   5)  ---------------------------------------


     EDDAV:  cpu time     13.7782: real time     13.8761
       DOS:  cpu time      0.0005: real time      0.0005
    CHARGE:  cpu time      0.3171: real time      0.3189
    MIXING:  cpu time      0.0020: real time      0.0020
    --------------------------------------------
      LOOP:  cpu time     14.0975: real time     14.1974

 eigenvalue-minimisations  :  8113
 total energy-change (2. order) :-0.7254303E-01  (-0.7248839E-01)
 number of electron      85.9999999 magnetization 
 augmentation part       -0.1335224 magnetization 

 DIPCOR: dipole corrections for dipol
 direction  3 min pos   337,
 dipolmoment           0.000000      0.000000     -0.000002 electrons x Angstroem
 Tr[quadrupol]      -536.676910

 energy correction for charged system         0.000000 eV
 dipol+quadrupol energy correction           -0.000000 eV
 added-field ion interaction          0.000001 eV  (added to PSCEN)


 Broyden mixing:
  rms(total) = 0.19658E+01    rms(broyden)= 0.19658E+01
  rms(prec ) = 0.21428E+01
  weight for this iteration     100.00

 Free energy of the ion-electron system (eV)
  ---------------------------------------------------
  alpha Z        PSCENC =        52.96167578
  Ewald energy   TEWEN  =     25013.04175315
  -Hartree energ DENC   =    -26372.12127338
  -exchange      EXHF   =         0.00000000
  -V(xc)+E(xc)   XCENC  =       197.27066018
  PAW double counting   =      1222.26428903    -1198.33308607
  entropy T*S    EENTRO =        -0.01483213
  eigenvalues    EBANDS =     -1132.21780548
  atomic energy  EATOM  =      2017.72479794
  Solvation  Ediel_sol  =         0.00000000
  ---------------------------------------------------
  free energy    TOTEN  =      -199.42382097 eV

  energy without entropy =     -199.40898884  energy(sigma->0) =     -199.41640491


--------------------------------------------------------------------------------------------------------




--------------------------------------- Iteration      1(   6)  ---------------------------------------


    POTLOK:  cpu time      0.0692: real time      0.0699
    SETDIJ:  cpu time      0.0014: real time      0.0014
     EDDAV:  cpu time     12.1910: real time     12.2771
       DOS:  cpu time      0.0005: real time      0.0005
    CHARGE:  cpu time      0.3105: real time      0.3124
    MIXING:  cpu time      0.0023: real time      0.0023
    --------------------------------------------
      LOOP:  cpu time     12.5749: real time     12.6636

 eigenvalue-minimisations  :  6881
 total energy-change (2. order) : 0.1790049E+02  (-0.2675394E+01)
 number of electron      85.9999999 magnetization 
 augmentation part       -0.2782102 magnetization 

 DIPCOR: dipole corrections for dipol
 direction  3 min pos   337,
 dipolmoment           0.000000      0.000000     -0.002390 electrons x Angstroem
 Tr[quadrupol]      -542.332871

 energy correction for charged system         0.000000 eV
 dipol+quadrupol energy correction           -0.000000 eV
 added-field ion interaction          0.000936 eV  (added to PSCEN)


 Broyden mixing:
  rms(total) = 0.99431E+00    rms(broyden)= 0.99430E+00
  rms(prec ) = 0.10374E+01
  weight for this iteration     100.00

 eigenvalues of (default mixing * dielectric matrix)
  average eigenvalue GAMMA=   1.2833
  1.2833

 Free energy of the ion-electron system (eV)
  ---------------------------------------------------
  alpha Z        PSCENC =        52.96261046
  Ewald energy   TEWEN  =     25013.04175315
  -Hartree energ DENC   =    -26560.42056422
  -exchange      EXHF   =         0.00000000
  -V(xc)+E(xc)   XCENC  =       200.49117453
  PAW double counting   =      3046.50007709    -3023.87688512
  entropy T*S    EENTRO =        -0.00398027
  eigenvalues    EBANDS =      -927.94230979
  atomic energy  EATOM  =      2017.72479794
  Solvation  Ediel_sol  =         0.00000000
  ---------------------------------------------------
  free energy    TOTEN  =      -181.52332622 eV

  energy without entropy =     -181.51934596  energy(sigma->0) =     -181.52133609


--------------------------------------------------------------------------------------------------------




--------------------------------------- Iteration      1(   7)  ---------------------------------------


    POTLOK:  cpu time      0.0692: real time      0.0700
    SETDIJ:  cpu time      0.0014: real time      0.0014
     EDDAV:  cpu time     12.0990: real time     12.1841
       DOS:  cpu time      0.0004: real time      0.0005
    CHARGE:  cpu time      0.3101: real time      0.3120
    MIXING:  cpu time      0.0024: real time      0.0024
    --------------------------------------------
      LOOP:  cpu time     12.4825: real time     12.5704

 eigenvalue-minimisations  :  6832
 total energy-change (2. order) : 0.2573093E+01  (-0.6164103E+00)
 number of electron      85.9999999 magnetization 
 augmentation part       -0.3162922 magnetization 

 DIPCOR: dipole corrections for dipol
 direction  3 min pos   337,
 dipolmoment           0.000000      0.000000     -0.001821 electrons x Angstroem
 Tr[quadrupol]      -542.580828

 energy correction for charged system         0.000000 eV
 dipol+quadrupol energy correction           -0.000000 eV
 added-field ion interaction          0.000713 eV  (added to PSCEN)


 Broyden mixing:
  rms(total) = 0.47816E+00    rms(broyden)= 0.47816E+00
  rms(prec ) = 0.49479E+00
  weight for this iteration     100.00

 eigenvalues of (default mixing * dielectric matrix)
  average eigenvalue GAMMA=   1.4766
  0.9326  2.0207

 Free energy of the ion-electron system (eV)
  ---------------------------------------------------
  alpha Z        PSCENC =        52.96238803
  Ewald energy   TEWEN  =     25013.04175315
  -Hartree energ DENC   =    -26604.72793782
  -exchange      EXHF   =         0.00000000
  -V(xc)+E(xc)   XCENC  =       202.80911797
  PAW double counting   =      4842.64827392    -4820.60659145
  entropy T*S    EENTRO =        -0.00361813
  eigenvalues    EBANDS =      -882.79841638
  atomic energy  EATOM  =      2017.72479794
  Solvation  Ediel_sol  =         0.00000000
  ---------------------------------------------------
  free energy    TOTEN  =      -178.95023276 eV

  energy without entropy =     -178.94661463  energy(sigma->0) =     -178.94842370


--------------------------------------------------------------------------------------------------------




--------------------------------------- Iteration      1(   8)  ---------------------------------------


    POTLOK:  cpu time      0.0688: real time      0.0696
    SETDIJ:  cpu time      0.0014: real time      0.0014
     EDDAV:  cpu time     12.6914: real time     12.7800
       DOS:  cpu time      0.0005: real time      0.0005
    CHARGE:  cpu time      0.3049: real time      0.3069
    MIXING:  cpu time      0.0025: real time      0.0026
    --------------------------------------------
      LOOP:  cpu time     13.0695: real time     13.1610

 eigenvalue-minimisations  :  7266
 total energy-change (2. order) : 0.4983371E+00  (-0.1841383E+00)
 number of electron      85.9999999 magnetization 
 augmentation part       -0.3334230 magnetization 

 DIPCOR: dipole corrections for dipol
 direction  3 min pos   337,
 dipolmoment           0.000000      0.000000     -0.001528 electrons x Angstroem
 Tr[quadrupol]      -543.607481

 energy correction for charged system         0.000000 eV
 dipol+quadrupol energy correction           -0.000000 eV
 added-field ion interaction          0.000599 eV  (added to PSCEN)


 Broyden mixing:
  rms(total) = 0.14390E+00    rms(broyden)= 0.14390E+00
  rms(prec ) = 0.15310E+00
  weight for this iteration     100.00

 eigenvalues of (default mixing * dielectric matrix)
  average eigenvalue GAMMA=   1.4732
  2.2867  0.9811  1.1520

 Free energy of the ion-electron system (eV)
  ---------------------------------------------------
  alpha Z        PSCENC =        52.96227337
  Ewald energy   TEWEN  =     25013.04175315
  -Hartree energ DENC   =    -26652.43317731
  -exchange      EXHF   =         0.00000000
  -V(xc)+E(xc)   XCENC  =       204.69357707
  PAW double counting   =      6639.12027394    -6617.47295738
  entropy T*S    EENTRO =        -0.00353546
  eigenvalues    EBANDS =      -836.08490102
  atomic energy  EATOM  =      2017.72479794
  Solvation  Ediel_sol  =         0.00000000
  ---------------------------------------------------
  free energy    TOTEN  =      -178.45189570 eV

  energy without entropy =     -178.44836023  energy(sigma->0) =     -178.45012797


--------------------------------------------------------------------------------------------------------




--------------------------------------- Iteration      1(   9)  ---------------------------------------


    POTLOK:  cpu time      0.0698: real time      0.0716
    SETDIJ:  cpu time      0.0013: real time      0.0013
     EDDAV:  cpu time     12.5051: real time     12.5941
       DOS:  cpu time      0.0005: real time      0.0005
    CHARGE:  cpu time      0.3065: real time      0.3085
    MIXING:  cpu time      0.0024: real time      0.0024
    --------------------------------------------
      LOOP:  cpu time     12.8855: real time     12.9783

 eigenvalue-minimisations  :  7168
 total energy-change (2. order) : 0.1265306E-01  (-0.1522300E-01)
 number of electron      85.9999999 magnetization 
 augmentation part       -0.3401928 magnetization 

 DIPCOR: dipole corrections for dipol
 direction  3 min pos   337,
 dipolmoment           0.000000      0.000000     -0.001380 electrons x Angstroem
 Tr[quadrupol]      -544.353530

 energy correction for charged system         0.000000 eV
 dipol+quadrupol energy correction           -0.000000 eV
 added-field ion interaction          0.000540 eV  (added to PSCEN)


 Broyden mixing:
  rms(total) = 0.56795E-01    rms(broyden)= 0.56795E-01
  rms(prec ) = 0.62543E-01
  weight for this iteration     100.00

 eigenvalues of (default mixing * dielectric matrix)
  average eigenvalue GAMMA=   1.5172
  2.4379  1.7028  0.9639  0.9639

 Free energy of the ion-electron system (eV)
  ---------------------------------------------------
  alpha Z        PSCENC =        52.96221533
  Ewald energy   TEWEN  =     25013.04175315
  -Hartree energ DENC   =    -26670.27478738
  -exchange      EXHF   =         0.00000000
  -V(xc)+E(xc)   XCENC  =       205.12564287
  PAW double counting   =      7151.73049783    -7130.10353819
  entropy T*S    EENTRO =        -0.00368869
  eigenvalues    EBANDS =      -818.64213551
  atomic energy  EATOM  =      2017.72479794
  Solvation  Ediel_sol  =         0.00000000
  ---------------------------------------------------
  free energy    TOTEN  =      -178.43924264 eV

  energy without entropy =     -178.43555395  energy(sigma->0) =     -178.43739829


--------------------------------------------------------------------------------------------------------




--------------------------------------- Iteration      1(  10)  ---------------------------------------


    POTLOK:  cpu time      0.0695: real time      0.0704
    SETDIJ:  cpu time      0.0014: real time      0.0014
     EDDAV:  cpu time     12.4540: real time     12.5416
       DOS:  cpu time      0.0005: real time      0.0005
    CHARGE:  cpu time      0.3086: real time      0.3105
    MIXING:  cpu time      0.0024: real time      0.0024
    --------------------------------------------
      LOOP:  cpu time     12.8364: real time     12.9269

 eigenvalue-minimisations  :  7518
 total energy-change (2. order) :-0.7254370E-02  (-0.3332032E-02)
 number of electron      85.9999999 magnetization 
 augmentation part       -0.3405765 magnetization 

 DIPCOR: dipole corrections for dipol
 direction  3 min pos   337,
 dipolmoment           0.000000      0.000000     -0.001075 electrons x Angstroem
 Tr[quadrupol]      -544.828981

 energy correction for charged system         0.000000 eV
 dipol+quadrupol energy correction           -0.000000 eV
 added-field ion interaction          0.000421 eV  (added to PSCEN)


 Broyden mixing:
  rms(total) = 0.22176E-01    rms(broyden)= 0.22176E-01
  rms(prec ) = 0.27468E-01
  weight for this iteration     100.00

 eigenvalues of (default mixing * dielectric matrix)
  average eigenvalue GAMMA=   1.5130
  2.3986  2.0735  0.9168  1.0881  1.0881

 Free energy of the ion-electron system (eV)
  ---------------------------------------------------
  alpha Z        PSCENC =        52.96209597
  Ewald energy   TEWEN  =     25013.04175315
  -Hartree energ DENC   =    -26679.92510104
  -exchange      EXHF   =         0.00000000
  -V(xc)+E(xc)   XCENC  =       205.31839812
  PAW double counting   =      7305.12414644    -7283.46975378
  entropy T*S    EENTRO =        -0.00377318
  eigenvalues    EBANDS =      -809.21906064
  atomic energy  EATOM  =      2017.72479794
  Solvation  Ediel_sol  =         0.00000000
  ---------------------------------------------------
  free energy    TOTEN  =      -178.44649701 eV

  energy without entropy =     -178.44272383  energy(sigma->0) =     -178.44461042


--------------------------------------------------------------------------------------------------------




--------------------------------------- Iteration      1(  11)  ---------------------------------------


    POTLOK:  cpu time      0.0696: real time      0.0704
    SETDIJ:  cpu time      0.0015: real time      0.0015
     EDDAV:  cpu time     12.2134: real time     12.2987
       DOS:  cpu time      0.0005: real time      0.0005
    CHARGE:  cpu time      0.3028: real time      0.3045
    MIXING:  cpu time      0.0024: real time      0.0024
    --------------------------------------------
      LOOP:  cpu time     12.5900: real time     12.6780

 eigenvalue-minimisations  :  6923
 total energy-change (2. order) :-0.3334897E-02  (-0.5577249E-03)
 number of electron      85.9999999 magnetization 
 augmentation part       -0.3395751 magnetization 

 DIPCOR: dipole corrections for dipol
 direction  3 min pos   337,
 dipolmoment           0.000000      0.000000     -0.000785 electrons x Angstroem
 Tr[quadrupol]      -545.142999

 energy correction for charged system         0.000000 eV
 dipol+quadrupol energy correction           -0.000000 eV
 added-field ion interaction          0.000307 eV  (added to PSCEN)


 Broyden mixing:
  rms(total) = 0.10611E-01    rms(broyden)= 0.10611E-01
  rms(prec ) = 0.15565E-01
  weight for this iteration     100.00

 eigenvalues of (default mixing * dielectric matrix)
  average eigenvalue GAMMA=   1.5637
  2.5092  2.5092  1.3118  1.0007  1.0007  1.0502

 Free energy of the ion-electron system (eV)
  ---------------------------------------------------
  alpha Z        PSCENC =        52.96198229
  Ewald energy   TEWEN  =     25013.04175315
  -Hartree energ DENC   =    -26686.10802947
  -exchange      EXHF   =         0.00000000
  -V(xc)+E(xc)   XCENC  =       205.40340100
  PAW double counting   =      7307.56334820    -7285.88934877
  entropy T*S    EENTRO =        -0.00376278
  eigenvalues    EBANDS =      -803.14397348
  atomic energy  EATOM  =      2017.72479794
  Solvation  Ediel_sol  =         0.00000000
  ---------------------------------------------------
  free energy    TOTEN  =      -178.44983191 eV

  energy without entropy =     -178.44606913  energy(sigma->0) =     -178.44795052


--------------------------------------------------------------------------------------------------------




--------------------------------------- Iteration      1(  12)  ---------------------------------------


    POTLOK:  cpu time      0.0690: real time      0.0699
    SETDIJ:  cpu time      0.0013: real time      0.0013
     EDDAV:  cpu time     12.2591: real time     12.3448
       DOS:  cpu time      0.0005: real time      0.0005
    CHARGE:  cpu time      0.3036: real time      0.3054
    MIXING:  cpu time      0.0025: real time      0.0026
    --------------------------------------------
      LOOP:  cpu time     12.6362: real time     12.7245

 eigenvalue-minimisations  :  6930
 total energy-change (2. order) :-0.2039600E-02  (-0.2978212E-03)
 number of electron      85.9999999 magnetization 
 augmentation part       -0.3398951 magnetization 

 DIPCOR: dipole corrections for dipol
 direction  3 min pos   337,
 dipolmoment           0.000000      0.000000     -0.000459 electrons x Angstroem
 Tr[quadrupol]      -545.484402

 energy correction for charged system         0.000000 eV
 dipol+quadrupol energy correction           -0.000000 eV
 added-field ion interaction          0.000180 eV  (added to PSCEN)


 Broyden mixing:
  rms(total) = 0.54055E-02    rms(broyden)= 0.54055E-02
  rms(prec ) = 0.85452E-02
  weight for this iteration     100.00

 eigenvalues of (default mixing * dielectric matrix)
  average eigenvalue GAMMA=   1.7067
  3.3727  2.5486  1.6868  1.2886  0.9529  1.0487  1.0487

 Free energy of the ion-electron system (eV)
  ---------------------------------------------------
  alpha Z        PSCENC =        52.96185467
  Ewald energy   TEWEN  =     25013.04175315
  -Hartree energ DENC   =    -26692.71510333
  -exchange      EXHF   =         0.00000000
  -V(xc)+E(xc)   XCENC  =       205.47662249
  PAW double counting   =      7300.66425200    -7278.97957402
  entropy T*S    EENTRO =        -0.00375721
  eigenvalues    EBANDS =      -796.62271720
  atomic energy  EATOM  =      2017.72479794
  Solvation  Ediel_sol  =         0.00000000
  ---------------------------------------------------
  free energy    TOTEN  =      -178.45187151 eV

  energy without entropy =     -178.44811430  energy(sigma->0) =     -178.44999290


--------------------------------------------------------------------------------------------------------




--------------------------------------- Iteration      1(  13)  ---------------------------------------


    POTLOK:  cpu time      0.0704: real time      0.0710
    SETDIJ:  cpu time      0.0014: real time      0.0014
     EDDAV:  cpu time     12.2972: real time     12.3849
       DOS:  cpu time      0.0005: real time      0.0005
    CHARGE:  cpu time      0.3062: real time      0.3082
    MIXING:  cpu time      0.0030: real time      0.0031
    --------------------------------------------
      LOOP:  cpu time     12.6787: real time     12.7689

 eigenvalue-minimisations  :  6951
 total energy-change (2. order) :-0.1640291E-02  (-0.1643150E-03)
 number of electron      85.9999999 magnetization 
 augmentation part       -0.3401354 magnetization 

 DIPCOR: dipole corrections for dipol
 direction  3 min pos   337,
 dipolmoment           0.000000      0.000000     -0.000092 electrons x Angstroem
 Tr[quadrupol]      -545.784898

 energy correction for charged system         0.000000 eV
 dipol+quadrupol energy correction           -0.000000 eV
 added-field ion interaction          0.000036 eV  (added to PSCEN)


 Broyden mixing:
  rms(total) = 0.29334E-02    rms(broyden)= 0.29333E-02
  rms(prec ) = 0.43345E-02
  weight for this iteration     100.00

 eigenvalues of (default mixing * dielectric matrix)
  average eigenvalue GAMMA=   1.8026
  3.9085  2.4490  2.4490  1.4957  0.9876  0.9876  1.0715  1.0715

 Free energy of the ion-electron system (eV)
  ---------------------------------------------------
  alpha Z        PSCENC =        52.96171114
  Ewald energy   TEWEN  =     25013.04175315
  -Hartree energ DENC   =    -26698.34907926
  -exchange      EXHF   =         0.00000000
  -V(xc)+E(xc)   XCENC  =       205.52639115
  PAW double counting   =      7291.17643795    -7269.48905118
  entropy T*S    EENTRO =        -0.00376432
  eigenvalues    EBANDS =      -791.04270837
  atomic energy  EATOM  =      2017.72479794
  Solvation  Ediel_sol  =         0.00000000
  ---------------------------------------------------
  free energy    TOTEN  =      -178.45351180 eV

  energy without entropy =     -178.44974747  energy(sigma->0) =     -178.45162964


--------------------------------------------------------------------------------------------------------




--------------------------------------- Iteration      1(  14)  ---------------------------------------


    POTLOK:  cpu time      0.0698: real time      0.0718
    SETDIJ:  cpu time      0.0014: real time      0.0014
     EDDAV:  cpu time     11.8339: real time     11.9175
       DOS:  cpu time      0.0005: real time      0.0005
    CHARGE:  cpu time      0.3084: real time      0.3104
    MIXING:  cpu time      0.0026: real time      0.0026
    --------------------------------------------
      LOOP:  cpu time     12.2165: real time     12.3041

 eigenvalue-minimisations  :  6636
 total energy-change (2. order) :-0.1176620E-02  (-0.3393738E-04)
 number of electron      85.9999999 magnetization 
 augmentation part       -0.3403555 magnetization 

 DIPCOR: dipole corrections for dipol
 direction  3 min pos   337,
 dipolmoment           0.000000      0.000000      0.000126 electrons x Angstroem
 Tr[quadrupol]      -545.923100

 energy correction for charged system         0.000000 eV
 dipol+quadrupol energy correction           -0.000000 eV
 added-field ion interaction         -0.000050 eV  (added to PSCEN)


 Broyden mixing:
  rms(total) = 0.14913E-02    rms(broyden)= 0.14913E-02
  rms(prec ) = 0.22654E-02
  weight for this iteration     100.00

 eigenvalues of (default mixing * dielectric matrix)
  average eigenvalue GAMMA=   1.8542
  4.6148  2.6550  2.4110  1.5844  1.4187  0.9659  0.9659  1.0363  1.0363

 Free energy of the ion-electron system (eV)
  ---------------------------------------------------
  alpha Z        PSCENC =        52.96162557
  Ewald energy   TEWEN  =     25013.04175315
  -Hartree energ DENC   =    -26700.85744986
  -exchange      EXHF   =         0.00000000
  -V(xc)+E(xc)   XCENC  =       205.53609324
  PAW double counting   =      7292.31321026    -7270.62839672
  entropy T*S    EENTRO =        -0.00377439
  eigenvalues    EBANDS =      -788.54254762
  atomic energy  EATOM  =      2017.72479794
  Solvation  Ediel_sol  =         0.00000000
  ---------------------------------------------------
  free energy    TOTEN  =      -178.45468842 eV

  energy without entropy =     -178.45091403  energy(sigma->0) =     -178.45280122


--------------------------------------------------------------------------------------------------------




--------------------------------------- Iteration      1(  15)  ---------------------------------------


    POTLOK:  cpu time      0.0697: real time      0.0704
    SETDIJ:  cpu time      0.0013: real time      0.0013
     EDDAV:  cpu time     12.2611: real time     12.3498
       DOS:  cpu time      0.0005: real time      0.0005
    CHARGE:  cpu time      0.3042: real time      0.3060
    MIXING:  cpu time      0.0026: real time      0.0026
    --------------------------------------------
      LOOP:  cpu time     12.6395: real time     12.7307

 eigenvalue-minimisations  :  6930
 total energy-change (2. order) :-0.5816932E-03  (-0.8285659E-05)
 number of electron      85.9999999 magnetization 
 augmentation part       -0.3403519 magnetization 

 DIPCOR: dipole corrections for dipol
 direction  3 min pos   337,
 dipolmoment           0.000000      0.000000      0.000223 electrons x Angstroem
 Tr[quadrupol]      -545.982855

 energy correction for charged system         0.000000 eV
 dipol+quadrupol energy correction           -0.000000 eV
 added-field ion interaction         -0.000087 eV  (added to PSCEN)


 Broyden mixing:
  rms(total) = 0.86863E-03    rms(broyden)= 0.86863E-03
  rms(prec ) = 0.13547E-02
  weight for this iteration     100.00

 eigenvalues of (default mixing * dielectric matrix)
  average eigenvalue GAMMA=   1.9408
  5.2452  3.1078  2.4640  2.0377  1.4810  1.0409  1.0409  0.9630  0.9630  1.0640

 Free energy of the ion-electron system (eV)
  ---------------------------------------------------
  alpha Z        PSCENC =        52.96158779
  Ewald energy   TEWEN  =     25013.04175315
  -Hartree energ DENC   =    -26701.97342963
  -exchange      EXHF   =         0.00000000
  -V(xc)+E(xc)   XCENC  =       205.53482947
  PAW double counting   =      7290.65889969    -7268.97340754
  entropy T*S    EENTRO =        -0.00377231
  eigenvalues    EBANDS =      -787.42652868
  atomic energy  EATOM  =      2017.72479794
  Solvation  Ediel_sol  =         0.00000000
  ---------------------------------------------------
  free energy    TOTEN  =      -178.45527011 eV

  energy without entropy =     -178.45149780  energy(sigma->0) =     -178.45338395


--------------------------------------------------------------------------------------------------------




--------------------------------------- Iteration      1(  16)  ---------------------------------------


    POTLOK:  cpu time      0.0691: real time      0.0697
    SETDIJ:  cpu time      0.0013: real time      0.0013
     EDDAV:  cpu time     12.4131: real time     12.5012
       DOS:  cpu time      0.0005: real time      0.0005
    CHARGE:  cpu time      0.3067: real time      0.3087
    MIXING:  cpu time      0.0028: real time      0.0028
    --------------------------------------------
      LOOP:  cpu time     12.7936: real time     12.8842

 eigenvalue-minimisations  :  7063
 total energy-change (2. order) :-0.4044278E-03  (-0.4199430E-05)
 number of electron      85.9999999 magnetization 
 augmentation part       -0.3403526 magnetization 

 DIPCOR: dipole corrections for dipol
 direction  3 min pos   337,
 dipolmoment           0.000000      0.000000      0.000269 electrons x Angstroem
 Tr[quadrupol]      -546.016709

 energy correction for charged system         0.000000 eV
 dipol+quadrupol energy correction           -0.000000 eV
 added-field ion interaction         -0.000105 eV  (added to PSCEN)


 Broyden mixing:
  rms(total) = 0.49021E-03    rms(broyden)= 0.49021E-03
  rms(prec ) = 0.77183E-03
  weight for this iteration     100.00

 eigenvalues of (default mixing * dielectric matrix)
  average eigenvalue GAMMA=   2.0269
  5.9164  3.4634  2.5314  2.1871  1.6418  1.4720  1.0266  1.0266  0.9641  0.9641
  1.1023

 Free energy of the ion-electron system (eV)
  ---------------------------------------------------
  alpha Z        PSCENC =        52.96156971
  Ewald energy   TEWEN  =     25013.04175315
  -Hartree energ DENC   =    -26702.71229789
  -exchange      EXHF   =         0.00000000
  -V(xc)+E(xc)   XCENC  =       205.53320207
  PAW double counting   =      7291.78612847    -7270.10055656
  entropy T*S    EENTRO =        -0.00377135
  eigenvalues    EBANDS =      -786.68650008
  atomic energy  EATOM  =      2017.72479794
  Solvation  Ediel_sol  =         0.00000000
  ---------------------------------------------------
  free energy    TOTEN  =      -178.45567454 eV

  energy without entropy =     -178.45190319  energy(sigma->0) =     -178.45378887


--------------------------------------------------------------------------------------------------------




--------------------------------------- Iteration      1(  17)  ---------------------------------------


    POTLOK:  cpu time      0.0691: real time      0.0698
    SETDIJ:  cpu time      0.0013: real time      0.0013
     EDDAV:  cpu time     11.4115: real time     11.4919
       DOS:  cpu time      0.0005: real time      0.0005
    CHARGE:  cpu time      0.3182: real time      0.3202
    MIXING:  cpu time      0.0023: real time      0.0023
    --------------------------------------------
      LOOP:  cpu time     11.8028: real time     11.8860

 eigenvalue-minimisations  :  6545
 total energy-change (2. order) :-0.2692579E-03  (-0.1582719E-05)
 number of electron      85.9999999 magnetization 
 augmentation part       -0.3403554 magnetization 

 DIPCOR: dipole corrections for dipol
 direction  3 min pos   337,
 dipolmoment           0.000000      0.000000      0.000245 electrons x Angstroem
 Tr[quadrupol]      -546.027333

 energy correction for charged system         0.000000 eV
 dipol+quadrupol energy correction           -0.000000 eV
 added-field ion interaction         -0.000096 eV  (added to PSCEN)


 Broyden mixing:
  rms(total) = 0.27976E-03    rms(broyden)= 0.27976E-03
  rms(prec ) = 0.43994E-03
  weight for this iteration     100.00

 eigenvalues of (default mixing * dielectric matrix)
  average eigenvalue GAMMA=   2.0390
  6.2889  3.7394  2.5086  2.5086  1.6936  1.5580  1.1041  1.1041  0.9584  0.9584
  1.0230  1.0230

 Free energy of the ion-electron system (eV)
  ---------------------------------------------------
  alpha Z        PSCENC =        52.96157912
  Ewald energy   TEWEN  =     25013.04175315
  -Hartree energ DENC   =    -26703.10904822
  -exchange      EXHF   =         0.00000000
  -V(xc)+E(xc)   XCENC  =       205.53323677
  PAW double counting   =      7292.08544466    -7270.39980081
  entropy T*S    EENTRO =        -0.00377255
  eigenvalues    EBANDS =      -786.29013387
  atomic energy  EATOM  =      2017.72479794
  Solvation  Ediel_sol  =         0.00000000
  ---------------------------------------------------
  free energy    TOTEN  =      -178.45594380 eV

  energy without entropy =     -178.45217125  energy(sigma->0) =     -178.45405752


--------------------------------------------------------------------------------------------------------




--------------------------------------- Iteration      1(  18)  ---------------------------------------


    POTLOK:  cpu time      0.0708: real time      0.0717
    SETDIJ:  cpu time      0.0013: real time      0.0013
