<?xml version="1.0" encoding="ISO-8859-1"?>
<modeling>
 <generator>
  <i name="program" type="string">vasp </i>
  <i name="version" type="string">6.5.0  </i>
  <i name="subversion" type="string">16Dec24 (build Jan 08 2025 16:17:04) complex                          parallel </i>
  <i name="platform" type="string">LinuxIFC </i>
  <i name="date" type="string">2026 01 16 </i>
  <i name="time" type="string">17:21:49 </i>
 </generator>
 <incar>
  <i type="string" name="SYSTEM">Parameters</i>
  <i type="int" name="ISTART">     0</i>
  <i type="string" name="PREC">Accurate</i>
  <i type="string" name="ALGO">Normal</i>
  <i type="int" name="ISPIN">     1</i>
  <i type="int" name="ICHARG">     2</i>
  <i type="int" name="NELM">    60</i>
  <i type="int" name="IBRION">     2</i>
  <i name="EDIFF">      0.00000100</i>
  <i name="EDIFFG">     -0.01000000</i>
  <i type="int" name="NSW">   300</i>
  <i type="int" name="ISIF">     3</i>
  <i name="ENCUT">    600.00000000</i>
  <i name="POTIM">      0.50000000</i>
  <i type="int" name="ISMEAR">     0</i>
  <i name="SIGMA">      0.05000000</i>
  <i type="logical" name="LWAVE"> F  </i>
  <i type="logical" name="LCHARG"> F  </i>
  <i type="string" name="GGA">PE</i>
  <i type="logical" name="LDIPOL"> T  </i>
  <i type="int" name="IDIPOL">     3</i>
  <v name="DIPOL">      0.50000000      0.50000000      0.20087900</v>
  <i type="int" name="IVDW">    12</i>
  <v type="logical" name="LATTICE_CONSTRAINTS"> T   T   F  </v>
 </incar>
 <primitive_cell>
  <structure name="primitive_cell" >
   <crystal>
    <varray name="basis" >
     <v>       5.67999605       0.00000000       0.00000000 </v>
     <v>       0.00000000       6.14711119       0.00000000 </v>
     <v>       0.00000000       0.00000000      30.08811665 </v>
    </varray>
    <i name="volume">   1050.54366062 </i>
    <varray name="rec_basis" >
     <v>       0.17605646       0.00000000       0.00000000 </v>
     <v>       0.00000000       0.16267804       0.00000000 </v>
     <v>       0.00000000       0.00000000       0.03323571 </v>
    </varray>
   </crystal>
   <varray name="positions" >
    <v>       0.52254459       0.63772295       0.13357634 </v>
    <v>       0.52254459       0.63772295       0.26818083 </v>
    <v>       0.47745541       0.36227705       0.13357634 </v>
    <v>       0.47745541       0.36227705       0.26818083 </v>
    <v>       0.97745541       0.63772295       0.13357634 </v>
    <v>       0.97745541       0.63772295       0.26818083 </v>
    <v>       0.02254459       0.36227705       0.13357634 </v>
    <v>       0.02254459       0.36227705       0.26818083 </v>
    <v>       0.59800345       0.90011909       0.13294458 </v>
    <v>       0.59800345       0.90011909       0.26881259 </v>
    <v>       0.40199655       0.09988090       0.13294458 </v>
    <v>       0.40199655       0.09988090       0.26881259 </v>
    <v>       0.90199655       0.90011909       0.13294458 </v>
    <v>       0.90199655       0.90011909       0.26881259 </v>
    <v>       0.09800345       0.09988090       0.13294458 </v>
    <v>       0.09800345       0.09988090       0.26881259 </v>
    <v>       0.75000000       0.73335616       0.17353786 </v>
    <v>       0.75000000       0.72879364       0.30776750 </v>
    <v>       0.25000000       0.27120636       0.09398968 </v>
    <v>       0.25000000       0.26664384       0.22821932 </v>
    <v>       0.75000000       0.72879364       0.09398968 </v>
    <v>       0.75000000       0.73335616       0.22821932 </v>
    <v>       0.25000000       0.26664384       0.17353786 </v>
    <v>       0.25000000       0.27120636       0.30776750 </v>
    <v>       0.25000000       0.52573638       0.13371722 </v>
    <v>       0.25000000       0.52573638       0.26803996 </v>
    <v>       0.75000000       0.47426359       0.13371722 </v>
    <v>       0.75000000       0.47426359       0.26803996 </v>
    <v>       0.50000000       0.50000000       0.05449827 </v>
    <v>       0.50000000       0.50000000       0.34725890 </v>
   </varray>
  </structure>
  <varray name="primitive_index" >
   <v type="int" >        1 </v>
   <v type="int" >        2 </v>
   <v type="int" >        3 </v>
   <v type="int" >        4 </v>
   <v type="int" >        5 </v>
   <v type="int" >        6 </v>
   <v type="int" >        7 </v>
   <v type="int" >        8 </v>
   <v type="int" >        9 </v>
   <v type="int" >       10 </v>
   <v type="int" >       11 </v>
   <v type="int" >       12 </v>
   <v type="int" >       13 </v>
   <v type="int" >       14 </v>
   <v type="int" >       15 </v>
   <v type="int" >       16 </v>
   <v type="int" >       17 </v>
   <v type="int" >       18 </v>
   <v type="int" >       19 </v>
   <v type="int" >       20 </v>
   <v type="int" >       21 </v>
   <v type="int" >       22 </v>
   <v type="int" >       23 </v>
   <v type="int" >       24 </v>
   <v type="int" >       25 </v>
   <v type="int" >       26 </v>
   <v type="int" >       27 </v>
   <v type="int" >       28 </v>
   <v type="int" >       29 </v>
   <v type="int" >       30 </v>
  </varray>
 </primitive_cell>
 <kpoints>
  <generation param="Monkhorst-Pack">
   <v type="int" name="divisions">      10        9        1 </v>
   <v name="usershift">      0.00000000       0.00000000       0.00000000 </v>
   <v name="genvec1">      0.10000000       0.00000000       0.00000000 </v>
   <v name="genvec2">      0.00000000       0.11111111       0.00000000 </v>
   <v name="genvec3">      0.00000000       0.00000000       1.00000000 </v>
   <v name="shift">      0.50000000       0.00000000       0.00000000 </v>
  </generation>
  <varray name="kpointlist" >
   <v>       0.05000000       0.00000000       0.00000000 </v>
   <v>       0.15000000       0.00000000       0.00000000 </v>
   <v>       0.25000000       0.00000000       0.00000000 </v>
   <v>       0.35000000       0.00000000       0.00000000 </v>
   <v>       0.45000000       0.00000000       0.00000000 </v>
   <v>       0.05000000       0.11111111       0.00000000 </v>
   <v>       0.05000000      -0.11111111       0.00000000 </v>
   <v>       0.15000000       0.11111111       0.00000000 </v>
   <v>       0.15000000      -0.11111111       0.00000000 </v>
   <v>       0.25000000       0.11111111       0.00000000 </v>
   <v>       0.25000000      -0.11111111       0.00000000 </v>
   <v>       0.35000000       0.11111111       0.00000000 </v>
   <v>       0.35000000      -0.11111111       0.00000000 </v>
   <v>       0.45000000       0.11111111       0.00000000 </v>
   <v>       0.45000000      -0.11111111       0.00000000 </v>
   <v>       0.05000000       0.22222222       0.00000000 </v>
   <v>       0.05000000      -0.22222222       0.00000000 </v>
   <v>       0.15000000       0.22222222       0.00000000 </v>
   <v>       0.15000000      -0.22222222       0.00000000 </v>
   <v>       0.25000000       0.22222222       0.00000000 </v>
   <v>       0.25000000      -0.22222222       0.00000000 </v>
   <v>       0.35000000       0.22222222       0.00000000 </v>
   <v>       0.35000000      -0.22222222       0.00000000 </v>
   <v>       0.45000000       0.22222222       0.00000000 </v>
   <v>       0.45000000      -0.22222222       0.00000000 </v>
   <v>       0.05000000       0.33333333       0.00000000 </v>
   <v>       0.05000000      -0.33333333       0.00000000 </v>
   <v>       0.15000000       0.33333333       0.00000000 </v>
   <v>       0.15000000      -0.33333333       0.00000000 </v>
   <v>       0.25000000       0.33333333       0.00000000 </v>
   <v>       0.25000000      -0.33333333       0.00000000 </v>
   <v>       0.35000000       0.33333333       0.00000000 </v>
   <v>       0.35000000      -0.33333333       0.00000000 </v>
   <v>       0.45000000       0.33333333       0.00000000 </v>
   <v>       0.45000000      -0.33333333       0.00000000 </v>
   <v>       0.05000000       0.44444444       0.00000000 </v>
   <v>       0.05000000      -0.44444444       0.00000000 </v>
   <v>       0.15000000       0.44444444       0.00000000 </v>
   <v>       0.15000000      -0.44444444       0.00000000 </v>
   <v>       0.25000000       0.44444444       0.00000000 </v>
   <v>       0.25000000      -0.44444444       0.00000000 </v>
   <v>       0.35000000       0.44444444       0.00000000 </v>
   <v>       0.35000000      -0.44444444       0.00000000 </v>
   <v>       0.45000000       0.44444444       0.00000000 </v>
   <v>       0.45000000      -0.44444444       0.00000000 </v>
  </varray>
  <varray name="weights" >
   <v>       0.02222222 </v>
   <v>       0.02222222 </v>
   <v>       0.02222222 </v>
   <v>       0.02222222 </v>
   <v>       0.02222222 </v>
   <v>       0.02222222 </v>
   <v>       0.02222222 </v>
   <v>       0.02222222 </v>
   <v>       0.02222222 </v>
   <v>       0.02222222 </v>
   <v>       0.02222222 </v>
   <v>       0.02222222 </v>
   <v>       0.02222222 </v>
   <v>       0.02222222 </v>
   <v>       0.02222222 </v>
   <v>       0.02222222 </v>
   <v>       0.02222222 </v>
   <v>       0.02222222 </v>
   <v>       0.02222222 </v>
   <v>       0.02222222 </v>
   <v>       0.02222222 </v>
   <v>       0.02222222 </v>
   <v>       0.02222222 </v>
   <v>       0.02222222 </v>
   <v>       0.02222222 </v>
   <v>       0.02222222 </v>
   <v>       0.02222222 </v>
   <v>       0.02222222 </v>
   <v>       0.02222222 </v>
   <v>       0.02222222 </v>
   <v>       0.02222222 </v>
   <v>       0.02222222 </v>
   <v>       0.02222222 </v>
   <v>       0.02222222 </v>
   <v>       0.02222222 </v>
   <v>       0.02222222 </v>
   <v>       0.02222222 </v>
   <v>       0.02222222 </v>
   <v>       0.02222222 </v>
   <v>       0.02222222 </v>
   <v>       0.02222222 </v>
   <v>       0.02222222 </v>
   <v>       0.02222222 </v>
   <v>       0.02222222 </v>
   <v>       0.02222222 </v>
  </varray>
 </kpoints>
 <parameters>
  <separator name="general" >
   <i type="string" name="SYSTEM">Parameters</i>
   <i type="logical" name="LCOMPAT"> F  </i>
  </separator>
  <separator name="electronic" >
   <i type="string" name="PREC">accura</i>
   <i name="ENMAX">    600.00000000</i>
   <i name="ENAUG">    535.51400000</i>
   <i name="EDIFF">      0.00000100</i>
   <i type="int" name="IALGO">    38</i>
   <i type="int" name="IWAVPR">    11</i>
   <i type="int" name="NBANDS">    63</i>
   <i type="int" name="NBANDSLOW">    -1</i>
   <i type="int" name="NBANDSHIGH">    -1</i>
   <i name="NELECT">     86.00000000</i>
   <i type="int" name="TURBO">     0</i>
   <i type="int" name="IRESTART">     0</i>
   <i type="int" name="NREBOOT">     0</i>
   <i type="int" name="NMIN">     0</i>
   <i name="EREF">      0.00000000</i>
   <separator name="electronic smearing" >
    <i type="int" name="ISMEAR">     0</i>
    <i name="SIGMA">      0.05000000</i>
    <i name="KSPACING">      0.50000000</i>
    <i type="logical" name="KGAMMA"> T  </i>
    <i type="logical" name="KBLOWUP"> T  </i>
   </separator>
   <separator name="electronic projectors" >
    <i type="logical" name="LREAL"> F  </i>
    <v name="ROPT">      0.00000000      0.00000000</v>
    <i type="int" name="LMAXPAW">  -100</i>
    <i type="int" name="LMAXMIX">     2</i>
    <i type="logical" name="NLSPLINE"> F  </i>
   </separator>
   <separator name="electronic startup" >
    <i type="int" name="ISTART">     0</i>
    <i type="int" name="ICHARG">     2</i>
    <i type="int" name="INIWAV">     1</i>
   </separator>
   <separator name="electronic spin" >
    <i type="int" name="ISPIN">     1</i>
    <i type="logical" name="LNONCOLLINEAR"> F  </i>
    <v name="MAGMOM">      1.00000000      1.00000000      1.00000000      1.00000000      1.00000000      1.00000000      1.00000000      1.00000000      1.00000000      1.00000000      1.00000000      1.00000000      1.00000000      1.00000000      1.00000000      1.00000000      1.00000000      1.00000000      1.00000000      1.00000000
      1.00000000      1.00000000      1.00000000      1.00000000      1.00000000      1.00000000      1.00000000      1.00000000      1.00000000      1.00000000</v>
    <i name="NUPDOWN">     -1.00000000</i>
    <i type="logical" name="LSORBIT"> F  </i>
    <v name="SAXIS">      0.00000000      0.00000000      1.00000000</v>
    <i type="logical" name="LSPIRAL"> F  </i>
    <v name="QSPIRAL">      0.00000000      0.00000000      0.00000000</v>
    <i type="logical" name="LZEROZ"> F  </i>
   </separator>
   <separator name="electronic exchange-correlation" >
    <i type="logical" name="LASPH"> F  </i>
   </separator>
   <separator name="electronic convergence" >
    <i type="int" name="NELM">    60</i>
    <i type="int" name="NELMDL">    -5</i>
    <i type="int" name="NELMIN">     2</i>
    <i name="ENINI">    600.00000000</i>
    <separator name="electronic convergence detail" >
     <i type="logical" name="LDIAG"> T  </i>
     <i type="logical" name="LSUBROT"> F  </i>
     <i name="WEIMIN">      0.00100000</i>
     <i name="EBREAK">      0.00000000</i>
     <i name="DEPER">      0.30000000</i>
     <i type="int" name="NRMM">     4</i>
     <i name="TIME">      0.40000000</i>
    </separator>
   </separator>
   <separator name="electronic mixer" >
    <i name="AMIX">      0.40000000</i>
    <i name="BMIX">      1.00000000</i>
    <i name="AMIN">      0.10000000</i>
    <i name="AMIX_MAG">      1.60000000</i>
    <i name="BMIX_MAG">      1.00000000</i>
    <separator name="electronic mixer details" >
     <i type="int" name="IMIX">     4</i>
     <i type="logical" name="MIXFIRST"> F  </i>
     <i type="int" name="MAXMIX">   -45</i>
     <i name="WC">    100.00000000</i>
     <i type="int" name="INIMIX">     1</i>
     <i type="int" name="MIXPRE">     1</i>
     <i type="int" name="MREMOVE">     5</i>
    </separator>
   </separator>
   <separator name="electronic dipolcorrection" >
    <i type="logical" name="LDIPOL"> T  </i>
    <i type="logical" name="LMONO"> F  </i>
    <i type="int" name="IDIPOL">     3</i>
    <i name="EPSILON">      1.00000000</i>
    <v name="DIPOL">      0.50000000      0.50000000      0.20087900</v>
    <i name="EFIELD">      0.00000000</i>
    <i type="logical" name="LVACPOTAV"> F  </i>
   </separator>
  </separator>
  <separator name="grids" >
   <i type="int" name="NGX">    48</i>
   <i type="int" name="NGY">    50</i>
   <i type="int" name="NGZ">   240</i>
   <i type="int" name="NGXF">    96</i>
   <i type="int" name="NGYF">   100</i>
   <i type="int" name="NGZF">   480</i>
   <i type="logical" name="ADDGRID"> F  </i>
  </separator>
  <separator name="ionic" >
   <i type="int" name="NSW">   300</i>
   <i type="int" name="IBRION">     2</i>
   <i type="int" name="MDALGO">     0</i>
   <i type="int" name="ISIF">     3</i>
   <i name="PSTRESS">      0.00000000</i>
   <i name="EDIFFG">     -0.01000000</i>
   <i type="int" name="NFREE">     1</i>
   <i name="POTIM">      0.50000000</i>
   <i name="SMASS">     -3.00000000</i>
   <i name="SCALEE">      1.00000000</i>
  </separator>
  <separator name="ionic md" >
   <i name="TEBEG">      0.00010000</i>
   <i name="TEEND">      0.00010000</i>
   <i type="int" name="NBLOCK">     1</i>
   <i type="int" name="KBLOCK">   300</i>
   <i type="int" name="NPACO">   256</i>
   <i name="APACO">     10.00000000</i>
  </separator>
  <separator name="symmetry" >
   <i type="int" name="ISYM">     2</i>
   <i name="SYMPREC">      0.00001000</i>
  </separator>
  <separator name="dos" >
   <i type="int" name="LORBIT">     0</i>
   <v name="RWIGS">     -1.00000000     -1.00000000</v>
   <i type="int" name="NEDOS">   301</i>
   <i name="EMIN">     10.00000000</i>
   <i name="EMAX">    -10.00000000</i>
   <i name="EFERMI">      0.00000000</i>
  </separator>
  <separator name="writing" >
   <i type="int" name="NWRITE">     2</i>
   <i type="logical" name="LWAVE"> F  </i>
   <i type="logical" name="LDOWNSAMPLE"> F  </i>
   <i type="logical" name="LCHARG"> F  </i>
   <i type="logical" name="LPARD"> F  </i>
   <i type="logical" name="LVTOT"> F  </i>
   <i type="logical" name="LVHAR"> F  </i>
   <i type="logical" name="LELF"> F  </i>
   <i type="logical" name="LOPTICS"> F  </i>
   <v name="STM">      0.00000000      0.00000000      0.00000000      0.00000000      0.00000000      0.00000000      0.00000000</v>
  </separator>
  <separator name="performance" >
   <i type="int" name="NPAR">     7</i>
   <i type="int" name="NSIM">     4</i>
   <i type="int" name="NBLK">    -1</i>
   <i type="logical" name="LPLANE"> T  </i>
   <i type="logical" name="LSCALAPACK"> T  </i>
   <i type="logical" name="LSCAAWARE"> F  </i>
   <i type="logical" name="LSCALU"> F  </i>
   <i type="logical" name="LASYNC"> F  </i>
   <i type="logical" name="LORBITALREAL"> F  </i>
  </separator>
  <separator name="miscellaneous" >
   <i type="int" name="IDIOT">     3</i>
   <i type="int" name="PHON_NSTRUCT">    -1</i>
   <i type="logical" name="LMUSIC"> F  </i>
   <v name="POMASS">     10.81100000      1.00000000</v>
   <v name="DARWINR">      0.00000000      0.00000000</v>
   <v name="DARWINV">      1.00000000      1.00000000</v>
   <i type="logical" name="LCORR"> T  </i>
  </separator>
  <i type="logical" name="GGA_COMPAT"> T  </i>
  <i type="logical" name="LBERRY"> F  </i>
  <i type="int" name="ICORELEVEL">     0</i>
  <i type="logical" name="LDAU"> F  </i>
  <i type="int" name="I_CONSTRAINED_M">     0</i>
  <separator name="electronic exchange-correlation" >
   <i type="string" name="GGA    ">PE</i>
   <i type="string" name="XC_C">1</i>
   <i type="int" name="VOSKOWN">     0</i>
   <i type="logical" name="LHFCALC"> F  </i>
   <i type="string" name="PRECFOCK"></i>
   <i type="logical" name="LSYMGRAD"> F  </i>
   <i type="logical" name="LHFONE"> F  </i>
   <i type="logical" name="LRHFCALC"> F  </i>
   <i type="logical" name="LTHOMAS"> F  </i>
   <i type="logical" name="LMODELHF"> F  </i>
   <i type="logical" name="LFOCKACE"> F  </i>
   <i name="ENCUT4O">     -1.00000000</i>
   <i type="int" name="EXXOEP">     0</i>
   <i type="int" name="FOURORBIT">     0</i>
   <i name="AEXX">      0.00000000</i>
   <i name="HFALPHA">      0.00000000</i>
   <i name="MCALPHA">      0.00000000</i>
   <i name="ALDAX">      1.00000000</i>
   <i name="AGGAX">      1.00000000</i>
   <i name="AMGGAX">      1.00000000</i>
   <i name="ALDAC">      1.00000000</i>
   <i name="AGGAC">      1.00000000</i>
   <i name="AMGGAC">      1.00000000</i>
   <i type="int" name="NKREDX">     1</i>
   <i type="int" name="NKREDY">     1</i>
   <i type="int" name="NKREDZ">     1</i>
   <i type="logical" name="SHIFTRED"> F  </i>
   <i type="logical" name="ODDONLY"> F  </i>
   <i type="logical" name="EVENONLY"> F  </i>
   <i type="int" name="LMAXFOCK">     0</i>
   <i type="int" name="NMAXFOCKAE">     0</i>
   <i type="logical" name="LFOCKAEDFT"> F  </i>
   <i name="HFSCREEN">      0.00000000</i>
   <i name="HFSCREENC">      0.00000000</i>
   <i type="int" name="NBANDSGWLOW">     0</i>
  </separator>
  <separator name="vdW DFT" >
   <i type="logical" name="LUSE_VDW"> F  </i>
   <i type="int" name="IVDW_NL">    -1</i>
   <i type="logical" name="LSPIN_VDW"> F  </i>
   <i name="ZAB_VDW">     -0.84910000</i>
   <i name="GAMMA_VDW">      1.39626340</i>
   <i name="ALPHA_VDW">      0.00000000</i>
   <i name="PARAM1">      0.12340000</i>
   <i name="PARAM2">      1.00000000</i>
   <i name="BPARAM">      6.30000000</i>
   <i name="CPARAM">      0.00930000</i>
  </separator>
  <separator name="model GW" >
   <i type="int" name="MODEL_GW">     0</i>
   <i name="MODEL_EPS0">     21.01087321</i>
   <i name="MODEL_ALPHA">      1.00000000</i>
  </separator>
  <separator name="linear response parameters" >
   <i type="logical" name="LEPSILON"> F  </i>
   <i type="logical" name="LRPA"> F  </i>
   <i type="logical" name="LNABLA"> F  </i>
   <i type="logical" name="LVEL"> F  </i>
   <i name="CSHIFT">      0.10000000</i>
   <i name="OMEGAMAX">     -1.00000000</i>
   <i name="DEG_THRESHOLD">      0.00200000</i>
   <i name="RTIME">     -0.10000000</i>
   <i name="WPLASMAI">      0.00000000</i>
   <v name="DFIELD">      0.00000000      0.00000000      0.00000000</v>
   <v name="WPLASMA">      0.00000000      0.00000000      0.00000000      0.00000000      0.00000000      0.00000000      0.00000000      0.00000000      0.00000000</v>
  </separator>
  <separator name="orbital magnetization" >
   <i type="logical" name="NUCIND"> F  </i>
   <v name="MAGPOS">      0.00000000      0.00000000      0.00000000</v>
   <i type="logical" name="LNICSALL"> T  </i>
   <i type="logical" name="ORBITALMAG"> F  </i>
   <i type="logical" name="LMAGBLOCH"> F  </i>
   <i type="logical" name="LCHIMAG"> F  </i>
   <i type="logical" name="LGAUGE"> T  </i>
   <i type="int" name="MAGATOM">     0</i>
   <v name="MAGDIPOL">      0.00000000      0.00000000      0.00000000</v>
   <v name="AVECCONST">      0.00000000      0.00000000      0.00000000</v>
  </separator>
  <separator name="response functions" >
   <i type="logical" name="LALL_IN_ONE"> F  </i>
   <i type="int" name="IALL_IN_ONE">    -1</i>
   <i type="int" name="NBANDS_WAVE">    -1</i>
   <i type="logical" name="LFINITE_TEMPERATURE"> F  </i>
   <i type="logical" name="LADDER"> F  </i>
   <i type="logical" name="LRPAFORCE"> F  </i>
   <i type="logical" name="LFXC"> F  </i>
   <i type="logical" name="LHARTREE"> T  </i>
   <i type="int" name="IBSE">     2</i>
   <v type="int" name="KPOINT">    -1     0     0     0</v>
   <i type="logical" name="LTCTC"> F  </i>
   <i type="logical" name="LTCTE"> F  </i>
   <i type="logical" name="LTETE"> F  </i>
   <i type="logical" name="LTRIPLET"> F  </i>
   <i type="logical" name="LFXCEPS"> F  </i>
   <i type="logical" name="LFXHEG"> F  </i>
   <i type="int" name="NATURALO">     2</i>
   <i type="logical" name="LHOLEGF"> F  </i>
   <i type="logical" name="L2ORDER"> F  </i>
   <i type="logical" name="LDMP1"> F  </i>
   <i type="logical" name="LMP2LT"> F  </i>
   <i type="logical" name="LSMP2LT"> F  </i>
   <i type="logical" name="LGWLF"> F  </i>
   <i name="ENCUTGW">     -1.60000002</i>
   <i name="ENCUTGWSOFT">     -1.60000002</i>
   <i name="ENCUTLF">     -1.00000000</i>
   <i type="logical" name="ESF_SPLINES"> F  </i>
   <i name="ESF_CONV">      0.01000000</i>
   <i type="int" name="ESF_NINTER">    15</i>
   <i type="int" name="LMAXMP2">    -1</i>
   <i name="SCISSOR">      0.00000000</i>
   <i type="int" name="NOMEGA">     0</i>
   <i type="int" name="NOMEGAR">     0</i>
   <i type="int" name="NBANDSGW">    -1</i>
   <i type="int" name="NBANDSO">    -1</i>
   <i type="int" name="NBANDSV">    -1</i>
   <i type="int" name="NELMGW">     1</i>
   <i type="int" name="NELMHF">     1</i>
   <i type="int" name="DIM">     3</i>
   <i type="int" name="IESPILON">     4</i>
   <i type="int" name="ANTIRES">     0</i>
   <i name="OMEGAMAX">    -30.00000000</i>
   <i name="OMEGAMIN">    -30.00000000</i>
   <i name="OMEGATL">   -200.00000000</i>
   <i type="int" name="OMEGAGRID">     0</i>
   <i name="CSHIFT">     -0.10000000</i>
   <i type="logical" name="LSELFENERGY"> F  </i>
   <i type="logical" name="LSPECTRAL"> F  </i>
   <i type="logical" name="LSPECTRALGW"> F  </i>
   <i type="logical" name="LSINGLES"> F  </i>
   <i type="logical" name="LFERMIGW"> F  </i>
   <i type="logical" name="ODDONLYGW"> F  </i>
   <i type="logical" name="EVENONLYGW"> F  </i>
   <i type="int" name="NKREDLFX">     1</i>
   <i type="int" name="NKREDLFY">     1</i>
   <i type="int" name="NKREDLFZ">     1</i>
   <i type="int" name="MAXMEM">  2800</i>
   <i type="int" name="TELESCOPE">     0</i>
   <i type="int" name="NTAUPAR">    -1</i>
   <i type="int" name="NOMEGAPAR">    -1</i>
   <i name="DAMP_NEWTON">      0.80000001</i>
   <i name="LAMBDA">      1.00000000</i>
  </separator>
  <separator name="External order field" >
   <i name="OFIELD_KAPPA">      0.00000000</i>
   <v name="OFIELD_K">      0.00000000      0.00000000      0.00000000</v>
   <i name="OFIELD_Q6_NEAR">      0.00000000</i>
   <i name="OFIELD_Q6_FAR">      0.00000000</i>
   <i name="OFIELD_A">      0.00000000</i>
  </separator>
  <separator name="optional k-points parameters" >
   <i type="int" name="KPOINTS_OPT_MODE">     1</i>
   <i type="logical" name="LKPOINTS_OPT"> F  </i>
  </separator>
 </parameters>
 <atominfo>
  <atoms>      30 </atoms>
  <types>       2 </types>
  <array name="atoms" >
   <dimension dim="1">ion</dimension>
   <field type="string">element</field>
   <field type="int">atomtype</field>
   <set>
    <rc><c>B </c><c>   1</c></rc>
    <rc><c>B </c><c>   1</c></rc>
    <rc><c>B </c><c>   1</c></rc>
    <rc><c>B </c><c>   1</c></rc>
    <rc><c>B </c><c>   1</c></rc>
    <rc><c>B </c><c>   1</c></rc>
    <rc><c>B </c><c>   1</c></rc>
    <rc><c>B </c><c>   1</c></rc>
    <rc><c>B </c><c>   1</c></rc>
    <rc><c>B </c><c>   1</c></rc>
    <rc><c>B </c><c>   1</c></rc>
    <rc><c>B </c><c>   1</c></rc>
    <rc><c>B </c><c>   1</c></rc>
    <rc><c>B </c><c>   1</c></rc>
    <rc><c>B </c><c>   1</c></rc>
    <rc><c>B </c><c>   1</c></rc>
    <rc><c>B </c><c>   1</c></rc>
    <rc><c>B </c><c>   1</c></rc>
    <rc><c>B </c><c>   1</c></rc>
    <rc><c>B </c><c>   1</c></rc>
    <rc><c>B </c><c>   1</c></rc>
    <rc><c>B </c><c>   1</c></rc>
    <rc><c>B </c><c>   1</c></rc>
    <rc><c>B </c><c>   1</c></rc>
    <rc><c>B </c><c>   1</c></rc>
    <rc><c>B </c><c>   1</c></rc>
    <rc><c>B </c><c>   1</c></rc>
    <rc><c>B </c><c>   1</c></rc>
    <rc><c>H </c><c>   2</c></rc>
    <rc><c>H </c><c>   2</c></rc>
   </set>
  </array>
  <array name="atomtypes" >
   <dimension dim="1">type</dimension>
   <field type="int">atomspertype</field>
   <field type="string">element</field>
   <field>mass</field>
   <field>valence</field>
   <field type="string">pseudopotential</field>
   <set>
    <rc><c>  28</c><c>B </c><c>     10.81100000</c><c>      3.00000000</c><c>  PAW_PBE B 06Sep2000                   </c></rc>
    <rc><c>   2</c><c>H </c><c>      1.00000000</c><c>      1.00000000</c><c>  PAW_PBE H 15Jun2001                   </c></rc>
   </set>
  </array>
 </atominfo>
 <structure name="initialpos" >
  <crystal>
   <varray name="basis" >
    <v>       5.67999605       0.00000000       0.00000000 </v>
    <v>       0.00000000       6.14711119       0.00000000 </v>
    <v>       0.00000000       0.00000000      30.08811665 </v>
   </varray>
   <i name="volume">   1050.54366062 </i>
   <varray name="rec_basis" >
    <v>       0.17605646       0.00000000       0.00000000 </v>
    <v>       0.00000000       0.16267804       0.00000000 </v>
    <v>       0.00000000       0.00000000       0.03323571 </v>
   </varray>
  </crystal>
  <varray name="positions" >
   <v>       0.52254459       0.63772295       0.13357634 </v>
   <v>       0.52254459       0.63772295       0.26818083 </v>
   <v>       0.47745541       0.36227705       0.13357634 </v>
   <v>       0.47745541       0.36227705       0.26818083 </v>
   <v>       0.97745541       0.63772295       0.13357634 </v>
   <v>       0.97745541       0.63772295       0.26818083 </v>
   <v>       0.02254459       0.36227705       0.13357634 </v>
   <v>       0.02254459       0.36227705       0.26818083 </v>
   <v>       0.59800345       0.90011909       0.13294458 </v>
   <v>       0.59800345       0.90011909       0.26881259 </v>
   <v>       0.40199655       0.09988090       0.13294458 </v>
   <v>       0.40199655       0.09988090       0.26881259 </v>
   <v>       0.90199655       0.90011909       0.13294458 </v>
   <v>       0.90199655       0.90011909       0.26881259 </v>
   <v>       0.09800345       0.09988090       0.13294458 </v>
   <v>       0.09800345       0.09988090       0.26881259 </v>
   <v>       0.75000000       0.73335616       0.17353786 </v>
   <v>       0.75000000       0.72879364       0.30776750 </v>
   <v>       0.25000000       0.27120636       0.09398968 </v>
   <v>       0.25000000       0.26664384       0.22821932 </v>
   <v>       0.75000000       0.72879364       0.09398968 </v>
   <v>       0.75000000       0.73335616       0.22821932 </v>
   <v>       0.25000000       0.26664384       0.17353786 </v>
   <v>       0.25000000       0.27120636       0.30776750 </v>
   <v>       0.25000000       0.52573638       0.13371722 </v>
   <v>       0.25000000       0.52573638       0.26803996 </v>
   <v>       0.75000000       0.47426359       0.13371722 </v>
   <v>       0.75000000       0.47426359       0.26803996 </v>
   <v>       0.50000000       0.50000000       0.05449827 </v>
   <v>       0.50000000       0.50000000       0.34725890 </v>
  </varray>
 </structure>
 <calculation>
  <scstep>
   <time name="dav">   10.61   10.69</time>
   <time name="total">   10.69   10.77</time>
   <dipole>
    <v name="dipole">      0.00000000       0.00000000      -0.00000181 </v>
    <i name="Tr[quadrupol]">   -536.67690976 </i>
    <i name="Echarged">      0.00000000 </i>
    <i name="Edipol_quadrupol">      0.00000000 </i>
    <i name="Eion">      0.00000000 </i>
   </dipole>
   <energy>
    <i name="alphaZ">     52.96167578 </i>
    <i name="ewald">  25013.04175315 </i>
    <i name="hartreedc"> -26372.12127338 </i>
    <i name="XCdc">    197.27066018 </i>
    <i name="pawpsdc">   1222.26428903 </i>
    <i name="pawaedc">  -1198.33308607 </i>
    <i name="eentropy">     -0.00795455 </i>
    <i name="bandstr">   -295.65927760 </i>
    <i name="atom">   2017.72479794 </i>
    <i name="e_fr_energy">    637.14158449 </i>
    <i name="e_wo_entrp">    637.14953904 </i>
    <i name="e_0_energy">    637.14556176 </i>
   </energy>
  </scstep>
  <scstep>
   <time name="dav">   14.16   14.26</time>
   <time name="total">   14.16   14.27</time>
   <dipole>
    <v name="dipole">      0.00000000       0.00000000      -0.00000181 </v>
    <i name="Tr[quadrupol]">   -536.67690976 </i>
    <i name="Echarged">      0.00000000 </i>
    <i name="Edipol_quadrupol">      0.00000000 </i>
    <i name="Eion">      0.00000000 </i>
   </dipole>
   <energy>
    <i name="e_fr_energy">   -111.81407447 </i>
    <i name="e_wo_entrp">   -111.80758415 </i>
    <i name="e_0_energy">   -111.81082931 </i>
   </energy>
  </scstep>
  <scstep>
   <time name="dav">   12.11   12.20</time>
   <time name="total">   12.11   12.20</time>
   <dipole>
    <v name="dipole">      0.00000000       0.00000000      -0.00000181 </v>
    <i name="Tr[quadrupol]">   -536.67690976 </i>
    <i name="Echarged">      0.00000000 </i>
    <i name="Edipol_quadrupol">      0.00000000 </i>
    <i name="Eion">      0.00000000 </i>
   </dipole>
   <energy>
    <i name="e_fr_energy">   -196.97378352 </i>
    <i name="e_wo_entrp">   -196.96029323 </i>
    <i name="e_0_energy">   -196.96703838 </i>
   </energy>
  </scstep>
  <scstep>
   <time name="dav">   13.28   13.37</time>
   <time name="total">   13.28   13.37</time>
   <dipole>
    <v name="dipole">      0.00000000       0.00000000      -0.00000181 </v>
    <i name="Tr[quadrupol]">   -536.67690976 </i>
    <i name="Echarged">      0.00000000 </i>
    <i name="Edipol_quadrupol">      0.00000000 </i>
    <i name="Eion">      0.00000000 </i>
   </dipole>
   <energy>
    <i name="e_fr_energy">   -199.35127794 </i>
    <i name="e_wo_entrp">   -199.33646391 </i>
    <i name="e_0_energy">   -199.34387093 </i>
   </energy>
  </scstep>
  <scstep>
   <time name="dav">   13.78   13.88</time>
   <time name="total">   14.10   14.20</time>
   <dipole>
    <v name="dipole">      0.00000000       0.00000000      -0.00000181 </v>
    <i name="Tr[quadrupol]">   -536.67690976 </i>
    <i name="Echarged">      0.00000000 </i>
    <i name="Edipol_quadrupol">      0.00000000 </i>
    <i name="Eion">      0.00000000 </i>
   </dipole>
   <energy>
    <i name="e_fr_energy">   -199.42382097 </i>
    <i name="e_wo_entrp">   -199.40898884 </i>
    <i name="e_0_energy">   -199.41640491 </i>
   </energy>
  </scstep>
  <scstep>
   <time name="dav">   12.19   12.28</time>
   <time name="total">   12.57   12.66</time>
   <dipole>
    <v name="dipole">      0.00000000       0.00000000      -0.00238995 </v>
    <i name="Tr[quadrupol]">   -542.33287068 </i>
    <i name="Echarged">      0.00000000 </i>
    <i name="Edipol_quadrupol">      0.00000000 </i>
    <i name="Eion">      0.00000000 </i>
   </dipole>
   <energy>
    <i name="e_fr_energy">   -181.52332622 </i>
    <i name="e_wo_entrp">   -181.51934596 </i>
    <i name="e_0_energy">   -181.52133609 </i>
   </energy>
  </scstep>
  <scstep>
   <time name="dav">   12.10   12.18</time>
   <time name="total">   12.48   12.57</time>
   <dipole>
    <v name="dipole">      0.00000000       0.00000000      -0.00182141 </v>
    <i name="Tr[quadrupol]">   -542.58082802 </i>
    <i name="Echarged">      0.00000000 </i>
    <i name="Edipol_quadrupol">      0.00000000 </i>
    <i name="Eion">      0.00000000 </i>
   </dipole>
   <energy>
    <i name="e_fr_energy">   -178.95023276 </i>
    <i name="e_wo_entrp">   -178.94661463 </i>
    <i name="e_0_energy">   -178.94842370 </i>
   </energy>
  </scstep>
  <scstep>
   <time name="dav">   12.69   12.78</time>
   <time name="total">   13.07   13.16</time>
   <dipole>
    <v name="dipole">      0.00000000       0.00000000      -0.00152839 </v>
    <i name="Tr[quadrupol]">   -543.60748139 </i>
    <i name="Echarged">      0.00000000 </i>
    <i name="Edipol_quadrupol">      0.00000000 </i>
    <i name="Eion">      0.00000000 </i>
   </dipole>
   <energy>
    <i name="e_fr_energy">   -178.45189570 </i>
    <i name="e_wo_entrp">   -178.44836023 </i>
    <i name="e_0_energy">   -178.45012797 </i>
   </energy>
  </scstep>
  <scstep>
   <time name="dav">   12.51   12.59</time>
   <time name="total">   12.89   12.98</time>
   <dipole>
    <v name="dipole">      0.00000000       0.00000000      -0.00138008 </v>
    <i name="Tr[quadrupol]">   -544.35353029 </i>
    <i name="Echarged">      0.00000000 </i>
    <i name="Edipol_quadrupol">      0.00000000 </i>
    <i name="Eion">      0.00000000 </i>
   </dipole>
   <energy>
    <i name="e_fr_energy">   -178.43924264 </i>
    <i name="e_wo_entrp">   -178.43555395 </i>
    <i name="e_0_energy">   -178.43739829 </i>
   </energy>
  </scstep>
  <scstep>
   <time name="dav">   12.45   12.54</time>
   <time name="total">   12.84   12.93</time>
   <dipole>
    <v name="dipole">      0.00000000       0.00000000      -0.00107511 </v>
    <i name="Tr[quadrupol]">   -544.82898057 </i>
    <i name="Echarged">      0.00000000 </i>
    <i name="Edipol_quadrupol">      0.00000000 </i>
    <i name="Eion">      0.00000000 </i>
   </dipole>
   <energy>
    <i name="e_fr_energy">   -178.44649701 </i>
    <i name="e_wo_entrp">   -178.44272383 </i>
    <i name="e_0_energy">   -178.44461042 </i>
   </energy>
  </scstep>
  <scstep>
   <time name="dav">   12.21   12.30</time>
   <time name="total">   12.59   12.68</time>
   <dipole>
    <v name="dipole">      0.00000000       0.00000000      -0.00078467 </v>
    <i name="Tr[quadrupol]">   -545.14299944 </i>
    <i name="Echarged">      0.00000000 </i>
    <i name="Edipol_quadrupol">      0.00000000 </i>
    <i name="Eion">      0.00000000 </i>
   </dipole>
   <energy>
    <i name="e_fr_energy">   -178.44983191 </i>
    <i name="e_wo_entrp">   -178.44606913 </i>
    <i name="e_0_energy">   -178.44795052 </i>
   </energy>
  </scstep>
  <scstep>
   <time name="dav">   12.26   12.34</time>
   <time name="total">   12.64   12.72</time>
   <dipole>
    <v name="dipole">      0.00000000       0.00000000      -0.00045868 </v>
    <i name="Tr[quadrupol]">   -545.48440160 </i>
    <i name="Echarged">      0.00000000 </i>
    <i name="Edipol_quadrupol">      0.00000000 </i>
    <i name="Eion">      0.00000000 </i>
   </dipole>
   <energy>
    <i name="e_fr_energy">   -178.45187151 </i>
    <i name="e_wo_entrp">   -178.44811430 </i>
    <i name="e_0_energy">   -178.44999290 </i>
   </energy>
  </scstep>
  <scstep>
   <time name="dav">   12.30   12.38</time>
   <time name="total">   12.68   12.77</time>
   <dipole>
    <v name="dipole">      0.00000000       0.00000000      -0.00009212 </v>
    <i name="Tr[quadrupol]">   -545.78489843 </i>
    <i name="Echarged">      0.00000000 </i>
    <i name="Edipol_quadrupol">      0.00000000 </i>
    <i name="Eion">      0.00000000 </i>
   </dipole>
   <energy>
    <i name="e_fr_energy">   -178.45351180 </i>
    <i name="e_wo_entrp">   -178.44974747 </i>
    <i name="e_0_energy">   -178.45162964 </i>
   </energy>
  </scstep>
  <scstep>
   <time name="dav">   11.83   11.92</time>
   <time name="total">   12.22   12.30</time>
   <dipole>
    <v name="dipole">      0.00000000       0.00000000       0.00012642 </v>
    <i name="Tr[quadrupol]">   -545.92310003 </i>
    <i name="Echarged">      0.00000000 </i>
    <i name="Edipol_quadrupol">      0.00000000 </i>
    <i name="Eion">      0.00000000 </i>
   </dipole>
   <energy>
    <i name="e_fr_energy">   -178.45468842 </i>
    <i name="e_wo_entrp">   -178.45091403 </i>
    <i name="e_0_energy">   -178.45280122 </i>
   </energy>
  </scstep>
  <scstep>
   <time name="dav">   12.26   12.35</time>
   <time name="total">   12.64   12.73</time>
   <dipole>
    <v name="dipole">      0.00000000       0.00000000       0.00022289 </v>
    <i name="Tr[quadrupol]">   -545.98285513 </i>
    <i name="Echarged">      0.00000000 </i>
    <i name="Edipol_quadrupol">      0.00000000 </i>
    <i name="Eion">      0.00000000 </i>
   </dipole>
   <energy>
    <i name="e_fr_energy">   -178.45527011 </i>
    <i name="e_wo_entrp">   -178.45149780 </i>
    <i name="e_0_energy">   -178.45338395 </i>
   </energy>
  </scstep>
  <scstep>
   <time name="dav">   12.41   12.50</time>
   <time name="total">   12.79   12.88</time>
   <dipole>
    <v name="dipole">      0.00000000       0.00000000       0.00026906 </v>
    <i name="Tr[quadrupol]">   -546.01670863 </i>
    <i name="Echarged">      0.00000000 </i>
    <i name="Edipol_quadrupol">      0.00000000 </i>
    <i name="Eion">      0.00000000 </i>
   </dipole>
   <energy>
    <i name="e_fr_energy">   -178.45567454 </i>
    <i name="e_wo_entrp">   -178.45190319 </i>
    <i name="e_0_energy">   -178.45378887 </i>
   </energy>
  </scstep>
  <scstep>
   <time name="dav">   11.41   11.49</time>
   <time name="total">   11.80   11.89</time>
   <dipole>
    <v name="dipole">      0.00000000       0.00000000       0.00024501 </v>
    <i name="Tr[quadrupol]">   -546.02733340 </i>
    <i name="Echarged">      0.00000000 </i>
    <i name="Edipol_quadrupol">      0.00000000 </i>
    <i name="Eion">      0.00000000 </i>
   </dipole>
   <energy>
    <i name="e_fr_energy">   -178.45594380 </i>
    <i name="e_wo_entrp">   -178.45217125 </i>
    <i name="e_0_energy">   -178.45405752 </i>
   </energy>
  </scstep>
  <scstep>
   <time name="dav">   11.21   11.29</time>
   <time name="total">   11.58   11.67</time>
   <dipole>
    <v name="dipole">      0.00000000       0.00000000       0.00020124 </v>
    <i name="Tr[quadrupol]">   -546.02790911 </i>
    <i name="Echarged">      0.00000000 </i>
    <i name="Edipol_quadrupol">      0.00000000 </i>
    <i name="Eion">      0.00000000 </i>
   </dipole>
   <energy>
    <i name="e_fr_energy">   -178.45608309 </i>
    <i name="e_wo_entrp">   -178.45231078 </i>
    <i name="e_0_energy">   -178.45419693 </i>
   </energy>
  </scstep>
  <scstep>
   <time name="dav">   11.31   11.39</time>
   <time name="total">   11.70   11.78</time>
   <dipole>
    <v name="dipole">      0.00000000       0.00000000       0.00011815 </v>
    <i name="Tr[quadrupol]">   -546.02461519 </i>
    <i name="Echarged">      0.00000000 </i>
    <i name="Edipol_quadrupol">      0.00000000 </i>
    <i name="Eion">      0.00000000 </i>
   </dipole>
   <energy>
    <i name="e_fr_energy">   -178.45621262 </i>
    <i name="e_wo_entrp">   -178.45244056 </i>
    <i name="e_0_energy">   -178.45432659 </i>
   </energy>
  </scstep>
  <scstep>
   <time name="dav">   10.64   10.71</time>
   <time name="total">   11.02   11.10</time>
   <dipole>
    <v name="dipole">      0.00000000       0.00000000       0.00006595 </v>
    <i name="Tr[quadrupol]">   -546.02201765 </i>
    <i name="Echarged">      0.00000000 </i>
    <i name="Edipol_quadrupol">      0.00000000 </i>
    <i name="Eion">      0.00000000 </i>
   </dipole>
   <energy>
    <i name="e_fr_energy">   -178.45625580 </i>
    <i name="e_wo_entrp">   -178.45248354 </i>
    <i name="e_0_energy">   -178.45436967 </i>
   </energy>
  </scstep>
  <scstep>
   <time name="dav">   10.45   10.53</time>
   <time name="total">   10.84   10.92</time>
   <dipole>
    <v name="dipole">      0.00000000       0.00000000       0.00003163 </v>
    <i name="Tr[quadrupol]">   -546.02046899 </i>
    <i name="Echarged">      0.00000000 </i>
    <i name="Edipol_quadrupol">      0.00000000 </i>
    <i name="Eion">      0.00000000 </i>
   </dipole>
   <energy>
    <i name="e_fr_energy">   -178.45627442 </i>
    <i name="e_wo_entrp">   -178.45250220 </i>
    <i name="e_0_energy">   -178.45438831 </i>
   </energy>
  </scstep>
  <scstep>
   <time name="dav">   10.09   10.16</time>
   <time name="total">   10.47   10.54</time>
   <dipole>
    <v name="dipole">      0.00000000       0.00000000       0.00001447 </v>
    <i name="Tr[quadrupol]">   -546.01982344 </i>
    <i name="Echarged">      0.00000000 </i>
    <i name="Edipol_quadrupol">      0.00000000 </i>
    <i name="Eion">      0.00000000 </i>
   </dipole>
   <energy>
    <i name="e_fr_energy">   -178.45628127 </i>
    <i name="e_wo_entrp">   -178.45250911 </i>
    <i name="e_0_energy">   -178.45439519 </i>
   </energy>
  </scstep>
  <scstep>
   <time name="dav">    9.98   10.05</time>
   <time name="total">   10.37   10.44</time>
   <dipole>
    <v name="dipole">      0.00000000       0.00000000       0.00000648 </v>
    <i name="Tr[quadrupol]">   -546.01963895 </i>
    <i name="Echarged">      0.00000000 </i>
    <i name="Edipol_quadrupol">      0.00000000 </i>
    <i name="Eion">      0.00000000 </i>
   </dipole>
   <energy>
    <i name="e_fr_energy">   -178.45628333 </i>
    <i name="e_wo_entrp">   -178.45251114 </i>
    <i name="e_0_energy">   -178.45439723 </i>
   </energy>
  </scstep>
  <scstep>
   <time name="dav">    9.47    9.54</time>
   <time name="total">    9.54    9.61</time>
   <dipole>
    <v name="dipole">      0.00000000       0.00000000       0.00000377 </v>
    <i name="Tr[quadrupol]">   -546.01959000 </i>
    <i name="Echarged">      0.00000000 </i>
    <i name="Edipol_quadrupol">      0.00000000 </i>
    <i name="Eion">      0.00000000 </i>
   </dipole>
   <energy>
    <i name="alphaZ">     52.96167359 </i>
    <i name="ewald">  25013.04175315 </i>
    <i name="hartreedc"> -26703.43757310 </i>
    <i name="XCdc">    205.53395492 </i>
    <i name="pawpsdc">   7291.76843758 </i>
    <i name="pawaedc">  -7270.08274036 </i>
    <i name="eentropy">     -0.00377220 </i>
    <i name="bandstr">   -785.96281540 </i>
    <i name="atom">   2017.72479794 </i>
    <i name="e_fr_energy">   -178.45628386 </i>
    <i name="e_wo_entrp">   -178.45251167 </i>
    <i name="e_0_energy">   -178.45439777 </i>
   </energy>
  </scstep>
  <structure>
   <crystal>
    <varray name="basis" >
     <v>       5.67999605       0.00000000       0.00000000 </v>
     <v>       0.00000000       6.14711119       0.00000000 </v>
     <v>       0.00000000       0.00000000      30.08811665 </v>
    </varray>
    <i name="volume">   1050.54366062 </i>
    <varray name="rec_basis" >
     <v>       0.17605646       0.00000000       0.00000000 </v>
     <v>       0.00000000       0.16267804       0.00000000 </v>
     <v>       0.00000000       0.00000000       0.03323571 </v>
    </varray>
   </crystal>
   <varray name="positions" >
    <v>       0.52254459       0.63772295       0.13357634 </v>
    <v>       0.52254459       0.63772295       0.26818083 </v>
    <v>       0.47745541       0.36227705       0.13357634 </v>
    <v>       0.47745541       0.36227705       0.26818083 </v>
    <v>       0.97745541       0.63772295       0.13357634 </v>
    <v>       0.97745541       0.63772295       0.26818083 </v>
    <v>       0.02254459       0.36227705       0.13357634 </v>
    <v>       0.02254459       0.36227705       0.26818083 </v>
    <v>       0.59800345       0.90011909       0.13294458 </v>
    <v>       0.59800345       0.90011909       0.26881259 </v>
    <v>       0.40199655       0.09988090       0.13294458 </v>
    <v>       0.40199655       0.09988090       0.26881259 </v>
    <v>       0.90199655       0.90011909       0.13294458 </v>
    <v>       0.90199655       0.90011909       0.26881259 </v>
    <v>       0.09800345       0.09988090       0.13294458 </v>
    <v>       0.09800345       0.09988090       0.26881259 </v>
    <v>       0.75000000       0.73335616       0.17353786 </v>
    <v>       0.75000000       0.72879364       0.30776750 </v>
    <v>       0.25000000       0.27120636       0.09398968 </v>
    <v>       0.25000000       0.26664384       0.22821932 </v>
    <v>       0.75000000       0.72879364       0.09398968 </v>
    <v>       0.75000000       0.73335616       0.22821932 </v>
    <v>       0.25000000       0.26664384       0.17353786 </v>
    <v>       0.25000000       0.27120636       0.30776750 </v>
    <v>       0.25000000       0.52573638       0.13371722 </v>
    <v>       0.25000000       0.52573638       0.26803996 </v>
    <v>       0.75000000       0.47426359       0.13371722 </v>
    <v>       0.75000000       0.47426359       0.26803996 </v>
    <v>       0.50000000       0.50000000       0.05449827 </v>
    <v>       0.50000000       0.50000000       0.34725890 </v>
   </varray>
  </structure>
  <varray name="forces" >
   <v>      -0.25271593       0.18929363       0.23162831 </v>
   <v>      -0.25271593       0.18929363      -0.23162831 </v>
   <v>       0.25271593      -0.18929363       0.23162831 </v>
   <v>       0.25271593      -0.18929363      -0.23162831 </v>
   <v>       0.19847063       0.15262673      -0.24948629 </v>
   <v>       0.19847063       0.15262673       0.24948629 </v>
   <v>      -0.19847063      -0.15262673      -0.24948629 </v>
   <v>      -0.19847063      -0.15262673       0.24948629 </v>
   <v>      -0.20359061       0.13287961      -0.24023724 </v>
   <v>      -0.20359061       0.13287961       0.24023724 </v>
   <v>       0.20359061      -0.13287961      -0.24023724 </v>
   <v>       0.20359061      -0.13287961       0.24023724 </v>
   <v>       0.20868329       0.33409540      -0.32323186 </v>
   <v>       0.20868329       0.33409540       0.32323186 </v>
   <v>      -0.20868329      -0.33409540      -0.32323186 </v>
   <v>      -0.20868329      -0.33409540       0.32323186 </v>
   <v>       0.03630711      -0.12562324      -2.36030574 </v>
   <v>      -1.13314020      -1.14622603      -2.36791718 </v>
   <v>       1.13314020       1.14622603       2.36791718 </v>
   <v>      -0.03630711       0.12562324       2.36030574 </v>
   <v>      -1.13314020      -1.14622603       2.36791718 </v>
   <v>       0.03630711      -0.12562324       2.36030574 </v>
   <v>      -0.03630711       0.12562324      -2.36030574 </v>
   <v>       1.13314020       1.14622603      -2.36791718 </v>
   <v>       0.10167108       0.03199036      -0.03406469 </v>
   <v>       0.10167108       0.03199036       0.03406469 </v>
   <v>      -0.10167108      -0.03199036      -0.03406469 </v>
   <v>      -0.10167108      -0.03199036       0.03406469 </v>
   <v>       0.00000000       0.00000000       0.27283311 </v>
   <v>       0.00000000       0.00000000      -0.27283311 </v>
  </varray>
  <varray name="stress" >
   <v>      -2.52288237      -9.34483947       0.00000000 </v>
   <v>      -9.34483947       4.79257826       0.00000000 </v>
   <v>       0.00000000       0.00000000     -30.87845859 </v>
  </varray>
  <energy>
   <i name="e_fr_energy">   -181.76287564 </i>
   <i name="e_wo_entrp">   -181.75910345 </i>
   <i name="e_0_energy">   -181.76098955 </i>
  </energy>
  <time name="totalsc">  299.64  301.76</time>
 </calculation>
 <calculation>
  <scstep>
   <time name="dav">   10.68   10.75</time>
   <time name="total">   11.05   11.13</time>
   <dipole>
    <v name="dipole">      0.00000000       0.00000000       0.00000248 </v>
    <i name="Tr[quadrupol]">   -552.31418956 </i>
    <i name="Echarged">      0.00000000 </i>
    <i name="Edipol_quadrupol">      0.00000000 </i>
    <i name="Eion">      0.00000000 </i>
   </dipole>
   <energy>
    <i name="alphaZ">     52.84105490 </i>
    <i name="ewald">  25115.82677746 </i>
    <i name="hartreedc"> -26784.78004678 </i>
    <i name="XCdc">    207.15750429 </i>
    <i name="pawpsdc">   7291.76484003 </i>
    <i name="pawaedc">  -7270.07914360 </i>
    <i name="eentropy">     -0.01589708 </i>
    <i name="bandstr">   -810.02828601 </i>
    <i name="atom">   2017.72479794 </i>
    <i name="e_fr_energy">   -179.58839884 </i>
    <i name="e_wo_entrp">   -179.57250177 </i>
    <i name="e_0_energy">   -179.58045030 </i>
   </energy>
  </scstep>
  <scstep>
   <time name="dav">   13.04   13.13</time>
   <time name="total">   13.41   13.51</time>
   <dipole>
    <v name="dipole">      0.00000000       0.00000000       0.00012346 </v>
    <i name="Tr[quadrupol]">   -552.13553202 </i>
    <i name="Echarged">      0.00000000 </i>
    <i name="Edipol_quadrupol">      0.00000000 </i>
    <i name="Eion">      0.00000000 </i>
   </dipole>
   <energy>
    <i name="e_fr_energy">   -179.56733007 </i>
    <i name="e_wo_entrp">   -179.55096145 </i>
    <i name="e_0_energy">   -179.55914576 </i>
   </energy>
  </scstep>
  <scstep>
   <time name="dav">   12.69   12.78</time>
   <time name="total">   13.06   13.16</time>
   <dipole>
    <v name="dipole">      0.00000000       0.00000000       0.00010877 </v>
    <i name="Tr[quadrupol]">   -552.12029430 </i>
    <i name="Echarged">      0.00000000 </i>
    <i name="Edipol_quadrupol">      0.00000000 </i>
    <i name="Eion">      0.00000000 </i>
   </dipole>
   <energy>
    <i name="e_fr_energy">   -179.53300608 </i>
    <i name="e_wo_entrp">   -179.51702624 </i>
    <i name="e_0_energy">   -179.52501616 </i>
   </energy>
  </scstep>
  <scstep>
   <time name="dav">   12.04   12.13</time>
   <time name="total">   12.41   12.50</time>
   <dipole>
    <v name="dipole">      0.00000000       0.00000000       0.00006537 </v>
    <i name="Tr[quadrupol]">   -552.18912088 </i>
    <i name="Echarged">      0.00000000 </i>
    <i name="Edipol_quadrupol">      0.00000000 </i>
    <i name="Eion">      0.00000000 </i>
   </dipole>
   <energy>
    <i name="e_fr_energy">   -179.53365627 </i>
    <i name="e_wo_entrp">   -179.51759551 </i>
    <i name="e_0_energy">   -179.52562589 </i>
   </energy>
  </scstep>
  <scstep>
   <time name="dav">   12.62   12.71</time>
   <time name="total">   13.00   13.09</time>
   <dipole>
    <v name="dipole">      0.00000000       0.00000000       0.00008682 </v>
    <i name="Tr[quadrupol]">   -552.11325044 </i>
    <i name="Echarged">      0.00000000 </i>
    <i name="Edipol_quadrupol">      0.00000000 </i>
    <i name="Eion">      0.00000000 </i>
   </dipole>
   <energy>
    <i name="e_fr_energy">   -179.53270622 </i>
    <i name="e_wo_entrp">   -179.51663677 </i>
    <i name="e_0_energy">   -179.52467149 </i>
   </energy>
  </scstep>
  <scstep>
   <time name="dav">   12.28   12.37</time>
   <time name="total">   12.66   12.75</time>
   <dipole>
    <v name="dipole">      0.00000000       0.00000000       0.00007321 </v>
    <i name="Tr[quadrupol]">   -552.12195413 </i>
    <i name="Echarged">      0.00000000 </i>
    <i name="Edipol_quadrupol">      0.00000000 </i>
    <i name="Eion">      0.00000000 </i>
   </dipole>
   <energy>
    <i name="e_fr_energy">   -179.53247100 </i>
    <i name="e_wo_entrp">   -179.51621874 </i>
    <i name="e_0_energy">   -179.52434487 </i>
   </energy>
  </scstep>
  <scstep>
   <time name="dav">   12.40   12.49</time>
   <time name="total">   12.78   12.87</time>
   <dipole>
    <v name="dipole">      0.00000000       0.00000000       0.00006253 </v>
    <i name="Tr[quadrupol]">   -552.11436676 </i>
    <i name="Echarged">      0.00000000 </i>
    <i name="Edipol_quadrupol">      0.00000000 </i>
    <i name="Eion">      0.00000000 </i>
   </dipole>
   <energy>
    <i name="e_fr_energy">   -179.53257102 </i>
    <i name="e_wo_entrp">   -179.51631550 </i>
    <i name="e_0_energy">   -179.52444326 </i>
   </energy>
  </scstep>
  <scstep>
   <time name="dav">   12.37   12.46</time>
   <time name="total">   12.74   12.83</time>
   <dipole>
    <v name="dipole">      0.00000000       0.00000000       0.00005085 </v>
    <i name="Tr[quadrupol]">   -552.10739835 </i>
    <i name="Echarged">      0.00000000 </i>
    <i name="Edipol_quadrupol">      0.00000000 </i>
    <i name="Eion">      0.00000000 </i>
   </dipole>
   <energy>
    <i name="e_fr_energy">   -179.53268124 </i>
    <i name="e_wo_entrp">   -179.51642935 </i>
    <i name="e_0_energy">   -179.52455530 </i>
   </energy>
  </scstep>
  <scstep>
   <time name="dav">   12.62   12.70</time>
   <time name="total">   12.99   13.08</time>
   <dipole>
    <v name="dipole">      0.00000000       0.00000000       0.00004177 </v>
    <i name="Tr[quadrupol]">   -552.10313599 </i>
    <i name="Echarged">      0.00000000 </i>
    <i name="Edipol_quadrupol">      0.00000000 </i>
    <i name="Eion">      0.00000000 </i>
   </dipole>
   <energy>
    <i name="e_fr_energy">   -179.53274074 </i>
    <i name="e_wo_entrp">   -179.51649024 </i>
    <i name="e_0_energy">   -179.52461549 </i>
   </energy>
  </scstep>
  <scstep>
   <time name="dav">   11.03   11.11</time>
   <time name="total">   11.41   11.49</time>
   <dipole>
    <v name="dipole">      0.00000000       0.00000000       0.00003064 </v>
    <i name="Tr[quadrupol]">   -552.09926411 </i>
    <i name="Echarged">      0.00000000 </i>
    <i name="Edipol_quadrupol">      0.00000000 </i>
    <i name="Eion">      0.00000000 </i>
   </dipole>
   <energy>
    <i name="e_fr_energy">   -179.53278963 </i>
    <i name="e_wo_entrp">   -179.51653937 </i>
    <i name="e_0_energy">   -179.52466450 </i>
   </energy>
  </scstep>
  <scstep>
   <time name="dav">   10.47   10.55</time>
   <time name="total">   10.85   10.93</time>
   <dipole>
    <v name="dipole">      0.00000000       0.00000000       0.00002145 </v>
    <i name="Tr[quadrupol]">   -552.09680999 </i>
    <i name="Echarged">      0.00000000 </i>
    <i name="Edipol_quadrupol">      0.00000000 </i>
    <i name="Eion">      0.00000000 </i>
   </dipole>
   <energy>
    <i name="e_fr_energy">   -179.53281649 </i>
    <i name="e_wo_entrp">   -179.51656661 </i>
    <i name="e_0_energy">   -179.52469155 </i>
   </energy>
  </scstep>
  <scstep>
   <time name="dav">   10.48   10.55</time>
   <time name="total">   10.86   10.93</time>
   <dipole>
    <v name="dipole">      0.00000000       0.00000000       0.00001202 </v>
    <i name="Tr[quadrupol]">   -552.09475484 </i>
    <i name="Echarged">      0.00000000 </i>
    <i name="Edipol_quadrupol">      0.00000000 </i>
    <i name="Eion">      0.00000000 </i>
   </dipole>
   <energy>
    <i name="e_fr_energy">   -179.53283410 </i>
    <i name="e_wo_entrp">   -179.51658446 </i>
    <i name="e_0_energy">   -179.52470928 </i>
   </energy>
  </scstep>
  <scstep>
   <time name="dav">   10.82   10.90</time>
   <time name="total">   11.20   11.27</time>
   <dipole>
    <v name="dipole">      0.00000000       0.00000000       0.00000711 </v>
    <i name="Tr[quadrupol]">   -552.09411380 </i>
    <i name="Echarged">      0.00000000 </i>
    <i name="Edipol_quadrupol">      0.00000000 </i>
    <i name="Eion">      0.00000000 </i>
   </dipole>
   <energy>
    <i name="e_fr_energy">   -179.53284013 </i>
    <i name="e_wo_entrp">   -179.51659058 </i>
    <i name="e_0_energy">   -179.52471536 </i>
   </energy>
  </scstep>
  <scstep>
   <time name="dav">   10.13   10.20</time>
   <time name="total">   10.50   10.58</time>
   <dipole>
    <v name="dipole">      0.00000000       0.00000000       0.00000329 </v>
    <i name="Tr[quadrupol]">   -552.09371731 </i>
    <i name="Echarged">      0.00000000 </i>
    <i name="Edipol_quadrupol">      0.00000000 </i>
    <i name="Eion">      0.00000000 </i>
   </dipole>
   <energy>
    <i name="e_fr_energy">   -179.53284327 </i>
    <i name="e_wo_entrp">   -179.51659381 </i>
    <i name="e_0_energy">   -179.52471854 </i>
   </energy>
  </scstep>
  <scstep>
   <time name="dav">    9.75    9.81</time>
   <time name="total">   10.12   10.19</time>
   <dipole>
    <v name="dipole">      0.00000000       0.00000000       0.00000101 </v>
    <i name="Tr[quadrupol]">   -552.09366851 </i>
    <i name="Echarged">      0.00000000 </i>
    <i name="Edipol_quadrupol">      0.00000000 </i>
    <i name="Eion">      0.00000000 </i>
   </dipole>
   <energy>
    <i name="e_fr_energy">   -179.53284473 </i>
    <i name="e_wo_entrp">   -179.51659531 </i>
    <i name="e_0_energy">   -179.52472002 </i>
   </energy>
  </scstep>
  <scstep>
   <time name="dav">    9.91    9.98</time>
   <time name="total">    9.98   10.05</time>
   <dipole>
    <v name="dipole">      0.00000000       0.00000000       0.00000037 </v>
    <i name="Tr[quadrupol]">   -552.09369998 </i>
    <i name="Echarged">      0.00000000 </i>
    <i name="Edipol_quadrupol">      0.00000000 </i>
    <i name="Eion">      0.00000000 </i>
   </dipole>
   <energy>
    <i name="alphaZ">     52.84105572 </i>
    <i name="ewald">  25115.82677746 </i>
    <i name="hartreedc"> -26785.22253374 </i>
    <i name="XCdc">    207.14951236 </i>
    <i name="pawpsdc">   7654.18485174 </i>
    <i name="pawaedc">  -7632.61682002 </i>
    <i name="eentropy">     -0.01624942 </i>
    <i name="bandstr">   -809.40423714 </i>
    <i name="atom">   2017.72479794 </i>
    <i name="e_fr_energy">   -179.53284508 </i>
    <i name="e_wo_entrp">   -179.51659566 </i>
    <i name="e_0_energy">   -179.52472037 </i>
   </energy>
  </scstep>
  <structure>
   <crystal>
    <varray name="basis" >
     <v>       5.66488626      -0.05596717       0.00000000 </v>
     <v>      -0.06056983       6.17817493       0.00000000 </v>
     <v>       0.00000000       0.00000000      30.08811665 </v>
    </varray>
    <i name="volume">   1052.94171536 </i>
    <varray name="rec_basis" >
     <v>       0.17654315       0.00173080       0.00000000 </v>
     <v>       0.00159928       0.16187578       0.00000000 </v>
     <v>       0.00000000       0.00000000       0.03323571 </v>
    </varray>
   </crystal>
   <varray name="positions" >
    <v>       0.52039817       0.63920853       0.13394773 </v>
    <v>       0.52039817       0.63920853       0.26780944 </v>
    <v>       0.47960183       0.36079147       0.13394773 </v>
    <v>       0.47960183       0.36079147       0.26780944 </v>
    <v>       0.97914110       0.63892077       0.13317632 </v>
    <v>       0.97914110       0.63892077       0.26858085 </v>
    <v>       0.02085890       0.36107923       0.13317632 </v>
    <v>       0.02085890       0.36107923       0.26858085 </v>
    <v>       0.59627427       0.90116193       0.13255939 </v>
    <v>       0.59627427       0.90116193       0.26919778 </v>
    <v>       0.40372573       0.09883806       0.13255939 </v>
    <v>       0.40372573       0.09883806       0.26919778 </v>
    <v>       0.90376898       0.90274108       0.13242632 </v>
    <v>       0.90376898       0.90274108       0.26933085 </v>
    <v>       0.09623102       0.09725891       0.13242632 </v>
    <v>       0.09623102       0.09725891       0.26933085 </v>
    <v>       0.75030837       0.73237027       0.16975339 </v>
    <v>       0.74037575       0.71979804       0.30397083 </v>
    <v>       0.25962425       0.28020196       0.09778635 </v>
    <v>       0.24969163       0.26762973       0.23200378 </v>
    <v>       0.74037575       0.71979804       0.09778635 </v>
    <v>       0.75030837       0.73237027       0.23200378 </v>
    <v>       0.24969163       0.26762973       0.16975339 </v>
    <v>       0.25962425       0.28020196       0.30397083 </v>
    <v>       0.25086354       0.52598744       0.13366260 </v>
    <v>       0.25086354       0.52598744       0.26809457 </v>
    <v>       0.74913646       0.47401253       0.13366260 </v>
    <v>       0.74913646       0.47401253       0.26809457 </v>
    <v>       0.50000000       0.50000000       0.05493572 </v>
    <v>       0.50000000       0.50000000       0.34682145 </v>
   </varray>
  </structure>
  <varray name="forces" >
   <v>      -0.46967745      -0.14868964       0.47890426 </v>
   <v>      -0.46967745      -0.14868964      -0.47890426 </v>
   <v>       0.46967745       0.14868964       0.47890426 </v>
   <v>       0.46967745       0.14868964      -0.47890426 </v>
   <v>       0.33401526       0.28047471      -0.23074058 </v>
   <v>       0.33401526       0.28047471       0.23074058 </v>
   <v>      -0.33401526      -0.28047471      -0.23074058 </v>
   <v>      -0.33401526      -0.28047471       0.23074058 </v>
   <v>       0.11820680       0.14071507      -0.19649032 </v>
   <v>       0.11820680       0.14071507       0.19649032 </v>
   <v>      -0.11820680      -0.14071507      -0.19649032 </v>
   <v>      -0.11820680      -0.14071507       0.19649032 </v>
   <v>      -0.48770999      -0.55065808      -0.51042171 </v>
   <v>      -0.48770999      -0.55065808       0.51042171 </v>
   <v>       0.48770999       0.55065808      -0.51042171 </v>
   <v>       0.48770999       0.55065808       0.51042171 </v>
   <v>       0.10784812      -0.21107230       1.72578434 </v>
   <v>      -0.14685436      -0.52379517      -0.49120243 </v>
   <v>       0.14685436       0.52379517       0.49120243 </v>
   <v>      -0.10784812       0.21107230      -1.72578434 </v>
   <v>      -0.14685436      -0.52379517       0.49120243 </v>
   <v>       0.10784812      -0.21107230      -1.72578434 </v>
   <v>      -0.10784812       0.21107230       1.72578434 </v>
   <v>       0.14685436       0.52379517      -0.49120243 </v>
   <v>       0.11141683      -0.34176660      -0.00582016 </v>
   <v>       0.11141683      -0.34176660       0.00582016 </v>
   <v>      -0.11141683       0.34176660      -0.00582016 </v>
   <v>      -0.11141683       0.34176660       0.00582016 </v>
   <v>      -0.00000000       0.00000000       0.32183206 </v>
   <v>      -0.00000000       0.00000000      -0.32183206 </v>
  </varray>
  <varray name="stress" >
   <v>       6.92697488       6.18049218       0.00000000 </v>
   <v>       6.18049219       4.78261341       0.00000000 </v>
   <v>       0.00000000       0.00000000     -17.74847931 </v>
  </varray>
  <energy>
   <i name="e_fr_energy">   -182.83665967 </i>
   <i name="e_wo_entrp">   -182.82041025 </i>
   <i name="e_0_energy">   -182.82853496 </i>
  </energy>
  <time name="totalsc">  197.62  199.03</time>
 </calculation>
 <calculation>
  <scstep>
   <time name="dav">   10.65   10.73</time>
   <time name="total">   11.04   11.12</time>
   <dipole>
    <v name="dipole">      0.00000000       0.00000000       0.00000021 </v>
    <i name="Tr[quadrupol]">   -550.98340745 </i>
    <i name="Echarged">      0.00000000 </i>
    <i name="Edipol_quadrupol">      0.00000000 </i>
    <i name="Eion">      0.00000000 </i>
   </dipole>
   <energy>
    <i name="alphaZ">     52.86096367 </i>
    <i name="ewald">  25097.42422256 </i>
    <i name="hartreedc"> -26771.01097744 </i>
    <i name="XCdc">    206.85965763 </i>
    <i name="pawpsdc">   7654.18372662 </i>
    <i name="pawaedc">  -7632.61569465 </i>
    <i name="eentropy">     -0.01174010 </i>
    <i name="bandstr">   -804.99079343 </i>
    <i name="atom">   2017.72479794 </i>
    <i name="e_fr_energy">   -179.57583719 </i>
    <i name="e_wo_entrp">   -179.56409709 </i>
    <i name="e_0_energy">   -179.56996714 </i>
   </energy>
  </scstep>
  <scstep>
   <time name="dav">   12.42   12.51</time>
   <time name="total">   12.80   12.90</time>
   <dipole>
    <v name="dipole">      0.00000000       0.00000000       0.00003720 </v>
    <i name="Tr[quadrupol]">   -550.83528232 </i>
    <i name="Echarged">      0.00000000 </i>
    <i name="Edipol_quadrupol">      0.00000000 </i>
    <i name="Eion">      0.00000000 </i>
   </dipole>
   <energy>
    <i name="e_fr_energy">   -179.57361598 </i>
    <i name="e_wo_entrp">   -179.55752534 </i>
    <i name="e_0_energy">   -179.56557066 </i>
   </energy>
  </scstep>
  <scstep>
   <time name="dav">   12.16   12.24</time>
   <time name="total">   12.53   12.62</time>
   <dipole>
    <v name="dipole">      0.00000000       0.00000000      -0.00000464 </v>
    <i name="Tr[quadrupol]">   -550.93676992 </i>
    <i name="Echarged">      0.00000000 </i>
    <i name="Edipol_quadrupol">      0.00000000 </i>
    <i name="Eion">      0.00000000 </i>
   </dipole>
   <energy>
    <i name="e_fr_energy">   -179.56625020 </i>
    <i name="e_wo_entrp">   -179.55188181 </i>
    <i name="e_0_energy">   -179.55906601 </i>
   </energy>
  </scstep>
  <scstep>
   <time name="dav">   11.49   11.57</time>
   <time name="total">   11.85   11.94</time>
   <dipole>
    <v name="dipole">      0.00000000       0.00000000       0.00000911 </v>
    <i name="Tr[quadrupol]">   -550.88878012 </i>
    <i name="Echarged">      0.00000000 </i>
    <i name="Edipol_quadrupol">      0.00000000 </i>
    <i name="Eion">      0.00000000 </i>
   </dipole>
   <energy>
    <i name="e_fr_energy">   -179.56534066 </i>
    <i name="e_wo_entrp">   -179.55013460 </i>
    <i name="e_0_energy">   -179.55773763 </i>
   </energy>
  </scstep>
  <scstep>
   <time name="dav">   12.43   12.52</time>
   <time name="total">   12.81   12.90</time>
   <dipole>
    <v name="dipole">      0.00000000       0.00000000       0.00000524 </v>
    <i name="Tr[quadrupol]">   -550.88674890 </i>
    <i name="Echarged">      0.00000000 </i>
    <i name="Edipol_quadrupol">      0.00000000 </i>
    <i name="Eion">      0.00000000 </i>
   </dipole>
   <energy>
    <i name="e_fr_energy">   -179.56534140 </i>
    <i name="e_wo_entrp">   -179.55031821 </i>
    <i name="e_0_energy">   -179.55782980 </i>
   </energy>
  </scstep>
  <scstep>
   <time name="dav">   12.96   13.05</time>
   <time name="total">   13.33   13.43</time>
   <dipole>
    <v name="dipole">      0.00000000       0.00000000       0.00000276 </v>
    <i name="Tr[quadrupol]">   -550.87836684 </i>
    <i name="Echarged">      0.00000000 </i>
    <i name="Edipol_quadrupol">      0.00000000 </i>
    <i name="Eion">      0.00000000 </i>
   </dipole>
   <energy>
    <i name="e_fr_energy">   -179.56535435 </i>
    <i name="e_wo_entrp">   -179.55029420 </i>
    <i name="e_0_energy">   -179.55782428 </i>
   </energy>
  </scstep>
  <scstep>
   <time name="dav">   12.42   12.51</time>
   <time name="total">   12.79   12.89</time>
   <dipole>
    <v name="dipole">      0.00000000       0.00000000       0.00000079 </v>
    <i name="Tr[quadrupol]">   -550.87367846 </i>
    <i name="Echarged">      0.00000000 </i>
    <i name="Edipol_quadrupol">      0.00000000 </i>
    <i name="Eion">      0.00000000 </i>
   </dipole>
   <energy>
    <i name="e_fr_energy">   -179.56536725 </i>
    <i name="e_wo_entrp">   -179.55030889 </i>
    <i name="e_0_energy">   -179.55783807 </i>
   </energy>
  </scstep>
  <scstep>
   <time name="dav">   10.76   10.84</time>
   <time name="total">   11.14   11.22</time>
   <dipole>
    <v name="dipole">      0.00000000       0.00000000      -0.00000160 </v>
    <i name="Tr[quadrupol]">   -550.86893604 </i>
    <i name="Echarged">      0.00000000 </i>
    <i name="Edipol_quadrupol">      0.00000000 </i>
    <i name="Eion">      0.00000000 </i>
   </dipole>
   <energy>
    <i name="e_fr_energy">   -179.56538044 </i>
    <i name="e_wo_entrp">   -179.55032178 </i>
    <i name="e_0_energy">   -179.55785111 </i>
   </energy>
  </scstep>
  <scstep>
   <time name="dav">   10.89   10.96</time>
   <time name="total">   11.27   11.35</time>
   <dipole>
    <v name="dipole">      0.00000000       0.00000000      -0.00000318 </v>
    <i name="Tr[quadrupol]">   -550.86554089 </i>
    <i name="Echarged">      0.00000000 </i>
    <i name="Edipol_quadrupol">      0.00000000 </i>
    <i name="Eion">      0.00000000 </i>
   </dipole>
   <energy>
    <i name="e_fr_energy">   -179.56538966 </i>
    <i name="e_wo_entrp">   -179.55033163 </i>
    <i name="e_0_energy">   -179.55786064 </i>
   </energy>
  </scstep>
  <scstep>
   <time name="dav">   10.67   10.75</time>
   <time name="total">   11.05   11.13</time>
   <dipole>
    <v name="dipole">      0.00000000       0.00000000      -0.00000478 </v>
    <i name="Tr[quadrupol]">   -550.86149485 </i>
    <i name="Echarged">      0.00000000 </i>
    <i name="Edipol_quadrupol">      0.00000000 </i>
    <i name="Eion">      0.00000000 </i>
   </dipole>
   <energy>
    <i name="e_fr_energy">   -179.56539901 </i>
    <i name="e_wo_entrp">   -179.55034080 </i>
    <i name="e_0_energy">   -179.55786991 </i>
   </energy>
  </scstep>
  <scstep>
   <time name="dav">   10.10   10.17</time>
   <time name="total">   10.48   10.55</time>
   <dipole>
    <v name="dipole">      0.00000000       0.00000000      -0.00000566 </v>
    <i name="Tr[quadrupol]">   -550.85795009 </i>
    <i name="Echarged">      0.00000000 </i>
    <i name="Edipol_quadrupol">      0.00000000 </i>
    <i name="Eion">      0.00000000 </i>
   </dipole>
   <energy>
    <i name="e_fr_energy">   -179.56540544 </i>
    <i name="e_wo_entrp">   -179.55034642 </i>
    <i name="e_0_energy">   -179.55787593 </i>
   </energy>
  </scstep>
  <scstep>
   <time name="dav">   10.76   10.83</time>
   <time name="total">   11.14   11.22</time>
   <dipole>
    <v name="dipole">      0.00000000       0.00000000      -0.00000529 </v>
    <i name="Tr[quadrupol]">   -550.85502366 </i>
    <i name="Echarged">      0.00000000 </i>
    <i name="Edipol_quadrupol">      0.00000000 </i>
    <i name="Eion">      0.00000000 </i>
   </dipole>
   <energy>
    <i name="e_fr_energy">   -179.56540974 </i>
    <i name="e_wo_entrp">   -179.55035027 </i>
    <i name="e_0_energy">   -179.55788001 </i>
   </energy>
  </scstep>
  <scstep>
   <time name="dav">   10.34   10.41</time>
   <time name="total">   10.72   10.79</time>
   <dipole>
    <v name="dipole">      0.00000000       0.00000000      -0.00000405 </v>
    <i name="Tr[quadrupol]">   -550.85408904 </i>
    <i name="Echarged">      0.00000000 </i>
    <i name="Edipol_quadrupol">      0.00000000 </i>
    <i name="Eion">      0.00000000 </i>
   </dipole>
   <energy>
    <i name="e_fr_energy">   -179.56541102 </i>
    <i name="e_wo_entrp">   -179.55035145 </i>
    <i name="e_0_energy">   -179.55788123 </i>
   </energy>
  </scstep>
  <scstep>
   <time name="dav">    9.96   10.03</time>
   <time name="total">   10.03   10.10</time>
   <dipole>
    <v name="dipole">      0.00000000       0.00000000      -0.00000263 </v>
    <i name="Tr[quadrupol]">   -550.85363348 </i>
    <i name="Echarged">      0.00000000 </i>
    <i name="Edipol_quadrupol">      0.00000000 </i>
    <i name="Eion">      0.00000000 </i>
   </dipole>
   <energy>
    <i name="alphaZ">     52.86096478 </i>
    <i name="ewald">  25097.42422256 </i>
    <i name="hartreedc"> -26767.63942987 </i>
    <i name="XCdc">    206.83783195 </i>
    <i name="pawpsdc">   7577.10387918 </i>
    <i name="pawaedc">  -7555.50832305 </i>
    <i name="eentropy">     -0.01505959 </i>
    <i name="bandstr">   -808.35429559 </i>
    <i name="atom">   2017.72479794 </i>
    <i name="e_fr_energy">   -179.56541169 </i>
    <i name="e_wo_entrp">   -179.55035210 </i>
    <i name="e_0_energy">   -179.55788190 </i>
   </energy>
  </scstep>
  <structure>
   <crystal>
    <varray name="basis" >
     <v>       5.66748917      -0.04632591       0.00000000 </v>
     <v>      -0.05013569       6.17282369       0.00000000 </v>
     <v>       0.00000000       0.00000000      30.08811665 </v>
    </varray>
    <i name="volume">   1052.54516864 </i>
    <varray name="rec_basis" >
     <v>       0.17645669       0.00143318       0.00000000 </v>
     <v>       0.00132428       0.16201117       0.00000000 </v>
     <v>       0.00000000       0.00000000       0.03323571 </v>
    </varray>
   </crystal>
   <varray name="positions" >
    <v>       0.52076622       0.63895724       0.13388375 </v>
    <v>       0.52076622       0.63895724       0.26787342 </v>
    <v>       0.47923378       0.36104276       0.13388375 </v>
    <v>       0.47923378       0.36104276       0.26787342 </v>
    <v>       0.97884772       0.63871280       0.13324523 </v>
    <v>       0.97884772       0.63871280       0.26851194 </v>
    <v>       0.02115228       0.36128720       0.13324523 </v>
    <v>       0.02115228       0.36128720       0.26851194 </v>
    <v>       0.59657106       0.90098588       0.13262575 </v>
    <v>       0.59657106       0.90098588       0.26913143 </v>
    <v>       0.40342894       0.09901411       0.13262575 </v>
    <v>       0.40342894       0.09901411       0.26913143 </v>
    <v>       0.90345800       0.90228885       0.13251560 </v>
    <v>       0.90345800       0.90228885       0.26924157 </v>
    <v>       0.09654200       0.09771114       0.13251560 </v>
    <v>       0.09654200       0.09771114       0.26924157 </v>
    <v>       0.75025691       0.73253879       0.17040533 </v>
    <v>       0.74205476       0.72135510       0.30462487 </v>
    <v>       0.25794524       0.27864490       0.09713231 </v>
    <v>       0.24974309       0.26746121       0.23135185 </v>
    <v>       0.74205476       0.72135510       0.09713231 </v>
    <v>       0.75025691       0.73253879       0.23135185 </v>
    <v>       0.24974309       0.26746121       0.17040533 </v>
    <v>       0.25794524       0.27864490       0.30462487 </v>
    <v>       0.25071391       0.52594305       0.13367201 </v>
    <v>       0.25071391       0.52594305       0.26808517 </v>
    <v>       0.74928609       0.47405692       0.13367201 </v>
    <v>       0.74928609       0.47405692       0.26808517 </v>
    <v>       0.50000000       0.50000000       0.05486037 </v>
    <v>       0.50000000       0.50000000       0.34689681 </v>
   </varray>
  </structure>
  <varray name="forces" >
   <v>      -0.35338749      -0.11942670       0.42023376 </v>
   <v>      -0.35338749      -0.11942670      -0.42023376 </v>
   <v>       0.35338749       0.11942670       0.42023376 </v>
   <v>       0.35338749       0.11942670      -0.42023376 </v>
   <v>       0.28083119       0.23689643      -0.23291116 </v>
   <v>       0.28083119       0.23689643       0.23291116 </v>
   <v>      -0.28083119      -0.23689643      -0.23291116 </v>
   <v>      -0.28083119      -0.23689643       0.23291116 </v>
   <v>       0.06207457       0.10998522      -0.20319105 </v>
   <v>       0.06207457       0.10998522       0.20319105 </v>
   <v>      -0.06207457      -0.10998522      -0.20319105 </v>
   <v>      -0.06207457      -0.10998522       0.20319105 </v>
   <v>      -0.35699951      -0.38855255      -0.47624250 </v>
   <v>      -0.35699951      -0.38855255       0.47624250 </v>
   <v>       0.35699951       0.38855255      -0.47624250 </v>
   <v>       0.35699951       0.38855255       0.47624250 </v>
   <v>       0.09026814      -0.19229650       1.29126573 </v>
   <v>      -0.37654395      -0.67430488      -0.77551023 </v>
   <v>       0.37654395       0.67430488       0.77551023 </v>
   <v>      -0.09026814       0.19229650      -1.29126573 </v>
   <v>      -0.37654395      -0.67430488       0.77551023 </v>
   <v>       0.09026814      -0.19229650      -1.29126573 </v>
   <v>      -0.09026814       0.19229650       1.29126573 </v>
   <v>       0.37654395       0.67430488      -0.77551023 </v>
   <v>       0.12003765      -0.30982199      -0.01261802 </v>
   <v>       0.12003765      -0.30982199       0.01261802 </v>
   <v>      -0.12003765       0.30982199      -0.01261802 </v>
   <v>      -0.12003765       0.30982199       0.01261802 </v>
   <v>      -0.00000000      -0.00000000       0.30080787 </v>
   <v>      -0.00000000      -0.00000000      -0.30080787 </v>
  </varray>
  <varray name="stress" >
   <v>       4.35268816       3.09562234       0.00000000 </v>
   <v>       3.09562234       3.75426632       0.00000000 </v>
   <v>       0.00000000       0.00000000     -19.84212119 </v>
  </varray>
  <energy>
   <i name="e_fr_energy">   -182.86973063 </i>
   <i name="e_wo_entrp">   -182.85467103 </i>
   <i name="e_0_energy">   -182.86220083 </i>
  </energy>
  <time name="totalsc">  171.50  172.72</time>
 </calculation>
 <calculation>
  <scstep>
   <time name="dav">   10.58   10.66</time>
   <time name="total">   10.96   11.03</time>
   <dipole>
    <v name="dipole">      0.00000000       0.00000000      -0.00000103 </v>
    <i name="Tr[quadrupol]">   -561.56735015 </i>
    <i name="Echarged">      0.00000000 </i>
    <i name="Edipol_quadrupol">      0.00000000 </i>
    <i name="Eion">      0.00000000 </i>
   </dipole>
   <energy>
    <i name="alphaZ">     52.39387251 </i>
    <i name="ewald">  24963.96439119 </i>
    <i name="hartreedc"> -26629.13535953 </i>
    <i name="XCdc">    206.79389595 </i>
    <i name="pawpsdc">   7577.10045994 </i>
    <i name="pawaedc">  -7555.50490473 </i>
    <i name="eentropy">     -0.01740016 </i>
    <i name="bandstr">   -813.36667648 </i>
    <i name="atom">   2017.72479794 </i>
    <i name="e_fr_energy">   -180.04692336 </i>
    <i name="e_wo_entrp">   -180.02952320 </i>
    <i name="e_0_energy">   -180.03822328 </i>
   </energy>
  </scstep>
  <scstep>
   <time name="dav">   13.06   13.15</time>
   <time name="total">   13.43   13.53</time>
   <dipole>
    <v name="dipole">      0.00000000       0.00000000       0.00004956 </v>
    <i name="Tr[quadrupol]">   -561.49789273 </i>
    <i name="Echarged">      0.00000000 </i>
    <i name="Edipol_quadrupol">      0.00000000 </i>
    <i name="Eion">      0.00000000 </i>
   </dipole>
   <energy>
    <i name="e_fr_energy">   -180.05224276 </i>
    <i name="e_wo_entrp">   -180.03529539 </i>
    <i name="e_0_energy">   -180.04376907 </i>
   </energy>
  </scstep>
  <scstep>
   <time name="dav">   12.35   12.44</time>
   <time name="total">   12.73   12.82</time>
   <dipole>
    <v name="dipole">      0.00000000       0.00000000      -0.00003622 </v>
    <i name="Tr[quadrupol]">   -561.68667929 </i>
    <i name="Echarged">      0.00000000 </i>
    <i name="Edipol_quadrupol">      0.00000000 </i>
    <i name="Eion">      0.00000000 </i>
   </dipole>
   <energy>
    <i name="e_fr_energy">   -180.04597145 </i>
    <i name="e_wo_entrp">   -180.03000721 </i>
    <i name="e_0_energy">   -180.03798933 </i>
   </energy>
  </scstep>
  <scstep>
   <time name="dav">   11.71   11.80</time>
   <time name="total">   12.09   12.18</time>
   <dipole>
    <v name="dipole">      0.00000000       0.00000000      -0.00000494 </v>
    <i name="Tr[quadrupol]">   -561.59408688 </i>
    <i name="Echarged">      0.00000000 </i>
    <i name="Edipol_quadrupol">      0.00000000 </i>
    <i name="Eion">      0.00000000 </i>
   </dipole>
   <energy>
    <i name="e_fr_energy">   -180.03873985 </i>
    <i name="e_wo_entrp">   -180.02138103 </i>
    <i name="e_0_energy">   -180.03006044 </i>
   </energy>
  </scstep>
  <scstep>
   <time name="dav">   12.28   12.37</time>
   <time name="total">   12.66   12.75</time>
   <dipole>
    <v name="dipole">      0.00000000       0.00000000      -0.00001188 </v>
    <i name="Tr[quadrupol]">   -561.61510836 </i>
    <i name="Echarged">      0.00000000 </i>
    <i name="Edipol_quadrupol">      0.00000000 </i>
    <i name="Eion">      0.00000000 </i>
   </dipole>
   <energy>
    <i name="e_fr_energy">   -180.03811594 </i>
    <i name="e_wo_entrp">   -180.02058828 </i>
    <i name="e_0_energy">   -180.02935211 </i>
   </energy>
  </scstep>
  <scstep>
   <time name="dav">   12.29   12.38</time>
   <time name="total">   12.67   12.76</time>
   <dipole>
    <v name="dipole">      0.00000000       0.00000000      -0.00000984 </v>
    <i name="Tr[quadrupol]">   -561.61344815 </i>
    <i name="Echarged">      0.00000000 </i>
    <i name="Edipol_quadrupol">      0.00000000 </i>
    <i name="Eion">      0.00000000 </i>
   </dipole>
   <energy>
    <i name="e_fr_energy">   -180.03821157 </i>
    <i name="e_wo_entrp">   -180.02068472 </i>
    <i name="e_0_energy">   -180.02944815 </i>
   </energy>
  </scstep>
  <scstep>
   <time name="dav">   13.00   13.09</time>
   <time name="total">   13.37   13.46</time>
   <dipole>
    <v name="dipole">      0.00000000       0.00000000      -0.00000641 </v>
    <i name="Tr[quadrupol]">   -561.61304929 </i>
    <i name="Echarged">      0.00000000 </i>
    <i name="Edipol_quadrupol">      0.00000000 </i>
    <i name="Eion">      0.00000000 </i>
   </dipole>
   <energy>
    <i name="e_fr_energy">   -180.03820922 </i>
    <i name="e_wo_entrp">   -180.02067984 </i>
    <i name="e_0_energy">   -180.02944453 </i>
   </energy>
  </scstep>
  <scstep>
   <time name="dav">   12.46   12.54</time>
   <time name="total">   12.83   12.92</time>
   <dipole>
    <v name="dipole">      0.00000000       0.00000000      -0.00000398 </v>
    <i name="Tr[quadrupol]">   -561.61364650 </i>
    <i name="Echarged">      0.00000000 </i>
    <i name="Edipol_quadrupol">      0.00000000 </i>
    <i name="Eion">      0.00000000 </i>
   </dipole>
   <energy>
    <i name="e_fr_energy">   -180.03821393 </i>
    <i name="e_wo_entrp">   -180.02068246 </i>
    <i name="e_0_energy">   -180.02944819 </i>
   </energy>
  </scstep>
  <scstep>
   <time name="dav">   10.14   10.22</time>
   <time name="total">   10.52   10.60</time>
   <dipole>
    <v name="dipole">      0.00000000       0.00000000      -0.00000219 </v>
    <i name="Tr[quadrupol]">   -561.61395095 </i>
    <i name="Echarged">      0.00000000 </i>
    <i name="Edipol_quadrupol">      0.00000000 </i>
    <i name="Eion">      0.00000000 </i>
   </dipole>
   <energy>
    <i name="e_fr_energy">   -180.03821624 </i>
    <i name="e_wo_entrp">   -180.02068550 </i>
    <i name="e_0_energy">   -180.02945087 </i>
   </energy>
  </scstep>
  <scstep>
   <time name="dav">    9.85    9.92</time>
   <time name="total">   10.23   10.31</time>
   <dipole>
    <v name="dipole">      0.00000000       0.00000000      -0.00000030 </v>
    <i name="Tr[quadrupol]">   -561.61450765 </i>
    <i name="Echarged">      0.00000000 </i>
    <i name="Edipol_quadrupol">      0.00000000 </i>
    <i name="Eion">      0.00000000 </i>
   </dipole>
   <energy>
    <i name="e_fr_energy">   -180.03821796 </i>
    <i name="e_wo_entrp">   -180.02068735 </i>
    <i name="e_0_energy">   -180.02945265 </i>
   </energy>
  </scstep>
  <scstep>
   <time name="dav">    9.67    9.74</time>
   <time name="total">    9.74    9.81</time>
   <dipole>
    <v name="dipole">      0.00000000       0.00000000       0.00000105 </v>
    <i name="Tr[quadrupol]">   -561.61494290 </i>
    <i name="Echarged">      0.00000000 </i>
    <i name="Edipol_quadrupol">      0.00000000 </i>
    <i name="Eion">      0.00000000 </i>
   </dipole>
   <energy>
    <i name="alphaZ">     52.39387171 </i>
    <i name="ewald">  24963.96439119 </i>
    <i name="hartreedc"> -26632.13951894 </i>
    <i name="XCdc">    206.84099442 </i>
    <i name="pawpsdc">   7550.91158228 </i>
    <i name="pawaedc">  -7529.30118635 </i>
    <i name="eentropy">     -0.01753066 </i>
    <i name="bandstr">   -810.41562040 </i>
    <i name="atom">   2017.72479794 </i>
    <i name="e_fr_energy">   -180.03821880 </i>
    <i name="e_wo_entrp">   -180.02068814 </i>
    <i name="e_0_energy">   -180.02945347 </i>
   </energy>
  </scstep>
  <structure>
   <crystal>
    <varray name="basis" >
     <v>       5.68867732      -0.04329250       0.00000000 </v>
     <v>      -0.04675949       6.20460199       0.00000000 </v>
     <v>       0.00000000       0.00000000      30.08811665 </v>
    </varray>
    <i name="volume">   1061.92861404 </i>
    <varray name="rec_basis" >
     <v>       0.17579787       0.00132486       0.00000000 </v>
     <v>       0.00122663       0.16117994       0.00000000 </v>
     <v>       0.00000000       0.00000000       0.03323571 </v>
    </varray>
   </crystal>
   <varray name="positions" >
    <v>       0.51729367       0.63841738       0.13463159 </v>
    <v>       0.51729367       0.63841738       0.26712558 </v>
    <v>       0.48270633       0.36158262       0.13463159 </v>
    <v>       0.48270633       0.36158262       0.26712558 </v>
    <v>       0.98161700       0.64083359       0.13277990 </v>
    <v>       0.98161700       0.64083359       0.26897727 </v>
    <v>       0.01838300       0.35916641       0.13277990 </v>
    <v>       0.01838300       0.35916641       0.26897727 </v>
    <v>       0.59663718       0.90208828       0.13221031 </v>
    <v>       0.59663718       0.90208828       0.26954686 </v>
    <v>       0.40336282       0.09791171       0.13221031 </v>
    <v>       0.40336282       0.09791171       0.26954686 </v>
    <v>       0.90096897       0.90002188       0.13164259 </v>
    <v>       0.90096897       0.90002188       0.27011458 </v>
    <v>       0.09903103       0.09997811       0.13164259 </v>
    <v>       0.09903103       0.09997811       0.27011458 </v>
    <v>       0.75106469       0.73083667       0.17141335 </v>
    <v>       0.73636800       0.71387822       0.30243004 </v>
    <v>       0.26363200       0.28612178       0.09932713 </v>
    <v>       0.24893531       0.26916333       0.23034382 </v>
    <v>       0.73636800       0.71387822       0.09932713 </v>
    <v>       0.75106469       0.73083667       0.23034382 </v>
    <v>       0.24893531       0.26916333       0.17141335 </v>
    <v>       0.26363200       0.28612178       0.30243004 </v>
    <v>       0.25190709       0.52367954       0.13363817 </v>
    <v>       0.25190709       0.52367954       0.26811900 </v>
    <v>       0.74809291       0.47632043       0.13363817 </v>
    <v>       0.74809291       0.47632043       0.26811900 </v>
    <v>       0.50000000       0.50000000       0.05544061 </v>
    <v>       0.50000000       0.50000000       0.34631656 </v>
   </varray>
  </structure>
  <varray name="forces" >
   <v>      -0.08331460       0.27781166       0.76156953 </v>
   <v>      -0.08331460       0.27781166      -0.76156953 </v>
   <v>       0.08331460      -0.27781166       0.76156953 </v>
   <v>       0.08331460      -0.27781166      -0.76156953 </v>
   <v>      -0.01576913      -0.23300174       0.10531184 </v>
   <v>      -0.01576913      -0.23300174      -0.10531184 </v>
   <v>       0.01576913       0.23300174       0.10531184 </v>
   <v>       0.01576913       0.23300174      -0.10531184 </v>
   <v>       0.09295827      -0.29400874       0.13428512 </v>
   <v>       0.09295827      -0.29400874      -0.13428512 </v>
   <v>      -0.09295827       0.29400874       0.13428512 </v>
   <v>      -0.09295827       0.29400874      -0.13428512 </v>
   <v>       0.22800267       0.29302577      -0.22069676 </v>
   <v>       0.22800267       0.29302577       0.22069676 </v>
   <v>      -0.22800267      -0.29302577      -0.22069676 </v>
   <v>      -0.22800267      -0.29302577       0.22069676 </v>
   <v>       0.04878372       0.00432027       0.24052553 </v>
   <v>      -0.00725542      -0.20334629       0.11668188 </v>
   <v>       0.00725542       0.20334629      -0.11668188 </v>
   <v>      -0.04878372      -0.00432027      -0.24052553 </v>
   <v>      -0.00725542      -0.20334629      -0.11668188 </v>
   <v>       0.04878372       0.00432027      -0.24052553 </v>
   <v>      -0.04878372      -0.00432027       0.24052553 </v>
   <v>       0.00725542       0.20334629       0.11668188 </v>
   <v>      -0.31693152      -0.25287528       0.13339603 </v>
   <v>      -0.31693152      -0.25287528      -0.13339603 </v>
   <v>       0.31693152       0.25287528       0.13339603 </v>
   <v>       0.31693152       0.25287528      -0.13339603 </v>
   <v>       0.00000000      -0.00000000       0.33654401 </v>
   <v>       0.00000000      -0.00000000      -0.33654401 </v>
  </varray>
  <varray name="stress" >
   <v>      -0.58635110       2.22105896       0.00000000 </v>
   <v>       2.22105896      -0.18345538       0.00000000 </v>
   <v>       0.00000000       0.00000000     -14.82432571 </v>
  </varray>
  <energy>
   <i name="e_fr_energy">   -183.32323448 </i>
   <i name="e_wo_entrp">   -183.30570382 </i>
   <i name="e_0_energy">   -183.31446915 </i>
  </energy>
  <time name="totalsc">  139.83  140.83</time>
 </calculation>
 <calculation>
  <scstep>
   <time name="dav">   10.35   10.43</time>
   <time name="total">   10.74   10.81</time>
   <dipole>
    <v name="dipole">      0.00000000       0.00000000       0.00000206 </v>
    <i name="Tr[quadrupol]">   -562.85280184 </i>
    <i name="Echarged">      0.00000000 </i>
    <i name="Edipol_quadrupol">      0.00000000 </i>
    <i name="Eion">      0.00000000 </i>
   </dipole>
   <energy>
    <i name="alphaZ">     52.34085351 </i>
    <i name="ewald">  24948.72027360 </i>
    <i name="hartreedc"> -26616.26102408 </i>
    <i name="XCdc">    206.83452035 </i>
    <i name="pawpsdc">   7550.90440757 </i>
    <i name="pawaedc">  -7529.29401299 </i>
    <i name="eentropy">     -0.01768526 </i>
    <i name="bandstr">   -810.99761804 </i>
    <i name="atom">   2017.72479794 </i>
    <i name="e_fr_energy">   -180.04548741 </i>
    <i name="e_wo_entrp">   -180.02780215 </i>
    <i name="e_0_energy">   -180.03664478 </i>
   </energy>
  </scstep>
  <scstep>
   <time name="dav">   12.88   12.97</time>
   <time name="total">   13.26   13.35</time>
   <dipole>
    <v name="dipole">      0.00000000       0.00000000       0.00000751 </v>
    <i name="Tr[quadrupol]">   -562.84689245 </i>
    <i name="Echarged">      0.00000000 </i>
    <i name="Edipol_quadrupol">      0.00000000 </i>
    <i name="Eion">      0.00000000 </i>
   </dipole>
   <energy>
    <i name="e_fr_energy">   -180.04548844 </i>
    <i name="e_wo_entrp">   -180.02787670 </i>
    <i name="e_0_energy">   -180.03668257 </i>
   </energy>
  </scstep>
  <scstep>
   <time name="dav">   12.16   12.24</time>
   <time name="total">   12.54   12.62</time>
   <dipole>
    <v name="dipole">      0.00000000       0.00000000      -0.00000218 </v>
    <i name="Tr[quadrupol]">   -562.86804560 </i>
    <i name="Echarged">      0.00000000 </i>
    <i name="Edipol_quadrupol">      0.00000000 </i>
    <i name="Eion">      0.00000000 </i>
   </dipole>
   <energy>
    <i name="e_fr_energy">   -180.04540563 </i>
    <i name="e_wo_entrp">   -180.02770450 </i>
    <i name="e_0_energy">   -180.03655507 </i>
   </energy>
  </scstep>
  <scstep>
   <time name="dav">   12.18   12.26</time>
   <time name="total">   12.55   12.64</time>
   <dipole>
    <v name="dipole">      0.00000000       0.00000000       0.00000187 </v>
    <i name="Tr[quadrupol]">   -562.85702687 </i>
    <i name="Echarged">      0.00000000 </i>
    <i name="Edipol_quadrupol">      0.00000000 </i>
    <i name="Eion">      0.00000000 </i>
   </dipole>
   <energy>
    <i name="e_fr_energy">   -180.04531808 </i>
    <i name="e_wo_entrp">   -180.02769272 </i>
    <i name="e_0_energy">   -180.03650540 </i>
   </energy>
  </scstep>
  <scstep>
   <time name="dav">   12.25   12.33</time>
   <time name="total">   12.62   12.71</time>
   <dipole>
    <v name="dipole">      0.00000000       0.00000000       0.00000130 </v>
    <i name="Tr[quadrupol]">   -562.85913489 </i>
    <i name="Echarged">      0.00000000 </i>
    <i name="Edipol_quadrupol">      0.00000000 </i>
    <i name="Eion">      0.00000000 </i>
   </dipole>
   <energy>
    <i name="e_fr_energy">   -180.04530925 </i>
    <i name="e_wo_entrp">   -180.02766131 </i>
    <i name="e_0_energy">   -180.03648528 </i>
   </energy>
  </scstep>
  <scstep>
   <time name="dav">   12.23   12.31</time>
   <time name="total">   12.61   12.70</time>
   <dipole>
    <v name="dipole">      0.00000000       0.00000000       0.00000152 </v>
    <i name="Tr[quadrupol]">   -562.85898606 </i>
    <i name="Echarged">      0.00000000 </i>
    <i name="Edipol_quadrupol">      0.00000000 </i>
    <i name="Eion">      0.00000000 </i>
   </dipole>
   <energy>
    <i name="e_fr_energy">   -180.04531051 </i>
    <i name="e_wo_entrp">   -180.02766466 </i>
    <i name="e_0_energy">   -180.03648758 </i>
   </energy>
  </scstep>
  <scstep>
   <time name="dav">    8.55    8.61</time>
   <time name="total">    8.62    8.68</time>
   <dipole>
    <v name="dipole">      0.00000000       0.00000000       0.00000189 </v>
    <i name="Tr[quadrupol]">   -562.85896661 </i>
    <i name="Echarged">      0.00000000 </i>
    <i name="Edipol_quadrupol">      0.00000000 </i>
    <i name="Eion">      0.00000000 </i>
   </dipole>
   <energy>
    <i name="alphaZ">     52.34085357 </i>
    <i name="ewald">  24948.72027360 </i>
    <i name="hartreedc"> -26616.62655483 </i>
    <i name="XCdc">    206.84202645 </i>
    <i name="pawpsdc">   7549.82125206 </i>
    <i name="pawaedc">  -7528.21033657 </i>
    <i name="eentropy">     -0.01764620 </i>
    <i name="bandstr">   -810.63997649 </i>
    <i name="atom">   2017.72479794 </i>
    <i name="e_fr_energy">   -180.04531046 </i>
    <i name="e_wo_entrp">   -180.02766426 </i>
    <i name="e_0_energy">   -180.03648736 </i>
   </energy>
  </scstep>
  <structure>
   <crystal>
    <varray name="basis" >
     <v>       5.69110047      -0.04294559       0.00000000 </v>
     <v>      -0.04637337       6.20823626       0.00000000 </v>
     <v>       0.00000000       0.00000000      30.08811665 </v>
    </varray>
    <i name="volume">   1063.00427729 </i>
    <varray name="rec_basis" >
     <v>       0.17572285       0.00131259       0.00000000 </v>
     <v>       0.00121557       0.16108542       0.00000000 </v>
     <v>       0.00000000       0.00000000       0.03323571 </v>
    </varray>
   </crystal>
   <varray name="positions" >
    <v>       0.51689806       0.63835616       0.13471711 </v>
    <v>       0.51689806       0.63835616       0.26704006 </v>
    <v>       0.48310194       0.36164384       0.13471711 </v>
    <v>       0.48310194       0.36164384       0.26704006 </v>
    <v>       0.98193237       0.64107472       0.13272668 </v>
    <v>       0.98193237       0.64107472       0.26903049 </v>
    <v>       0.01806763       0.35892528       0.13272668 </v>
    <v>       0.01806763       0.35892528       0.26903049 </v>
    <v>       0.59664464       0.90221370       0.13216280 </v>
    <v>       0.59664464       0.90221370       0.26959437 </v>
    <v>       0.40335536       0.09778629       0.13216280 </v>
    <v>       0.40335536       0.09778629       0.26959437 </v>
    <v>       0.90068555       0.89976410       0.13154275 </v>
    <v>       0.90068555       0.89976410       0.27021442 </v>
    <v>       0.09931445       0.10023589       0.13154275 </v>
    <v>       0.09931445       0.10023589       0.27021442 </v>
    <v>       0.75115685       0.73064296       0.17152864 </v>
    <v>       0.73572061       0.71302786       0.30217904 </v>
    <v>       0.26427939       0.28697214       0.09957814 </v>
    <v>       0.24884315       0.26935704       0.23022854 </v>
    <v>       0.73572061       0.71302786       0.09957814 </v>
    <v>       0.75115685       0.73064296       0.23022854 </v>
    <v>       0.24884315       0.26935704       0.17152864 </v>
    <v>       0.26427939       0.28697214       0.30217904 </v>
    <v>       0.25204320       0.52342193       0.13363430 </v>
    <v>       0.25204320       0.52342193       0.26812287 </v>
    <v>       0.74795680       0.47657804       0.13363430 </v>
    <v>       0.74795680       0.47657804       0.26812287 </v>
    <v>       0.50000000       0.50000000       0.05550697 </v>
    <v>       0.50000000       0.50000000       0.34625020 </v>
   </varray>
  </structure>
  <varray name="forces" >
   <v>      -0.05860268       0.32025858       0.80208069 </v>
   <v>      -0.05860268       0.32025858      -0.80208069 </v>
   <v>       0.05860268      -0.32025858       0.80208069 </v>
   <v>       0.05860268      -0.32025858      -0.80208069 </v>
   <v>      -0.04639338      -0.28240304       0.14269606 </v>
   <v>      -0.04639338      -0.28240304      -0.14269606 </v>
   <v>       0.04639338       0.28240304       0.14269606 </v>
   <v>       0.04639338       0.28240304      -0.14269606 </v>
   <v>       0.09578771      -0.33451872       0.16917974 </v>
   <v>       0.09578771      -0.33451872      -0.16917974 </v>
   <v>      -0.09578771       0.33451872       0.16917974 </v>
   <v>      -0.09578771       0.33451872      -0.16917974 </v>
   <v>       0.28601950       0.36176437      -0.19350562 </v>
   <v>       0.28601950       0.36176437       0.19350562 </v>
   <v>      -0.28601950      -0.36176437      -0.19350562 </v>
   <v>      -0.28601950      -0.36176437       0.19350562 </v>
   <v>       0.04487426       0.02455617       0.11330967 </v>
   <v>       0.03994774      -0.13490369       0.22395844 </v>
   <v>      -0.03994774       0.13490369      -0.22395844 </v>
   <v>      -0.04487426      -0.02455617      -0.11330967 </v>
   <v>       0.03994774      -0.13490369      -0.22395844 </v>
   <v>       0.04487426       0.02455617      -0.11330967 </v>
   <v>      -0.04487426      -0.02455617       0.11330967 </v>
   <v>      -0.03994774       0.13490369       0.22395844 </v>
   <v>      -0.36531620      -0.23310401       0.15702273 </v>
   <v>      -0.36531620      -0.23310401      -0.15702273 </v>
   <v>       0.36531620       0.23310401       0.15702273 </v>
   <v>       0.36531620       0.23310401      -0.15702273 </v>
   <v>      -0.00000000      -0.00000000       0.33993880 </v>
   <v>      -0.00000000      -0.00000000      -0.33993880 </v>
  </varray>
  <varray name="stress" >
   <v>      -1.08147972       2.15617640       0.00000000 </v>
   <v>       2.15617640      -0.43431011       0.00000000 </v>
   <v>       0.00000000       0.00000000     -14.20184707 </v>
  </varray>
  <energy>
   <i name="e_fr_energy">   -183.32814148 </i>
   <i name="e_wo_entrp">   -183.31049529 </i>
   <i name="e_0_energy">   -183.31931839 </i>
  </energy>
  <time name="totalsc">   91.51   92.16</time>
 </calculation>
 <calculation>
  <scstep>
   <time name="dav">   10.60   10.68</time>
   <time name="total">   10.98   11.06</time>
   <dipole>
    <v name="dipole">      0.00000000       0.00000000       0.00000211 </v>
    <i name="Tr[quadrupol]">   -565.75815368 </i>
    <i name="Echarged">      0.00000000 </i>
    <i name="Edipol_quadrupol">      0.00000000 </i>
    <i name="Eion">      0.00000000 </i>
   </dipole>
   <energy>
    <i name="alphaZ">     52.25905414 </i>
    <i name="ewald">  24975.22753152 </i>
    <i name="hartreedc"> -26643.30753076 </i>
    <i name="XCdc">    206.77622836 </i>
    <i name="pawpsdc">   7549.85551381 </i>
    <i name="pawaedc">  -7528.24457310 </i>
    <i name="eentropy">     -0.01717478 </i>
    <i name="bandstr">   -810.48808021 </i>
    <i name="atom">   2017.72479794 </i>
    <i name="e_fr_energy">   -180.21423308 </i>
    <i name="e_wo_entrp">   -180.19705830 </i>
    <i name="e_0_energy">   -180.20564569 </i>
   </energy>
  </scstep>
  <scstep>
   <time name="dav">   13.04   13.13</time>
   <time name="total">   13.41   13.51</time>
   <dipole>
    <v name="dipole">      0.00000000       0.00000000      -0.00000483 </v>
    <i name="Tr[quadrupol]">   -565.73438274 </i>
    <i name="Echarged">      0.00000000 </i>
    <i name="Edipol_quadrupol">      0.00000000 </i>
    <i name="Eion">      0.00000000 </i>
   </dipole>
   <energy>
    <i name="e_fr_energy">   -180.20217477 </i>
    <i name="e_wo_entrp">   -180.18508101 </i>
    <i name="e_0_energy">   -180.19362789 </i>
   </energy>
  </scstep>
  <scstep>
   <time name="dav">   12.55   12.64</time>
   <time name="total">   12.92   13.01</time>
   <dipole>
    <v name="dipole">      0.00000000       0.00000000      -0.00004875 </v>
    <i name="Tr[quadrupol]">   -565.83698196 </i>
    <i name="Echarged">      0.00000000 </i>
    <i name="Edipol_quadrupol">      0.00000000 </i>
    <i name="Eion">      0.00000000 </i>
   </dipole>
   <energy>
    <i name="e_fr_energy">   -180.19770374 </i>
    <i name="e_wo_entrp">   -180.18156889 </i>
    <i name="e_0_energy">   -180.18963631 </i>
   </energy>
  </scstep>
  <scstep>
   <time name="dav">   12.18   12.27</time>
   <time name="total">   12.56   12.65</time>
   <dipole>
    <v name="dipole">      0.00000000       0.00000000      -0.00001190 </v>
    <i name="Tr[quadrupol]">   -565.74936854 </i>
    <i name="Echarged">      0.00000000 </i>
    <i name="Edipol_quadrupol">      0.00000000 </i>
    <i name="Eion">      0.00000000 </i>
   </dipole>
   <energy>
    <i name="e_fr_energy">   -180.19379618 </i>
    <i name="e_wo_entrp">   -180.17648313 </i>
    <i name="e_0_energy">   -180.18513965 </i>
   </energy>
  </scstep>
  <scstep>
   <time name="dav">   12.18   12.27</time>
   <time name="total">   12.56   12.65</time>
   <dipole>
    <v name="dipole">      0.00000000       0.00000000      -0.00000837 </v>
    <i name="Tr[quadrupol]">   -565.75578071 </i>
    <i name="Echarged">      0.00000000 </i>
    <i name="Edipol_quadrupol">      0.00000000 </i>
    <i name="Eion">      0.00000000 </i>
   </dipole>
   <energy>
    <i name="e_fr_energy">   -180.19330263 </i>
    <i name="e_wo_entrp">   -180.17585433 </i>
    <i name="e_0_energy">   -180.18457848 </i>
   </energy>
  </scstep>
  <scstep>
   <time name="dav">   12.10   12.18</time>
   <time name="total">   12.47   12.56</time>
   <dipole>
    <v name="dipole">      0.00000000       0.00000000      -0.00000713 </v>
    <i name="Tr[quadrupol]">   -565.75538441 </i>
    <i name="Echarged">      0.00000000 </i>
    <i name="Edipol_quadrupol">      0.00000000 </i>
    <i name="Eion">      0.00000000 </i>
   </dipole>
   <energy>
    <i name="e_fr_energy">   -180.19334156 </i>
    <i name="e_wo_entrp">   -180.17588763 </i>
    <i name="e_0_energy">   -180.18461460 </i>
   </energy>
  </scstep>
  <scstep>
   <time name="dav">   12.47   12.55</time>
   <time name="total">   12.84   12.93</time>
   <dipole>
    <v name="dipole">      0.00000000       0.00000000      -0.00000465 </v>
    <i name="Tr[quadrupol]">   -565.75284248 </i>
    <i name="Echarged">      0.00000000 </i>
    <i name="Edipol_quadrupol">      0.00000000 </i>
    <i name="Eion">      0.00000000 </i>
   </dipole>
   <energy>
    <i name="e_fr_energy">   -180.19333954 </i>
    <i name="e_wo_entrp">   -180.17588897 </i>
    <i name="e_0_energy">   -180.18461425 </i>
   </energy>
  </scstep>
  <scstep>
   <time name="dav">   12.67   12.76</time>
   <time name="total">   13.04   13.14</time>
   <dipole>
    <v name="dipole">      0.00000000       0.00000000      -0.00000278 </v>
    <i name="Tr[quadrupol]">   -565.75158896 </i>
    <i name="Echarged">      0.00000000 </i>
    <i name="Edipol_quadrupol">      0.00000000 </i>
    <i name="Eion">      0.00000000 </i>
   </dipole>
   <energy>
    <i name="e_fr_energy">   -180.19334330 </i>
    <i name="e_wo_entrp">   -180.17589311 </i>
    <i name="e_0_energy">   -180.18461821 </i>
   </energy>
  </scstep>
  <scstep>
   <time name="dav">   10.18   10.25</time>
   <time name="total">   10.56   10.63</time>
   <dipole>
    <v name="dipole">      0.00000000       0.00000000      -0.00000182 </v>
    <i name="Tr[quadrupol]">   -565.75086365 </i>
    <i name="Echarged">      0.00000000 </i>
    <i name="Edipol_quadrupol">      0.00000000 </i>
    <i name="Eion">      0.00000000 </i>
   </dipole>
   <energy>
    <i name="e_fr_energy">   -180.19334535 </i>
    <i name="e_wo_entrp">   -180.17589468 </i>
    <i name="e_0_energy">   -180.18462001 </i>
   </energy>
  </scstep>
  <scstep>
   <time name="dav">   10.19   10.26</time>
   <time name="total">   10.57   10.64</time>
   <dipole>
    <v name="dipole">      0.00000000       0.00000000      -0.00000082 </v>
    <i name="Tr[quadrupol]">   -565.75026463 </i>
    <i name="Echarged">      0.00000000 </i>
    <i name="Edipol_quadrupol">      0.00000000 </i>
    <i name="Eion">      0.00000000 </i>
   </dipole>
   <energy>
    <i name="e_fr_energy">   -180.19334722 </i>
    <i name="e_wo_entrp">   -180.17589677 </i>
    <i name="e_0_energy">   -180.18462200 </i>
   </energy>
  </scstep>
  <scstep>
   <time name="dav">    9.96   10.03</time>
   <time name="total">   10.03   10.10</time>
   <dipole>
    <v name="dipole">      0.00000000       0.00000000      -0.00000031 </v>
    <i name="Tr[quadrupol]">   -565.75004675 </i>
    <i name="Echarged">      0.00000000 </i>
    <i name="Edipol_quadrupol">      0.00000000 </i>
    <i name="Eion">      0.00000000 </i>
   </dipole>
   <energy>
    <i name="alphaZ">     52.25905507 </i>
    <i name="ewald">  24975.22753152 </i>
    <i name="hartreedc"> -26643.04745437 </i>
    <i name="XCdc">    206.77504766 </i>
    <i name="pawpsdc">   7521.93143439 </i>
    <i name="pawaedc">  -7500.31054197 </i>
    <i name="eentropy">     -0.01745044 </i>
    <i name="bandstr">   -810.73576783 </i>
    <i name="atom">   2017.72479794 </i>
    <i name="e_fr_energy">   -180.19334802 </i>
    <i name="e_wo_entrp">   -180.17589758 </i>
    <i name="e_0_energy">   -180.18462280 </i>
   </energy>
  </scstep>
  <structure>
   <crystal>
    <varray name="basis" >
     <v>       5.69209583      -0.02890417       0.00000000 </v>
     <v>      -0.03100050       6.21667348       0.00000000 </v>
     <v>       0.00000000       0.00000000      30.08811665 </v>
    </varray>
    <i name="volume">   1064.66816235 </i>
    <varray name="rec_basis" >
     <v>       0.17568666       0.00087609       0.00000000 </v>
     <v>       0.00081685       0.16086181       0.00000000 </v>
     <v>       0.00000000       0.00000000       0.03323571 </v>
    </varray>
   </crystal>
   <varray name="positions" >
    <v>       0.51519595       0.64062031       0.13625359 </v>
    <v>       0.51519595       0.64062031       0.26550358 </v>
    <v>       0.48480405       0.35937969       0.13625359 </v>
    <v>       0.48480405       0.35937969       0.26550358 </v>
    <v>       0.98250795       0.63965502       0.13278692 </v>
    <v>       0.98250795       0.63965502       0.26897025 </v>
    <v>       0.01749205       0.36034498       0.13278692 </v>
    <v>       0.01749205       0.36034498       0.26897025 </v>
    <v>       0.59744887       0.90004217       0.13228274 </v>
    <v>       0.59744887       0.90004217       0.26947443 </v>
    <v>       0.40255113       0.09995782       0.13228274 </v>
    <v>       0.40255113       0.09995782       0.26947443 </v>
    <v>       0.90222064       0.90175496       0.13092540 </v>
    <v>       0.90222064       0.90175496       0.27083177 </v>
    <v>       0.09777936       0.09824503       0.13092540 </v>
    <v>       0.09777936       0.09824503       0.27083177 </v>
    <v>       0.75182102       0.73023111       0.17206708 </v>
    <v>       0.73403156       0.70934822       0.30175199 </v>
    <v>       0.26596844       0.29065178       0.10000518 </v>
    <v>       0.24817898       0.26976889       0.22969009 </v>
    <v>       0.73403156       0.70934822       0.10000518 </v>
    <v>       0.75182102       0.73023111       0.22969009 </v>
    <v>       0.24817898       0.26976889       0.17206708 </v>
    <v>       0.26596844       0.29065178       0.30175199 </v>
    <v>       0.24939379       0.52080988       0.13387090 </v>
    <v>       0.24939379       0.52080988       0.26788627 </v>
    <v>       0.75060621       0.47919009       0.13387090 </v>
    <v>       0.75060621       0.47919009       0.26788627 </v>
    <v>       0.50000000       0.50000000       0.05625194 </v>
    <v>       0.50000000       0.50000000       0.34550524 </v>
   </varray>
  </structure>
  <varray name="forces" >
   <v>      -0.07333246      -0.27911978       0.60994865 </v>
   <v>      -0.07333246      -0.27911978      -0.60994865 </v>
   <v>       0.07333246       0.27911978       0.60994865 </v>
   <v>       0.07333246       0.27911978      -0.60994865 </v>
   <v>      -0.13802809       0.21379325       0.19263850 </v>
   <v>      -0.13802809       0.21379325      -0.19263850 </v>
   <v>       0.13802809      -0.21379325       0.19263850 </v>
   <v>       0.13802809      -0.21379325      -0.19263850 </v>
   <v>      -0.21427235       0.28974439       0.20624441 </v>
   <v>      -0.21427235       0.28974439      -0.20624441 </v>
   <v>       0.21427235      -0.28974439       0.20624441 </v>
   <v>       0.21427235      -0.28974439      -0.20624441 </v>
   <v>      -0.26780637      -0.47311281      -0.09259060 </v>
   <v>      -0.26780637      -0.47311281       0.09259060 </v>
   <v>       0.26780637       0.47311281      -0.09259060 </v>
   <v>       0.26780637       0.47311281       0.09259060 </v>
   <v>       0.20776760       0.19587819      -0.34174703 </v>
   <v>       0.03743863       0.07429710       0.31914157 </v>
   <v>      -0.03743863      -0.07429710      -0.31914157 </v>
   <v>      -0.20776760      -0.19587819       0.34174703 </v>
   <v>       0.03743863       0.07429710      -0.31914157 </v>
   <v>       0.20776760       0.19587819       0.34174703 </v>
   <v>      -0.20776760      -0.19587819      -0.34174703 </v>
   <v>      -0.03743863      -0.07429710       0.31914157 </v>
   <v>       0.46290433       0.12456652       0.30189058 </v>
   <v>       0.46290433       0.12456652      -0.30189058 </v>
   <v>      -0.46290433      -0.12456652       0.30189058 </v>
   <v>      -0.46290433      -0.12456652      -0.30189058 </v>
   <v>       0.00000000      -0.00000000       0.39076767 </v>
   <v>       0.00000000      -0.00000000      -0.39076767 </v>
  </varray>
  <varray name="stress" >
   <v>      -4.61217521      -0.05772114       0.00000000 </v>
   <v>      -0.05772113      -0.85183207       0.00000000 </v>
   <v>       0.00000000       0.00000000     -12.32610346 </v>
  </varray>
  <energy>
   <i name="e_fr_energy">   -183.48187194 </i>
   <i name="e_wo_entrp">   -183.46442150 </i>
   <i name="e_0_energy">   -183.47314672 </i>
  </energy>
  <time name="totalsc">  140.44  141.44</time>
 </calculation>
 <calculation>
  <scstep>
   <time name="dav">   10.78   10.86</time>
   <time name="total">   11.16   11.24</time>
   <dipole>
    <v name="dipole">      0.00000000       0.00000000       0.00000026 </v>
    <i name="Tr[quadrupol]">   -565.68397979 </i>
    <i name="Echarged">      0.00000000 </i>
    <i name="Edipol_quadrupol">      0.00000000 </i>
    <i name="Eion">      0.00000000 </i>
   </dipole>
   <energy>
    <i name="alphaZ">     52.26088746 </i>
    <i name="ewald">  24974.63519522 </i>
    <i name="hartreedc"> -26642.44715642 </i>
    <i name="XCdc">    206.77652482 </i>
    <i name="pawpsdc">   7521.93484108 </i>
    <i name="pawaedc">  -7500.31395374 </i>
    <i name="eentropy">     -0.01745780 </i>
    <i name="bandstr">   -810.74724878 </i>
    <i name="atom">   2017.72479794 </i>
    <i name="e_fr_energy">   -180.19357021 </i>
    <i name="e_wo_entrp">   -180.17611241 </i>
    <i name="e_0_energy">   -180.18484131 </i>
   </energy>
  </scstep>
  <scstep>
   <time name="dav">   12.69   12.78</time>
   <time name="total">   13.07   13.16</time>
   <dipole>
    <v name="dipole">      0.00000000       0.00000000       0.00000035 </v>
    <i name="Tr[quadrupol]">   -565.68492103 </i>
    <i name="Echarged">      0.00000000 </i>
    <i name="Edipol_quadrupol">      0.00000000 </i>
    <i name="Eion">      0.00000000 </i>
   </dipole>
   <energy>
    <i name="e_fr_energy">   -180.19356343 </i>
    <i name="e_wo_entrp">   -180.17610192 </i>
    <i name="e_0_energy">   -180.18483268 </i>
   </energy>
  </scstep>
  <scstep>
   <time name="dav">   12.37   12.45</time>
   <time name="total">   12.74   12.83</time>
   <dipole>
    <v name="dipole">      0.00000000       0.00000000       0.00000159 </v>
    <i name="Tr[quadrupol]">   -565.68231644 </i>
    <i name="Echarged">      0.00000000 </i>
    <i name="Edipol_quadrupol">      0.00000000 </i>
    <i name="Eion">      0.00000000 </i>
   </dipole>
   <energy>
    <i name="e_fr_energy">   -180.19356142 </i>
    <i name="e_wo_entrp">   -180.17609840 </i>
    <i name="e_0_energy">   -180.18482991 </i>
   </energy>
  </scstep>
  <scstep>
   <time name="dav">   11.97   12.06</time>
   <time name="total">   12.35   12.44</time>
   <dipole>
    <v name="dipole">      0.00000000       0.00000000       0.00000090 </v>
    <i name="Tr[quadrupol]">   -565.68436241 </i>
    <i name="Echarged">      0.00000000 </i>
    <i name="Edipol_quadrupol">      0.00000000 </i>
    <i name="Eion">      0.00000000 </i>
   </dipole>
   <energy>
    <i name="e_fr_energy">   -180.19355908 </i>
    <i name="e_wo_entrp">   -180.17609678 </i>
    <i name="e_0_energy">   -180.18482793 </i>
   </energy>
  </scstep>
  <scstep>
   <time name="dav">    8.77    8.83</time>
   <time name="total">    8.84    8.90</time>
   <dipole>
    <v name="dipole">      0.00000000       0.00000000       0.00000093 </v>
    <i name="Tr[quadrupol]">   -565.68428345 </i>
    <i name="Echarged">      0.00000000 </i>
    <i name="Edipol_quadrupol">      0.00000000 </i>
    <i name="Eion">      0.00000000 </i>
   </dipole>
   <energy>
    <i name="alphaZ">     52.26088720 </i>
    <i name="ewald">  24974.63519522 </i>
    <i name="hartreedc"> -26642.45222446 </i>
    <i name="XCdc">    206.77638310 </i>
    <i name="pawpsdc">   7522.44776000 </i>
    <i name="pawaedc">  -7500.82700531 </i>
    <i name="eentropy">     -0.01746109 </i>
    <i name="bandstr">   -810.74189153 </i>
    <i name="atom">   2017.72479794 </i>
    <i name="e_fr_energy">   -180.19355891 </i>
    <i name="e_wo_entrp">   -180.17609783 </i>
    <i name="e_0_energy">   -180.18482837 </i>
   </energy>
  </scstep>
  <structure>
   <crystal>
    <varray name="basis" >
     <v>       5.69207341      -0.02922039       0.00000000 </v>
     <v>      -0.03134670       6.21648347       0.00000000 </v>
     <v>       0.00000000       0.00000000      30.08811665 </v>
    </varray>
    <i name="volume">   1064.63082813 </i>
    <varray name="rec_basis" >
     <v>       0.17568745       0.00088591       0.00000000 </v>
     <v>       0.00082581       0.16086681       0.00000000 </v>
     <v>       0.00000000       0.00000000       0.03323571 </v>
    </varray>
   </crystal>
   <varray name="positions" >
    <v>       0.51523441       0.64056930       0.13621899 </v>
    <v>       0.51523441       0.64056930       0.26553818 </v>
    <v>       0.48476559       0.35943070       0.13621899 </v>
    <v>       0.48476559       0.35943070       0.26553818 </v>
    <v>       0.98249490       0.63968698       0.13278556 </v>
    <v>       0.98249490       0.63968698       0.26897161 </v>
    <v>       0.01750510       0.36031302       0.13278556 </v>
    <v>       0.01750510       0.36031302       0.26897161 </v>
    <v>       0.59743063       0.90009105       0.13228004 </v>
    <v>       0.59743063       0.90009105       0.26947713 </v>
    <v>       0.40256937       0.09990895       0.13228004 </v>
    <v>       0.40256937       0.09990895       0.26947713 </v>
    <v>       0.90218619       0.90171026       0.13093930 </v>
    <v>       0.90218619       0.90171026       0.27081787 </v>
    <v>       0.09781381       0.09828973       0.13093930 </v>
    <v>       0.09781381       0.09828973       0.27081787 </v>
    <v>       0.75180604       0.73024040       0.17205495 </v>
    <v>       0.73406937       0.70943089       0.30176161 </v>
    <v>       0.26593063       0.29056911       0.09999557 </v>
    <v>       0.24819396       0.26975960       0.22970222 </v>
    <v>       0.73406937       0.70943089       0.09999557 </v>
    <v>       0.75180604       0.73024040       0.22970222 </v>
    <v>       0.24819396       0.26975960       0.17205495 </v>
    <v>       0.26593063       0.29056911       0.30176161 </v>
    <v>       0.24945328       0.52086849       0.13386557 </v>
    <v>       0.24945328       0.52086849       0.26789160 </v>
    <v>       0.75054672       0.47913148       0.13386557 </v>
    <v>       0.75054672       0.47913148       0.26789160 </v>
    <v>       0.50000000       0.50000000       0.05623516 </v>
    <v>       0.50000000       0.50000000       0.34552201 </v>
   </varray>
  </structure>
  <varray name="forces" >
   <v>      -0.07328981      -0.26596034       0.61452553 </v>
   <v>      -0.07328981      -0.26596034      -0.61452553 </v>
   <v>       0.07328981       0.26596034       0.61452553 </v>
   <v>       0.07328981       0.26596034      -0.61452553 </v>
   <v>      -0.13617968       0.20234747       0.19159861 </v>
   <v>      -0.13617968       0.20234747      -0.19159861 </v>
   <v>       0.13617968      -0.20234747       0.19159861 </v>
   <v>       0.13617968      -0.20234747      -0.19159861 </v>
   <v>      -0.20790199       0.27604139       0.20554439 </v>
   <v>      -0.20790199       0.27604139      -0.20554439 </v>
   <v>       0.20790199      -0.27604139       0.20554439 </v>
   <v>       0.20790199      -0.27604139      -0.20554439 </v>
   <v>      -0.25513793      -0.45459936      -0.09469596 </v>
   <v>      -0.25513793      -0.45459936       0.09469596 </v>
   <v>       0.25513793       0.45459936      -0.09469596 </v>
   <v>       0.25513793       0.45459936       0.09469596 </v>
   <v>       0.20438212       0.19235626      -0.33136323 </v>
   <v>       0.03772065       0.06923493       0.31650090 </v>
   <v>      -0.03772065      -0.06923493      -0.31650090 </v>
   <v>      -0.20438212      -0.19235626       0.33136323 </v>
   <v>       0.03772065       0.06923493      -0.31650090 </v>
   <v>       0.20438212       0.19235626       0.33136323 </v>
   <v>      -0.20438212      -0.19235626      -0.33136323 </v>
   <v>      -0.03772065      -0.06923493       0.31650090 </v>
   <v>       0.44424338       0.11591014       0.29806618 </v>
   <v>       0.44424338       0.11591014      -0.29806618 </v>
   <v>      -0.44424338      -0.11591014       0.29806618 </v>
   <v>      -0.44424338      -0.11591014      -0.29806618 </v>
   <v>       0.00000000      -0.00000000       0.38966164 </v>
   <v>       0.00000000      -0.00000000      -0.38966164 </v>
  </varray>
  <varray name="stress" >
   <v>      -4.53849663      -0.00554462       0.00000000 </v>
   <v>      -0.00554462      -0.85047275       0.00000000 </v>
   <v>       0.00000000       0.00000000     -12.37595633 </v>
  </varray>
  <energy>
   <i name="e_fr_energy">   -183.48195317 </i>
   <i name="e_wo_entrp">   -183.46449208 </i>
   <i name="e_0_energy">   -183.47322263 </i>
  </energy>
  <time name="totalsc">   66.76   67.24</time>
 </calculation>
 <calculation>
  <scstep>
   <time name="dav">   10.57   10.64</time>
   <time name="total">   10.94   11.02</time>
   <dipole>
    <v name="dipole">      0.00000000       0.00000000       0.00000105 </v>
    <i name="Tr[quadrupol]">   -566.04465192 </i>
    <i name="Echarged">      0.00000000 </i>
    <i name="Edipol_quadrupol">      0.00000000 </i>
    <i name="Eion">      0.00000000 </i>
   </dipole>
   <energy>
    <i name="alphaZ">     52.38122461 </i>
    <i name="ewald">  25089.35302786 </i>
    <i name="hartreedc"> -26757.72763756 </i>
    <i name="XCdc">    206.91359381 </i>
    <i name="pawpsdc">   7522.46789157 </i>
    <i name="pawaedc">  -7500.84714474 </i>
    <i name="eentropy">     -0.01808690 </i>
    <i name="bandstr">   -810.57847069 </i>
    <i name="atom">   2017.72479794 </i>
    <i name="e_fr_energy">   -180.33080410 </i>
    <i name="e_wo_entrp">   -180.31271720 </i>
    <i name="e_0_energy">   -180.32176065 </i>
   </energy>
  </scstep>
  <scstep>
   <time name="dav">   12.63   12.73</time>
   <time name="total">   13.01   13.11</time>
   <dipole>
    <v name="dipole">      0.00000000       0.00000000      -0.00003967 </v>
    <i name="Tr[quadrupol]">   -566.10416339 </i>
    <i name="Echarged">      0.00000000 </i>
    <i name="Edipol_quadrupol">      0.00000000 </i>
    <i name="Eion">      0.00000000 </i>
   </dipole>
   <energy>
    <i name="e_fr_energy">   -180.33210732 </i>
    <i name="e_wo_entrp">   -180.31442453 </i>
    <i name="e_0_energy">   -180.32326593 </i>
   </energy>
  </scstep>
  <scstep>
   <time name="dav">   12.47   12.57</time>
   <time name="total">   12.84   12.94</time>
   <dipole>
    <v name="dipole">      0.00000000       0.00000000      -0.00002505 </v>
    <i name="Tr[quadrupol]">   -566.07633892 </i>
    <i name="Echarged">      0.00000000 </i>
    <i name="Edipol_quadrupol">      0.00000000 </i>
    <i name="Eion">      0.00000000 </i>
   </dipole>
   <energy>
    <i name="e_fr_energy">   -180.33007589 </i>
    <i name="e_wo_entrp">   -180.31213571 </i>
    <i name="e_0_energy">   -180.32110580 </i>
   </energy>
  </scstep>
  <scstep>
   <time name="dav">   12.52   12.61</time>
   <time name="total">   12.90   12.99</time>
   <dipole>
    <v name="dipole">      0.00000000       0.00000000      -0.00002939 </v>
    <i name="Tr[quadrupol]">   -566.10519950 </i>
    <i name="Echarged">      0.00000000 </i>
    <i name="Edipol_quadrupol">      0.00000000 </i>
    <i name="Eion">      0.00000000 </i>
   </dipole>
   <energy>
    <i name="e_fr_energy">   -180.32980945 </i>
    <i name="e_wo_entrp">   -180.31241569 </i>
    <i name="e_0_energy">   -180.32111257 </i>
   </energy>
  </scstep>
  <scstep>
   <time name="dav">   12.24   12.33</time>
   <time name="total">   12.62   12.71</time>
   <dipole>
    <v name="dipole">      0.00000000       0.00000000      -0.00001320 </v>
    <i name="Tr[quadrupol]">   -566.07930091 </i>
    <i name="Echarged">      0.00000000 </i>
    <i name="Edipol_quadrupol">      0.00000000 </i>
    <i name="Eion">      0.00000000 </i>
   </dipole>
   <energy>
    <i name="e_fr_energy">   -180.32950253 </i>
    <i name="e_wo_entrp">   -180.31166840 </i>
    <i name="e_0_energy">   -180.32058547 </i>
   </energy>
  </scstep>
  <scstep>
   <time name="dav">   12.72   12.82</time>
   <time name="total">   13.10   13.20</time>
   <dipole>
    <v name="dipole">      0.00000000       0.00000000      -0.00001131 </v>
    <i name="Tr[quadrupol]">   -566.08516600 </i>
    <i name="Echarged">      0.00000000 </i>
    <i name="Edipol_quadrupol">      0.00000000 </i>
    <i name="Eion">      0.00000000 </i>
   </dipole>
   <energy>
    <i name="e_fr_energy">   -180.32950716 </i>
    <i name="e_wo_entrp">   -180.31171279 </i>
    <i name="e_0_energy">   -180.32060998 </i>
   </energy>
  </scstep>
  <scstep>
   <time name="dav">   12.32   12.42</time>
   <time name="total">   12.70   12.80</time>
   <dipole>
    <v name="dipole">      0.00000000       0.00000000      -0.00000758 </v>
    <i name="Tr[quadrupol]">   -566.08648052 </i>
    <i name="Echarged">      0.00000000 </i>
    <i name="Edipol_quadrupol">      0.00000000 </i>
    <i name="Eion">      0.00000000 </i>
   </dipole>
   <energy>
    <i name="e_fr_energy">   -180.32950619 </i>
    <i name="e_wo_entrp">   -180.31170913 </i>
    <i name="e_0_energy">   -180.32060766 </i>
   </energy>
  </scstep>
  <scstep>
   <time name="dav">   11.13   11.23</time>
   <time name="total">   11.51   11.62</time>
   <dipole>
    <v name="dipole">      0.00000000       0.00000000      -0.00000474 </v>
    <i name="Tr[quadrupol]">   -566.08772972 </i>
    <i name="Echarged">      0.00000000 </i>
    <i name="Edipol_quadrupol">      0.00000000 </i>
    <i name="Eion">      0.00000000 </i>
   </dipole>
   <energy>
    <i name="e_fr_energy">   -180.32950762 </i>
    <i name="e_wo_entrp">   -180.31171252 </i>
    <i name="e_0_energy">   -180.32061007 </i>
   </energy>
  </scstep>
  <scstep>
   <time name="dav">    9.60    9.67</time>
   <time name="total">    9.67    9.74</time>
   <dipole>
    <v name="dipole">      0.00000000       0.00000000      -0.00000262 </v>
    <i name="Tr[quadrupol]">   -566.08879999 </i>
    <i name="Echarged">      0.00000000 </i>
    <i name="Edipol_quadrupol">      0.00000000 </i>
    <i name="Eion">      0.00000000 </i>
   </dipole>
   <energy>
    <i name="alphaZ">     52.38122603 </i>
    <i name="ewald">  25089.35302786 </i>
    <i name="hartreedc"> -26757.99165755 </i>
    <i name="XCdc">    206.88961901 </i>
    <i name="pawpsdc">   7539.07122343 </i>
    <i name="pawaedc">  -7517.45686096 </i>
    <i name="eentropy">     -0.01779578 </i>
    <i name="bandstr">   -810.28308843 </i>
    <i name="atom">   2017.72479794 </i>
    <i name="e_fr_energy">   -180.32950846 </i>
    <i name="e_wo_entrp">   -180.31171268 </i>
    <i name="e_0_energy">   -180.32061057 </i>
   </energy>
  </scstep>
  <structure>
   <crystal>
    <varray name="basis" >
     <v>       5.67738506      -0.02124712       0.00000000 </v>
     <v>      -0.02254929       6.21817166       0.00000000 </v>
     <v>       0.00000000       0.00000000      30.08811665 </v>
    </varray>
    <i name="volume">   1062.18500975 </i>
    <varray name="rec_basis" >
     <v>       0.17613982       0.00063875       0.00000000 </v>
     <v>       0.00060186       0.16082116       0.00000000 </v>
     <v>       0.00000000       0.00000000       0.03323571 </v>
    </varray>
   </crystal>
   <varray name="positions" >
    <v>       0.51391568       0.64071052       0.13763571 </v>
    <v>       0.51391568       0.64071052       0.26412147 </v>
    <v>       0.48608432       0.35928948       0.13763571 </v>
    <v>       0.48608432       0.35928948       0.26412147 </v>
    <v>       0.98218969       0.63974780       0.13298970 </v>
    <v>       0.98218969       0.63974780       0.26876747 </v>
    <v>       0.01781031       0.36025220       0.13298970 </v>
    <v>       0.01781031       0.36025220       0.26876747 </v>
    <v>       0.59692165       0.90004050       0.13253042 </v>
    <v>       0.59692165       0.90004050       0.26922676 </v>
    <v>       0.40307835       0.09995949       0.13253042 </v>
    <v>       0.40307835       0.09995949       0.26922676 </v>
    <v>       0.90184670       0.90087865       0.13050510 </v>
    <v>       0.90184670       0.90087865       0.27125207 </v>
    <v>       0.09815330       0.09912134       0.13050510 </v>
    <v>       0.09815330       0.09912134       0.27125207 </v>
    <v>       0.75314629       0.73083667       0.17206645 </v>
    <v>       0.73329546       0.70764658       0.30180012 </v>
    <v>       0.26670454       0.29235342       0.09995705 </v>
    <v>       0.24685371       0.26916333       0.22969073 </v>
    <v>       0.73329546       0.70764658       0.09995705 </v>
    <v>       0.75314629       0.73083667       0.22969073 </v>
    <v>       0.24685371       0.26916333       0.17206645 </v>
    <v>       0.26670454       0.29235342       0.30180012 </v>
    <v>       0.25004046       0.51989955       0.13426420 </v>
    <v>       0.25004046       0.51989955       0.26749298 </v>
    <v>       0.74995954       0.48010042       0.13426420 </v>
    <v>       0.74995954       0.48010042       0.26749298 </v>
    <v>       0.50000000       0.50000000       0.05700341 </v>
    <v>       0.50000000       0.50000000       0.34475376 </v>
   </varray>
  </structure>
  <varray name="forces" >
   <v>       0.13137448      -0.17001726       0.32707644 </v>
   <v>       0.13137448      -0.17001726      -0.32707644 </v>
   <v>      -0.13137448       0.17001726       0.32707644 </v>
   <v>      -0.13137448       0.17001726      -0.32707644 </v>
   <v>      -0.05519404       0.07589993       0.16844870 </v>
   <v>      -0.05519404       0.07589993      -0.16844870 </v>
   <v>       0.05519404      -0.07589993       0.16844870 </v>
   <v>       0.05519404      -0.07589993      -0.16844870 </v>
   <v>      -0.16128486       0.13838464       0.14508225 </v>
   <v>      -0.16128486       0.13838464      -0.14508225 </v>
   <v>       0.16128486      -0.13838464       0.14508225 </v>
   <v>       0.16128486      -0.13838464      -0.14508225 </v>
   <v>      -0.11905833      -0.24825115      -0.09162400 </v>
   <v>      -0.11905833      -0.24825115       0.09162400 </v>
   <v>       0.11905833       0.24825115      -0.09162400 </v>
   <v>       0.11905833       0.24825115       0.09162400 </v>
   <v>       0.20976640       0.25479973      -0.17545497 </v>
   <v>      -0.23636199       0.06003880       0.19567325 </v>
   <v>       0.23636199      -0.06003880      -0.19567325 </v>
   <v>      -0.20976640      -0.25479973       0.17545497 </v>
   <v>      -0.23636199       0.06003880      -0.19567325 </v>
   <v>       0.20976640       0.25479973       0.17545497 </v>
   <v>      -0.20976640      -0.25479973      -0.17545497 </v>
   <v>       0.23636199      -0.06003880       0.19567325 </v>
   <v>       0.29254781       0.21153225       0.32702971 </v>
   <v>       0.29254781       0.21153225      -0.32702971 </v>
   <v>      -0.29254781      -0.21153225       0.32702971 </v>
   <v>      -0.29254781      -0.21153225      -0.32702971 </v>
   <v>      -0.00000000       0.00000000       0.42548318 </v>
   <v>      -0.00000000       0.00000000      -0.42548318 </v>
  </varray>
  <varray name="stress" >
   <v>      -3.73215112      -2.35949728       0.00000000 </v>
   <v>      -2.35949728      -0.84616428       0.00000000 </v>
   <v>       0.00000000       0.00000000     -11.72525260 </v>
  </varray>
  <energy>
   <i name="e_fr_energy">   -183.63516713 </i>
   <i name="e_wo_entrp">   -183.61737136 </i>
   <i name="e_0_energy">   -183.62626925 </i>
  </energy>
  <time name="totalsc">  117.69  118.62</time>
 </calculation>
 <calculation>
  <scstep>
   <time name="dav">    9.96   10.04</time>
   <time name="total">   10.33   10.41</time>
   <dipole>
    <v name="dipole">      0.00000000       0.00000000      -0.00000076 </v>
    <i name="Tr[quadrupol]">   -566.78429979 </i>
    <i name="Echarged">      0.00000000 </i>
    <i name="Edipol_quadrupol">      0.00000000 </i>
    <i name="Eion">      0.00000000 </i>
   </dipole>
   <energy>
    <i name="alphaZ">     52.60760362 </i>
    <i name="ewald">  25301.74545110 </i>
    <i name="hartreedc"> -26971.57551378 </i>
    <i name="XCdc">    207.11603461 </i>
    <i name="pawpsdc">   7539.04853145 </i>
    <i name="pawaedc">  -7517.43416125 </i>
    <i name="eentropy">     -0.01483763 </i>
    <i name="bandstr">   -809.63640570 </i>
    <i name="atom">   2017.72479794 </i>
    <i name="e_fr_energy">   -180.41849963 </i>
    <i name="e_wo_entrp">   -180.40366201 </i>
    <i name="e_0_energy">   -180.41108082 </i>
   </energy>
  </scstep>
  <scstep>
   <time name="dav">   13.24   13.34</time>
   <time name="total">   13.61   13.71</time>
   <dipole>
    <v name="dipole">      0.00000000       0.00000000      -0.00004548 </v>
    <i name="Tr[quadrupol]">   -566.82148387 </i>
    <i name="Echarged">      0.00000000 </i>
    <i name="Edipol_quadrupol">      0.00000000 </i>
    <i name="Eion">      0.00000000 </i>
   </dipole>
   <energy>
    <i name="e_fr_energy">   -180.42578210 </i>
    <i name="e_wo_entrp">   -180.40868038 </i>
    <i name="e_0_energy">   -180.41723124 </i>
   </energy>
  </scstep>
  <scstep>
   <time name="dav">   12.53   12.64</time>
   <time name="total">   12.90   13.01</time>
   <dipole>
    <v name="dipole">      0.00000000       0.00000000      -0.00007272 </v>
    <i name="Tr[quadrupol]">   -566.89496274 </i>
    <i name="Echarged">      0.00000000 </i>
    <i name="Edipol_quadrupol">      0.00000000 </i>
    <i name="Eion">      0.00000000 </i>
   </dipole>
   <energy>
    <i name="e_fr_energy">   -180.41890699 </i>
    <i name="e_wo_entrp">   -180.40550824 </i>
    <i name="e_0_energy">   -180.41220761 </i>
   </energy>
  </scstep>
  <scstep>
   <time name="dav">   12.02   12.12</time>
   <time name="total">   12.39   12.49</time>
   <dipole>
    <v name="dipole">      0.00000000       0.00000000      -0.00002504 </v>
    <i name="Tr[quadrupol]">   -566.80594167 </i>
    <i name="Echarged">      0.00000000 </i>
    <i name="Edipol_quadrupol">      0.00000000 </i>
    <i name="Eion">      0.00000000 </i>
   </dipole>
   <energy>
    <i name="e_fr_energy">   -180.41730271 </i>
    <i name="e_wo_entrp">   -180.40000664 </i>
    <i name="e_0_energy">   -180.40865467 </i>
   </energy>
  </scstep>
  <scstep>
   <time name="dav">   12.26   12.35</time>
   <time name="total">   12.63   12.73</time>
   <dipole>
    <v name="dipole">      0.00000000       0.00000000      -0.00001987 </v>
    <i name="Tr[quadrupol]">   -566.82294468 </i>
    <i name="Echarged">      0.00000000 </i>
    <i name="Edipol_quadrupol">      0.00000000 </i>
    <i name="Eion">      0.00000000 </i>
   </dipole>
   <energy>
    <i name="e_fr_energy">   -180.41636244 </i>
    <i name="e_wo_entrp">   -180.40036087 </i>
    <i name="e_0_energy">   -180.40836165 </i>
   </energy>
  </scstep>
  <scstep>
   <time name="dav">   12.19   12.29</time>
   <time name="total">   12.57   12.67</time>
   <dipole>
    <v name="dipole">      0.00000000       0.00000000      -0.00001590 </v>
    <i name="Tr[quadrupol]">   -566.82496641 </i>
    <i name="Echarged">      0.00000000 </i>
    <i name="Edipol_quadrupol">      0.00000000 </i>
    <i name="Eion">      0.00000000 </i>
   </dipole>
   <energy>
    <i name="e_fr_energy">   -180.41639710 </i>
    <i name="e_wo_entrp">   -180.40031241 </i>
    <i name="e_0_energy">   -180.40835476 </i>
   </energy>
  </scstep>
  <scstep>
   <time name="dav">   12.89   12.99</time>
   <time name="total">   13.27   13.38</time>
   <dipole>
    <v name="dipole">      0.00000000       0.00000000      -0.00001089 </v>
    <i name="Tr[quadrupol]">   -566.82701182 </i>
    <i name="Echarged">      0.00000000 </i>
    <i name="Edipol_quadrupol">      0.00000000 </i>
    <i name="Eion">      0.00000000 </i>
   </dipole>
   <energy>
    <i name="e_fr_energy">   -180.41639571 </i>
    <i name="e_wo_entrp">   -180.40031370 </i>
    <i name="e_0_energy">   -180.40835471 </i>
   </energy>
  </scstep>
  <scstep>
   <time name="dav">   12.83   12.94</time>
   <time name="total">   13.20   13.32</time>
   <dipole>
    <v name="dipole">      0.00000000       0.00000000      -0.00000694 </v>
    <i name="Tr[quadrupol]">   -566.82835554 </i>
    <i name="Echarged">      0.00000000 </i>
    <i name="Edipol_quadrupol">      0.00000000 </i>
    <i name="Eion">      0.00000000 </i>
   </dipole>
   <energy>
    <i name="e_fr_energy">   -180.41639935 </i>
    <i name="e_wo_entrp">   -180.40032869 </i>
    <i name="e_0_energy">   -180.40836402 </i>
   </energy>
  </scstep>
  <scstep>
   <time name="dav">   10.07   10.15</time>
   <time name="total">   10.45   10.53</time>
   <dipole>
    <v name="dipole">      0.00000000       0.00000000      -0.00000418 </v>
    <i name="Tr[quadrupol]">   -566.82994182 </i>
    <i name="Echarged">      0.00000000 </i>
    <i name="Edipol_quadrupol">      0.00000000 </i>
    <i name="Eion">      0.00000000 </i>
   </dipole>
   <energy>
    <i name="e_fr_energy">   -180.41640130 </i>
    <i name="e_wo_entrp">   -180.40032914 </i>
    <i name="e_0_energy">   -180.40836522 </i>
   </energy>
  </scstep>
  <scstep>
   <time name="dav">    9.93   10.01</time>
   <time name="total">   10.31   10.39</time>
   <dipole>
    <v name="dipole">      0.00000000       0.00000000      -0.00000162 </v>
    <i name="Tr[quadrupol]">   -566.83161350 </i>
    <i name="Echarged">      0.00000000 </i>
    <i name="Edipol_quadrupol">      0.00000000 </i>
    <i name="Eion">      0.00000000 </i>
   </dipole>
   <energy>
    <i name="e_fr_energy">   -180.41640249 </i>
    <i name="e_wo_entrp">   -180.40032981 </i>
    <i name="e_0_energy">   -180.40836615 </i>
   </energy>
  </scstep>
  <scstep>
   <time name="dav">    9.36    9.43</time>
   <time name="total">    9.42    9.50</time>
   <dipole>
    <v name="dipole">      0.00000000       0.00000000       0.00000015 </v>
    <i name="Tr[quadrupol]">   -566.83312252 </i>
    <i name="Echarged">      0.00000000 </i>
    <i name="Edipol_quadrupol">      0.00000000 </i>
    <i name="Eion">      0.00000000 </i>
   </dipole>
   <energy>
    <i name="alphaZ">     52.60760327 </i>
    <i name="ewald">  25301.74545110 </i>
    <i name="hartreedc"> -26971.34205629 </i>
    <i name="XCdc">    207.07143617 </i>
    <i name="pawpsdc">   7564.26658166 </i>
    <i name="pawaedc">  -7542.66368043 </i>
    <i name="eentropy">     -0.01607189 </i>
    <i name="bandstr">   -809.81046482 </i>
    <i name="atom">   2017.72479794 </i>
    <i name="e_fr_energy">   -180.41640328 </i>
    <i name="e_wo_entrp">   -180.40033139 </i>
    <i name="e_0_energy">   -180.40836734 </i>
   </energy>
  </scstep>
  <structure>
   <crystal>
    <varray name="basis" >
     <v>       5.65002698      -0.00639634       0.00000000 </v>
     <v>      -0.00616350       6.22131603       0.00000000 </v>
     <v>       0.00000000       0.00000000      30.08811665 </v>
    </varray>
    <i name="volume">   1057.61427026 </i>
    <varray name="rec_basis" >
     <v>       0.17699050       0.00017535       0.00000000 </v>
     <v>       0.00018197       0.16073788       0.00000000 </v>
     <v>       0.00000000       0.00000000       0.03323571 </v>
    </varray>
   </crystal>
   <varray name="positions" >
    <v>       0.51145271       0.64097661       0.14027445 </v>
    <v>       0.51145271       0.64097661       0.26148273 </v>
    <v>       0.48854729       0.35902339       0.14027445 </v>
    <v>       0.48854729       0.35902339       0.26148273 </v>
    <v>       0.98161955       0.63986178       0.13336991 </v>
    <v>       0.98161955       0.63986178       0.26838726 </v>
    <v>       0.01838045       0.36013822       0.13336991 </v>
    <v>       0.01838045       0.36013822       0.26838726 </v>
    <v>       0.59597133       0.89994759       0.13299676 </v>
    <v>       0.59597133       0.89994759       0.26876042 </v>
    <v>       0.40402867       0.10005240       0.13299676 </v>
    <v>       0.40402867       0.10005240       0.26876042 </v>
    <v>       0.90121513       0.89933095       0.12969637 </v>
    <v>       0.90121513       0.89933095       0.27206080 </v>
    <v>       0.09878487       0.10066904       0.12969637 </v>
    <v>       0.09878487       0.10066904       0.27206080 </v>
    <v>       0.75564732       0.73194377       0.17208785 </v>
    <v>       0.73185543       0.70432594       0.30187186 </v>
    <v>       0.26814457       0.29567406       0.09988531 </v>
    <v>       0.24435268       0.26805623       0.22966932 </v>
    <v>       0.73185543       0.70432594       0.09988531 </v>
    <v>       0.75564732       0.73194377       0.22966932 </v>
    <v>       0.24435268       0.26805623       0.17208785 </v>
    <v>       0.26814457       0.29567406       0.30187186 </v>
    <v>       0.25113975       0.51809393       0.13500666 </v>
    <v>       0.25113975       0.51809393       0.26675051 </v>
    <v>       0.74886025       0.48190604       0.13500666 </v>
    <v>       0.74886025       0.48190604       0.26675051 </v>
    <v>       0.50000000       0.50000000       0.05843434 </v>
    <v>       0.50000000       0.50000000       0.34332283 </v>
   </varray>
  </structure>
  <varray name="forces" >
   <v>       0.42020153      -0.03187073      -0.17430519 </v>
   <v>       0.42020153      -0.03187073       0.17430519 </v>
   <v>      -0.42020153       0.03187073      -0.17430519 </v>
   <v>      -0.42020153       0.03187073       0.17430519 </v>
   <v>       0.09568114      -0.16767316       0.11804050 </v>
   <v>       0.09568114      -0.16767316      -0.11804050 </v>
   <v>      -0.09568114       0.16767316       0.11804050 </v>
   <v>      -0.09568114       0.16767316      -0.11804050 </v>
   <v>      -0.07811197      -0.10707292       0.05097871 </v>
   <v>      -0.07811197      -0.10707292      -0.05097871 </v>
   <v>       0.07811197       0.10707292       0.05097871 </v>
   <v>       0.07811197       0.10707292      -0.05097871 </v>
   <v>       0.10167697       0.09707133      -0.09645187 </v>
   <v>       0.10167697       0.09707133       0.09645187 </v>
   <v>      -0.10167697      -0.09707133      -0.09645187 </v>
   <v>      -0.10167697      -0.09707133       0.09645187 </v>
   <v>       0.23075579       0.38928345       0.13978734 </v>
   <v>      -0.66193578       0.05452661       0.02115886 </v>
   <v>       0.66193578      -0.05452661      -0.02115886 </v>
   <v>      -0.23075579      -0.38928345      -0.13978734 </v>
   <v>      -0.66193578       0.05452661      -0.02115886 </v>
   <v>       0.23075579       0.38928345      -0.13978734 </v>
   <v>      -0.23075579      -0.38928345       0.13978734 </v>
   <v>       0.66193578      -0.05452661       0.02115886 </v>
   <v>       0.04184341       0.38985874       0.37390181 </v>
   <v>       0.04184341       0.38985874      -0.37390181 </v>
   <v>      -0.04184341      -0.38985874       0.37390181 </v>
   <v>      -0.04184341      -0.38985874      -0.37390181 </v>
   <v>      -0.00000000      -0.00000000       0.49047175 </v>
   <v>      -0.00000000      -0.00000000      -0.49047175 </v>
  </varray>
  <varray name="stress" >
   <v>      -1.97850065      -6.52457391       0.00000000 </v>
   <v>      -6.52457392      -0.94041286       0.00000000 </v>
   <v>       0.00000000       0.00000000     -10.36814021 </v>
  </varray>
  <energy>
   <i name="e_fr_energy">   -183.75474027 </i>
   <i name="e_wo_entrp">   -183.73866838 </i>
   <i name="e_0_energy">   -183.74670433 </i>
  </energy>
  <time name="totalsc">  139.64  140.76</time>
 </calculation>
 <calculation>
  <scstep>
   <time name="dav">   10.58   10.68</time>
   <time name="total">   10.95   11.05</time>
   <dipole>
    <v name="dipole">      0.00000000       0.00000000       0.00000144 </v>
    <i name="Tr[quadrupol]">   -564.99354907 </i>
    <i name="Echarged">      0.00000000 </i>
    <i name="Edipol_quadrupol">      0.00000000 </i>
    <i name="Eion">      0.00000000 </i>
   </dipole>
   <energy>
    <i name="alphaZ">     52.82495619 </i>
    <i name="ewald">  25471.71134009 </i>
    <i name="hartreedc"> -27142.85197254 </i>
    <i name="XCdc">    207.25429593 </i>
    <i name="pawpsdc">   7564.26432719 </i>
    <i name="pawaedc">  -7542.66142681 </i>
    <i name="eentropy">     -0.00615251 </i>
    <i name="bandstr">   -808.85167842 </i>
    <i name="atom">   2017.72479794 </i>
    <i name="e_fr_energy">   -180.59151293 </i>
    <i name="e_wo_entrp">   -180.58536042 </i>
    <i name="e_0_energy">   -180.58843668 </i>
   </energy>
  </scstep>
  <scstep>
   <time name="dav">   13.29   13.43</time>
   <time name="total">   13.67   13.81</time>
   <dipole>
    <v name="dipole">      0.00000000       0.00000000      -0.00000815 </v>
    <i name="Tr[quadrupol]">   -564.95845222 </i>
    <i name="Echarged">      0.00000000 </i>
    <i name="Edipol_quadrupol">      0.00000000 </i>
    <i name="Eion">      0.00000000 </i>
   </dipole>
   <energy>
    <i name="e_fr_energy">   -180.58386207 </i>
    <i name="e_wo_entrp">   -180.57124429 </i>
    <i name="e_0_energy">   -180.57755318 </i>
   </energy>
  </scstep>
  <scstep>
   <time name="dav">   11.66   11.75</time>
   <time name="total">   12.04   12.13</time>
   <dipole>
    <v name="dipole">      0.00000000       0.00000000      -0.00003612 </v>
    <i name="Tr[quadrupol]">   -565.02489104 </i>
    <i name="Echarged">      0.00000000 </i>
    <i name="Edipol_quadrupol">      0.00000000 </i>
    <i name="Eion">      0.00000000 </i>
   </dipole>
   <energy>
    <i name="e_fr_energy">   -180.58090257 </i>
    <i name="e_wo_entrp">   -180.57179559 </i>
    <i name="e_0_energy">   -180.57634908 </i>
   </energy>
  </scstep>
  <scstep>
   <time name="dav">   12.59   12.69</time>
   <time name="total">   12.97   13.07</time>
   <dipole>
    <v name="dipole">      0.00000000       0.00000000      -0.00001480 </v>
    <i name="Tr[quadrupol]">   -564.98666700 </i>
    <i name="Echarged">      0.00000000 </i>
    <i name="Edipol_quadrupol">      0.00000000 </i>
    <i name="Eion">      0.00000000 </i>
   </dipole>
   <energy>
    <i name="e_fr_energy">   -180.57992590 </i>
    <i name="e_wo_entrp">   -180.56901616 </i>
    <i name="e_0_energy">   -180.57447103 </i>
   </energy>
  </scstep>
  <scstep>
   <time name="dav">   11.59   11.68</time>
   <time name="total">   11.96   12.06</time>
   <dipole>
    <v name="dipole">      0.00000000       0.00000000      -0.00000699 </v>
    <i name="Tr[quadrupol]">   -564.98483566 </i>
    <i name="Echarged">      0.00000000 </i>
    <i name="Edipol_quadrupol">      0.00000000 </i>
    <i name="Eion">      0.00000000 </i>
   </dipole>
   <energy>
    <i name="e_fr_energy">   -180.57985110 </i>
    <i name="e_wo_entrp">   -180.56937055 </i>
    <i name="e_0_energy">   -180.57461082 </i>
   </energy>
  </scstep>
  <scstep>
   <time name="dav">   12.77   12.87</time>
   <time name="total">   13.15   13.26</time>
   <dipole>
    <v name="dipole">      0.00000000       0.00000000      -0.00000593 </v>
    <i name="Tr[quadrupol]">   -564.98677389 </i>
    <i name="Echarged">      0.00000000 </i>
    <i name="Edipol_quadrupol">      0.00000000 </i>
    <i name="Eion">      0.00000000 </i>
   </dipole>
   <energy>
    <i name="e_fr_energy">   -180.57986474 </i>
    <i name="e_wo_entrp">   -180.56931805 </i>
    <i name="e_0_energy">   -180.57459140 </i>
   </energy>
  </scstep>
  <scstep>
   <time name="dav">   12.71   12.81</time>
   <time name="total">   13.09   13.19</time>
   <dipole>
    <v name="dipole">      0.00000000       0.00000000      -0.00000383 </v>
    <i name="Tr[quadrupol]">   -564.98703285 </i>
    <i name="Echarged">      0.00000000 </i>
    <i name="Edipol_quadrupol">      0.00000000 </i>
    <i name="Eion">      0.00000000 </i>
   </dipole>
   <energy>
    <i name="e_fr_energy">   -180.57986834 </i>
    <i name="e_wo_entrp">   -180.56932941 </i>
    <i name="e_0_energy">   -180.57459887 </i>
   </energy>
  </scstep>
  <scstep>
   <time name="dav">   10.78   10.86</time>
   <time name="total">   11.15   11.23</time>
   <dipole>
    <v name="dipole">      0.00000000       0.00000000      -0.00000202 </v>
    <i name="Tr[quadrupol]">   -564.98741864 </i>
    <i name="Echarged">      0.00000000 </i>
    <i name="Edipol_quadrupol">      0.00000000 </i>
    <i name="Eion">      0.00000000 </i>
   </dipole>
   <energy>
    <i name="e_fr_energy">   -180.57987204 </i>
    <i name="e_wo_entrp">   -180.56933824 </i>
    <i name="e_0_energy">   -180.57460514 </i>
   </energy>
  </scstep>
  <scstep>
   <time name="dav">   10.24   10.32</time>
   <time name="total">   10.62   10.70</time>
   <dipole>
    <v name="dipole">      0.00000000       0.00000000      -0.00000106 </v>
    <i name="Tr[quadrupol]">   -564.98799357 </i>
    <i name="Echarged">      0.00000000 </i>
    <i name="Edipol_quadrupol">      0.00000000 </i>
    <i name="Eion">      0.00000000 </i>
   </dipole>
   <energy>
    <i name="e_fr_energy">   -180.57987377 </i>
    <i name="e_wo_entrp">   -180.56933922 </i>
    <i name="e_0_energy">   -180.57460650 </i>
   </energy>
  </scstep>
  <scstep>
   <time name="dav">    9.84    9.93</time>
   <time name="total">   10.22   10.31</time>
   <dipole>
    <v name="dipole">      0.00000000       0.00000000      -0.00000005 </v>
    <i name="Tr[quadrupol]">   -564.98876235 </i>
    <i name="Echarged">      0.00000000 </i>
    <i name="Edipol_quadrupol">      0.00000000 </i>
    <i name="Eion">      0.00000000 </i>
   </dipole>
   <energy>
    <i name="e_fr_energy">   -180.57987499 </i>
    <i name="e_wo_entrp">   -180.56934044 </i>
    <i name="e_0_energy">   -180.57460771 </i>
   </energy>
  </scstep>
  <scstep>
   <time name="dav">    9.34    9.41</time>
   <time name="total">    9.41    9.48</time>
   <dipole>
    <v name="dipole">      0.00000000       0.00000000       0.00000054 </v>
    <i name="Tr[quadrupol]">   -564.98933365 </i>
    <i name="Echarged">      0.00000000 </i>
    <i name="Edipol_quadrupol">      0.00000000 </i>
    <i name="Eion">      0.00000000 </i>
   </dipole>
   <energy>
    <i name="alphaZ">     52.82495654 </i>
    <i name="ewald">  25471.71134009 </i>
    <i name="hartreedc"> -27141.34810269 </i>
    <i name="XCdc">    207.23113086 </i>
    <i name="pawpsdc">   7586.04527761 </i>
    <i name="pawaedc">  -7564.45441142 </i>
    <i name="eentropy">     -0.01053478 </i>
    <i name="bandstr">   -810.30432962 </i>
    <i name="atom">   2017.72479794 </i>
    <i name="e_fr_energy">   -180.57987546 </i>
    <i name="e_wo_entrp">   -180.56934068 </i>
    <i name="e_0_energy">   -180.57460807 </i>
   </energy>
  </scstep>
  <structure>
   <crystal>
    <varray name="basis" >
     <v>       5.62869102      -0.02220683       0.00000000 </v>
     <v>      -0.02355165       6.21928908       0.00000000 </v>
     <v>       0.00000000       0.00000000      30.08811665 </v>
    </varray>
    <i name="volume">   1053.26261338 </i>
    <varray name="rec_basis" >
     <v>       0.17766385       0.00067279       0.00000000 </v>
     <v>       0.00063437       0.16079248       0.00000000 </v>
     <v>       0.00000000       0.00000000       0.03323571 </v>
    </varray>
   </crystal>
   <varray name="positions" >
    <v>       0.51231320       0.64097270       0.14149093 </v>
    <v>       0.51231320       0.64097270       0.26026624 </v>
    <v>       0.48768680       0.35902730       0.14149093 </v>
    <v>       0.48768680       0.35902730       0.26026624 </v>
    <v>       0.98180968       0.63914009       0.13368336 </v>
    <v>       0.98180968       0.63914009       0.26807381 </v>
    <v>       0.01819032       0.36085991       0.13368336 </v>
    <v>       0.01819032       0.36085991       0.26807381 </v>
    <v>       0.59506833       0.89939983       0.13329068 </v>
    <v>       0.59506833       0.89939983       0.26846649 </v>
    <v>       0.40493167       0.10060017       0.13329068 </v>
    <v>       0.40493167       0.10060017       0.26846649 </v>
    <v>       0.90140756       0.89897364       0.12917888 </v>
    <v>       0.90140756       0.89897364       0.27257829 </v>
    <v>       0.09859244       0.10102636       0.12917888 </v>
    <v>       0.09859244       0.10102636       0.27257829 </v>
    <v>       0.75815249       0.73433968       0.17223401 </v>
    <v>       0.72769914       0.70283710       0.30192993 </v>
    <v>       0.27230086       0.29716290       0.09982725 </v>
    <v>       0.24184751       0.26566032       0.22952317 </v>
    <v>       0.72769914       0.70283710       0.09982725 </v>
    <v>       0.75815249       0.73433968       0.22952317 </v>
    <v>       0.24184751       0.26566032       0.17223401 </v>
    <v>       0.27230086       0.29716290       0.30192993 </v>
    <v>       0.25193921       0.51896557       0.13575717 </v>
    <v>       0.25193921       0.51896557       0.26600001 </v>
    <v>       0.74806079       0.48103440       0.13575717 </v>
    <v>       0.74806079       0.48103440       0.26600001 </v>
    <v>       0.50000000       0.50000000       0.05965864 </v>
    <v>       0.50000000       0.50000000       0.34209854 </v>
   </varray>
  </structure>
  <varray name="forces" >
   <v>       0.39446764      -0.14052860      -0.23102271 </v>
   <v>       0.39446764      -0.14052860       0.23102271 </v>
   <v>      -0.39446764       0.14052860      -0.23102271 </v>
   <v>      -0.39446764       0.14052860       0.23102271 </v>
   <v>      -0.00709314      -0.04025705       0.02391168 </v>
   <v>      -0.00709314      -0.04025705      -0.02391168 </v>
   <v>       0.00709314       0.04025705       0.02391168 </v>
   <v>       0.00709314       0.04025705      -0.02391168 </v>
   <v>       0.00475136      -0.08674014       0.02388425 </v>
   <v>       0.00475136      -0.08674014      -0.02388425 </v>
   <v>      -0.00475136       0.08674014       0.02388425 </v>
   <v>      -0.00475136       0.08674014      -0.02388425 </v>
   <v>       0.07692570       0.01579298      -0.13541188 </v>
   <v>       0.07692570       0.01579298       0.13541188 </v>
   <v>      -0.07692570      -0.01579298      -0.13541188 </v>
   <v>      -0.07692570      -0.01579298       0.13541188 </v>
   <v>       0.25468577       0.40266327       0.25127009 </v>
   <v>      -0.57282148      -0.10890716       0.00471463 </v>
   <v>       0.57282148       0.10890716      -0.00471463 </v>
   <v>      -0.25468577      -0.40266327      -0.25127009 </v>
   <v>      -0.57282148      -0.10890716      -0.00471463 </v>
   <v>       0.25468577       0.40266327      -0.25127009 </v>
   <v>      -0.25468577      -0.40266327       0.25127009 </v>
   <v>       0.57282148       0.10890716       0.00471463 </v>
   <v>      -0.05115037       0.19593637       0.31387310 </v>
   <v>      -0.05115037       0.19593637      -0.31387310 </v>
   <v>       0.05115037      -0.19593637       0.31387310 </v>
   <v>       0.05115037      -0.19593637      -0.31387310 </v>
   <v>       0.00000000      -0.00000000       0.53725602 </v>
   <v>       0.00000000      -0.00000000      -0.53725602 </v>
  </varray>
  <varray name="stress" >
   <v>       0.54399868      -4.13000019       0.00000000 </v>
   <v>      -4.13000018      -2.59292647       0.00000000 </v>
   <v>       0.00000000       0.00000000      -8.47841322 </v>
  </varray>
  <energy>
   <i name="e_fr_energy">   -183.94497943 </i>
   <i name="e_wo_entrp">   -183.93444465 </i>
   <i name="e_0_energy">   -183.93971204 </i>
  </energy>
  <time name="totalsc">  137.66  138.80</time>
 </calculation>
 <calculation>
  <scstep>
   <time name="dav">   10.58   10.67</time>
   <time name="total">   10.95   11.04</time>
   <dipole>
    <v name="dipole">      0.00000000       0.00000000       0.00000115 </v>
    <i name="Tr[quadrupol]">   -559.69973492 </i>
    <i name="Echarged">      0.00000000 </i>
    <i name="Edipol_quadrupol">      0.00000000 </i>
    <i name="Eion">      0.00000000 </i>
   </dipole>
   <energy>
    <i name="alphaZ">     53.49222946 </i>
    <i name="ewald">  25984.96389419 </i>
    <i name="hartreedc"> -27659.80186088 </i>
    <i name="XCdc">    207.70634009 </i>
    <i name="pawpsdc">   7586.04760798 </i>
    <i name="pawaedc">  -7564.45674327 </i>
    <i name="eentropy">     -0.00263272 </i>
    <i name="bandstr">   -806.52667797 </i>
    <i name="atom">   2017.72479794 </i>
    <i name="e_fr_energy">   -180.85304516 </i>
    <i name="e_wo_entrp">   -180.85041244 </i>
    <i name="e_0_energy">   -180.85172880 </i>
   </energy>
  </scstep>
  <scstep>
   <time name="dav">   12.14   12.24</time>
   <time name="total">   12.52   12.62</time>
   <dipole>
    <v name="dipole">      0.00000000       0.00000000      -0.00017590 </v>
    <i name="Tr[quadrupol]">   -559.96518225 </i>
    <i name="Echarged">      0.00000000 </i>
    <i name="Edipol_quadrupol">      0.00000000 </i>
    <i name="Eion">      0.00000000 </i>
   </dipole>
   <energy>
    <i name="e_fr_energy">   -180.83705924 </i>
    <i name="e_wo_entrp">   -180.83477147 </i>
    <i name="e_0_energy">   -180.83591535 </i>
   </energy>
  </scstep>
  <scstep>
   <time name="dav">   12.78   12.89</time>
   <time name="total">   13.15   13.27</time>
   <dipole>
    <v name="dipole">      0.00000000       0.00000000      -0.00018945 </v>
    <i name="Tr[quadrupol]">   -560.05686495 </i>
    <i name="Echarged">      0.00000000 </i>
    <i name="Edipol_quadrupol">      0.00000000 </i>
    <i name="Eion">      0.00000000 </i>
   </dipole>
   <energy>
    <i name="e_fr_energy">   -180.81526482 </i>
    <i name="e_wo_entrp">   -180.81323601 </i>
    <i name="e_0_energy">   -180.81425041 </i>
   </energy>
  </scstep>
  <scstep>
   <time name="dav">   11.74   11.83</time>
   <time name="total">   12.12   12.21</time>
   <dipole>
    <v name="dipole">      0.00000000       0.00000000      -0.00012871 </v>
    <i name="Tr[quadrupol]">   -560.05386719 </i>
    <i name="Echarged">      0.00000000 </i>
    <i name="Edipol_quadrupol">      0.00000000 </i>
    <i name="Eion">      0.00000000 </i>
   </dipole>
   <energy>
    <i name="e_fr_energy">   -180.81263759 </i>
    <i name="e_wo_entrp">   -180.81057354 </i>
    <i name="e_0_energy">   -180.81160557 </i>
   </energy>
  </scstep>
  <scstep>
   <time name="dav">   13.01   13.11</time>
   <time name="total">   13.38   13.49</time>
   <dipole>
    <v name="dipole">      0.00000000       0.00000000      -0.00011491 </v>
    <i name="Tr[quadrupol]">   -560.11697852 </i>
    <i name="Echarged">      0.00000000 </i>
    <i name="Edipol_quadrupol">      0.00000000 </i>
    <i name="Eion">      0.00000000 </i>
   </dipole>
   <energy>
    <i name="e_fr_energy">   -180.81247573 </i>
    <i name="e_wo_entrp">   -180.81042653 </i>
    <i name="e_0_energy">   -180.81145113 </i>
   </energy>
  </scstep>
  <scstep>
   <time name="dav">   12.70   12.80</time>
   <time name="total">   13.08   13.18</time>
   <dipole>
    <v name="dipole">      0.00000000       0.00000000      -0.00009457 </v>
    <i name="Tr[quadrupol]">   -560.14581954 </i>
    <i name="Echarged">      0.00000000 </i>
    <i name="Edipol_quadrupol">      0.00000000 </i>
    <i name="Eion">      0.00000000 </i>
   </dipole>
   <energy>
    <i name="e_fr_energy">   -180.81248617 </i>
    <i name="e_wo_entrp">   -180.81042837 </i>
    <i name="e_0_energy">   -180.81145727 </i>
   </energy>
  </scstep>
  <scstep>
   <time name="dav">   12.41   12.51</time>
   <time name="total">   12.79   12.89</time>
   <dipole>
    <v name="dipole">      0.00000000       0.00000000      -0.00006828 </v>
    <i name="Tr[quadrupol]">   -560.17857906 </i>
    <i name="Echarged">      0.00000000 </i>
    <i name="Edipol_quadrupol">      0.00000000 </i>
    <i name="Eion">      0.00000000 </i>
   </dipole>
   <energy>
    <i name="e_fr_energy">   -180.81253103 </i>
    <i name="e_wo_entrp">   -180.81047232 </i>
    <i name="e_0_energy">   -180.81150167 </i>
   </energy>
  </scstep>
  <scstep>
   <time name="dav">   12.30   12.40</time>
   <time name="total">   12.66   12.76</time>
   <dipole>
    <v name="dipole">      0.00000000       0.00000000      -0.00004917 </v>
    <i name="Tr[quadrupol]">   -560.19864103 </i>
    <i name="Echarged">      0.00000000 </i>
    <i name="Edipol_quadrupol">      0.00000000 </i>
    <i name="Eion">      0.00000000 </i>
   </dipole>
   <energy>
    <i name="e_fr_energy">   -180.81257649 </i>
    <i name="e_wo_entrp">   -180.81051934 </i>
    <i name="e_0_energy">   -180.81154792 </i>
   </energy>
  </scstep>
  <scstep>
   <time name="dav">   11.50   11.59</time>
   <time name="total">   11.88   11.97</time>
   <dipole>
    <v name="dipole">      0.00000000       0.00000000      -0.00001981 </v>
    <i name="Tr[quadrupol]">   -560.22784163 </i>
    <i name="Echarged">      0.00000000 </i>
    <i name="Edipol_quadrupol">      0.00000000 </i>
    <i name="Eion">      0.00000000 </i>
   </dipole>
   <energy>
    <i name="e_fr_energy">   -180.81264252 </i>
    <i name="e_wo_entrp">   -180.81058594 </i>
    <i name="e_0_energy">   -180.81161423 </i>
   </energy>
  </scstep>
  <scstep>
   <time name="dav">   10.43   10.52</time>
   <time name="total">   10.80   10.89</time>
   <dipole>
    <v name="dipole">      0.00000000       0.00000000      -0.00000477 </v>
    <i name="Tr[quadrupol]">   -560.24133555 </i>
    <i name="Echarged">      0.00000000 </i>
    <i name="Edipol_quadrupol">      0.00000000 </i>
    <i name="Eion">      0.00000000 </i>
   </dipole>
   <energy>
    <i name="e_fr_energy">   -180.81267652 </i>
    <i name="e_wo_entrp">   -180.81062060 </i>
    <i name="e_0_energy">   -180.81164856 </i>
   </energy>
  </scstep>
  <scstep>
   <time name="dav">   11.07   11.15</time>
   <time name="total">   11.45   11.54</time>
   <dipole>
    <v name="dipole">      0.00000000       0.00000000       0.00001332 </v>
    <i name="Tr[quadrupol]">   -560.25786402 </i>
    <i name="Echarged">      0.00000000 </i>
    <i name="Edipol_quadrupol">      0.00000000 </i>
    <i name="Eion">      0.00000000 </i>
   </dipole>
   <energy>
    <i name="e_fr_energy">   -180.81270929 </i>
    <i name="e_wo_entrp">   -180.81065397 </i>
    <i name="e_0_energy">   -180.81168163 </i>
   </energy>
  </scstep>
  <scstep>
   <time name="dav">    9.15    9.22</time>
   <time name="total">    9.46    9.53</time>
   <dipole>
    <v name="dipole">      0.00000000       0.00000000       0.00001764 </v>
    <i name="Tr[quadrupol]">   -560.26303418 </i>
    <i name="Echarged">      0.00000000 </i>
    <i name="Edipol_quadrupol">      0.00000000 </i>
    <i name="Eion">      0.00000000 </i>
   </dipole>
   <energy>
    <i name="e_fr_energy">   -180.81271972 </i>
    <i name="e_wo_entrp">   -180.81066437 </i>
    <i name="e_0_energy">   -180.81169204 </i>
   </energy>
  </scstep>
  <scstep>
   <time name="dav">    7.86    7.92</time>
   <time name="total">    8.16    8.22</time>
   <dipole>
    <v name="dipole">      0.00000000       0.00000000       0.00001895 </v>
    <i name="Tr[quadrupol]">   -560.26660265 </i>
    <i name="Echarged">      0.00000000 </i>
    <i name="Edipol_quadrupol">      0.00000000 </i>
    <i name="Eion">      0.00000000 </i>
   </dipole>
   <energy>
    <i name="e_fr_energy">   -180.81272791 </i>
    <i name="e_wo_entrp">   -180.81067254 </i>
    <i name="e_0_energy">   -180.81170023 </i>
   </energy>
  </scstep>
  <scstep>
   <time name="dav">    7.56    7.61</time>
   <time name="total">    7.86    7.91</time>
   <dipole>
    <v name="dipole">      0.00000000       0.00000000       0.00001632 </v>
    <i name="Tr[quadrupol]">   -560.26778524 </i>
    <i name="Echarged">      0.00000000 </i>
    <i name="Edipol_quadrupol">      0.00000000 </i>
    <i name="Eion">      0.00000000 </i>
   </dipole>
   <energy>
    <i name="e_fr_energy">   -180.81273317 </i>
    <i name="e_wo_entrp">   -180.81067781 </i>
    <i name="e_0_energy">   -180.81170549 </i>
   </energy>
  </scstep>
  <scstep>
   <time name="dav">    7.27    7.33</time>
   <time name="total">    7.57    7.63</time>
   <dipole>
    <v name="dipole">      0.00000000       0.00000000       0.00001219 </v>
    <i name="Tr[quadrupol]">   -560.26863307 </i>
    <i name="Echarged">      0.00000000 </i>
    <i name="Edipol_quadrupol">      0.00000000 </i>
    <i name="Eion">      0.00000000 </i>
   </dipole>
   <energy>
    <i name="e_fr_energy">   -180.81273696 </i>
    <i name="e_wo_entrp">   -180.81068160 </i>
    <i name="e_0_energy">   -180.81170928 </i>
   </energy>
  </scstep>
  <scstep>
   <time name="dav">    7.17    7.24</time>
   <time name="total">    7.46    7.53</time>
   <dipole>
    <v name="dipole">      0.00000000       0.00000000       0.00000724 </v>
    <i name="Tr[quadrupol]">   -560.26888077 </i>
    <i name="Echarged">      0.00000000 </i>
    <i name="Edipol_quadrupol">      0.00000000 </i>
    <i name="Eion">      0.00000000 </i>
   </dipole>
   <energy>
    <i name="e_fr_energy">   -180.81273918 </i>
    <i name="e_wo_entrp">   -180.81068381 </i>
    <i name="e_0_energy">   -180.81171149 </i>
   </energy>
  </scstep>
  <scstep>
   <time name="dav">    7.27    7.33</time>
   <time name="total">    7.33    7.39</time>
   <dipole>
    <v name="dipole">      0.00000000       0.00000000       0.00000478 </v>
    <i name="Tr[quadrupol]">   -560.26904417 </i>
    <i name="Echarged">      0.00000000 </i>
    <i name="Edipol_quadrupol">      0.00000000 </i>
    <i name="Eion">      0.00000000 </i>
   </dipole>
   <energy>
    <i name="alphaZ">     53.49222803 </i>
    <i name="ewald">  25984.96389419 </i>
    <i name="hartreedc"> -27667.33574458 </i>
    <i name="XCdc">    207.69238778 </i>
    <i name="pawpsdc">   7640.08933179 </i>
    <i name="pawaedc">  -7618.53193345 </i>
    <i name="eentropy">     -0.00205536 </i>
    <i name="bandstr">   -798.90564620 </i>
    <i name="atom">   2017.72479794 </i>
    <i name="e_fr_energy">   -180.81273986 </i>
    <i name="e_wo_entrp">   -180.81068450 </i>
    <i name="e_0_energy">   -180.81171218 </i>
   </energy>
  </scstep>
  <structure>
   <crystal>
    <varray name="basis" >
     <v>       5.56468315      -0.06963830       0.00000000 </v>
     <v>      -0.07571611       6.21320822       0.00000000 </v>
     <v>       0.00000000       0.00000000      30.08811665 </v>
    </varray>
    <i name="volume">   1040.12399724 </i>
    <varray name="rec_basis" >
     <v>       0.17973216       0.00219027       0.00000000 </v>
     <v>       0.00201446       0.16097200       0.00000000 </v>
     <v>       0.00000000       0.00000000       0.03323571 </v>
    </varray>
   </crystal>
   <varray name="positions" >
    <v>       0.51490446       0.64096757       0.14514037 </v>
    <v>       0.51490446       0.64096757       0.25661680 </v>
    <v>       0.48509554       0.35903243       0.14514037 </v>
    <v>       0.48509554       0.35903243       0.25661680 </v>
    <v>       0.98237555       0.63697577       0.13462372 </v>
    <v>       0.98237555       0.63697577       0.26713345 </v>
    <v>       0.01762445       0.36302423       0.13462372 </v>
    <v>       0.01762445       0.36302423       0.26713345 </v>
    <v>       0.59234396       0.89774906       0.13417245 </v>
    <v>       0.59234396       0.89774906       0.26758472 </v>
    <v>       0.40765604       0.10225094       0.13417245 </v>
    <v>       0.40765604       0.10225094       0.26758472 </v>
    <v>       0.90198373       0.89790280       0.12762642 </v>
    <v>       0.90198373       0.89790280       0.27413075 </v>
    <v>       0.09801627       0.10209719       0.12762642 </v>
    <v>       0.09801627       0.10209719       0.27413075 </v>
    <v>       0.76571876       0.74154904       0.17267246 </v>
    <v>       0.71516906       0.69833721       0.30210413 </v>
    <v>       0.28483094       0.30166279       0.09965304 </v>
    <v>       0.23428124       0.25845096       0.22908471 </v>
    <v>       0.71516906       0.69833721       0.09965304 </v>
    <v>       0.76571876       0.74154904       0.22908471 </v>
    <v>       0.23428124       0.25845096       0.17267246 </v>
    <v>       0.28483094       0.30166279       0.30210413 </v>
    <v>       0.25435480       0.52158748       0.13800868 </v>
    <v>       0.25435480       0.52158748       0.26374849 </v>
    <v>       0.74564520       0.47841249       0.13800868 </v>
    <v>       0.74564520       0.47841249       0.26374849 </v>
    <v>       0.50000000       0.50000000       0.06333152 </v>
    <v>       0.50000000       0.50000000       0.33842565 </v>
   </varray>
  </structure>
  <varray name="forces" >
   <v>       0.29140190      -0.30539632      -0.48748350 </v>
   <v>       0.29140190      -0.30539632       0.48748350 </v>
   <v>      -0.29140190       0.30539632      -0.48748350 </v>
   <v>      -0.29140190       0.30539632       0.48748350 </v>
   <v>      -0.17219791       0.44533815      -0.21283317 </v>
   <v>      -0.17219791       0.44533815       0.21283317 </v>
   <v>       0.17219791      -0.44533815      -0.21283317 </v>
   <v>       0.17219791      -0.44533815       0.21283317 </v>
   <v>       0.24922122       0.00361987      -0.07766651 </v>
   <v>       0.24922122       0.00361987       0.07766651 </v>
   <v>      -0.24922122      -0.00361987      -0.07766651 </v>
   <v>      -0.24922122      -0.00361987       0.07766651 </v>
   <v>      -0.04307089      -0.30133656      -0.21594335 </v>
   <v>      -0.04307089      -0.30133656       0.21594335 </v>
   <v>       0.04307089       0.30133656      -0.21594335 </v>
   <v>       0.04307089       0.30133656       0.21594335 </v>
   <v>       0.35585510       0.45022713       0.22431275 </v>
   <v>      -0.30458060      -0.48282097      -0.39847849 </v>
   <v>       0.30458060       0.48282097       0.39847849 </v>
   <v>      -0.35585510      -0.45022713      -0.22431275 </v>
   <v>      -0.30458060      -0.48282097       0.39847849 </v>
   <v>       0.35585510       0.45022713      -0.22431275 </v>
   <v>      -0.35585510      -0.45022713       0.22431275 </v>
   <v>       0.30458060       0.48282097      -0.39847849 </v>
   <v>      -0.37547122      -0.29608075       0.09749545 </v>
   <v>      -0.37547122      -0.29608075      -0.09749545 </v>
   <v>       0.37547122       0.29608075       0.09749545 </v>
   <v>       0.37547122       0.29608075      -0.09749545 </v>
   <v>       0.00000000      -0.00000000       0.66391231 </v>
   <v>       0.00000000      -0.00000000      -0.66391231 </v>
  </varray>
  <varray name="stress" >
   <v>      10.69879384       3.55290547       0.00000000 </v>
   <v>       3.55290547      -5.40748663       0.00000000 </v>
   <v>       0.00000000       0.00000000      -6.97305195 </v>
  </varray>
  <energy>
   <i name="e_fr_energy">   -184.26049190 </i>
   <i name="e_wo_entrp">   -184.25843654 </i>
   <i name="e_0_energy">   -184.25946422 </i>
  </energy>
  <time name="totalsc">  189.46  190.96</time>
 </calculation>
 <calculation>
  <scstep>
   <time name="dav">    7.71    7.76</time>
   <time name="total">    8.00    8.06</time>
   <dipole>
    <v name="dipole">      0.00000000       0.00000000       0.00000306 </v>
    <i name="Tr[quadrupol]">   -559.12200352 </i>
    <i name="Echarged">      0.00000000 </i>
    <i name="Edipol_quadrupol">      0.00000000 </i>
    <i name="Eion">      0.00000000 </i>
   </dipole>
   <energy>
    <i name="alphaZ">     53.57282867 </i>
    <i name="ewald">  26078.56944821 </i>
    <i name="hartreedc"> -27761.49333834 </i>
    <i name="XCdc">    207.80490156 </i>
    <i name="pawpsdc">   7640.09154690 </i>
    <i name="pawaedc">  -7618.53414868 </i>
    <i name="eentropy">     -0.00214476 </i>
    <i name="bandstr">   -798.71988036 </i>
    <i name="atom">   2017.72479794 </i>
    <i name="e_fr_energy">   -180.98598886 </i>
    <i name="e_wo_entrp">   -180.98384410 </i>
    <i name="e_0_energy">   -180.98491648 </i>
   </energy>
  </scstep>
  <scstep>
   <time name="dav">    9.45    9.52</time>
   <time name="total">    9.74    9.81</time>
   <dipole>
    <v name="dipole">      0.00000000       0.00000000      -0.00004823 </v>
    <i name="Tr[quadrupol]">   -559.21924275 </i>
    <i name="Echarged">      0.00000000 </i>
    <i name="Edipol_quadrupol">      0.00000000 </i>
    <i name="Eion">      0.00000000 </i>
   </dipole>
   <energy>
    <i name="e_fr_energy">   -180.98730837 </i>
    <i name="e_wo_entrp">   -180.98517182 </i>
    <i name="e_0_energy">   -180.98624010 </i>
   </energy>
  </scstep>
  <scstep>
   <time name="dav">    9.46    9.53</time>
   <time name="total">    9.75    9.82</time>
   <dipole>
    <v name="dipole">      0.00000000       0.00000000      -0.00006468 </v>
    <i name="Tr[quadrupol]">   -559.28678839 </i>
    <i name="Echarged">      0.00000000 </i>
    <i name="Edipol_quadrupol">      0.00000000 </i>
    <i name="Eion">      0.00000000 </i>
   </dipole>
   <energy>
    <i name="e_fr_energy">   -180.98535366 </i>
    <i name="e_wo_entrp">   -180.98319020 </i>
    <i name="e_0_energy">   -180.98427193 </i>
   </energy>
  </scstep>
  <scstep>
   <time name="dav">    9.25    9.33</time>
   <time name="total">    9.54    9.62</time>
   <dipole>
    <v name="dipole">      0.00000000       0.00000000      -0.00004841 </v>
    <i name="Tr[quadrupol]">   -559.29820709 </i>
    <i name="Echarged">      0.00000000 </i>
    <i name="Edipol_quadrupol">      0.00000000 </i>
    <i name="Eion">      0.00000000 </i>
   </dipole>
   <energy>
    <i name="e_fr_energy">   -180.98522382 </i>
    <i name="e_wo_entrp">   -180.98307075 </i>
    <i name="e_0_energy">   -180.98414729 </i>
   </energy>
  </scstep>
  <scstep>
   <time name="dav">    9.54    9.61</time>
   <time name="total">    9.82    9.89</time>
   <dipole>
    <v name="dipole">      0.00000000       0.00000000      -0.00004471 </v>
    <i name="Tr[quadrupol]">   -559.32168735 </i>
    <i name="Echarged">      0.00000000 </i>
    <i name="Edipol_quadrupol">      0.00000000 </i>
    <i name="Eion">      0.00000000 </i>
   </dipole>
   <energy>
    <i name="e_fr_energy">   -180.98521801 </i>
    <i name="e_wo_entrp">   -180.98306887 </i>
    <i name="e_0_energy">   -180.98414344 </i>
   </energy>
  </scstep>
  <scstep>
   <time name="dav">    9.69    9.76</time>
   <time name="total">    9.98   10.05</time>
   <dipole>
    <v name="dipole">      0.00000000       0.00000000      -0.00003539 </v>
    <i name="Tr[quadrupol]">   -559.34062027 </i>
    <i name="Echarged">      0.00000000 </i>
    <i name="Edipol_quadrupol">      0.00000000 </i>
    <i name="Eion">      0.00000000 </i>
   </dipole>
   <energy>
    <i name="e_fr_energy">   -180.98522163 </i>
    <i name="e_wo_entrp">   -180.98307451 </i>
    <i name="e_0_energy">   -180.98414807 </i>
   </energy>
  </scstep>
  <scstep>
   <time name="dav">    8.88    8.95</time>
   <time name="total">    9.17    9.24</time>
   <dipole>
    <v name="dipole">      0.00000000       0.00000000      -0.00002535 </v>
    <i name="Tr[quadrupol]">   -559.35621408 </i>
    <i name="Echarged">      0.00000000 </i>
    <i name="Edipol_quadrupol">      0.00000000 </i>
    <i name="Eion">      0.00000000 </i>
   </dipole>
   <energy>
    <i name="e_fr_energy">   -180.98523455 </i>
    <i name="e_wo_entrp">   -180.98308745 </i>
    <i name="e_0_energy">   -180.98416100 </i>
   </energy>
  </scstep>
  <scstep>
   <time name="dav">    7.94    8.00</time>
   <time name="total">    8.22    8.28</time>
   <dipole>
    <v name="dipole">      0.00000000       0.00000000      -0.00001626 </v>
    <i name="Tr[quadrupol]">   -559.36709237 </i>
    <i name="Echarged">      0.00000000 </i>
    <i name="Edipol_quadrupol">      0.00000000 </i>
    <i name="Eion">      0.00000000 </i>
   </dipole>
   <energy>
    <i name="e_fr_energy">   -180.98525282 </i>
    <i name="e_wo_entrp">   -180.98310612 </i>
    <i name="e_0_energy">   -180.98417947 </i>
   </energy>
  </scstep>
  <scstep>
   <time name="dav">    7.99    8.07</time>
   <time name="total">    8.28    8.36</time>
   <dipole>
    <v name="dipole">      0.00000000       0.00000000      -0.00000164 </v>
    <i name="Tr[quadrupol]">   -559.38346894 </i>
    <i name="Echarged">      0.00000000 </i>
    <i name="Edipol_quadrupol">      0.00000000 </i>
    <i name="Eion">      0.00000000 </i>
   </dipole>
   <energy>
    <i name="e_fr_energy">   -180.98527792 </i>
    <i name="e_wo_entrp">   -180.98313216 </i>
    <i name="e_0_energy">   -180.98420504 </i>
   </energy>
  </scstep>
  <scstep>
   <time name="dav">    7.71    7.77</time>
   <time name="total">    8.00    8.06</time>
   <dipole>
    <v name="dipole">      0.00000000       0.00000000       0.00000557 </v>
    <i name="Tr[quadrupol]">   -559.39013831 </i>
    <i name="Echarged">      0.00000000 </i>
    <i name="Edipol_quadrupol">      0.00000000 </i>
    <i name="Eion">      0.00000000 </i>
   </dipole>
   <energy>
    <i name="e_fr_energy">   -180.98529063 </i>
    <i name="e_wo_entrp">   -180.98314499 </i>
    <i name="e_0_energy">   -180.98421781 </i>
   </energy>
  </scstep>
  <scstep>
   <time name="dav">    7.62    7.67</time>
   <time name="total">    7.91    7.96</time>
   <dipole>
    <v name="dipole">      0.00000000       0.00000000       0.00001013 </v>
    <i name="Tr[quadrupol]">   -559.39472660 </i>
    <i name="Echarged">      0.00000000 </i>
    <i name="Edipol_quadrupol">      0.00000000 </i>
    <i name="Eion">      0.00000000 </i>
   </dipole>
   <energy>
    <i name="e_fr_energy">   -180.98529873 </i>
    <i name="e_wo_entrp">   -180.98315305 </i>
    <i name="e_0_energy">   -180.98422589 </i>
   </energy>
  </scstep>
  <scstep>
   <time name="dav">    7.53    7.58</time>
   <time name="total">    7.82    7.87</time>
   <dipole>
    <v name="dipole">      0.00000000       0.00000000       0.00001101 </v>
    <i name="Tr[quadrupol]">   -559.39642642 </i>
    <i name="Echarged">      0.00000000 </i>
    <i name="Edipol_quadrupol">      0.00000000 </i>
    <i name="Eion">      0.00000000 </i>
   </dipole>
   <energy>
    <i name="e_fr_energy">   -180.98530305 </i>
    <i name="e_wo_entrp">   -180.98315744 </i>
    <i name="e_0_energy">   -180.98423024 </i>
   </energy>
  </scstep>
  <scstep>
   <time name="dav">    7.22    7.27</time>
   <time name="total">    7.51    7.56</time>
   <dipole>
    <v name="dipole">      0.00000000       0.00000000       0.00001015 </v>
    <i name="Tr[quadrupol]">   -559.39742498 </i>
    <i name="Echarged">      0.00000000 </i>
    <i name="Edipol_quadrupol">      0.00000000 </i>
    <i name="Eion">      0.00000000 </i>
   </dipole>
   <energy>
    <i name="e_fr_energy">   -180.98530582 </i>
    <i name="e_wo_entrp">   -180.98316026 </i>
    <i name="e_0_energy">   -180.98423304 </i>
   </energy>
  </scstep>
  <scstep>
   <time name="dav">    7.31    7.37</time>
   <time name="total">    7.60    7.65</time>
   <dipole>
    <v name="dipole">      0.00000000       0.00000000       0.00000797 </v>
    <i name="Tr[quadrupol]">   -559.39778531 </i>
    <i name="Echarged">      0.00000000 </i>
    <i name="Edipol_quadrupol">      0.00000000 </i>
    <i name="Eion">      0.00000000 </i>
   </dipole>
   <energy>
    <i name="e_fr_energy">   -180.98530758 </i>
    <i name="e_wo_entrp">   -180.98316196 </i>
    <i name="e_0_energy">   -180.98423477 </i>
   </energy>
  </scstep>
  <scstep>
   <time name="dav">    7.20    7.26</time>
   <time name="total">    7.25    7.32</time>
   <dipole>
    <v name="dipole">      0.00000000       0.00000000       0.00000582 </v>
    <i name="Tr[quadrupol]">   -559.39794831 </i>
    <i name="Echarged">      0.00000000 </i>
    <i name="Edipol_quadrupol">      0.00000000 </i>
    <i name="Eion">      0.00000000 </i>
   </dipole>
   <energy>
    <i name="alphaZ">     53.57282757 </i>
    <i name="ewald">  26078.56944821 </i>
    <i name="hartreedc"> -27766.54061424 </i>
    <i name="XCdc">    207.81830124 </i>
    <i name="pawpsdc">   7647.72140722 </i>
    <i name="pawaedc">  -7626.16769092 </i>
    <i name="eentropy">     -0.00214563 </i>
    <i name="bandstr">   -793.68163992 </i>
    <i name="atom">   2017.72479794 </i>
    <i name="e_fr_energy">   -180.98530852 </i>
    <i name="e_wo_entrp">   -180.98316290 </i>
    <i name="e_0_energy">   -180.98423571 </i>
   </energy>
  </scstep>
  <structure>
   <crystal>
    <varray name="basis" >
     <v>       5.56912708      -0.07527912       0.00000000 </v>
     <v>      -0.08225164       6.19907653       0.00000000 </v>
     <v>       0.00000000       0.00000000      30.08811665 </v>
    </varray>
    <i name="volume">   1038.55913772 </i>
    <varray name="rec_basis" >
     <v>       0.17959356       0.00238291       0.00000000 </v>
     <v>       0.00218091       0.16134329       0.00000000 </v>
     <v>       0.00000000       0.00000000       0.03323571 </v>
    </varray>
   </crystal>
   <varray name="positions" >
    <v>       0.51653017       0.64013755       0.14588912 </v>
    <v>       0.51653017       0.64013755       0.25586805 </v>
    <v>       0.48346983       0.35986245       0.14588912 </v>
    <v>       0.48346983       0.35986245       0.25586805 </v>
    <v>       0.98201613       0.63759253       0.13476687 </v>
    <v>       0.98201613       0.63759253       0.26699031 </v>
    <v>       0.01798387       0.36240747       0.13476687 </v>
    <v>       0.01798387       0.36240747       0.26699031 </v>
    <v>       0.59233347       0.89729668       0.13437626 </v>
    <v>       0.59233347       0.89729668       0.26738091 </v>
    <v>       0.40766653       0.10270332       0.13437626 </v>
    <v>       0.40766653       0.10270332       0.26738091 </v>
    <v>       0.90200064       0.89676779       0.12706627 </v>
    <v>       0.90200064       0.89676779       0.27469091 </v>
    <v>       0.09799936       0.10323220       0.12706627 </v>
    <v>       0.09799936       0.10323220       0.27469091 </v>
    <v>       0.76900723       0.74485365       0.17292390 </v>
    <v>       0.71063170       0.69569673       0.30192569 </v>
    <v>       0.28936830       0.30430327       0.09983148 </v>
    <v>       0.23099277       0.25514635       0.22883328 </v>
    <v>       0.71063170       0.69569673       0.09983148 </v>
    <v>       0.76900723       0.74485365       0.22883328 </v>
    <v>       0.23099277       0.25514635       0.17292390 </v>
    <v>       0.28936830       0.30430327       0.30192569 </v>
    <v>       0.25387923       0.52149985       0.13869794 </v>
    <v>       0.25387923       0.52149985       0.26305923 </v>
    <v>       0.74612077       0.47850012       0.13869794 </v>
    <v>       0.74612077       0.47850012       0.26305923 </v>
    <v>       0.50000000       0.50000000       0.06474411 </v>
    <v>       0.50000000       0.50000000       0.33701307 </v>
   </varray>
  </structure>
  <varray name="forces" >
   <v>       0.12341495      -0.22002799      -0.40716345 </v>
   <v>       0.12341495      -0.22002799       0.40716345 </v>
   <v>      -0.12341495       0.22002799      -0.40716345 </v>
   <v>      -0.12341495       0.22002799       0.40716345 </v>
   <v>      -0.02623098       0.29570488      -0.21072959 </v>
   <v>      -0.02623098       0.29570488       0.21072959 </v>
   <v>       0.02623098      -0.29570488      -0.21072959 </v>
   <v>       0.02623098      -0.29570488       0.21072959 </v>
   <v>       0.22715312       0.07556710      -0.09100303 </v>
   <v>       0.22715312       0.07556710       0.09100303 </v>
   <v>      -0.22715312      -0.07556710      -0.09100303 </v>
   <v>      -0.22715312      -0.07556710       0.09100303 </v>
   <v>      -0.03195498      -0.07809487      -0.23986901 </v>
   <v>      -0.03195498      -0.07809487       0.23986901 </v>
   <v>       0.03195498       0.07809487      -0.23986901 </v>
   <v>       0.03195498       0.07809487       0.23986901 </v>
   <v>       0.24381960       0.35124269      -0.09628067 </v>
   <v>      -0.16196553      -0.43327721      -0.40761216 </v>
   <v>       0.16196553       0.43327721       0.40761216 </v>
   <v>      -0.24381960      -0.35124269       0.09628067 </v>
   <v>      -0.16196553      -0.43327721       0.40761216 </v>
   <v>       0.24381960       0.35124269       0.09628067 </v>
   <v>      -0.24381960      -0.35124269      -0.09628067 </v>
   <v>       0.16196553       0.43327721      -0.40761216 </v>
   <v>      -0.28150032      -0.12866795       0.10461024 </v>
   <v>      -0.28150032      -0.12866795      -0.10461024 </v>
   <v>       0.28150032       0.12866795       0.10461024 </v>
   <v>       0.28150032       0.12866795      -0.10461024 </v>
   <v>       0.00000000       0.00000000       0.66226506 </v>
   <v>       0.00000000       0.00000000      -0.66226506 </v>
  </varray>
  <varray name="stress" >
   <v>       9.14144637       2.77637938       0.00000000 </v>
   <v>       2.77637938      -4.00767936       0.00000000 </v>
   <v>       0.00000000       0.00000000      -5.83595990 </v>
  </varray>
  <energy>
   <i name="e_fr_energy">   -184.44847389 </i>
   <i name="e_wo_entrp">   -184.44632826 </i>
   <i name="e_0_energy">   -184.44740107 </i>
  </energy>
  <time name="totalsc">  135.42  136.46</time>
 </calculation>
 <calculation>
  <scstep>
   <time name="dav">    7.71    7.76</time>
   <time name="total">    8.00    8.05</time>
   <dipole>
    <v name="dipole">      0.00000000       0.00000000       0.00000376 </v>
    <i name="Tr[quadrupol]">   -556.37160363 </i>
    <i name="Echarged">      0.00000000 </i>
    <i name="Edipol_quadrupol">      0.00000000 </i>
    <i name="Eion">      0.00000000 </i>
   </dipole>
   <energy>
    <i name="alphaZ">     53.80703396 </i>
    <i name="ewald">  26344.10223614 </i>
    <i name="hartreedc"> -28034.21154428 </i>
    <i name="XCdc">    208.07085913 </i>
    <i name="pawpsdc">   7647.72179150 </i>
    <i name="pawaedc">  -7626.16807527 </i>
    <i name="eentropy">     -0.00257184 </i>
    <i name="bandstr">   -792.19127434 </i>
    <i name="atom">   2017.72479794 </i>
    <i name="e_fr_energy">   -181.14674705 </i>
    <i name="e_wo_entrp">   -181.14417521 </i>
    <i name="e_0_energy">   -181.14546113 </i>
   </energy>
  </scstep>
  <scstep>
   <time name="dav">    9.53    9.59</time>
   <time name="total">    9.81    9.88</time>
   <dipole>
    <v name="dipole">      0.00000000       0.00000000      -0.00013960 </v>
    <i name="Tr[quadrupol]">   -556.62496929 </i>
    <i name="Echarged">      0.00000000 </i>
    <i name="Edipol_quadrupol">      0.00000000 </i>
    <i name="Eion">      0.00000000 </i>
   </dipole>
   <energy>
    <i name="e_fr_energy">   -181.17000184 </i>
    <i name="e_wo_entrp">   -181.16754011 </i>
    <i name="e_0_energy">   -181.16877098 </i>
   </energy>
  </scstep>
  <scstep>
   <time name="dav">    9.44    9.50</time>
   <time name="total">    9.73    9.79</time>
   <dipole>
    <v name="dipole">      0.00000000       0.00000000      -0.00018287 </v>
    <i name="Tr[quadrupol]">   -556.79722613 </i>
    <i name="Echarged">      0.00000000 </i>
    <i name="Edipol_quadrupol">      0.00000000 </i>
    <i name="Eion">      0.00000000 </i>
   </dipole>
   <energy>
    <i name="e_fr_energy">   -181.15386346 </i>
    <i name="e_wo_entrp">   -181.15133652 </i>
    <i name="e_0_energy">   -181.15259999 </i>
   </energy>
  </scstep>
  <scstep>
   <time name="dav">    9.36    9.43</time>
   <time name="total">    9.65    9.72</time>
   <dipole>
    <v name="dipole">      0.00000000       0.00000000      -0.00014325 </v>
    <i name="Tr[quadrupol]">   -556.84241099 </i>
    <i name="Echarged">      0.00000000 </i>
    <i name="Edipol_quadrupol">      0.00000000 </i>
    <i name="Eion">      0.00000000 </i>
   </dipole>
   <energy>
    <i name="e_fr_energy">   -181.15264457 </i>
    <i name="e_wo_entrp">   -181.15014798 </i>
    <i name="e_0_energy">   -181.15139627 </i>
   </energy>
  </scstep>
  <scstep>
   <time name="dav">    9.60    9.70</time>
   <time name="total">    9.89    9.98</time>
   <dipole>
    <v name="dipole">      0.00000000       0.00000000      -0.00013351 </v>
    <i name="Tr[quadrupol]">   -556.90836464 </i>
    <i name="Echarged">      0.00000000 </i>
    <i name="Edipol_quadrupol">      0.00000000 </i>
    <i name="Eion">      0.00000000 </i>
   </dipole>
   <energy>
    <i name="e_fr_energy">   -181.15260200 </i>
    <i name="e_wo_entrp">   -181.15011947 </i>
    <i name="e_0_energy">   -181.15136073 </i>
   </energy>
  </scstep>
  <scstep>
   <time name="dav">    9.84    9.91</time>
   <time name="total">   10.12   10.20</time>
   <dipole>
    <v name="dipole">      0.00000000       0.00000000      -0.00010833 </v>
    <i name="Tr[quadrupol]">   -556.96323158 </i>
    <i name="Echarged">      0.00000000 </i>
    <i name="Edipol_quadrupol">      0.00000000 </i>
    <i name="Eion">      0.00000000 </i>
   </dipole>
   <energy>
    <i name="e_fr_energy">   -181.15259047 </i>
    <i name="e_wo_entrp">   -181.15011483 </i>
    <i name="e_0_energy">   -181.15135265 </i>
   </energy>
  </scstep>
  <scstep>
   <time name="dav">    9.14    9.20</time>
   <time name="total">    9.43    9.49</time>
   <dipole>
    <v name="dipole">      0.00000000       0.00000000      -0.00008087 </v>
    <i name="Tr[quadrupol]">   -557.00596072 </i>
    <i name="Echarged">      0.00000000 </i>
    <i name="Edipol_quadrupol">      0.00000000 </i>
    <i name="Eion">      0.00000000 </i>
   </dipole>
   <energy>
    <i name="e_fr_energy">   -181.15264768 </i>
    <i name="e_wo_entrp">   -181.15017194 </i>
    <i name="e_0_energy">   -181.15140981 </i>
   </energy>
  </scstep>
  <scstep>
   <time name="dav">    8.87    8.93</time>
   <time name="total">    9.16    9.22</time>
   <dipole>
    <v name="dipole">      0.00000000       0.00000000      -0.00005518 </v>
    <i name="Tr[quadrupol]">   -557.03708776 </i>
    <i name="Echarged">      0.00000000 </i>
    <i name="Edipol_quadrupol">      0.00000000 </i>
    <i name="Eion">      0.00000000 </i>
   </dipole>
   <energy>
    <i name="e_fr_energy">   -181.15273153 </i>
    <i name="e_wo_entrp">   -181.15025620 </i>
    <i name="e_0_energy">   -181.15149386 </i>
   </energy>
  </scstep>
  <scstep>
   <time name="dav">    8.67    8.74</time>
   <time name="total">    8.96    9.03</time>
   <dipole>
    <v name="dipole">      0.00000000       0.00000000      -0.00001400 </v>
    <i name="Tr[quadrupol]">   -557.08244243 </i>
    <i name="Echarged">      0.00000000 </i>
    <i name="Edipol_quadrupol">      0.00000000 </i>
    <i name="Eion">      0.00000000 </i>
   </dipole>
   <energy>
    <i name="e_fr_energy">   -181.15285734 </i>
    <i name="e_wo_entrp">   -181.15038456 </i>
    <i name="e_0_energy">   -181.15162095 </i>
   </energy>
  </scstep>
  <scstep>
   <time name="dav">    8.44    8.52</time>
   <time name="total">    8.73    8.81</time>
   <dipole>
    <v name="dipole">      0.00000000       0.00000000       0.00000691 </v>
    <i name="Tr[quadrupol]">   -557.10125008 </i>
    <i name="Echarged">      0.00000000 </i>
    <i name="Edipol_quadrupol">      0.00000000 </i>
    <i name="Eion">      0.00000000 </i>
   </dipole>
   <energy>
    <i name="e_fr_energy">   -181.15291571 </i>
    <i name="e_wo_entrp">   -181.15044334 </i>
    <i name="e_0_energy">   -181.15167953 </i>
   </energy>
  </scstep>
  <scstep>
   <time name="dav">    8.23    8.29</time>
   <time name="total">    8.51    8.58</time>
   <dipole>
    <v name="dipole">      0.00000000       0.00000000       0.00002174 </v>
    <i name="Tr[quadrupol]">   -557.11480479 </i>
    <i name="Echarged">      0.00000000 </i>
    <i name="Edipol_quadrupol">      0.00000000 </i>
    <i name="Eion">      0.00000000 </i>
   </dipole>
   <energy>
    <i name="e_fr_energy">   -181.15294775 </i>
    <i name="e_wo_entrp">   -181.15047532 </i>
    <i name="e_0_energy">   -181.15171154 </i>
   </energy>
  </scstep>
  <scstep>
   <time name="dav">    8.11    8.17</time>
   <time name="total">    8.40    8.46</time>
   <dipole>
    <v name="dipole">      0.00000000       0.00000000       0.00002621 </v>
    <i name="Tr[quadrupol]">   -557.12011994 </i>
    <i name="Echarged">      0.00000000 </i>
    <i name="Edipol_quadrupol">      0.00000000 </i>
    <i name="Eion">      0.00000000 </i>
   </dipole>
   <energy>
    <i name="e_fr_energy">   -181.15296863 </i>
    <i name="e_wo_entrp">   -181.15049635 </i>
    <i name="e_0_energy">   -181.15173249 </i>
   </energy>
  </scstep>
  <scstep>
   <time name="dav">    7.94    8.00</time>
   <time name="total">    8.23    8.29</time>
   <dipole>
    <v name="dipole">      0.00000000       0.00000000       0.00002488 </v>
    <i name="Tr[quadrupol]">   -557.12303424 </i>
    <i name="Echarged">      0.00000000 </i>
    <i name="Edipol_quadrupol">      0.00000000 </i>
    <i name="Eion">      0.00000000 </i>
   </dipole>
   <energy>
    <i name="e_fr_energy">   -181.15298179 </i>
    <i name="e_wo_entrp">   -181.15050966 </i>
    <i name="e_0_energy">   -181.15174573 </i>
   </energy>
  </scstep>
  <scstep>
   <time name="dav">    7.37    7.42</time>
   <time name="total">    7.65    7.71</time>
   <dipole>
    <v name="dipole">      0.00000000       0.00000000       0.00001936 </v>
    <i name="Tr[quadrupol]">   -557.12411936 </i>
    <i name="Echarged">      0.00000000 </i>
    <i name="Edipol_quadrupol">      0.00000000 </i>
    <i name="Eion">      0.00000000 </i>
   </dipole>
   <energy>
    <i name="e_fr_energy">   -181.15299001 </i>
    <i name="e_wo_entrp">   -181.15051774 </i>
    <i name="e_0_energy">   -181.15175388 </i>
   </energy>
  </scstep>
  <scstep>
   <time name="dav">    7.25    7.31</time>
   <time name="total">    7.54    7.60</time>
   <dipole>
    <v name="dipole">      0.00000000       0.00000000       0.00001375 </v>
    <i name="Tr[quadrupol]">   -557.12448204 </i>
    <i name="Echarged">      0.00000000 </i>
    <i name="Edipol_quadrupol">      0.00000000 </i>
    <i name="Eion">      0.00000000 </i>
   </dipole>
   <energy>
    <i name="e_fr_energy">   -181.15299388 </i>
    <i name="e_wo_entrp">   -181.15052162 </i>
    <i name="e_0_energy">   -181.15175775 </i>
   </energy>
  </scstep>
  <scstep>
   <time name="dav">    7.12    7.19</time>
   <time name="total">    7.41    7.48</time>
   <dipole>
    <v name="dipole">      0.00000000       0.00000000       0.00000756 </v>
    <i name="Tr[quadrupol]">   -557.12464953 </i>
    <i name="Echarged">      0.00000000 </i>
    <i name="Edipol_quadrupol">      0.00000000 </i>
    <i name="Eion">      0.00000000 </i>
   </dipole>
   <energy>
    <i name="e_fr_energy">   -181.15299644 </i>
    <i name="e_wo_entrp">   -181.15052422 </i>
    <i name="e_0_energy">   -181.15176033 </i>
   </energy>
  </scstep>
  <scstep>
   <time name="dav">    7.17    7.23</time>
   <time name="total">    7.23    7.28</time>
   <dipole>
    <v name="dipole">      0.00000000       0.00000000       0.00000478 </v>
    <i name="Tr[quadrupol]">   -557.12468028 </i>
    <i name="Echarged">      0.00000000 </i>
    <i name="Edipol_quadrupol">      0.00000000 </i>
    <i name="Eion">      0.00000000 </i>
   </dipole>
   <energy>
    <i name="alphaZ">     53.80703356 </i>
    <i name="ewald">  26344.10223614 </i>
    <i name="hartreedc"> -28048.05906622 </i>
    <i name="XCdc">    208.11346178 </i>
    <i name="pawpsdc">   7649.74878420 </i>
    <i name="pawaedc">  -7628.20284626 </i>
    <i name="eentropy">     -0.00247224 </i>
    <i name="bandstr">   -778.38492618 </i>
    <i name="atom">   2017.72479794 </i>
    <i name="e_fr_energy">   -181.15299729 </i>
    <i name="e_wo_entrp">   -181.15052506 </i>
    <i name="e_0_energy">   -181.15176117 </i>
   </energy>
  </scstep>
  <structure>
   <crystal>
    <varray name="basis" >
     <v>       5.58187014      -0.09145430       0.00000000 </v>
     <v>      -0.10099244       6.15855356       0.00000000 </v>
     <v>       0.00000000       0.00000000      30.08811665 </v>
    </varray>
    <i name="volume">   1034.03860721 </i>
    <varray name="rec_basis" >
     <v>       0.17919957       0.00293864       0.00000000 </v>
     <v>       0.00266111       0.16241943       0.00000000 </v>
     <v>       0.00000000       0.00000000       0.03323571 </v>
    </varray>
   </crystal>
   <varray name="positions" >
    <v>       0.52118540       0.63775617       0.14803617 </v>
    <v>       0.52118540       0.63775617       0.25372100 </v>
    <v>       0.47881460       0.36224383       0.14803617 </v>
    <v>       0.47881460       0.36224383       0.25372100 </v>
    <v>       0.98098840       0.63936423       0.13517733 </v>
    <v>       0.98098840       0.63936423       0.26657984 </v>
    <v>       0.01901160       0.36063577       0.13517733 </v>
    <v>       0.01901160       0.36063577       0.26657984 </v>
    <v>       0.59230184       0.89599646       0.13496069 </v>
    <v>       0.59230184       0.89599646       0.26679648 </v>
    <v>       0.40769816       0.10400353       0.13496069 </v>
    <v>       0.40769816       0.10400353       0.26679648 </v>
    <v>       0.90204515       0.89350570       0.12546001 </v>
    <v>       0.90204515       0.89350570       0.27629716 </v>
    <v>       0.09795485       0.10649429       0.12546001 </v>
    <v>       0.09795485       0.10649429       0.27629716 </v>
    <v>       0.77844103       0.75435994       0.17364488 </v>
    <v>       0.69762176       0.68809600       0.30141402 </v>
    <v>       0.30237824       0.31190400       0.10034315 </v>
    <v>       0.22155897       0.24564006       0.22811229 </v>
    <v>       0.69762176       0.68809600       0.10034315 </v>
    <v>       0.77844103       0.75435994       0.22811229 </v>
    <v>       0.22155897       0.24564006       0.17364488 </v>
    <v>       0.30237824       0.31190400       0.30141402 </v>
    <v>       0.25251629       0.52124676       0.14067443 </v>
    <v>       0.25251629       0.52124676       0.26108274 </v>
    <v>       0.74748371       0.47875321       0.14067443 </v>
    <v>       0.74748371       0.47875321       0.26108274 </v>
    <v>       0.50000000       0.50000000       0.06879473 </v>
    <v>       0.50000000       0.50000000       0.33296244 </v>
   </varray>
  </structure>
  <varray name="forces" >
   <v>      -0.34137785       0.14464427      -0.18509413 </v>
   <v>      -0.34137785       0.14464427       0.18509413 </v>
   <v>       0.34137785      -0.14464427      -0.18509413 </v>
   <v>       0.34137785      -0.14464427       0.18509413 </v>
   <v>       0.41920330      -0.15256825      -0.18225180 </v>
   <v>       0.41920330      -0.15256825       0.18225180 </v>
   <v>      -0.41920330       0.15256825      -0.18225180 </v>
   <v>      -0.41920330       0.15256825       0.18225180 </v>
   <v>       0.17485710       0.26352268      -0.14115234 </v>
   <v>       0.17485710       0.26352268       0.14115234 </v>
   <v>      -0.17485710      -0.26352268      -0.14115234 </v>
   <v>      -0.17485710      -0.26352268       0.14115234 </v>
   <v>      -0.05323516       0.54441631      -0.29486695 </v>
   <v>      -0.05323516       0.54441631       0.29486695 </v>
   <v>       0.05323516      -0.54441631      -0.29486695 </v>
   <v>       0.05323516      -0.54441631       0.29486695 </v>
   <v>      -0.09066349       0.07360097      -1.16301392 </v>
   <v>       0.25658562      -0.25201025      -0.50509915 </v>
   <v>      -0.25658562       0.25201025       0.50509915 </v>
   <v>       0.09066349      -0.07360097       1.16301392 </v>
   <v>       0.25658562      -0.25201025       0.50509915 </v>
   <v>      -0.09066349       0.07360097       1.16301392 </v>
   <v>       0.09066349      -0.07360097      -1.16301392 </v>
   <v>      -0.25658562       0.25201025      -0.50509915 </v>
   <v>      -0.06891597       0.32586579       0.10388667 </v>
   <v>      -0.06891597       0.32586579      -0.10388667 </v>
   <v>       0.06891597      -0.32586579       0.10388667 </v>
   <v>       0.06891597      -0.32586579      -0.10388667 </v>
   <v>      -0.00000000       0.00000000       0.59823010 </v>
   <v>      -0.00000000       0.00000000      -0.59823010 </v>
  </varray>
  <varray name="stress" >
   <v>       4.85697722       0.11361739       0.00000000 </v>
   <v>       0.11361738       0.25194753       0.00000000 </v>
   <v>       0.00000000       0.00000000      -2.42297567 </v>
  </varray>
  <energy>
   <i name="e_fr_energy">   -184.66058621 </i>
   <i name="e_wo_entrp">   -184.65811397 </i>
   <i name="e_0_energy">   -184.65935009 </i>
  </energy>
  <time name="totalsc">  155.28  156.46</time>
 </calculation>
 <calculation>
  <scstep>
   <time name="dav">    7.70    7.76</time>
   <time name="total">    7.99    8.05</time>
   <dipole>
    <v name="dipole">      0.00000000       0.00000000       0.00000289 </v>
    <i name="Tr[quadrupol]">   -556.54747506 </i>
    <i name="Echarged">      0.00000000 </i>
    <i name="Edipol_quadrupol">      0.00000000 </i>
    <i name="Eion">      0.00000000 </i>
   </dipole>
   <energy>
    <i name="alphaZ">     53.78642173 </i>
    <i name="ewald">  26391.33933385 </i>
    <i name="hartreedc"> -28096.58019890 </i>
    <i name="XCdc">    208.09856921 </i>
    <i name="pawpsdc">   7649.74870171 </i>
    <i name="pawaedc">  -7628.20276368 </i>
    <i name="eentropy">     -0.00304020 </i>
    <i name="bandstr">   -777.21384473 </i>
    <i name="atom">   2017.72479794 </i>
    <i name="e_fr_energy">   -181.30202308 </i>
    <i name="e_wo_entrp">   -181.29898287 </i>
    <i name="e_0_energy">   -181.30050297 </i>
   </energy>
  </scstep>
  <scstep>
   <time name="dav">    9.50    9.56</time>
   <time name="total">    9.78    9.85</time>
   <dipole>
    <v name="dipole">      0.00000000       0.00000000       0.00000421 </v>
    <i name="Tr[quadrupol]">   -556.53064302 </i>
    <i name="Echarged">      0.00000000 </i>
    <i name="Edipol_quadrupol">      0.00000000 </i>
    <i name="Eion">      0.00000000 </i>
   </dipole>
   <energy>
    <i name="e_fr_energy">   -181.31099863 </i>
    <i name="e_wo_entrp">   -181.30795204 </i>
    <i name="e_0_energy">   -181.30947533 </i>
   </energy>
  </scstep>
  <scstep>
   <time name="dav">    8.95    9.03</time>
   <time name="total">    9.24    9.32</time>
   <dipole>
    <v name="dipole">      0.00000000       0.00000000      -0.00001172 </v>
    <i name="Tr[quadrupol]">   -556.56306113 </i>
    <i name="Echarged">      0.00000000 </i>
    <i name="Edipol_quadrupol">      0.00000000 </i>
    <i name="Eion">      0.00000000 </i>
   </dipole>
   <energy>
    <i name="e_fr_energy">   -181.30771292 </i>
    <i name="e_wo_entrp">   -181.30465389 </i>
    <i name="e_0_energy">   -181.30618340 </i>
   </energy>
  </scstep>
  <scstep>
   <time name="dav">    9.39    9.47</time>
   <time name="total">    9.67    9.76</time>
   <dipole>
    <v name="dipole">      0.00000000       0.00000000      -0.00000636 </v>
    <i name="Tr[quadrupol]">   -556.56578500 </i>
    <i name="Echarged">      0.00000000 </i>
    <i name="Edipol_quadrupol">      0.00000000 </i>
    <i name="Eion">      0.00000000 </i>
   </dipole>
   <energy>
    <i name="e_fr_energy">   -181.30780257 </i>
    <i name="e_wo_entrp">   -181.30473917 </i>
    <i name="e_0_energy">   -181.30627087 </i>
   </energy>
  </scstep>
  <scstep>
   <time name="dav">    9.87    9.94</time>
   <time name="total">   10.15   10.22</time>
   <dipole>
    <v name="dipole">      0.00000000       0.00000000      -0.00000562 </v>
    <i name="Tr[quadrupol]">   -556.57357946 </i>
    <i name="Echarged">      0.00000000 </i>
    <i name="Edipol_quadrupol">      0.00000000 </i>
    <i name="Eion">      0.00000000 </i>
   </dipole>
   <energy>
    <i name="e_fr_energy">   -181.30779905 </i>
    <i name="e_wo_entrp">   -181.30473531 </i>
    <i name="e_0_energy">   -181.30626718 </i>
   </energy>
  </scstep>
  <scstep>
   <time name="dav">    9.45    9.52</time>
   <time name="total">    9.74    9.81</time>
   <dipole>
    <v name="dipole">      0.00000000       0.00000000      -0.00000489 </v>
    <i name="Tr[quadrupol]">   -556.58100367 </i>
    <i name="Echarged">      0.00000000 </i>
    <i name="Edipol_quadrupol">      0.00000000 </i>
    <i name="Eion">      0.00000000 </i>
   </dipole>
   <energy>
    <i name="e_fr_energy">   -181.30781239 </i>
    <i name="e_wo_entrp">   -181.30474909 </i>
    <i name="e_0_energy">   -181.30628074 </i>
   </energy>
  </scstep>
  <scstep>
   <time name="dav">    9.09    9.15</time>
   <time name="total">    9.37    9.44</time>
   <dipole>
    <v name="dipole">      0.00000000       0.00000000      -0.00000307 </v>
    <i name="Tr[quadrupol]">   -556.58481814 </i>
    <i name="Echarged">      0.00000000 </i>
    <i name="Edipol_quadrupol">      0.00000000 </i>
    <i name="Eion">      0.00000000 </i>
   </dipole>
   <energy>
    <i name="e_fr_energy">   -181.30782142 </i>
    <i name="e_wo_entrp">   -181.30475824 </i>
    <i name="e_0_energy">   -181.30628983 </i>
   </energy>
  </scstep>
  <scstep>
   <time name="dav">    7.81    7.88</time>
   <time name="total">    8.10    8.17</time>
   <dipole>
    <v name="dipole">      0.00000000       0.00000000      -0.00000146 </v>
    <i name="Tr[quadrupol]">   -556.58877065 </i>
    <i name="Echarged">      0.00000000 </i>
    <i name="Edipol_quadrupol">      0.00000000 </i>
    <i name="Eion">      0.00000000 </i>
   </dipole>
   <energy>
    <i name="e_fr_energy">   -181.30782841 </i>
    <i name="e_wo_entrp">   -181.30476521 </i>
    <i name="e_0_energy">   -181.30629681 </i>
   </energy>
  </scstep>
  <scstep>
   <time name="dav">    7.57    7.64</time>
   <time name="total">    7.86    7.93</time>
   <dipole>
    <v name="dipole">      0.00000000       0.00000000       0.00000040 </v>
    <i name="Tr[quadrupol]">   -556.59251987 </i>
    <i name="Echarged">      0.00000000 </i>
    <i name="Edipol_quadrupol">      0.00000000 </i>
    <i name="Eion">      0.00000000 </i>
   </dipole>
   <energy>
    <i name="e_fr_energy">   -181.30783322 </i>
    <i name="e_wo_entrp">   -181.30477001 </i>
    <i name="e_0_energy">   -181.30630161 </i>
   </energy>
  </scstep>
  <scstep>
   <time name="dav">    7.15    7.20</time>
   <time name="total">    7.43    7.49</time>
   <dipole>
    <v name="dipole">      0.00000000       0.00000000       0.00000192 </v>
    <i name="Tr[quadrupol]">   -556.59529811 </i>
    <i name="Echarged">      0.00000000 </i>
    <i name="Edipol_quadrupol">      0.00000000 </i>
    <i name="Eion">      0.00000000 </i>
   </dipole>
   <energy>
    <i name="e_fr_energy">   -181.30783590 </i>
    <i name="e_wo_entrp">   -181.30477269 </i>
    <i name="e_0_energy">   -181.30630429 </i>
   </energy>
  </scstep>
  <scstep>
   <time name="dav">    6.98    7.03</time>
   <time name="total">    7.27    7.32</time>
   <dipole>
    <v name="dipole">      0.00000000       0.00000000       0.00000337 </v>
    <i name="Tr[quadrupol]">   -556.59801331 </i>
    <i name="Echarged">      0.00000000 </i>
    <i name="Edipol_quadrupol">      0.00000000 </i>
    <i name="Eion">      0.00000000 </i>
   </dipole>
   <energy>
    <i name="e_fr_energy">   -181.30783805 </i>
    <i name="e_wo_entrp">   -181.30477484 </i>
    <i name="e_0_energy">   -181.30630645 </i>
   </energy>
  </scstep>
  <scstep>
   <time name="dav">    7.05    7.09</time>
   <time name="total">    7.33    7.38</time>
   <dipole>
    <v name="dipole">      0.00000000       0.00000000       0.00000412 </v>
    <i name="Tr[quadrupol]">   -556.59991441 </i>
    <i name="Echarged">      0.00000000 </i>
    <i name="Edipol_quadrupol">      0.00000000 </i>
    <i name="Eion">      0.00000000 </i>
   </dipole>
   <energy>
    <i name="e_fr_energy">   -181.30783961 </i>
    <i name="e_wo_entrp">   -181.30477641 </i>
    <i name="e_0_energy">   -181.30630801 </i>
   </energy>
  </scstep>
  <scstep>
   <time name="dav">    7.43    7.48</time>
   <time name="total">    7.48    7.53</time>
   <dipole>
    <v name="dipole">      0.00000000       0.00000000       0.00000414 </v>
    <i name="Tr[quadrupol]">   -556.60065112 </i>
    <i name="Echarged">      0.00000000 </i>
    <i name="Edipol_quadrupol">      0.00000000 </i>
    <i name="Eion">      0.00000000 </i>
   </dipole>
   <energy>
    <i name="alphaZ">     53.78642123 </i>
    <i name="ewald">  26391.33933385 </i>
    <i name="hartreedc"> -28096.22388229 </i>
    <i name="XCdc">    208.06353357 </i>
    <i name="pawpsdc">   7597.91219275 </i>
    <i name="pawaedc">  -7576.34291941 </i>
    <i name="eentropy">     -0.00306321 </i>
    <i name="bandstr">   -777.56425461 </i>
    <i name="atom">   2017.72479794 </i>
    <i name="e_fr_energy">   -181.30784018 </i>
    <i name="e_wo_entrp">   -181.30477698 </i>
    <i name="e_0_energy">   -181.30630858 </i>
   </energy>
  </scstep>
  <structure>
   <crystal>
    <varray name="basis" >
     <v>       5.60002716      -0.09841601       0.00000000 </v>
     <v>      -0.10928608       6.14120880       0.00000000 </v>
     <v>       0.00000000       0.00000000      30.08811665 </v>
    </varray>
    <i name="volume">   1034.43488197 </i>
    <varray name="rec_basis" >
     <v>       0.17862643       0.00317875       0.00000000 </v>
     <v>       0.00286258       0.16288533       0.00000000 </v>
     <v>       0.00000000       0.00000000       0.03323571 </v>
    </varray>
   </crystal>
   <varray name="positions" >
    <v>       0.52198348       0.63716171       0.14887222 </v>
    <v>       0.52198348       0.63716171       0.25288495 </v>
    <v>       0.47801652       0.36283829       0.14887222 </v>
    <v>       0.47801652       0.36283829       0.25288495 </v>
    <v>       0.98211430       0.63966371       0.13523357 </v>
    <v>       0.98211430       0.63966371       0.26652360 </v>
    <v>       0.01788570       0.36033629       0.13523357 </v>
    <v>       0.01788570       0.36033629       0.26652360 </v>
    <v>       0.59296704       0.89632542       0.13512424 </v>
    <v>       0.59296704       0.89632542       0.26663293 </v>
    <v>       0.40703296       0.10367457       0.13512424 </v>
    <v>       0.40703296       0.10367457       0.26663293 </v>
    <v>       0.90189154       0.89390102       0.12452889 </v>
    <v>       0.90189154       0.89390102       0.27722828 </v>
    <v>       0.09810846       0.10609897       0.12452889 </v>
    <v>       0.09810846       0.10609897       0.27722828 </v>
    <v>       0.78235327       0.75892763       0.17314914 </v>
    <v>       0.69272603       0.68378211       0.30082740 </v>
    <v>       0.30727397       0.31621789       0.10092978 </v>
    <v>       0.21764673       0.24107237       0.22860804 </v>
    <v>       0.69272603       0.68378211       0.10092978 </v>
    <v>       0.78235327       0.75892763       0.22860804 </v>
    <v>       0.21764673       0.24107237       0.17314914 </v>
    <v>       0.30727397       0.31621789       0.30082740 </v>
    <v>       0.25166191       0.52224984       0.14163752 </v>
    <v>       0.25166191       0.52224984       0.26011965 </v>
    <v>       0.74833809       0.47775013       0.14163752 </v>
    <v>       0.74833809       0.47775013       0.26011965 </v>
    <v>       0.50000000       0.50000000       0.07104028 </v>
    <v>       0.50000000       0.50000000       0.33071689 </v>
   </varray>
  </structure>
  <varray name="forces" >
   <v>      -0.27014469       0.33813526      -0.04860400 </v>
   <v>      -0.27014469       0.33813526       0.04860400 </v>
   <v>       0.27014469      -0.33813526      -0.04860400 </v>
   <v>       0.27014469      -0.33813526       0.04860400 </v>
   <v>       0.22581954      -0.07104586      -0.15329022 </v>
   <v>       0.22581954      -0.07104586       0.15329022 </v>
   <v>      -0.22581954       0.07104586      -0.15329022 </v>
   <v>      -0.22581954       0.07104586       0.15329022 </v>
   <v>       0.13309832       0.21603706      -0.21241105 </v>
   <v>       0.13309832       0.21603706       0.21241105 </v>
   <v>      -0.13309832      -0.21603706      -0.21241105 </v>
   <v>      -0.13309832      -0.21603706       0.21241105 </v>
   <v>      -0.18607770       0.33449886      -0.30745836 </v>
   <v>      -0.18607770       0.33449886       0.30745836 </v>
   <v>       0.18607770      -0.33449886      -0.30745836 </v>
   <v>       0.18607770      -0.33449886       0.30745836 </v>
   <v>      -0.17147513      -0.05089528      -0.39498752 </v>
   <v>       0.42013291      -0.08061901      -0.27749067 </v>
   <v>      -0.42013291       0.08061901       0.27749067 </v>
   <v>       0.17147513       0.05089528       0.39498752 </v>
   <v>       0.42013291      -0.08061901       0.27749067 </v>
   <v>      -0.17147513      -0.05089528       0.39498752 </v>
   <v>       0.17147513       0.05089528      -0.39498752 </v>
   <v>      -0.42013291       0.08061901      -0.27749067 </v>
   <v>       0.04147617       0.18790132       0.06797137 </v>
   <v>       0.04147617       0.18790132      -0.06797137 </v>
   <v>      -0.04147617      -0.18790132       0.06797137 </v>
   <v>      -0.04147617      -0.18790132      -0.06797137 </v>
   <v>       0.00000000       0.00000000       0.46542345 </v>
   <v>       0.00000000       0.00000000      -0.46542345 </v>
  </varray>
  <varray name="stress" >
   <v>       0.17132750      -1.06784119       0.00000000 </v>
   <v>      -1.06784119      -1.06507746       0.00000000 </v>
   <v>       0.00000000       0.00000000      -0.44524222 </v>
  </varray>
  <energy>
   <i name="e_fr_energy">   -184.82534788 </i>
   <i name="e_wo_entrp">   -184.82228467 </i>
   <i name="e_0_energy">   -184.82381628 </i>
  </energy>
  <time name="totalsc">  118.26  119.16</time>
 </calculation>
 <calculation>
  <scstep>
   <time name="dav">    7.68    7.75</time>
   <time name="total">    7.97    8.04</time>
   <dipole>
    <v name="dipole">      0.00000000       0.00000000       0.00000374 </v>
    <i name="Tr[quadrupol]">   -556.27929782 </i>
    <i name="Echarged">      0.00000000 </i>
    <i name="Edipol_quadrupol">      0.00000000 </i>
    <i name="Eion">      0.00000000 </i>
   </dipole>
   <energy>
    <i name="alphaZ">     53.77401687 </i>
    <i name="ewald">  26420.37672450 </i>
    <i name="hartreedc"> -28126.18435217 </i>
    <i name="XCdc">    208.04286614 </i>
    <i name="pawpsdc">   7597.91383417 </i>
    <i name="pawaedc">  -7576.34455998 </i>
    <i name="eentropy">     -0.00304184 </i>
    <i name="bandstr">   -776.62882115 </i>
    <i name="atom">   2017.72479794 </i>
    <i name="e_fr_energy">   -181.32853550 </i>
    <i name="e_wo_entrp">   -181.32549366 </i>
    <i name="e_0_energy">   -181.32701458 </i>
   </energy>
  </scstep>
  <scstep>
   <time name="dav">    9.52    9.59</time>
   <time name="total">    9.80    9.88</time>
   <dipole>
    <v name="dipole">      0.00000000       0.00000000       0.00000286 </v>
    <i name="Tr[quadrupol]">   -556.26952270 </i>
    <i name="Echarged">      0.00000000 </i>
    <i name="Edipol_quadrupol">      0.00000000 </i>
    <i name="Eion">      0.00000000 </i>
   </dipole>
   <energy>
    <i name="e_fr_energy">   -181.33219683 </i>
    <i name="e_wo_entrp">   -181.32913200 </i>
    <i name="e_0_energy">   -181.33066441 </i>
   </energy>
  </scstep>
  <scstep>
   <time name="dav">    8.99    9.06</time>
   <time name="total">    9.28    9.34</time>
   <dipole>
    <v name="dipole">      0.00000000       0.00000000      -0.00000745 </v>
    <i name="Tr[quadrupol]">   -556.29054599 </i>
    <i name="Echarged">      0.00000000 </i>
    <i name="Edipol_quadrupol">      0.00000000 </i>
    <i name="Eion">      0.00000000 </i>
   </dipole>
   <energy>
    <i name="e_fr_energy">   -181.33089490 </i>
    <i name="e_wo_entrp">   -181.32780743 </i>
    <i name="e_0_energy">   -181.32935117 </i>
   </energy>
  </scstep>
  <scstep>
   <time name="dav">    9.50    9.57</time>
   <time name="total">    9.79    9.86</time>
   <dipole>
    <v name="dipole">      0.00000000       0.00000000      -0.00000384 </v>
    <i name="Tr[quadrupol]">   -556.29194109 </i>
    <i name="Echarged">      0.00000000 </i>
    <i name="Edipol_quadrupol">      0.00000000 </i>
    <i name="Eion">      0.00000000 </i>
   </dipole>
   <energy>
    <i name="e_fr_energy">   -181.33092731 </i>
    <i name="e_wo_entrp">   -181.32784313 </i>
    <i name="e_0_energy">   -181.32938522 </i>
   </energy>
  </scstep>
  <scstep>
   <time name="dav">    9.94   10.01</time>
   <time name="total">   10.23   10.30</time>
   <dipole>
    <v name="dipole">      0.00000000       0.00000000      -0.00000339 </v>
    <i name="Tr[quadrupol]">   -556.29673615 </i>
    <i name="Echarged">      0.00000000 </i>
    <i name="Edipol_quadrupol">      0.00000000 </i>
    <i name="Eion">      0.00000000 </i>
   </dipole>
   <energy>
    <i name="e_fr_energy">   -181.33092461 </i>
    <i name="e_wo_entrp">   -181.32784187 </i>
    <i name="e_0_energy">   -181.32938324 </i>
   </energy>
  </scstep>
  <scstep>
   <time name="dav">    9.50    9.58</time>
   <time name="total">    9.79    9.87</time>
   <dipole>
    <v name="dipole">      0.00000000       0.00000000      -0.00000297 </v>
    <i name="Tr[quadrupol]">   -556.30118566 </i>
    <i name="Echarged">      0.00000000 </i>
    <i name="Edipol_quadrupol">      0.00000000 </i>
    <i name="Eion">      0.00000000 </i>
   </dipole>
   <energy>
    <i name="e_fr_energy">   -181.33092970 </i>
    <i name="e_wo_entrp">   -181.32784646 </i>
    <i name="e_0_energy">   -181.32938808 </i>
   </energy>
  </scstep>
  <scstep>
   <time name="dav">    8.32    8.39</time>
   <time name="total">    8.61    8.69</time>
   <dipole>
    <v name="dipole">      0.00000000       0.00000000      -0.00000181 </v>
    <i name="Tr[quadrupol]">   -556.30346137 </i>
    <i name="Echarged">      0.00000000 </i>
    <i name="Edipol_quadrupol">      0.00000000 </i>
    <i name="Eion">      0.00000000 </i>
   </dipole>
   <energy>
    <i name="e_fr_energy">   -181.33093343 </i>
    <i name="e_wo_entrp">   -181.32785029 </i>
    <i name="e_0_energy">   -181.32939186 </i>
   </energy>
  </scstep>
  <scstep>
   <time name="dav">    7.36    7.41</time>
   <time name="total">    7.64    7.70</time>
   <dipole>
    <v name="dipole">      0.00000000       0.00000000      -0.00000075 </v>
    <i name="Tr[quadrupol]">   -556.30581759 </i>
    <i name="Echarged">      0.00000000 </i>
    <i name="Edipol_quadrupol">      0.00000000 </i>
    <i name="Eion">      0.00000000 </i>
   </dipole>
   <energy>
    <i name="e_fr_energy">   -181.33093639 </i>
    <i name="e_wo_entrp">   -181.32785324 </i>
    <i name="e_0_energy">   -181.32939482 </i>
   </energy>
  </scstep>
  <scstep>
   <time name="dav">    7.13    7.18</time>
   <time name="total">    7.42    7.47</time>
   <dipole>
    <v name="dipole">      0.00000000       0.00000000       0.00000051 </v>
    <i name="Tr[quadrupol]">   -556.30813465 </i>
    <i name="Echarged">      0.00000000 </i>
    <i name="Edipol_quadrupol">      0.00000000 </i>
    <i name="Eion">      0.00000000 </i>
   </dipole>
   <energy>
    <i name="e_fr_energy">   -181.33093852 </i>
    <i name="e_wo_entrp">   -181.32785536 </i>
    <i name="e_0_energy">   -181.32939694 </i>
   </energy>
  </scstep>
  <scstep>
   <time name="dav">    7.23    7.28</time>
   <time name="total">    7.51    7.57</time>
   <dipole>
    <v name="dipole">      0.00000000       0.00000000       0.00000144 </v>
    <i name="Tr[quadrupol]">   -556.30958809 </i>
    <i name="Echarged">      0.00000000 </i>
    <i name="Edipol_quadrupol">      0.00000000 </i>
    <i name="Eion">      0.00000000 </i>
   </dipole>
   <energy>
    <i name="e_fr_energy">   -181.33093956 </i>
    <i name="e_wo_entrp">   -181.32785636 </i>
    <i name="e_0_energy">   -181.32939796 </i>
   </energy>
  </scstep>
  <scstep>
   <time name="dav">    6.74    6.79</time>
   <time name="total">    6.80    6.85</time>
   <dipole>
    <v name="dipole">      0.00000000       0.00000000       0.00000248 </v>
    <i name="Tr[quadrupol]">   -556.31119097 </i>
    <i name="Echarged">      0.00000000 </i>
    <i name="Edipol_quadrupol">      0.00000000 </i>
    <i name="Eion">      0.00000000 </i>
   </dipole>
   <energy>
    <i name="alphaZ">     53.77401737 </i>
    <i name="ewald">  26420.37672450 </i>
    <i name="hartreedc"> -28125.89294710 </i>
    <i name="XCdc">    208.02045046 </i>
    <i name="pawpsdc">   7562.08466745 </i>
    <i name="pawaedc">  -7540.50038386 </i>
    <i name="eentropy">     -0.00308322 </i>
    <i name="bandstr">   -776.91518400 </i>
    <i name="atom">   2017.72479794 </i>
    <i name="e_fr_energy">   -181.33094046 </i>
    <i name="e_wo_entrp">   -181.32785724 </i>
    <i name="e_0_energy">   -181.32939885 </i>
   </energy>
  </scstep>
  <structure>
   <crystal>
    <varray name="basis" >
     <v>       5.61148974      -0.10281096       0.00000000 </v>
     <v>      -0.11452188       6.13025898       0.00000000 </v>
     <v>       0.00000000       0.00000000      30.08811665 </v>
    </varray>
    <i name="volume">   1034.67350414 </i>
    <varray name="rec_basis" >
     <v>       0.17826681       0.00333028       0.00000000 </v>
     <v>       0.00298972       0.16318110       0.00000000 </v>
     <v>       0.00000000       0.00000000       0.03323571 </v>
    </varray>
   </crystal>
   <varray name="positions" >
    <v>       0.52248511       0.63678590       0.14940001 </v>
    <v>       0.52248511       0.63678590       0.25235716 </v>
    <v>       0.47751489       0.36321410       0.14940001 </v>
    <v>       0.47751489       0.36321410       0.25235716 </v>
    <v>       0.98282308       0.63985408       0.13526908 </v>
    <v>       0.98282308       0.63985408       0.26648809 </v>
    <v>       0.01717692       0.36014592       0.13526908 </v>
    <v>       0.01717692       0.36014592       0.26648809 </v>
    <v>       0.59338594       0.89653415       0.13522749 </v>
    <v>       0.59338594       0.89653415       0.26652968 </v>
    <v>       0.40661406       0.10346585       0.13522749 </v>
    <v>       0.40661406       0.10346585       0.26652968 </v>
    <v>       0.90179525       0.89415119       0.12394107 </v>
    <v>       0.90179525       0.89415119       0.27781610 </v>
    <v>       0.09820475       0.10584880       0.12394107 </v>
    <v>       0.09820475       0.10584880       0.27781610 </v>
    <v>       0.78481956       0.76182211       0.17283617 </v>
    <v>       0.68964110       0.68104763       0.30045706 </v>
    <v>       0.31035890       0.31895237       0.10130012 </v>
    <v>       0.21518044       0.23817789       0.22892101 </v>
    <v>       0.68964110       0.68104763       0.10130012 </v>
    <v>       0.78481956       0.76182211       0.22892101 </v>
    <v>       0.21518044       0.23817789       0.17283617 </v>
    <v>       0.31035890       0.31895237       0.30045706 </v>
    <v>       0.25112524       0.52288431       0.14224552 </v>
    <v>       0.25112524       0.52288431       0.25951165 </v>
    <v>       0.74887476       0.47711566       0.14224552 </v>
    <v>       0.74887476       0.47711566       0.25951165 </v>
    <v>       0.50000000       0.50000000       0.07245790 </v>
    <v>       0.50000000       0.50000000       0.32929927 </v>
   </varray>
  </structure>
  <varray name="forces" >
   <v>      -0.23120566       0.47324387       0.03999519 </v>
   <v>      -0.23120566       0.47324387      -0.03999519 </v>
   <v>       0.23120566      -0.47324387       0.03999519 </v>
   <v>       0.23120566      -0.47324387      -0.03999519 </v>
   <v>       0.11153791      -0.01562362      -0.13151156 </v>
   <v>       0.11153791      -0.01562362       0.13151156 </v>
   <v>      -0.11153791       0.01562362      -0.13151156 </v>
   <v>      -0.11153791       0.01562362       0.13151156 </v>
   <v>       0.10441202       0.18708820      -0.26218227 </v>
   <v>       0.10441202       0.18708820       0.26218227 </v>
   <v>      -0.10441202      -0.18708820      -0.26218227 </v>
   <v>      -0.10441202      -0.18708820       0.26218227 </v>
   <v>      -0.26784959       0.20272534      -0.31037053 </v>
   <v>      -0.26784959       0.20272534       0.31037053 </v>
   <v>       0.26784959      -0.20272534      -0.31037053 </v>
   <v>       0.26784959      -0.20272534       0.31037053 </v>
   <v>      -0.22107275      -0.13068325       0.04901584 </v>
   <v>       0.52362788       0.03626025      -0.14668146 </v>
   <v>      -0.52362788      -0.03626025       0.14668146 </v>
   <v>       0.22107275       0.13068325      -0.04901584 </v>
   <v>       0.52362788       0.03626025       0.14668146 </v>
   <v>      -0.22107275      -0.13068325      -0.04901584 </v>
   <v>       0.22107275       0.13068325       0.04901584 </v>
   <v>      -0.52362788      -0.03626025      -0.14668146 </v>
   <v>       0.10364104       0.10382524       0.04324395 </v>
   <v>       0.10364104       0.10382524      -0.04324395 </v>
   <v>      -0.10364104      -0.10382524       0.04324395 </v>
   <v>      -0.10364104      -0.10382524      -0.04324395 </v>
   <v>      -0.00000000      -0.00000000       0.36091947 </v>
   <v>      -0.00000000      -0.00000000      -0.36091947 </v>
  </varray>
  <varray name="stress" >
   <v>      -2.72971468      -1.85309963       0.00000000 </v>
   <v>      -1.85309962      -1.82206292       0.00000000 </v>
   <v>       0.00000000       0.00000000       0.85593784 </v>
  </varray>
  <energy>
   <i name="e_fr_energy">   -184.85415565 </i>
   <i name="e_wo_entrp">   -184.85107243 </i>
   <i name="e_0_energy">   -184.85261404 </i>
  </energy>
  <time name="totalsc">  101.68  102.46</time>
 </calculation>
 <calculation>
  <scstep>
   <time name="dav">    7.69    7.77</time>
   <time name="total">    7.99    8.06</time>
   <dipole>
    <v name="dipole">      0.00000000       0.00000000       0.00000291 </v>
    <i name="Tr[quadrupol]">   -554.15714533 </i>
    <i name="Echarged">      0.00000000 </i>
    <i name="Edipol_quadrupol">      0.00000000 </i>
    <i name="Eion">      0.00000000 </i>
   </dipole>
   <energy>
    <i name="alphaZ">     53.89732763 </i>
    <i name="ewald">  26480.10840382 </i>
    <i name="hartreedc"> -28186.92785623 </i>
    <i name="XCdc">    208.11682214 </i>
    <i name="pawpsdc">   7562.07949459 </i>
    <i name="pawaedc">  -7540.49520880 </i>
    <i name="eentropy">     -0.00274282 </i>
    <i name="bandstr">   -775.91566607 </i>
    <i name="atom">   2017.72479794 </i>
    <i name="e_fr_energy">   -181.41462781 </i>
    <i name="e_wo_entrp">   -181.41188499 </i>
    <i name="e_0_energy">   -181.41325640 </i>
   </energy>
  </scstep>
  <scstep>
   <time name="dav">    9.67    9.74</time>
   <time name="total">    9.95   10.02</time>
   <dipole>
    <v name="dipole">      0.00000000       0.00000000       0.00002027 </v>
    <i name="Tr[quadrupol]">   -554.12742638 </i>
    <i name="Echarged">      0.00000000 </i>
    <i name="Edipol_quadrupol">      0.00000000 </i>
    <i name="Eion">      0.00000000 </i>
   </dipole>
   <energy>
    <i name="e_fr_energy">   -181.41266771 </i>
    <i name="e_wo_entrp">   -181.40990791 </i>
    <i name="e_0_energy">   -181.41128781 </i>
   </energy>
  </scstep>
  <scstep>
   <time name="dav">    9.03    9.09</time>
   <time name="total">    9.32    9.39</time>
   <dipole>
    <v name="dipole">      0.00000000       0.00000000       0.00001540 </v>
    <i name="Tr[quadrupol]">   -554.13029594 </i>
    <i name="Echarged">      0.00000000 </i>
    <i name="Edipol_quadrupol">      0.00000000 </i>
    <i name="Eion">      0.00000000 </i>
   </dipole>
   <energy>
    <i name="e_fr_energy">   -181.41136859 </i>
    <i name="e_wo_entrp">   -181.40858070 </i>
    <i name="e_0_energy">   -181.40997465 </i>
   </energy>
  </scstep>
  <scstep>
   <time name="dav">    9.01    9.07</time>
   <time name="total">    9.30    9.36</time>
   <dipole>
    <v name="dipole">      0.00000000       0.00000000       0.00000782 </v>
    <i name="Tr[quadrupol]">   -554.13955021 </i>
    <i name="Echarged">      0.00000000 </i>
    <i name="Edipol_quadrupol">      0.00000000 </i>
    <i name="Eion">      0.00000000 </i>
   </dipole>
   <energy>
    <i name="e_fr_energy">   -181.41132238 </i>
    <i name="e_wo_entrp">   -181.40853872 </i>
    <i name="e_0_energy">   -181.40993055 </i>
   </energy>
  </scstep>
  <scstep>
   <time name="dav">    9.34    9.40</time>
   <time name="total">    9.63    9.69</time>
   <dipole>
    <v name="dipole">      0.00000000       0.00000000       0.00000560 </v>
    <i name="Tr[quadrupol]">   -554.14153254 </i>
    <i name="Echarged">      0.00000000 </i>
    <i name="Edipol_quadrupol">      0.00000000 </i>
    <i name="Eion">      0.00000000 </i>
   </dipole>
   <energy>
    <i name="e_fr_energy">   -181.41132736 </i>
    <i name="e_wo_entrp">   -181.40854414 </i>
    <i name="e_0_energy">   -181.40993575 </i>
   </energy>
  </scstep>
  <scstep>
   <time name="dav">    9.36    9.44</time>
   <time name="total">    9.41    9.49</time>
   <dipole>
    <v name="dipole">      0.00000000       0.00000000       0.00000437 </v>
    <i name="Tr[quadrupol]">   -554.14262321 </i>
    <i name="Echarged">      0.00000000 </i>
    <i name="Edipol_quadrupol">      0.00000000 </i>
    <i name="Eion">      0.00000000 </i>
   </dipole>
   <energy>
    <i name="alphaZ">     53.89732705 </i>
    <i name="ewald">  26480.10840382 </i>
    <i name="hartreedc"> -28185.73423037 </i>
    <i name="XCdc">    208.09387088 </i>
    <i name="pawpsdc">   7561.02084503 </i>
    <i name="pawaedc">  -7539.43693733 </i>
    <i name="eentropy">     -0.00278271 </i>
    <i name="bandstr">   -777.08262101 </i>
    <i name="atom">   2017.72479794 </i>
    <i name="e_fr_energy">   -181.41132670 </i>
    <i name="e_wo_entrp">   -181.40854399 </i>
    <i name="e_0_energy">   -181.40993534 </i>
   </energy>
  </scstep>
  <structure>
   <crystal>
    <varray name="basis" >
     <v>       5.60621716      -0.10902275       0.00000000 </v>
     <v>      -0.12134706       6.12225038       0.00000000 </v>
     <v>       0.00000000       0.00000000      30.08811665 </v>
    </varray>
    <i name="volume">   1032.30629885 </i>
    <varray name="rec_basis" >
     <v>       0.17844218       0.00353684       0.00000000 </v>
     <v>       0.00317763       0.16340161       0.00000000 </v>
     <v>       0.00000000       0.00000000       0.03323571 </v>
    </varray>
   </crystal>
   <varray name="positions" >
    <v>       0.52164653       0.63853333       0.14954670 </v>
    <v>       0.52164653       0.63853333       0.25221047 </v>
    <v>       0.47835347       0.36146667       0.14954670 </v>
    <v>       0.47835347       0.36146667       0.25221047 </v>
    <v>       0.98345114       0.63984274       0.13517233 </v>
    <v>       0.98345114       0.63984274       0.26658484 </v>
    <v>       0.01654886       0.36015726       0.13517233 </v>
    <v>       0.01654886       0.36015726       0.26658484 </v>
    <v>       0.59393680       0.89731692       0.13504169 </v>
    <v>       0.59393680       0.89731692       0.26671548 </v>
    <v>       0.40606320       0.10268307       0.13504169 </v>
    <v>       0.40606320       0.10268307       0.26671548 </v>
    <v>       0.90064922       0.89497732       0.12356653 </v>
    <v>       0.90064922       0.89497732       0.27819064 </v>
    <v>       0.09935078       0.10502268       0.12356653 </v>
    <v>       0.09935078       0.10502268       0.27819064 </v>
    <v>       0.78440366       0.76192830       0.17280696 </v>
    <v>       0.69120429       0.68062958       0.30025990 </v>
    <v>       0.30879571       0.31937042       0.10149727 </v>
    <v>       0.21559634       0.23807170       0.22895021 </v>
    <v>       0.69120429       0.68062958       0.10149727 </v>
    <v>       0.78440366       0.76192830       0.22895021 </v>
    <v>       0.21559634       0.23807170       0.17280696 </v>
    <v>       0.30879571       0.31937042       0.30025990 </v>
    <v>       0.25145864       0.52343499       0.14241225 </v>
    <v>       0.25145864       0.52343499       0.25934492 </v>
    <v>       0.74854136       0.47656498       0.14241225 </v>
    <v>       0.74854136       0.47656498       0.25934492 </v>
    <v>       0.50000000       0.50000000       0.07305327 </v>
    <v>       0.50000000       0.50000000       0.32870390 </v>
   </varray>
  </structure>
  <varray name="forces" >
   <v>      -0.12419388       0.17589796       0.01196165 </v>
   <v>      -0.12419388       0.17589796      -0.01196165 </v>
   <v>       0.12419388      -0.17589796       0.01196165 </v>
   <v>       0.12419388      -0.17589796      -0.01196165 </v>
   <v>      -0.05287888       0.08931536      -0.08355386 </v>
   <v>      -0.05287888       0.08931536       0.08355386 </v>
   <v>       0.05287888      -0.08931536      -0.08355386 </v>
   <v>       0.05287888      -0.08931536       0.08355386 </v>
   <v>       0.09665951       0.15234723      -0.23275697 </v>
   <v>       0.09665951       0.15234723       0.23275697 </v>
   <v>      -0.09665951      -0.15234723      -0.23275697 </v>
   <v>      -0.09665951      -0.15234723       0.23275697 </v>
   <v>      -0.15100364       0.08779033      -0.25016793 </v>
   <v>      -0.15100364       0.08779033       0.25016793 </v>
   <v>       0.15100364      -0.08779033      -0.25016793 </v>
   <v>       0.15100364      -0.08779033       0.25016793 </v>
   <v>      -0.13449334      -0.08501406       0.07342009 </v>
   <v>       0.41880239       0.01586895      -0.07573165 </v>
   <v>      -0.41880239      -0.01586895       0.07573165 </v>
   <v>       0.13449334       0.08501406      -0.07342009 </v>
   <v>       0.41880239       0.01586895       0.07573165 </v>
   <v>      -0.13449334      -0.08501406      -0.07342009 </v>
   <v>       0.13449334       0.08501406       0.07342009 </v>
   <v>      -0.41880239      -0.01586895      -0.07573165 </v>
   <v>       0.08462017      -0.04616276       0.05055249 </v>
   <v>       0.08462017      -0.04616276      -0.05055249 </v>
   <v>      -0.08462017       0.04616276       0.05055249 </v>
   <v>      -0.08462017       0.04616276      -0.05055249 </v>
   <v>       0.00000000      -0.00000000       0.29798193 </v>
   <v>       0.00000000      -0.00000000      -0.29798193 </v>
  </varray>
  <varray name="stress" >
   <v>      -1.77314889      -0.32529524       0.00000000 </v>
   <v>      -0.32529523      -2.49598989       0.00000000 </v>
   <v>       0.00000000       0.00000000       1.24478431 </v>
  </varray>
  <energy>
   <i name="e_fr_energy">   -184.94359155 </i>
   <i name="e_wo_entrp">   -184.94080884 </i>
   <i name="e_0_energy">   -184.94220020 </i>
  </energy>
  <time name="totalsc">   62.42   62.90</time>
 </calculation>
 <calculation>
  <scstep>
   <time name="dav">    7.71    7.76</time>
   <time name="total">    7.99    8.05</time>
   <dipole>
    <v name="dipole">      0.00000000       0.00000000       0.00000307 </v>
    <i name="Tr[quadrupol]">   -550.47816526 </i>
    <i name="Echarged">      0.00000000 </i>
    <i name="Edipol_quadrupol">      0.00000000 </i>
    <i name="Eion">      0.00000000 </i>
   </dipole>
   <energy>
    <i name="alphaZ">     54.11028130 </i>
    <i name="ewald">  26583.14205581 </i>
    <i name="hartreedc"> -28290.84373869 </i>
    <i name="XCdc">    208.25862055 </i>
    <i name="pawpsdc">   7560.72980933 </i>
    <i name="pawaedc">  -7539.14600552 </i>
    <i name="eentropy">     -0.00387885 </i>
    <i name="bandstr">   -775.43737079 </i>
    <i name="atom">   2017.72479794 </i>
    <i name="e_fr_energy">   -181.46542892 </i>
    <i name="e_wo_entrp">   -181.46155006 </i>
    <i name="e_0_energy">   -181.46348949 </i>
   </energy>
  </scstep>
  <scstep>
   <time name="dav">    9.60    9.67</time>
   <time name="total">    9.89    9.96</time>
   <dipole>
    <v name="dipole">      0.00000000       0.00000000       0.00003407 </v>
    <i name="Tr[quadrupol]">   -550.42446483 </i>
    <i name="Echarged">      0.00000000 </i>
    <i name="Edipol_quadrupol">      0.00000000 </i>
    <i name="Eion">      0.00000000 </i>
   </dipole>
   <energy>
    <i name="e_fr_energy">   -181.45989235 </i>
    <i name="e_wo_entrp">   -181.45632783 </i>
    <i name="e_0_energy">   -181.45811009 </i>
   </energy>
  </scstep>
  <scstep>
   <time name="dav">    9.10    9.16</time>
   <time name="total">    9.39    9.45</time>
   <dipole>
    <v name="dipole">      0.00000000       0.00000000       0.00002576 </v>
    <i name="Tr[quadrupol]">   -550.42827397 </i>
    <i name="Echarged">      0.00000000 </i>
    <i name="Edipol_quadrupol">      0.00000000 </i>
    <i name="Eion">      0.00000000 </i>
   </dipole>
   <energy>
    <i name="e_fr_energy">   -181.45619010 </i>
    <i name="e_wo_entrp">   -181.45283368 </i>
    <i name="e_0_energy">   -181.45451189 </i>
   </energy>
  </scstep>
  <scstep>
   <time name="dav">    9.02    9.09</time>
   <time name="total">    9.31    9.38</time>
   <dipole>
    <v name="dipole">      0.00000000       0.00000000       0.00001238 </v>
    <i name="Tr[quadrupol]">   -550.44399601 </i>
    <i name="Echarged">      0.00000000 </i>
    <i name="Edipol_quadrupol">      0.00000000 </i>
    <i name="Eion">      0.00000000 </i>
   </dipole>
   <energy>
    <i name="e_fr_energy">   -181.45604212 </i>
    <i name="e_wo_entrp">   -181.45263308 </i>
    <i name="e_0_energy">   -181.45433760 </i>
   </energy>
  </scstep>
  <scstep>
   <time name="dav">    9.20    9.29</time>
   <time name="total">    9.49    9.58</time>
   <dipole>
    <v name="dipole">      0.00000000       0.00000000       0.00000842 </v>
    <i name="Tr[quadrupol]">   -550.44692168 </i>
    <i name="Echarged">      0.00000000 </i>
    <i name="Edipol_quadrupol">      0.00000000 </i>
    <i name="Eion">      0.00000000 </i>
   </dipole>
   <energy>
    <i name="e_fr_energy">   -181.45605705 </i>
    <i name="e_wo_entrp">   -181.45264731 </i>
    <i name="e_0_energy">   -181.45435218 </i>
   </energy>
  </scstep>
  <scstep>
   <time name="dav">    9.28    9.34</time>
   <time name="total">    9.57    9.63</time>
   <dipole>
    <v name="dipole">      0.00000000       0.00000000       0.00000615 </v>
    <i name="Tr[quadrupol]">   -550.44862382 </i>
    <i name="Echarged">      0.00000000 </i>
    <i name="Edipol_quadrupol">      0.00000000 </i>
    <i name="Eion">      0.00000000 </i>
   </dipole>
   <energy>
    <i name="e_fr_energy">   -181.45605584 </i>
    <i name="e_wo_entrp">   -181.45264739 </i>
    <i name="e_0_energy">   -181.45435162 </i>
   </energy>
  </scstep>
  <scstep>
   <time name="dav">    8.95    9.01</time>
   <time name="total">    9.23    9.30</time>
   <dipole>
    <v name="dipole">      0.00000000       0.00000000       0.00000384 </v>
    <i name="Tr[quadrupol]">   -550.45020575 </i>
    <i name="Echarged">      0.00000000 </i>
    <i name="Edipol_quadrupol">      0.00000000 </i>
    <i name="Eion">      0.00000000 </i>
   </dipole>
   <energy>
    <i name="e_fr_energy">   -181.45605896 </i>
    <i name="e_wo_entrp">   -181.45265257 </i>
    <i name="e_0_energy">   -181.45435576 </i>
   </energy>
  </scstep>
  <scstep>
   <time name="dav">    7.52    7.57</time>
   <time name="total">    7.81    7.86</time>
   <dipole>
    <v name="dipole">      0.00000000       0.00000000       0.00000300 </v>
    <i name="Tr[quadrupol]">   -550.45056134 </i>
    <i name="Echarged">      0.00000000 </i>
    <i name="Edipol_quadrupol">      0.00000000 </i>
    <i name="Eion">      0.00000000 </i>
   </dipole>
   <energy>
    <i name="e_fr_energy">   -181.45606006 </i>
    <i name="e_wo_entrp">   -181.45265264 </i>
    <i name="e_0_energy">   -181.45435635 </i>
   </energy>
  </scstep>
  <scstep>
   <time name="dav">    7.01    7.06</time>
   <time name="total">    7.07    7.12</time>
   <dipole>
    <v name="dipole">      0.00000000       0.00000000       0.00000207 </v>
    <i name="Tr[quadrupol]">   -550.45102513 </i>
    <i name="Echarged">      0.00000000 </i>
    <i name="Edipol_quadrupol">      0.00000000 </i>
    <i name="Eion">      0.00000000 </i>
   </dipole>
   <energy>
    <i name="alphaZ">     54.11028170 </i>
    <i name="ewald">  26583.14205581 </i>
    <i name="hartreedc"> -28288.84494735 </i>
    <i name="XCdc">    208.22606015 </i>
    <i name="pawpsdc">   7561.81514387 </i>
    <i name="pawaedc">  -7540.23479010 </i>
    <i name="eentropy">     -0.00340763 </i>
    <i name="bandstr">   -777.39125535 </i>
    <i name="atom">   2017.72479794 </i>
    <i name="e_fr_energy">   -181.45606096 </i>
    <i name="e_wo_entrp">   -181.45265334 </i>
    <i name="e_0_energy">   -181.45435715 </i>
   </energy>
  </scstep>
  <structure>
   <crystal>
    <varray name="basis" >
     <v>       5.59716819      -0.11968360       0.00000000 </v>
     <v>      -0.13306063       6.10850578       0.00000000 </v>
     <v>       0.00000000       0.00000000      30.08811665 </v>
    </varray>
    <i name="volume">   1028.24360550 </i>
    <varray name="rec_basis" >
     <v>       0.17874503       0.00389358       0.00000000 </v>
     <v>       0.00350214       0.16378244       0.00000000 </v>
     <v>       0.00000000       0.00000000       0.03323571 </v>
    </varray>
   </crystal>
   <varray name="positions" >
    <v>       0.52020969       0.64153483       0.14979845 </v>
    <v>       0.52020969       0.64153483       0.25195872 </v>
    <v>       0.47979031       0.35846517       0.14979845 </v>
    <v>       0.47979031       0.35846517       0.25195872 </v>
    <v>       0.98453006       0.63982436       0.13500630 </v>
    <v>       0.98453006       0.63982436       0.26675087 </v>
    <v>       0.01546994       0.36017564       0.13500630 </v>
    <v>       0.01546994       0.36017564       0.26675087 </v>
    <v>       0.59488478       0.89866310       0.13472281 </v>
    <v>       0.59488478       0.89866310       0.26703436 </v>
    <v>       0.40511522       0.10133689       0.13472281 </v>
    <v>       0.40511522       0.10133689       0.26703436 </v>
    <v>       0.89868222       0.89639500       0.12292372 </v>
    <v>       0.89868222       0.89639500       0.27883345 </v>
    <v>       0.10131778       0.10360500       0.12292372 </v>
    <v>       0.10131778       0.10360500       0.27883345 </v>
    <v>       0.78368942       0.76211005       0.17275685 </v>
    <v>       0.69388876       0.67991392       0.29992153 </v>
    <v>       0.30611124       0.32008608       0.10183564 </v>
    <v>       0.21631058       0.23788995       0.22900033 </v>
    <v>       0.69388876       0.67991392       0.10183564 </v>
    <v>       0.78368942       0.76211005       0.22900033 </v>
    <v>       0.21631058       0.23788995       0.17275685 </v>
    <v>       0.30611124       0.32008608       0.29992153 </v>
    <v>       0.25203257       0.52438192       0.14269840 </v>
    <v>       0.25203257       0.52438192       0.25905877 </v>
    <v>       0.74796743       0.47561805       0.14269840 </v>
    <v>       0.74796743       0.47561805       0.25905877 </v>
    <v>       0.50000000       0.50000000       0.07407507 </v>
    <v>       0.50000000       0.50000000       0.32768211 </v>
   </varray>
  </structure>
  <varray name="forces" >
   <v>       0.05294429      -0.28112563      -0.03085970 </v>
   <v>       0.05294429      -0.28112563       0.03085970 </v>
   <v>      -0.05294429       0.28112563      -0.03085970 </v>
   <v>      -0.05294429       0.28112563       0.03085970 </v>
   <v>      -0.33347956       0.25927001      -0.00230300 </v>
   <v>      -0.33347956       0.25927001       0.00230300 </v>
   <v>       0.33347956      -0.25927001      -0.00230300 </v>
   <v>       0.33347956      -0.25927001       0.00230300 </v>
   <v>       0.08123761       0.09531018      -0.18269012 </v>
   <v>       0.08123761       0.09531018       0.18269012 </v>
   <v>      -0.08123761      -0.09531018      -0.18269012 </v>
   <v>      -0.08123761      -0.09531018       0.18269012 </v>
   <v>       0.06563322      -0.09268969      -0.14920412 </v>
   <v>       0.06563322      -0.09268969       0.14920412 </v>
   <v>      -0.06563322       0.09268969      -0.14920412 </v>
   <v>      -0.06563322       0.09268969       0.14920412 </v>
   <v>       0.01286124      -0.00627056       0.11714866 </v>
   <v>       0.23099640      -0.02416083       0.04833169 </v>
   <v>      -0.23099640       0.02416083      -0.04833169 </v>
   <v>      -0.01286124       0.00627056      -0.11714866 </v>
   <v>       0.23099640      -0.02416083      -0.04833169 </v>
   <v>       0.01286124      -0.00627056      -0.11714866 </v>
   <v>      -0.01286124       0.00627056       0.11714866 </v>
   <v>      -0.23099640       0.02416083       0.04833169 </v>
   <v>       0.03828903      -0.29691775       0.05603191 </v>
   <v>       0.03828903      -0.29691775      -0.05603191 </v>
   <v>      -0.03828903       0.29691775       0.05603191 </v>
   <v>      -0.03828903       0.29691775      -0.05603191 </v>
   <v>      -0.00000000      -0.00000000       0.18914534 </v>
   <v>      -0.00000000      -0.00000000      -0.18914534 </v>
  </varray>
  <varray name="stress" >
   <v>       0.27456535       2.46633146       0.00000000 </v>
   <v>       2.46633145      -3.35139662       0.00000000 </v>
   <v>       0.00000000       0.00000000       1.93758656 </v>
  </varray>
  <energy>
   <i name="e_fr_energy">   -185.00392665 </i>
   <i name="e_wo_entrp">   -185.00051902 </i>
   <i name="e_0_energy">   -185.00222283 </i>
  </energy>
  <time name="totalsc">   86.57   87.22</time>
 </calculation>
 <calculation>
  <scstep>
   <time name="dav">    7.70    7.77</time>
   <time name="total">    7.98    8.06</time>
   <dipole>
    <v name="dipole">      0.00000000       0.00000000       0.00000170 </v>
    <i name="Tr[quadrupol]">   -547.74662003 </i>
    <i name="Echarged">      0.00000000 </i>
    <i name="Edipol_quadrupol">      0.00000000 </i>
    <i name="Eion">      0.00000000 </i>
   </dipole>
   <energy>
    <i name="alphaZ">     54.31179519 </i>
    <i name="ewald">  26677.65451492 </i>
    <i name="hartreedc"> -28383.15361251 </i>
    <i name="XCdc">    208.50751691 </i>
    <i name="pawpsdc">   7561.81406328 </i>
    <i name="pawaedc">  -7540.23370418 </i>
    <i name="eentropy">     -0.00293490 </i>
    <i name="bandstr">   -778.11475125 </i>
    <i name="atom">   2017.72479794 </i>
    <i name="e_fr_energy">   -181.49231460 </i>
    <i name="e_wo_entrp">   -181.48937970 </i>
    <i name="e_0_energy">   -181.49084715 </i>
   </energy>
  </scstep>
  <scstep>
   <time name="dav">    9.45    9.51</time>
   <time name="total">    9.73    9.80</time>
   <dipole>
    <v name="dipole">      0.00000000       0.00000000       0.00001285 </v>
    <i name="Tr[quadrupol]">   -547.73688400 </i>
    <i name="Echarged">      0.00000000 </i>
    <i name="Edipol_quadrupol">      0.00000000 </i>
    <i name="Eion">      0.00000000 </i>
   </dipole>
   <energy>
    <i name="e_fr_energy">   -181.49123798 </i>
    <i name="e_wo_entrp">   -181.48835657 </i>
    <i name="e_0_energy">   -181.48979728 </i>
   </energy>
  </scstep>
  <scstep>
   <time name="dav">    8.81    8.87</time>
   <time name="total">    9.10    9.16</time>
   <dipole>
    <v name="dipole">      0.00000000       0.00000000       0.00000637 </v>
    <i name="Tr[quadrupol]">   -547.75392048 </i>
    <i name="Echarged">      0.00000000 </i>
    <i name="Edipol_quadrupol">      0.00000000 </i>
    <i name="Eion">      0.00000000 </i>
   </dipole>
   <energy>
    <i name="e_fr_energy">   -181.48869731 </i>
    <i name="e_wo_entrp">   -181.48583827 </i>
    <i name="e_0_energy">   -181.48726779 </i>
   </energy>
  </scstep>
  <scstep>
   <time name="dav">    9.05    9.11</time>
   <time name="total">    9.34    9.40</time>
   <dipole>
    <v name="dipole">      0.00000000       0.00000000      -0.00000192 </v>
    <i name="Tr[quadrupol]">   -547.76984397 </i>
    <i name="Echarged">      0.00000000 </i>
    <i name="Edipol_quadrupol">      0.00000000 </i>
    <i name="Eion">      0.00000000 </i>
   </dipole>
   <energy>
    <i name="e_fr_energy">   -181.48870821 </i>
    <i name="e_wo_entrp">   -181.48585152 </i>
    <i name="e_0_energy">   -181.48727986 </i>
   </energy>
  </scstep>
  <scstep>
   <time name="dav">    9.58    9.65</time>
   <time name="total">    9.87    9.94</time>
   <dipole>
    <v name="dipole">      0.00000000       0.00000000      -0.00000355 </v>
    <i name="Tr[quadrupol]">   -547.77864535 </i>
    <i name="Echarged">      0.00000000 </i>
    <i name="Edipol_quadrupol">      0.00000000 </i>
    <i name="Eion">      0.00000000 </i>
   </dipole>
   <energy>
    <i name="e_fr_energy">   -181.48870313 </i>
    <i name="e_wo_entrp">   -181.48585221 </i>
    <i name="e_0_energy">   -181.48727767 </i>
   </energy>
  </scstep>
  <scstep>
   <time name="dav">    9.22    9.31</time>
   <time name="total">    9.51    9.60</time>
   <dipole>
    <v name="dipole">      0.00000000       0.00000000      -0.00000358 </v>
    <i name="Tr[quadrupol]">   -547.78460296 </i>
    <i name="Echarged">      0.00000000 </i>
    <i name="Edipol_quadrupol">      0.00000000 </i>
    <i name="Eion">      0.00000000 </i>
   </dipole>
   <energy>
    <i name="e_fr_energy">   -181.48870005 </i>
    <i name="e_wo_entrp">   -181.48585186 </i>
    <i name="e_0_energy">   -181.48727596 </i>
   </energy>
  </scstep>
  <scstep>
   <time name="dav">    8.25    8.31</time>
   <time name="total">    8.54    8.60</time>
   <dipole>
    <v name="dipole">      0.00000000       0.00000000      -0.00000318 </v>
    <i name="Tr[quadrupol]">   -547.79026941 </i>
    <i name="Echarged">      0.00000000 </i>
    <i name="Edipol_quadrupol">      0.00000000 </i>
    <i name="Eion">      0.00000000 </i>
   </dipole>
   <energy>
    <i name="e_fr_energy">   -181.48870213 </i>
    <i name="e_wo_entrp">   -181.48585477 </i>
    <i name="e_0_energy">   -181.48727845 </i>
   </energy>
  </scstep>
  <scstep>
   <time name="dav">    7.04    7.09</time>
   <time name="total">    7.33    7.38</time>
   <dipole>
    <v name="dipole">      0.00000000       0.00000000      -0.00000204 </v>
    <i name="Tr[quadrupol]">   -547.79366863 </i>
    <i name="Echarged">      0.00000000 </i>
    <i name="Edipol_quadrupol">      0.00000000 </i>
    <i name="Eion">      0.00000000 </i>
   </dipole>
   <energy>
    <i name="e_fr_energy">   -181.48870477 </i>
    <i name="e_wo_entrp">   -181.48585762 </i>
    <i name="e_0_energy">   -181.48728120 </i>
   </energy>
  </scstep>
  <scstep>
   <time name="dav">    7.33    7.38</time>
   <time name="total">    7.62    7.67</time>
   <dipole>
    <v name="dipole">      0.00000000       0.00000000      -0.00000011 </v>
    <i name="Tr[quadrupol]">   -547.79845552 </i>
    <i name="Echarged">      0.00000000 </i>
    <i name="Edipol_quadrupol">      0.00000000 </i>
    <i name="Eion">      0.00000000 </i>
   </dipole>
   <energy>
    <i name="e_fr_energy">   -181.48870837 </i>
    <i name="e_wo_entrp">   -181.48586168 </i>
    <i name="e_0_energy">   -181.48728503 </i>
   </energy>
  </scstep>
  <scstep>
   <time name="dav">    7.10    7.14</time>
   <time name="total">    7.38    7.43</time>
   <dipole>
    <v name="dipole">      0.00000000       0.00000000       0.00000190 </v>
    <i name="Tr[quadrupol]">   -547.80165943 </i>
    <i name="Echarged">      0.00000000 </i>
    <i name="Edipol_quadrupol">      0.00000000 </i>
    <i name="Eion">      0.00000000 </i>
   </dipole>
   <energy>
    <i name="e_fr_energy">   -181.48871145 </i>
    <i name="e_wo_entrp">   -181.48586492 </i>
    <i name="e_0_energy">   -181.48728819 </i>
   </energy>
  </scstep>
  <scstep>
   <time name="dav">    7.09    7.13</time>
   <time name="total">    7.37    7.42</time>
   <dipole>
    <v name="dipole">      0.00000000       0.00000000       0.00000323 </v>
    <i name="Tr[quadrupol]">   -547.80349974 </i>
    <i name="Echarged">      0.00000000 </i>
    <i name="Edipol_quadrupol">      0.00000000 </i>
    <i name="Eion">      0.00000000 </i>
   </dipole>
   <energy>
    <i name="e_fr_energy">   -181.48871326 </i>
    <i name="e_wo_entrp">   -181.48586680 </i>
    <i name="e_0_energy">   -181.48729003 </i>
   </energy>
  </scstep>
  <scstep>
   <time name="dav">    7.06    7.12</time>
   <time name="total">    7.35    7.41</time>
   <dipole>
    <v name="dipole">      0.00000000       0.00000000       0.00000402 </v>
    <i name="Tr[quadrupol]">   -547.80452763 </i>
    <i name="Echarged">      0.00000000 </i>
    <i name="Edipol_quadrupol">      0.00000000 </i>
    <i name="Eion">      0.00000000 </i>
   </dipole>
   <energy>
    <i name="e_fr_energy">   -181.48871444 </i>
    <i name="e_wo_entrp">   -181.48586801 </i>
    <i name="e_0_energy">   -181.48729123 </i>
   </energy>
  </scstep>
  <scstep>
   <time name="dav">    7.24    7.30</time>
   <time name="total">    7.29    7.36</time>
   <dipole>
    <v name="dipole">      0.00000000       0.00000000       0.00000410 </v>
    <i name="Tr[quadrupol]">   -547.80492372 </i>
    <i name="Echarged">      0.00000000 </i>
    <i name="Edipol_quadrupol">      0.00000000 </i>
    <i name="Eion">      0.00000000 </i>
   </dipole>
   <energy>
    <i name="alphaZ">     54.31179423 </i>
    <i name="ewald">  26677.65451492 </i>
    <i name="hartreedc"> -28384.12062997 </i>
    <i name="XCdc">    208.50037158 </i>
    <i name="pawpsdc">   7619.66535893 </i>
    <i name="pawaedc">  -7598.10875673 </i>
    <i name="eentropy">     -0.00284644 </i>
    <i name="bandstr">   -777.11331956 </i>
    <i name="atom">   2017.72479794 </i>
    <i name="e_fr_energy">   -181.48871508 </i>
    <i name="e_wo_entrp">   -181.48586864 </i>
    <i name="e_0_energy">   -181.48729186 </i>
   </energy>
  </scstep>
  <structure>
   <crystal>
    <varray name="basis" >
     <v>       5.59436182      -0.11423754       0.00000000 </v>
     <v>      -0.12747466       6.08866123       0.00000000 </v>
     <v>       0.00000000       0.00000000      30.08811665 </v>
    </varray>
    <i name="volume">   1024.42850774 </i>
    <varray name="rec_basis" >
     <v>       0.17882785       0.00374401       0.00000000 </v>
     <v>       0.00335523       0.16430996       0.00000000 </v>
     <v>       0.00000000       0.00000000       0.03323571 </v>
    </varray>
   </crystal>
   <varray name="positions" >
    <v>       0.51989538       0.64128557       0.14986796 </v>
    <v>       0.51989538       0.64128557       0.25188921 </v>
    <v>       0.48010462       0.35871443       0.14986796 </v>
    <v>       0.48010462       0.35871443       0.25188921 </v>
    <v>       0.98308839       0.64114353       0.13493628 </v>
    <v>       0.98308839       0.64114353       0.26682089 </v>
    <v>       0.01691161       0.35885647       0.13493628 </v>
    <v>       0.01691161       0.35885647       0.26682089 </v>
    <v>       0.59575047       0.89972314       0.13439811 </v>
    <v>       0.59575047       0.89972314       0.26735906 </v>
    <v>       0.40424953       0.10027686       0.13439811 </v>
    <v>       0.40424953       0.10027686       0.26735906 </v>
    <v>       0.89824683       0.89649173       0.12250294 </v>
    <v>       0.89824683       0.89649173       0.27925423 </v>
    <v>       0.10175317       0.10350827       0.12250294 </v>
    <v>       0.10175317       0.10350827       0.27925423 </v>
    <v>       0.78347150       0.76215213       0.17286146 </v>
    <v>       0.69630493       0.67952292       0.29983542 </v>
    <v>       0.30369507       0.32047708       0.10192175 </v>
    <v>       0.21652850       0.23784787       0.22889571 </v>
    <v>       0.69630493       0.67952292       0.10192175 </v>
    <v>       0.78347150       0.76215213       0.22889571 </v>
    <v>       0.21652850       0.23784787       0.17286146 </v>
    <v>       0.30369507       0.32047708       0.29983542 </v>
    <v>       0.25244994       0.52321149       0.14287462 </v>
    <v>       0.25244994       0.52321149       0.25888255 </v>
    <v>       0.74755006       0.47678848       0.14287462 </v>
    <v>       0.74755006       0.47678848       0.25888255 </v>
    <v>       0.50000000       0.50000000       0.07469268 </v>
    <v>       0.50000000       0.50000000       0.32706450 </v>
   </varray>
  </structure>
  <varray name="forces" >
   <v>       0.08130422      -0.03860882      -0.07539857 </v>
   <v>       0.08130422      -0.03860882       0.07539857 </v>
   <v>      -0.08130422       0.03860882      -0.07539857 </v>
   <v>      -0.08130422       0.03860882       0.07539857 </v>
   <v>      -0.01981673      -0.08895201       0.02886475 </v>
   <v>      -0.01981673      -0.08895201      -0.02886475 </v>
   <v>       0.01981673       0.08895201       0.02886475 </v>
   <v>       0.01981673       0.08895201      -0.02886475 </v>
   <v>       0.03788425      -0.06830486      -0.09612994 </v>
   <v>       0.03788425      -0.06830486       0.09612994 </v>
   <v>      -0.03788425       0.06830486      -0.09612994 </v>
   <v>      -0.03788425       0.06830486       0.09612994 </v>
   <v>       0.10056605       0.02458119      -0.09483100 </v>
   <v>       0.10056605       0.02458119       0.09483100 </v>
   <v>      -0.10056605      -0.02458119      -0.09483100 </v>
   <v>      -0.10056605      -0.02458119       0.09483100 </v>
   <v>      -0.01852893       0.04906822      -0.06989919 </v>
   <v>       0.06024863      -0.00416428       0.08438307 </v>
   <v>      -0.06024863       0.00416428      -0.08438307 </v>
   <v>       0.01852893      -0.04906822       0.06989919 </v>
   <v>       0.06024863      -0.00416428      -0.08438307 </v>
   <v>      -0.01852893       0.04906822       0.06989919 </v>
   <v>       0.01852893      -0.04906822      -0.06989919 </v>
   <v>      -0.06024863       0.00416428       0.08438307 </v>
   <v>      -0.20182884      -0.03809220       0.08557216 </v>
   <v>      -0.20182884      -0.03809220      -0.08557216 </v>
   <v>       0.20182884       0.03809220       0.08557216 </v>
   <v>       0.20182884       0.03809220      -0.08557216 </v>
   <v>       0.00000000      -0.00000000       0.10805624 </v>
   <v>       0.00000000      -0.00000000      -0.10805624 </v>
  </varray>
  <varray name="stress" >
   <v>       1.94678960       0.80102514       0.00000000 </v>
   <v>       0.80102514      -0.18598199       0.00000000 </v>
   <v>       0.00000000       0.00000000       2.43057893 </v>
  </varray>
  <energy>
   <i name="e_fr_energy">   -185.04867410 </i>
   <i name="e_wo_entrp">   -185.04582765 </i>
   <i name="e_0_energy">   -185.04725087 </i>
  </energy>
  <time name="totalsc">  115.25  116.12</time>
 </calculation>
 <calculation>
  <scstep>
   <time name="dav">    7.85    7.90</time>
   <time name="total">    8.14    8.19</time>
   <dipole>
    <v name="dipole">      0.00000000       0.00000000       0.00000386 </v>
    <i name="Tr[quadrupol]">   -547.39369853 </i>
    <i name="Echarged">      0.00000000 </i>
    <i name="Edipol_quadrupol">      0.00000000 </i>
    <i name="Eion">      0.00000000 </i>
   </dipole>
   <energy>
    <i name="alphaZ">     54.34270192 </i>
    <i name="ewald">  26692.15455430 </i>
    <i name="hartreedc"> -28398.58283879 </i>
    <i name="XCdc">    208.54368357 </i>
    <i name="pawpsdc">   7619.66236594 </i>
    <i name="pawaedc">  -7598.10576338 </i>
    <i name="eentropy">     -0.00277450 </i>
    <i name="bandstr">   -777.22446590 </i>
    <i name="atom">   2017.72479794 </i>
    <i name="e_fr_energy">   -181.48773891 </i>
    <i name="e_wo_entrp">   -181.48496440 </i>
    <i name="e_0_energy">   -181.48635165 </i>
   </energy>
  </scstep>
  <scstep>
   <time name="dav">    9.55    9.61</time>
   <time name="total">    9.83    9.90</time>
   <dipole>
    <v name="dipole">      0.00000000       0.00000000       0.00000541 </v>
    <i name="Tr[quadrupol]">   -547.39220924 </i>
    <i name="Echarged">      0.00000000 </i>
    <i name="Edipol_quadrupol">      0.00000000 </i>
    <i name="Eion">      0.00000000 </i>
   </dipole>
   <energy>
    <i name="e_fr_energy">   -181.48771545 </i>
    <i name="e_wo_entrp">   -181.48494794 </i>
    <i name="e_0_energy">   -181.48633169 </i>
   </energy>
  </scstep>
  <scstep>
   <time name="dav">    8.90    8.96</time>
   <time name="total">    9.18    9.25</time>
   <dipole>
    <v name="dipole">      0.00000000       0.00000000       0.00000410 </v>
    <i name="Tr[quadrupol]">   -547.39478252 </i>
    <i name="Echarged">      0.00000000 </i>
    <i name="Edipol_quadrupol">      0.00000000 </i>
    <i name="Eion">      0.00000000 </i>
   </dipole>
   <energy>
    <i name="e_fr_energy">   -181.48765914 </i>
    <i name="e_wo_entrp">   -181.48489422 </i>
    <i name="e_0_energy">   -181.48627668 </i>
   </energy>
  </scstep>
  <scstep>
   <time name="dav">    8.76    8.83</time>
   <time name="total">    9.05    9.12</time>
   <dipole>
    <v name="dipole">      0.00000000       0.00000000       0.00000265 </v>
    <i name="Tr[quadrupol]">   -547.39721673 </i>
    <i name="Echarged">      0.00000000 </i>
    <i name="Edipol_quadrupol">      0.00000000 </i>
    <i name="Eion">      0.00000000 </i>
   </dipole>
   <energy>
    <i name="e_fr_energy">   -181.48766012 </i>
    <i name="e_wo_entrp">   -181.48489554 </i>
    <i name="e_0_energy">   -181.48627783 </i>
   </energy>
  </scstep>
  <scstep>
   <time name="dav">    8.03    8.10</time>
   <time name="total">    8.08    8.16</time>
   <dipole>
    <v name="dipole">      0.00000000       0.00000000       0.00000215 </v>
    <i name="Tr[quadrupol]">   -547.39856875 </i>
    <i name="Echarged">      0.00000000 </i>
    <i name="Edipol_quadrupol">      0.00000000 </i>
    <i name="Eion">      0.00000000 </i>
   </dipole>
   <energy>
    <i name="alphaZ">     54.34270260 </i>
    <i name="ewald">  26692.15455430 </i>
    <i name="hartreedc"> -28398.65855139 </i>
    <i name="XCdc">    208.54250973 </i>
    <i name="pawpsdc">   7628.83450108 </i>
    <i name="pawaedc">  -7607.28163911 </i>
    <i name="eentropy">     -0.00276375 </i>
    <i name="bandstr">   -777.14377169 </i>
    <i name="atom">   2017.72479794 </i>
    <i name="e_fr_energy">   -181.48766028 </i>
    <i name="e_wo_entrp">   -181.48489653 </i>
    <i name="e_0_energy">   -181.48627840 </i>
   </energy>
  </scstep>
  <structure>
   <crystal>
    <varray name="basis" >
     <v>       5.59393314      -0.11340562       0.00000000 </v>
     <v>      -0.12662136       6.08562984       0.00000000 </v>
     <v>       0.00000000       0.00000000      30.08811665 </v>
    </varray>
    <i name="volume">   1023.84586061 </i>
    <varray name="rec_basis" >
     <v>       0.17884053       0.00372107       0.00000000 </v>
     <v>       0.00333269       0.16439087       0.00000000 </v>
     <v>       0.00000000       0.00000000       0.03323571 </v>
    </varray>
   </crystal>
   <varray name="positions" >
    <v>       0.51984738       0.64124741       0.14987858 </v>
    <v>       0.51984738       0.64124741       0.25187859 </v>
    <v>       0.48015262       0.35875259       0.14987858 </v>
    <v>       0.48015262       0.35875259       0.25187859 </v>
    <v>       0.98286788       0.64134589       0.13492558 </v>
    <v>       0.98286788       0.64134589       0.26683159 </v>
    <v>       0.01713212       0.35865411       0.13492558 </v>
    <v>       0.01713212       0.35865411       0.26683159 </v>
    <v>       0.59588263       0.89988547       0.13434851 </v>
    <v>       0.59588263       0.89988547       0.26740866 </v>
    <v>       0.40411737       0.10011452       0.13434851 </v>
    <v>       0.40411737       0.10011452       0.26740866 </v>
    <v>       0.89818027       0.89650661       0.12243867 </v>
    <v>       0.89818027       0.89650661       0.27931850 </v>
    <v>       0.10181973       0.10349338       0.12243867 </v>
    <v>       0.10181973       0.10349338       0.27931850 </v>
    <v>       0.78343818       0.76215861       0.17287744 </v>
    <v>       0.69667425       0.67946267       0.29982227 </v>
    <v>       0.30332575       0.32053733       0.10193491 </v>
    <v>       0.21656182       0.23784139       0.22887973 </v>
    <v>       0.69667425       0.67946267       0.10193491 </v>
    <v>       0.78343818       0.76215861       0.22887973 </v>
    <v>       0.21656182       0.23784139       0.17287744 </v>
    <v>       0.30332575       0.32053733       0.29982227 </v>
    <v>       0.25251389       0.52303207       0.14290154 </v>
    <v>       0.25251389       0.52303207       0.25885563 </v>
    <v>       0.74748611       0.47696790       0.14290154 </v>
    <v>       0.74748611       0.47696790       0.25885563 </v>
    <v>       0.50000000       0.50000000       0.07478702 </v>
    <v>       0.50000000       0.50000000       0.32697015 </v>
   </varray>
  </structure>
  <varray name="forces" >
   <v>       0.08477113      -0.00103129      -0.08181937 </v>
   <v>       0.08477113      -0.00103129       0.08181937 </v>
   <v>      -0.08477113       0.00103129      -0.08181937 </v>
   <v>      -0.08477113       0.00103129       0.08181937 </v>
   <v>       0.02842635      -0.14198419       0.03424856 </v>
   <v>       0.02842635      -0.14198419      -0.03424856 </v>
   <v>      -0.02842635       0.14198419       0.03424856 </v>
   <v>      -0.02842635       0.14198419      -0.03424856 </v>
   <v>       0.03140085      -0.09306552      -0.08299792 </v>
   <v>       0.03140085      -0.09306552       0.08299792 </v>
   <v>      -0.03140085       0.09306552      -0.08299792 </v>
   <v>      -0.03140085       0.09306552       0.08299792 </v>
   <v>       0.10636511       0.04356611      -0.08681558 </v>
   <v>       0.10636511       0.04356611       0.08681558 </v>
   <v>      -0.10636511      -0.04356611      -0.08681558 </v>
   <v>      -0.10636511      -0.04356611       0.08681558 </v>
   <v>      -0.02347261       0.05757651      -0.09828640 </v>
   <v>       0.03303278      -0.00124876       0.09101226 </v>
   <v>      -0.03303278       0.00124876      -0.09101226 </v>
   <v>       0.02347261      -0.05757651       0.09828640 </v>
   <v>       0.03303278      -0.00124876      -0.09101226 </v>
   <v>      -0.02347261       0.05757651       0.09828640 </v>
   <v>       0.02347261      -0.05757651      -0.09828640 </v>
   <v>      -0.03303278       0.00124876       0.09101226 </v>
   <v>      -0.23826754       0.00170381       0.09051383 </v>
   <v>      -0.23826754       0.00170381      -0.09051383 </v>
   <v>       0.23826754      -0.00170381       0.09051383 </v>
   <v>       0.23826754      -0.00170381      -0.09051383 </v>
   <v>       0.00000000       0.00000000       0.09563139 </v>
   <v>       0.00000000       0.00000000      -0.09563139 </v>
  </varray>
  <varray name="stress" >
   <v>       2.22632594       0.54053860       0.00000000 </v>
   <v>       0.54053860       0.31596743       0.00000000 </v>
   <v>       0.00000000       0.00000000       2.52400405 </v>
  </varray>
  <energy>
   <i name="e_fr_energy">   -185.04947606 </i>
   <i name="e_wo_entrp">   -185.04671232 </i>
   <i name="e_0_energy">   -185.04809419 </i>
  </energy>
  <time name="totalsc">   51.12   51.51</time>
 </calculation>
 <calculation>
  <scstep>
   <time name="dav">    7.71    7.77</time>
   <time name="total">    8.00    8.06</time>
   <dipole>
    <v name="dipole">      0.00000000       0.00000000       0.00000193 </v>
    <i name="Tr[quadrupol]">   -547.06697023 </i>
    <i name="Echarged">      0.00000000 </i>
    <i name="Edipol_quadrupol">      0.00000000 </i>
    <i name="Eion">      0.00000000 </i>
   </dipole>
   <energy>
    <i name="alphaZ">     54.30958647 </i>
    <i name="ewald">  26662.04603628 </i>
    <i name="hartreedc"> -28368.59810529 </i>
    <i name="XCdc">    208.49860262 </i>
    <i name="pawpsdc">   7628.87601287 </i>
    <i name="pawaedc">  -7607.32322009 </i>
    <i name="eentropy">     -0.00257106 </i>
    <i name="bandstr">   -777.03910367 </i>
    <i name="atom">   2017.72479794 </i>
    <i name="e_fr_energy">   -181.50796392 </i>
    <i name="e_wo_entrp">   -181.50539287 </i>
    <i name="e_0_energy">   -181.50667840 </i>
   </energy>
  </scstep>
  <scstep>
   <time name="dav">    9.10    9.16</time>
   <time name="total">    9.38    9.45</time>
   <dipole>
    <v name="dipole">      0.00000000       0.00000000       0.00001405 </v>
    <i name="Tr[quadrupol]">   -547.04765524 </i>
    <i name="Echarged">      0.00000000 </i>
    <i name="Edipol_quadrupol">      0.00000000 </i>
    <i name="Eion">      0.00000000 </i>
   </dipole>
   <energy>
    <i name="e_fr_energy">   -181.50635943 </i>
    <i name="e_wo_entrp">   -181.50380240 </i>
    <i name="e_0_energy">   -181.50508091 </i>
   </energy>
  </scstep>
  <scstep>
   <time name="dav">    9.23    9.29</time>
   <time name="total">    9.52    9.58</time>
   <dipole>
    <v name="dipole">      0.00000000       0.00000000       0.00001590 </v>
    <i name="Tr[quadrupol]">   -547.04344265 </i>
    <i name="Echarged">      0.00000000 </i>
    <i name="Edipol_quadrupol">      0.00000000 </i>
    <i name="Eion">      0.00000000 </i>
   </dipole>
   <energy>
    <i name="e_fr_energy">   -181.50593949 </i>
    <i name="e_wo_entrp">   -181.50337262 </i>
    <i name="e_0_energy">   -181.50465605 </i>
   </energy>
  </scstep>
  <scstep>
   <time name="dav">    8.89    8.97</time>
   <time name="total">    9.17    9.26</time>
   <dipole>
    <v name="dipole">      0.00000000       0.00000000       0.00001071 </v>
    <i name="Tr[quadrupol]">   -547.04965843 </i>
    <i name="Echarged">      0.00000000 </i>
    <i name="Edipol_quadrupol">      0.00000000 </i>
    <i name="Eion">      0.00000000 </i>
   </dipole>
   <energy>
    <i name="e_fr_energy">   -181.50591458 </i>
    <i name="e_wo_entrp">   -181.50333867 </i>
    <i name="e_0_energy">   -181.50462662 </i>
   </energy>
  </scstep>
  <scstep>
   <time name="dav">    9.22    9.29</time>
   <time name="total">    9.51    9.58</time>
   <dipole>
    <v name="dipole">      0.00000000       0.00000000       0.00000935 </v>
    <i name="Tr[quadrupol]">   -547.05047960 </i>
    <i name="Echarged">      0.00000000 </i>
    <i name="Edipol_quadrupol">      0.00000000 </i>
    <i name="Eion">      0.00000000 </i>
   </dipole>
   <energy>
    <i name="e_fr_energy">   -181.50591905 </i>
    <i name="e_wo_entrp">   -181.50334284 </i>
    <i name="e_0_energy">   -181.50463095 </i>
   </energy>
  </scstep>
  <scstep>
   <time name="dav">    9.28    9.34</time>
   <time name="total">    9.34    9.40</time>
   <dipole>
    <v name="dipole">      0.00000000       0.00000000       0.00000782 </v>
    <i name="Tr[quadrupol]">   -547.05197515 </i>
    <i name="Echarged">      0.00000000 </i>
    <i name="Edipol_quadrupol">      0.00000000 </i>
    <i name="Eion">      0.00000000 </i>
   </dipole>
   <energy>
    <i name="alphaZ">     54.30958411 </i>
    <i name="ewald">  26662.04603628 </i>
    <i name="hartreedc"> -28368.25092560 </i>
    <i name="XCdc">    208.49130281 </i>
    <i name="pawpsdc">   7618.14588429 </i>
    <i name="pawaedc">  -7596.58695508 </i>
    <i name="eentropy">     -0.00257509 </i>
    <i name="bandstr">   -777.38306845 </i>
    <i name="atom">   2017.72479794 </i>
    <i name="e_fr_energy">   -181.50591880 </i>
    <i name="e_wo_entrp">   -181.50334372 </i>
    <i name="e_0_energy">   -181.50463126 </i>
   </energy>
  </scstep>
  <structure>
   <crystal>
    <varray name="basis" >
     <v>       5.60177713      -0.10957474       0.00000000 </v>
     <v>      -0.12273227       6.08064972       0.00000000 </v>
     <v>       0.00000000       0.00000000      30.08811665 </v>
    </varray>
    <i name="volume">   1024.47016859 </i>
    <varray name="rec_basis" >
     <v>       0.17858529       0.00360458       0.00000000 </v>
     <v>       0.00321815       0.16452107       0.00000000 </v>
     <v>       0.00000000       0.00000000       0.03323571 </v>
    </varray>
   </crystal>
   <varray name="positions" >
    <v>       0.52024892       0.64117166       0.14981071 </v>
    <v>       0.52024892       0.64117166       0.25194646 </v>
    <v>       0.47975108       0.35882834       0.14981071 </v>
    <v>       0.47975108       0.35882834       0.25194646 </v>
    <v>       0.98255931       0.64099839       0.13494097 </v>
    <v>       0.98255931       0.64099839       0.26681620 </v>
    <v>       0.01744069       0.35900161       0.13494097 </v>
    <v>       0.01744069       0.35900161       0.26681620 </v>
    <v>       0.59633215       0.89972089       0.13415395 </v>
    <v>       0.59633215       0.89972089       0.26760322 </v>
    <v>       0.40366785       0.10027910       0.13415395 </v>
    <v>       0.40366785       0.10027910       0.26760322 </v>
    <v>       0.89867644       0.89678634       0.12220935 </v>
    <v>       0.89867644       0.89678634       0.27954782 </v>
    <v>       0.10132356       0.10321366       0.12220935 </v>
    <v>       0.10132356       0.10321366       0.27954782 </v>
    <v>       0.78323700       0.76248270       0.17280263 </v>
    <v>       0.69763870       0.67933389       0.29989496 </v>
    <v>       0.30236130       0.32066611       0.10186221 </v>
    <v>       0.21676300       0.23751730       0.22895454 </v>
    <v>       0.69763870       0.67933389       0.10186221 </v>
    <v>       0.78323700       0.76248270       0.22895454 </v>
    <v>       0.21676300       0.23751730       0.17280263 </v>
    <v>       0.30236130       0.32066611       0.29989496 </v>
    <v>       0.25123741       0.52264122       0.14305714 </v>
    <v>       0.25123741       0.52264122       0.25870003 </v>
    <v>       0.74876259       0.47735875       0.14305714 </v>
    <v>       0.74876259       0.47735875       0.25870003 </v>
    <v>       0.50000000       0.50000000       0.07508865 </v>
    <v>       0.50000000       0.50000000       0.32666853 </v>
   </varray>
  </structure>
  <varray name="forces" >
   <v>      -0.00215551      -0.03422778      -0.11113198 </v>
   <v>      -0.00215551      -0.03422778       0.11113198 </v>
   <v>       0.00215551       0.03422778      -0.11113198 </v>
   <v>       0.00215551       0.03422778       0.11113198 </v>
   <v>       0.07538222      -0.00332152       0.01441465 </v>
   <v>       0.07538222      -0.00332152      -0.01441465 </v>
   <v>      -0.07538222       0.00332152       0.01441465 </v>
   <v>      -0.07538222       0.00332152      -0.01441465 </v>
   <v>      -0.03474360      -0.01827209      -0.07956968 </v>
   <v>      -0.03474360      -0.01827209       0.07956968 </v>
   <v>       0.03474360       0.01827209      -0.07956968 </v>
   <v>       0.03474360       0.01827209       0.07956968 </v>
   <v>      -0.00553528      -0.06852364      -0.04325446 </v>
   <v>      -0.00553528      -0.06852364       0.04325446 </v>
   <v>       0.00553528       0.06852364      -0.04325446 </v>
   <v>       0.00553528       0.06852364       0.04325446 </v>
   <v>      -0.00077878       0.05557673      -0.04215119 </v>
   <v>      -0.00379898      -0.00913798       0.07545325 </v>
   <v>       0.00379898       0.00913798      -0.07545325 </v>
   <v>       0.00077878      -0.05557673       0.04215119 </v>
   <v>      -0.00379898      -0.00913798      -0.07545325 </v>
   <v>      -0.00077878       0.05557673       0.04215119 </v>
   <v>       0.00077878      -0.05557673      -0.04215119 </v>
   <v>       0.00379898       0.00913798       0.07545325 </v>
   <v>       0.08835945       0.10257105       0.11271830 </v>
   <v>       0.08835945       0.10257105      -0.11271830 </v>
   <v>      -0.08835945      -0.10257105       0.11271830 </v>
   <v>      -0.08835945      -0.10257105      -0.11271830 </v>
   <v>      -0.00000000       0.00000000       0.04711299 </v>
   <v>       0.00000000       0.00000000      -0.04711299 </v>
  </varray>
  <varray name="stress" >
   <v>       0.62362349      -0.06643707       0.00000000 </v>
   <v>      -0.06643706       0.67054496       0.00000000 </v>
   <v>       0.00000000       0.00000000       2.11978612 </v>
  </varray>
  <energy>
   <i name="e_fr_energy">   -185.06365638 </i>
   <i name="e_wo_entrp">   -185.06108130 </i>
   <i name="e_0_energy">   -185.06236884 </i>
  </energy>
  <time name="totalsc">   61.76   62.22</time>
 </calculation>
 <calculation>
  <scstep>
   <time name="dav">    7.91    7.97</time>
   <time name="total">    8.20    8.26</time>
   <dipole>
    <v name="dipole">      0.00000000       0.00000000       0.00000633 </v>
    <i name="Tr[quadrupol]">   -546.98996751 </i>
    <i name="Echarged">      0.00000000 </i>
    <i name="Edipol_quadrupol">      0.00000000 </i>
    <i name="Eion">      0.00000000 </i>
   </dipole>
   <energy>
    <i name="alphaZ">     54.30328956 </i>
    <i name="ewald">  26656.31519674 </i>
    <i name="hartreedc"> -28362.54403672 </i>
    <i name="XCdc">    208.48281023 </i>
    <i name="pawpsdc">   7618.09229956 </i>
    <i name="pawaedc">  -7596.53333696 </i>
    <i name="eentropy">     -0.00254406 </i>
    <i name="bandstr">   -777.34563207 </i>
    <i name="atom">   2017.72479794 </i>
    <i name="e_fr_energy">   -181.50715580 </i>
    <i name="e_wo_entrp">   -181.50461173 </i>
    <i name="e_0_energy">   -181.50588377 </i>
   </energy>
  </scstep>
  <scstep>
   <time name="dav">    9.17    9.23</time>
   <time name="total">    9.46    9.53</time>
   <dipole>
    <v name="dipole">      0.00000000       0.00000000       0.00000809 </v>
    <i name="Tr[quadrupol]">   -546.98663622 </i>
    <i name="Echarged">      0.00000000 </i>
    <i name="Edipol_quadrupol">      0.00000000 </i>
    <i name="Eion">      0.00000000 </i>
   </dipole>
   <energy>
    <i name="e_fr_energy">   -181.50709725 </i>
    <i name="e_wo_entrp">   -181.50455559 </i>
    <i name="e_0_energy">   -181.50582642 </i>
   </energy>
  </scstep>
  <scstep>
   <time name="dav">    9.10    9.18</time>
   <time name="total">    9.38    9.47</time>
   <dipole>
    <v name="dipole">      0.00000000       0.00000000       0.00000773 </v>
    <i name="Tr[quadrupol]">   -546.98624701 </i>
    <i name="Echarged">      0.00000000 </i>
    <i name="Edipol_quadrupol">      0.00000000 </i>
    <i name="Eion">      0.00000000 </i>
   </dipole>
   <energy>
    <i name="e_fr_energy">   -181.50708132 </i>
    <i name="e_wo_entrp">   -181.50453788 </i>
    <i name="e_0_energy">   -181.50580960 </i>
   </energy>
  </scstep>
  <scstep>
   <time name="dav">    8.94    9.00</time>
   <time name="total">    9.23    9.29</time>
   <dipole>
    <v name="dipole">      0.00000000       0.00000000       0.00000631 </v>
    <i name="Tr[quadrupol]">   -546.98767494 </i>
    <i name="Echarged">      0.00000000 </i>
    <i name="Edipol_quadrupol">      0.00000000 </i>
    <i name="Eion">      0.00000000 </i>
   </dipole>
   <energy>
    <i name="e_fr_energy">   -181.50708099 </i>
    <i name="e_wo_entrp">   -181.50453595 </i>
    <i name="e_0_energy">   -181.50580847 </i>
   </energy>
  </scstep>
  <scstep>
   <time name="dav">    7.98    8.04</time>
   <time name="total">    8.04    8.09</time>
   <dipole>
    <v name="dipole">      0.00000000       0.00000000       0.00000547 </v>
    <i name="Tr[quadrupol]">   -546.98816720 </i>
    <i name="Echarged">      0.00000000 </i>
    <i name="Edipol_quadrupol">      0.00000000 </i>
    <i name="Eion">      0.00000000 </i>
   </dipole>
   <energy>
    <i name="alphaZ">     54.30328991 </i>
    <i name="ewald">  26656.31519674 </i>
    <i name="hartreedc"> -28362.49326451 </i>
    <i name="XCdc">    208.48154224 </i>
    <i name="pawpsdc">   7616.13623015 </i>
    <i name="pawaedc">  -7594.57614475 </i>
    <i name="eentropy">     -0.00254511 </i>
    <i name="bandstr">   -777.39618398 </i>
    <i name="atom">   2017.72479794 </i>
    <i name="e_fr_energy">   -181.50708138 </i>
    <i name="e_wo_entrp">   -181.50453627 </i>
    <i name="e_0_energy">   -181.50580882 </i>
   </energy>
  </scstep>
  <structure>
   <crystal>
    <varray name="basis" >
     <v>       5.60327393      -0.10884373       0.00000000 </v>
     <v>      -0.12199014       6.07969941       0.00000000 </v>
     <v>       0.00000000       0.00000000      30.08811665 </v>
    </varray>
    <i name="volume">   1024.58893089 </i>
    <varray name="rec_basis" >
     <v>       0.17853668       0.00358237       0.00000000 </v>
     <v>       0.00319631       0.16454595       0.00000000 </v>
     <v>       0.00000000       0.00000000       0.03323571 </v>
    </varray>
   </crystal>
   <varray name="positions" >
    <v>       0.52032545       0.64115715       0.14979776 </v>
    <v>       0.52032545       0.64115715       0.25195941 </v>
    <v>       0.47967455       0.35884285       0.14979776 </v>
    <v>       0.47967455       0.35884285       0.25195941 </v>
    <v>       0.98250056       0.64093206       0.13494391 </v>
    <v>       0.98250056       0.64093206       0.26681326 </v>
    <v>       0.01749944       0.35906794       0.13494391 </v>
    <v>       0.01749944       0.35906794       0.26681326 </v>
    <v>       0.59641782       0.89968941       0.13411682 </v>
    <v>       0.59641782       0.89968941       0.26764035 </v>
    <v>       0.40358218       0.10031058       0.13411682 </v>
    <v>       0.40358218       0.10031058       0.26764035 </v>
    <v>       0.89877094       0.89683969       0.12216559 </v>
    <v>       0.89877094       0.89683969       0.27959158 </v>
    <v>       0.10122906       0.10316030       0.12216559 </v>
    <v>       0.10122906       0.10316030       0.27959158 </v>
    <v>       0.78319862       0.76254462       0.17278836 </v>
    <v>       0.69782249       0.67930918       0.29990883 </v>
    <v>       0.30217751       0.32069082       0.10184834 </v>
    <v>       0.21680138       0.23745538       0.22896881 </v>
    <v>       0.69782249       0.67930918       0.10184834 </v>
    <v>       0.78319862       0.76254462       0.22896881 </v>
    <v>       0.21680138       0.23745538       0.17278836 </v>
    <v>       0.30217751       0.32069082       0.29990883 </v>
    <v>       0.25099422       0.52256674       0.14308683 </v>
    <v>       0.25099422       0.52256674       0.25867034 </v>
    <v>       0.74900578       0.47743323       0.14308683 </v>
    <v>       0.74900578       0.47743323       0.25867034 </v>
    <v>       0.50000000       0.50000000       0.07514620 </v>
    <v>       0.50000000       0.50000000       0.32661097 </v>
   </varray>
  </structure>
  <varray name="forces" >
   <v>      -0.01757568      -0.03971628      -0.11628590 </v>
   <v>      -0.01757568      -0.03971628       0.11628590 </v>
   <v>       0.01757568       0.03971628      -0.11628590 </v>
   <v>       0.01757568       0.03971628       0.11628590 </v>
   <v>       0.08453135       0.02303308       0.01053018 </v>
   <v>       0.08453135       0.02303308      -0.01053018 </v>
   <v>      -0.08453135      -0.02303308       0.01053018 </v>
   <v>      -0.08453135      -0.02303308      -0.01053018 </v>
   <v>      -0.04722003      -0.00409703      -0.07897820 </v>
   <v>      -0.04722003      -0.00409703       0.07897820 </v>
   <v>       0.04722003       0.00409703      -0.07897820 </v>
   <v>       0.04722003       0.00409703       0.07897820 </v>
   <v>      -0.02680403      -0.08991413      -0.03515755 </v>
   <v>      -0.02680403      -0.08991413       0.03515755 </v>
   <v>       0.02680403       0.08991413      -0.03515755 </v>
   <v>       0.02680403       0.08991413       0.03515755 </v>
   <v>       0.00351688       0.05515530      -0.03153609 </v>
   <v>      -0.01068400      -0.01049639       0.07250805 </v>
   <v>       0.01068400       0.01049639      -0.07250805 </v>
   <v>      -0.00351688      -0.05515530       0.03153609 </v>
   <v>      -0.01068400      -0.01049639      -0.07250805 </v>
   <v>       0.00351688       0.05515530       0.03153609 </v>
   <v>      -0.00351688      -0.05515530      -0.03153609 </v>
   <v>       0.01068400       0.01049639       0.07250805 </v>
   <v>       0.14938800       0.12136144       0.11681656 </v>
   <v>       0.14938800       0.12136144      -0.11681656 </v>
   <v>      -0.14938800      -0.12136144       0.11681656 </v>
   <v>      -0.14938800      -0.12136144      -0.11681656 </v>
   <v>      -0.00000000      -0.00000000       0.03784021 </v>
   <v>      -0.00000000      -0.00000000      -0.03784021 </v>
  </varray>
  <varray name="stress" >
   <v>       0.32706414      -0.17911962       0.00000000 </v>
   <v>      -0.17911961       0.73918164       0.00000000 </v>
   <v>       0.00000000       0.00000000       2.04486145 </v>
  </varray>
  <energy>
   <i name="e_fr_energy">   -185.06404262 </i>
   <i name="e_wo_entrp">   -185.06149751 </i>
   <i name="e_0_energy">   -185.06277006 </i>
  </energy>
  <time name="totalsc">   51.15   51.53</time>
 </calculation>
 <calculation>
  <scstep>
   <time name="dav">    7.72    7.78</time>
   <time name="total">    8.01    8.07</time>
   <dipole>
    <v name="dipole">      0.00000000       0.00000000       0.00000483 </v>
    <i name="Tr[quadrupol]">   -547.31281440 </i>
    <i name="Echarged">      0.00000000 </i>
    <i name="Edipol_quadrupol">      0.00000000 </i>
    <i name="Eion">      0.00000000 </i>
   </dipole>
   <energy>
    <i name="alphaZ">     54.24162963 </i>
    <i name="ewald">  26607.80912220 </i>
    <i name="hartreedc"> -28314.69185665 </i>
    <i name="XCdc">    208.35422872 </i>
    <i name="pawpsdc">   7616.13860719 </i>
    <i name="pawaedc">  -7594.57852014 </i>
    <i name="eentropy">     -0.00256363 </i>
    <i name="bandstr">   -776.51853143 </i>
    <i name="atom">   2017.72479794 </i>
    <i name="e_fr_energy">   -181.52308617 </i>
    <i name="e_wo_entrp">   -181.52052254 </i>
    <i name="e_0_energy">   -181.52180436 </i>
   </energy>
  </scstep>
  <scstep>
   <time name="dav">    9.38    9.46</time>
   <time name="total">    9.67    9.75</time>
   <dipole>
    <v name="dipole">      0.00000000       0.00000000       0.00001597 </v>
    <i name="Tr[quadrupol]">   -547.29363877 </i>
    <i name="Echarged">      0.00000000 </i>
    <i name="Edipol_quadrupol">      0.00000000 </i>
    <i name="Eion">      0.00000000 </i>
   </dipole>
   <energy>
    <i name="e_fr_energy">   -181.52297207 </i>
    <i name="e_wo_entrp">   -181.52039907 </i>
    <i name="e_0_energy">   -181.52168557 </i>
   </energy>
  </scstep>
  <scstep>
   <time name="dav">    9.26    9.34</time>
   <time name="total">    9.54    9.63</time>
   <dipole>
    <v name="dipole">      0.00000000       0.00000000       0.00001898 </v>
    <i name="Tr[quadrupol]">   -547.28589744 </i>
    <i name="Echarged">      0.00000000 </i>
    <i name="Edipol_quadrupol">      0.00000000 </i>
    <i name="Eion">      0.00000000 </i>
   </dipole>
   <energy>
    <i name="e_fr_energy">   -181.52270267 </i>
    <i name="e_wo_entrp">   -181.52012642 </i>
    <i name="e_0_energy">   -181.52141454 </i>
   </energy>
  </scstep>
  <scstep>
   <time name="dav">    8.85    8.91</time>
   <time name="total">    9.14    9.20</time>
   <dipole>
    <v name="dipole">      0.00000000       0.00000000       0.00001336 </v>
    <i name="Tr[quadrupol]">   -547.29195804 </i>
    <i name="Echarged">      0.00000000 </i>
    <i name="Edipol_quadrupol">      0.00000000 </i>
    <i name="Eion">      0.00000000 </i>
   </dipole>
   <energy>
    <i name="e_fr_energy">   -181.52270587 </i>
    <i name="e_wo_entrp">   -181.52013217 </i>
    <i name="e_0_energy">   -181.52141902 </i>
   </energy>
  </scstep>
  <scstep>
   <time name="dav">    9.23    9.29</time>
   <time name="total">    9.51    9.58</time>
   <dipole>
    <v name="dipole">      0.00000000       0.00000000       0.00001171 </v>
    <i name="Tr[quadrupol]">   -547.29251135 </i>
    <i name="Echarged">      0.00000000 </i>
    <i name="Edipol_quadrupol">      0.00000000 </i>
    <i name="Eion">      0.00000000 </i>
   </dipole>
   <energy>
    <i name="e_fr_energy">   -181.52270842 </i>
    <i name="e_wo_entrp">   -181.52013479 </i>
    <i name="e_0_energy">   -181.52142160 </i>
   </energy>
  </scstep>
  <scstep>
   <time name="dav">    7.30    7.35</time>
   <time name="total">    7.59    7.64</time>
   <dipole>
    <v name="dipole">      0.00000000       0.00000000       0.00000984 </v>
    <i name="Tr[quadrupol]">   -547.29343189 </i>
    <i name="Echarged">      0.00000000 </i>
    <i name="Edipol_quadrupol">      0.00000000 </i>
    <i name="Eion">      0.00000000 </i>
   </dipole>
   <energy>
    <i name="e_fr_energy">   -181.52270954 </i>
    <i name="e_wo_entrp">   -181.52013546 </i>
    <i name="e_0_energy">   -181.52142250 </i>
   </energy>
  </scstep>
  <scstep>
   <time name="dav">    7.35    7.40</time>
   <time name="total">    7.64    7.69</time>
   <dipole>
    <v name="dipole">      0.00000000       0.00000000       0.00000818 </v>
    <i name="Tr[quadrupol]">   -547.29418778 </i>
    <i name="Echarged">      0.00000000 </i>
    <i name="Edipol_quadrupol">      0.00000000 </i>
    <i name="Eion">      0.00000000 </i>
   </dipole>
   <energy>
    <i name="e_fr_energy">   -181.52271074 </i>
    <i name="e_wo_entrp">   -181.52013660 </i>
    <i name="e_0_energy">   -181.52142367 </i>
   </energy>
  </scstep>
  <scstep>
   <time name="dav">    7.19    7.25</time>
   <time name="total">    7.24    7.31</time>
   <dipole>
    <v name="dipole">      0.00000000       0.00000000       0.00000698 </v>
    <i name="Tr[quadrupol]">   -547.29466491 </i>
    <i name="Echarged">      0.00000000 </i>
    <i name="Edipol_quadrupol">      0.00000000 </i>
    <i name="Eion">      0.00000000 </i>
   </dipole>
   <energy>
    <i name="alphaZ">     54.24162877 </i>
    <i name="ewald">  26607.80912220 </i>
    <i name="hartreedc"> -28314.02358114 </i>
    <i name="XCdc">    208.34419825 </i>
    <i name="pawpsdc">   7583.14967482 </i>
    <i name="pawaedc">  -7561.57511690 </i>
    <i name="eentropy">     -0.00257408 </i>
    <i name="bandstr">   -777.19086141 </i>
    <i name="atom">   2017.72479794 </i>
    <i name="e_fr_energy">   -181.52271155 </i>
    <i name="e_wo_entrp">   -181.52013748 </i>
    <i name="e_0_energy">   -181.52142451 </i>
   </energy>
  </scstep>
  <structure>
   <crystal>
    <varray name="basis" >
     <v>       5.60920755      -0.10740513       0.00000000 </v>
     <v>      -0.12055043       6.08011047       0.00000000 </v>
     <v>       0.00000000       0.00000000      30.08811665 </v>
    </varray>
    <i name="volume">   1025.75365814 </i>
    <varray name="rec_basis" >
     <v>       0.17834601       0.00353607       0.00000000 </v>
     <v>       0.00315048       0.16453316       0.00000000 </v>
     <v>       0.00000000       0.00000000       0.03323571 </v>
    </varray>
   </crystal>
   <varray name="positions" >
    <v>       0.52044626       0.64088640       0.14962548 </v>
    <v>       0.52044626       0.64088640       0.25213169 </v>
    <v>       0.47955374       0.35911360       0.14962548 </v>
    <v>       0.47955374       0.35911360       0.25213169 </v>
    <v>       0.98284259       0.64086911       0.13496489 </v>
    <v>       0.98284259       0.64086911       0.26679228 </v>
    <v>       0.01715741       0.35913089       0.13496489 </v>
    <v>       0.01715741       0.35913089       0.26679228 </v>
    <v>       0.59638914       0.89956493       0.13391336 </v>
    <v>       0.59638914       0.89956493       0.26784382 </v>
    <v>       0.40361086       0.10043506       0.13391336 </v>
    <v>       0.40361086       0.10043506       0.26784382 </v>
    <v>       0.89888382       0.89649137       0.12199191 </v>
    <v>       0.89888382       0.89649137       0.27976526 </v>
    <v>       0.10111618       0.10350863       0.12199191 </v>
    <v>       0.10111618       0.10350863       0.27976526 </v>
    <v>       0.78310987       0.76304577       0.17270879 </v>
    <v>       0.69831644       0.67917317       0.30003395 </v>
    <v>       0.30168356       0.32082683       0.10172323 </v>
    <v>       0.21689013       0.23695423       0.22904838 </v>
    <v>       0.69831644       0.67917317       0.10172323 </v>
    <v>       0.78310987       0.76304577       0.22904838 </v>
    <v>       0.21689013       0.23695423       0.17270879 </v>
    <v>       0.30168356       0.32082683       0.30003395 </v>
    <v>       0.25118340       0.52304186       0.14331080 </v>
    <v>       0.25118340       0.52304186       0.25844637 </v>
    <v>       0.74881660       0.47695811       0.14331080 </v>
    <v>       0.74881660       0.47695811       0.25844637 </v>
    <v>       0.50000000       0.50000000       0.07536506 </v>
    <v>       0.50000000       0.50000000       0.32639212 </v>
   </varray>
  </structure>
  <varray name="forces" >
   <v>       0.04203055       0.03943606      -0.07991841 </v>
   <v>       0.04203055       0.03943606       0.07991841 </v>
   <v>      -0.04203055      -0.03943606      -0.07991841 </v>
   <v>      -0.04203055      -0.03943606       0.07991841 </v>
   <v>      -0.01271707       0.01402936       0.03216435 </v>
   <v>      -0.01271707       0.01402936      -0.03216435 </v>
   <v>       0.01271707      -0.01402936       0.03216435 </v>
   <v>       0.01271707      -0.01402936      -0.03216435 </v>
   <v>      -0.04011621       0.00109583      -0.06867761 </v>
   <v>      -0.04011621       0.00109583       0.06867761 </v>
   <v>       0.04011621      -0.00109583      -0.06867761 </v>
   <v>       0.04011621      -0.00109583       0.06867761 </v>
   <v>      -0.01818944      -0.05115737      -0.01980717 </v>
   <v>      -0.01818944      -0.05115737       0.01980717 </v>
   <v>       0.01818944       0.05115737      -0.01980717 </v>
   <v>       0.01818944       0.05115737       0.01980717 </v>
   <v>      -0.01714433       0.02745051       0.01295800 </v>
   <v>      -0.02401485      -0.03869891       0.03076877 </v>
   <v>       0.02401485       0.03869891      -0.03076877 </v>
   <v>       0.01714433      -0.02745051      -0.01295800 </v>
   <v>      -0.02401485      -0.03869891      -0.03076877 </v>
   <v>      -0.01714433       0.02745051      -0.01295800 </v>
   <v>       0.01714433      -0.02745051       0.01295800 </v>
   <v>       0.02401485       0.03869891       0.03076877 </v>
   <v>       0.04019472       0.00919758       0.04894550 </v>
   <v>       0.04019472       0.00919758      -0.04894550 </v>
   <v>      -0.04019472      -0.00919758       0.04894550 </v>
   <v>      -0.04019472      -0.00919758      -0.04894550 </v>
   <v>       0.00000000      -0.00000000      -0.00549349 </v>
   <v>       0.00000000      -0.00000000       0.00549349 </v>
  </varray>
  <varray name="stress" >
   <v>      -1.24234673      -0.87100058       0.00000000 </v>
   <v>      -0.87100058      -0.19509971       0.00000000 </v>
   <v>       0.00000000       0.00000000       1.30976765 </v>
  </varray>
  <energy>
   <i name="e_fr_energy">   -185.07371188 </i>
   <i name="e_wo_entrp">   -185.07113780 </i>
   <i name="e_0_energy">   -185.07242484 </i>
  </energy>
  <time name="totalsc">   75.19   75.78</time>
 </calculation>
 <calculation>
  <scstep>
   <time name="dav">    7.73    7.78</time>
   <time name="total">    8.02    8.08</time>
   <dipole>
    <v name="dipole">      0.00000000       0.00000000       0.00000576 </v>
    <i name="Tr[quadrupol]">   -547.46890218 </i>
    <i name="Echarged">      0.00000000 </i>
    <i name="Edipol_quadrupol">      0.00000000 </i>
    <i name="Eion">      0.00000000 </i>
   </dipole>
   <energy>
    <i name="alphaZ">     54.20873301 </i>
    <i name="ewald">  26581.89614957 </i>
    <i name="hartreedc"> -28288.48887669 </i>
    <i name="XCdc">    208.27582420 </i>
    <i name="pawpsdc">   7583.16277109 </i>
    <i name="pawaedc">  -7561.58821497 </i>
    <i name="eentropy">     -0.00258917 </i>
    <i name="bandstr">   -776.71588214 </i>
    <i name="atom">   2017.72479794 </i>
    <i name="e_fr_energy">   -181.52728716 </i>
    <i name="e_wo_entrp">   -181.52469799 </i>
    <i name="e_0_energy">   -181.52599257 </i>
   </energy>
  </scstep>
  <scstep>
   <time name="dav">    9.37    9.43</time>
   <time name="total">    9.65    9.72</time>
   <dipole>
    <v name="dipole">      0.00000000       0.00000000       0.00001146 </v>
    <i name="Tr[quadrupol]">   -547.45864589 </i>
    <i name="Echarged">      0.00000000 </i>
    <i name="Edipol_quadrupol">      0.00000000 </i>
    <i name="Eion">      0.00000000 </i>
   </dipole>
   <energy>
    <i name="e_fr_energy">   -181.52725026 </i>
    <i name="e_wo_entrp">   -181.52465675 </i>
    <i name="e_0_energy">   -181.52595351 </i>
   </energy>
  </scstep>
  <scstep>
   <time name="dav">    9.21    9.27</time>
   <time name="total">    9.49    9.56</time>
   <dipole>
    <v name="dipole">      0.00000000       0.00000000       0.00001261 </v>
    <i name="Tr[quadrupol]">   -547.45458576 </i>
    <i name="Echarged">      0.00000000 </i>
    <i name="Edipol_quadrupol">      0.00000000 </i>
    <i name="Eion">      0.00000000 </i>
   </dipole>
   <energy>
    <i name="e_fr_energy">   -181.52717167 </i>
    <i name="e_wo_entrp">   -181.52457674 </i>
    <i name="e_0_energy">   -181.52587421 </i>
   </energy>
  </scstep>
  <scstep>
   <time name="dav">    8.82    8.88</time>
   <time name="total">    9.11    9.17</time>
   <dipole>
    <v name="dipole">      0.00000000       0.00000000       0.00000934 </v>
    <i name="Tr[quadrupol]">   -547.45788702 </i>
    <i name="Echarged">      0.00000000 </i>
    <i name="Edipol_quadrupol">      0.00000000 </i>
    <i name="Eion">      0.00000000 </i>
   </dipole>
   <energy>
    <i name="e_fr_energy">   -181.52717340 </i>
    <i name="e_wo_entrp">   -181.52457968 </i>
    <i name="e_0_energy">   -181.52587654 </i>
   </energy>
  </scstep>
  <scstep>
   <time name="dav">    9.24    9.33</time>
   <time name="total">    9.30    9.39</time>
   <dipole>
    <v name="dipole">      0.00000000       0.00000000       0.00000819 </v>
    <i name="Tr[quadrupol]">   -547.45824153 </i>
    <i name="Echarged">      0.00000000 </i>
    <i name="Edipol_quadrupol">      0.00000000 </i>
    <i name="Eion">      0.00000000 </i>
   </dipole>
   <energy>
    <i name="alphaZ">     54.20873203 </i>
    <i name="ewald">  26581.89614957 </i>
    <i name="hartreedc"> -28288.11209632 </i>
    <i name="XCdc">    208.27067074 </i>
    <i name="pawpsdc">   7565.87691525 </i>
    <i name="pawaedc">  -7544.29481234 </i>
    <i name="eentropy">     -0.00259370 </i>
    <i name="bandstr">   -777.09493746 </i>
    <i name="atom">   2017.72479794 </i>
    <i name="e_fr_energy">   -181.52717428 </i>
    <i name="e_wo_entrp">   -181.52458058 </i>
    <i name="e_0_energy">   -181.52587743 </i>
   </energy>
  </scstep>
  <structure>
   <crystal>
    <varray name="basis" >
     <v>       5.61237865      -0.10663631       0.00000000 </v>
     <v>      -0.11978101       6.08033016       0.00000000 </v>
     <v>       0.00000000       0.00000000      30.08811665 </v>
    </varray>
    <i name="volume">   1026.37613067 </i>
    <varray name="rec_basis" >
     <v>       0.17824429       0.00351137       0.00000000 </v>
     <v>       0.00312603       0.16452634       0.00000000 </v>
     <v>       0.00000000       0.00000000       0.03323571 </v>
    </varray>
   </crystal>
   <varray name="positions" >
    <v>       0.52051079       0.64074170       0.14953341 </v>
    <v>       0.52051079       0.64074170       0.25222376 </v>
    <v>       0.47948921       0.35925830       0.14953341 </v>
    <v>       0.47948921       0.35925830       0.25222376 </v>
    <v>       0.98302519       0.64083542       0.13497611 </v>
    <v>       0.98302519       0.64083542       0.26678106 </v>
    <v>       0.01697481       0.35916458       0.13497611 </v>
    <v>       0.01697481       0.35916458       0.26678106 </v>
    <v>       0.59637385       0.89949841       0.13380462 </v>
    <v>       0.59637385       0.89949841       0.26795255 </v>
    <v>       0.40362615       0.10050158       0.13380462 </v>
    <v>       0.40362615       0.10050158       0.26795255 </v>
    <v>       0.89894413       0.89630521       0.12189909 </v>
    <v>       0.89894413       0.89630521       0.27985808 </v>
    <v>       0.10105587       0.10369479       0.12189909 </v>
    <v>       0.10105587       0.10369479       0.27985808 </v>
    <v>       0.78306241       0.76331359       0.17266627 </v>
    <v>       0.69858015       0.67910042       0.30010081 </v>
    <v>       0.30141984       0.32089958       0.10165636 </v>
    <v>       0.21693759       0.23668641       0.22909091 </v>
    <v>       0.69858015       0.67910042       0.10165636 </v>
    <v>       0.78306241       0.76331359       0.22909091 </v>
    <v>       0.21693759       0.23668641       0.17266627 </v>
    <v>       0.30141984       0.32089958       0.30010081 </v>
    <v>       0.25128433       0.52329573       0.14343050 </v>
    <v>       0.25128433       0.52329573       0.25832667 </v>
    <v>       0.74871567       0.47670424       0.14343050 </v>
    <v>       0.74871567       0.47670424       0.25832667 </v>
    <v>       0.50000000       0.50000000       0.07548202 </v>
    <v>       0.50000000       0.50000000       0.32627516 </v>
   </varray>
  </structure>
  <varray name="forces" >
   <v>       0.07363752       0.08158675      -0.06090824 </v>
   <v>       0.07363752       0.08158675       0.06090824 </v>
   <v>      -0.07363752      -0.08158675      -0.06090824 </v>
   <v>      -0.07363752      -0.08158675       0.06090824 </v>
   <v>      -0.06362747       0.00992916       0.04348955 </v>
   <v>      -0.06362747       0.00992916      -0.04348955 </v>
   <v>       0.06362747      -0.00992916       0.04348955 </v>
   <v>       0.06362747      -0.00992916      -0.04348955 </v>
   <v>      -0.03615240       0.00371312      -0.06284739 </v>
   <v>      -0.03615240       0.00371312       0.06284739 </v>
   <v>       0.03615240      -0.00371312      -0.06284739 </v>
   <v>       0.03615240      -0.00371312       0.06284739 </v>
   <v>      -0.01379173      -0.03055113      -0.01123710 </v>
   <v>      -0.01379173      -0.03055113       0.01123710 </v>
   <v>       0.01379173       0.03055113      -0.01123710 </v>
   <v>       0.01379173       0.03055113       0.01123710 </v>
   <v>      -0.02805936       0.01264194       0.03595511 </v>
   <v>      -0.03144015      -0.05301223       0.00895666 </v>
   <v>       0.03144015       0.05301223      -0.00895666 </v>
   <v>       0.02805936      -0.01264194      -0.03595511 </v>
   <v>      -0.03144015      -0.05301223      -0.00895666 </v>
   <v>      -0.02805936       0.01264194      -0.03595511 </v>
   <v>       0.02805936      -0.01264194       0.03595511 </v>
   <v>       0.03144015       0.05301223       0.00895666 </v>
   <v>      -0.01682561      -0.04937068       0.01363336 </v>
   <v>      -0.01682561      -0.04937068      -0.01363336 </v>
   <v>       0.01682561       0.04937068       0.01363336 </v>
   <v>       0.01682561       0.04937068      -0.01363336 </v>
   <v>      -0.00000000      -0.00000000      -0.02882211 </v>
   <v>      -0.00000000      -0.00000000       0.02882211 </v>
  </varray>
  <varray name="stress" >
   <v>      -2.07517728      -1.23636858       0.00000000 </v>
   <v>      -1.23636858      -0.68865061       0.00000000 </v>
   <v>       0.00000000       0.00000000       0.92995404 </v>
  </varray>
  <energy>
   <i name="e_fr_energy">   -185.07499344 </i>
   <i name="e_wo_entrp">   -185.07239975 </i>
   <i name="e_0_energy">   -185.07369659 </i>
  </energy>
  <time name="totalsc">   52.41   52.80</time>
 </calculation>
 <calculation>
  <scstep>
   <time name="dav">    7.73    7.79</time>
   <time name="total">    8.02    8.08</time>
   <dipole>
    <v name="dipole">      0.00000000       0.00000000       0.00000695 </v>
    <i name="Tr[quadrupol]">   -546.56015290 </i>
    <i name="Echarged">      0.00000000 </i>
    <i name="Edipol_quadrupol">      0.00000000 </i>
    <i name="Eion">      0.00000000 </i>
   </dipole>
   <energy>
    <i name="alphaZ">     54.28795356 </i>
    <i name="ewald">  26609.51059823 </i>
    <i name="hartreedc"> -28315.68729974 </i>
    <i name="XCdc">    208.35966581 </i>
    <i name="pawpsdc">   7565.66701834 </i>
    <i name="pawaedc">  -7544.08483130 </i>
    <i name="eentropy">     -0.00264316 </i>
    <i name="bandstr">   -777.30541200 </i>
    <i name="atom">   2017.72479794 </i>
    <i name="e_fr_energy">   -181.53015233 </i>
    <i name="e_wo_entrp">   -181.52750917 </i>
    <i name="e_0_energy">   -181.52883075 </i>
   </energy>
  </scstep>
  <scstep>
   <time name="dav">    9.39    9.46</time>
   <time name="total">    9.68    9.74</time>
   <dipole>
    <v name="dipole">      0.00000000       0.00000000       0.00000650 </v>
    <i name="Tr[quadrupol]">   -546.56523457 </i>
    <i name="Echarged">      0.00000000 </i>
    <i name="Edipol_quadrupol">      0.00000000 </i>
    <i name="Eion">      0.00000000 </i>
   </dipole>
   <energy>
    <i name="e_fr_energy">   -181.52983405 </i>
    <i name="e_wo_entrp">   -181.52719618 </i>
    <i name="e_0_energy">   -181.52851512 </i>
   </energy>
  </scstep>
  <scstep>
   <time name="dav">    9.05    9.11</time>
   <time name="total">    9.33    9.40</time>
   <dipole>
    <v name="dipole">      0.00000000       0.00000000       0.00000527 </v>
    <i name="Tr[quadrupol]">   -546.57353701 </i>
    <i name="Echarged">      0.00000000 </i>
    <i name="Edipol_quadrupol">      0.00000000 </i>
    <i name="Eion">      0.00000000 </i>
   </dipole>
   <energy>
    <i name="e_fr_energy">   -181.52961258 </i>
    <i name="e_wo_entrp">   -181.52697952 </i>
    <i name="e_0_energy">   -181.52829605 </i>
   </energy>
  </scstep>
  <scstep>
   <time name="dav">    8.98    9.04</time>
   <time name="total">    9.27    9.34</time>
   <dipole>
    <v name="dipole">      0.00000000       0.00000000       0.00000035 </v>
    <i name="Tr[quadrupol]">   -546.58509287 </i>
    <i name="Echarged">      0.00000000 </i>
    <i name="Edipol_quadrupol">      0.00000000 </i>
    <i name="Eion">      0.00000000 </i>
   </dipole>
   <energy>
    <i name="e_fr_energy">   -181.52959685 </i>
    <i name="e_wo_entrp">   -181.52696538 </i>
    <i name="e_0_energy">   -181.52828112 </i>
   </energy>
  </scstep>
  <scstep>
   <time name="dav">    9.23    9.32</time>
   <time name="total">    9.52    9.61</time>
   <dipole>
    <v name="dipole">      0.00000000       0.00000000      -0.00000071 </v>
    <i name="Tr[quadrupol]">   -546.59175062 </i>
    <i name="Echarged">      0.00000000 </i>
    <i name="Edipol_quadrupol">      0.00000000 </i>
    <i name="Eion">      0.00000000 </i>
   </dipole>
   <energy>
    <i name="e_fr_energy">   -181.52959455 </i>
    <i name="e_wo_entrp">   -181.52696326 </i>
    <i name="e_0_energy">   -181.52827891 </i>
   </energy>
  </scstep>
  <scstep>
   <time name="dav">    7.55    7.60</time>
   <time name="total">    7.60    7.65</time>
   <dipole>
    <v name="dipole">      0.00000000       0.00000000      -0.00000064 </v>
    <i name="Tr[quadrupol]">   -546.59609884 </i>
    <i name="Echarged">      0.00000000 </i>
    <i name="Edipol_quadrupol">      0.00000000 </i>
    <i name="Eion">      0.00000000 </i>
   </dipole>
   <energy>
    <i name="alphaZ">     54.28795660 </i>
    <i name="ewald">  26609.51059823 </i>
    <i name="hartreedc"> -28316.41583253 </i>
    <i name="XCdc">    208.36335731 </i>
    <i name="pawpsdc">   7586.99414005 </i>
    <i name="pawaedc">  -7565.42118243 </i>
    <i name="eentropy">     -0.00263153 </i>
    <i name="bandstr">   -776.57079789 </i>
    <i name="atom">   2017.72479794 </i>
    <i name="e_fr_energy">   -181.52959424 </i>
    <i name="e_wo_entrp">   -181.52696271 </i>
    <i name="e_0_energy">   -181.52827848 </i>
   </energy>
  </scstep>
  <structure>
   <crystal>
    <varray name="basis" >
     <v>       5.60713373      -0.11121548       0.00000000 </v>
     <v>      -0.12468695       6.07733500       0.00000000 </v>
     <v>       0.00000000       0.00000000      30.08811665 </v>
    </varray>
    <i name="volume">   1024.87836617 </i>
    <varray name="rec_basis" >
     <v>       0.17841684       0.00366053       0.00000000 </v>
     <v>       0.00326504       0.16461280       0.00000000 </v>
     <v>       0.00000000       0.00000000       0.03323571 </v>
    </varray>
   </crystal>
   <varray name="positions" >
    <v>       0.52110409       0.64107386       0.14933748 </v>
    <v>       0.52110409       0.64107386       0.25241969 </v>
    <v>       0.47889591       0.35892614       0.14933748 </v>
    <v>       0.47889591       0.35892614       0.25241969 </v>
    <v>       0.98283109       0.64084641       0.13504556 </v>
    <v>       0.98283109       0.64084641       0.26671162 </v>
    <v>       0.01716891       0.35915359       0.13504556 </v>
    <v>       0.01716891       0.35915359       0.26671162 </v>
    <v>       0.59610959       0.89943141       0.13358471 </v>
    <v>       0.59610959       0.89943141       0.26817246 </v>
    <v>       0.40389041       0.10056858       0.13358471 </v>
    <v>       0.40389041       0.10056858       0.26817246 </v>
    <v>       0.89892448       0.89587193       0.12176496 </v>
    <v>       0.89892448       0.89587193       0.27999221 </v>
    <v>       0.10107552       0.10412806       0.12176496 </v>
    <v>       0.10107552       0.10412806       0.27999221 </v>
    <v>       0.78281261       0.76373535       0.17265676 </v>
    <v>       0.69870054       0.67867103       0.30019852 </v>
    <v>       0.30129946       0.32132897       0.10155866 </v>
    <v>       0.21718739       0.23626465       0.22910041 </v>
    <v>       0.69870054       0.67867103       0.10155866 </v>
    <v>       0.78281261       0.76373535       0.22910041 </v>
    <v>       0.21718739       0.23626465       0.17265676 </v>
    <v>       0.30129946       0.32132897       0.30019852 </v>
    <v>       0.25129398       0.52331286       0.14360238 </v>
    <v>       0.25129398       0.52331286       0.25815479 </v>
    <v>       0.74870602       0.47668711       0.14360238 </v>
    <v>       0.74870602       0.47668711       0.25815479 </v>
    <v>       0.50000000       0.50000000       0.07559671 </v>
    <v>       0.50000000       0.50000000       0.32616047 </v>
   </varray>
  </structure>
  <varray name="forces" >
   <v>      -0.03319375      -0.01794748       0.00675325 </v>
   <v>      -0.03319375      -0.01794748      -0.00675325 </v>
   <v>       0.03319375       0.01794748       0.00675325 </v>
   <v>       0.03319375       0.01794748      -0.00675325 </v>
   <v>       0.00184478      -0.00409940       0.03547695 </v>
   <v>       0.00184478      -0.00409940      -0.03547695 </v>
   <v>      -0.00184478       0.00409940       0.03547695 </v>
   <v>      -0.00184478       0.00409940      -0.03547695 </v>
   <v>       0.01816876       0.01039786      -0.06227628 </v>
   <v>       0.01816876       0.01039786       0.06227628 </v>
   <v>      -0.01816876      -0.01039786      -0.06227628 </v>
   <v>      -0.01816876      -0.01039786       0.06227628 </v>
   <v>       0.02819210       0.05506167      -0.01957739 </v>
   <v>       0.02819210       0.05506167       0.01957739 </v>
   <v>      -0.02819210      -0.05506167      -0.01957739 </v>
   <v>      -0.02819210      -0.05506167       0.01957739 </v>
   <v>      -0.02015448       0.01545233       0.01843245 </v>
   <v>      -0.02506074      -0.04310491      -0.00089516 </v>
   <v>       0.02506074       0.04310491       0.00089516 </v>
   <v>       0.02015448      -0.01545233      -0.01843245 </v>
   <v>      -0.02506074      -0.04310491       0.00089516 </v>
   <v>      -0.02015448       0.01545233      -0.01843245 </v>
   <v>       0.02015448      -0.01545233       0.01843245 </v>
   <v>       0.02506074       0.04310491      -0.00089516 </v>
   <v>      -0.00144193      -0.02956341      -0.00195886 </v>
   <v>      -0.00144193      -0.02956341       0.00195886 </v>
   <v>       0.00144193       0.02956341      -0.00195886 </v>
   <v>       0.00144193       0.02956341       0.00195886 </v>
   <v>       0.00000000      -0.00000000      -0.05322231 </v>
   <v>       0.00000000      -0.00000000       0.05322231 </v>
  </varray>
  <varray name="stress" >
   <v>      -0.58164008      -0.13797999       0.00000000 </v>
   <v>      -0.13797999      -0.02307671       0.00000000 </v>
   <v>       0.00000000       0.00000000       0.87858430 </v>
  </varray>
  <energy>
   <i name="e_fr_energy">   -185.08063904 </i>
   <i name="e_wo_entrp">   -185.07800752 </i>
   <i name="e_0_energy">   -185.07932328 </i>
  </energy>
  <time name="totalsc">   60.25   60.70</time>
 </calculation>
 <calculation>
  <scstep>
   <time name="dav">    8.04    8.09</time>
   <time name="total">    8.33    8.38</time>
   <dipole>
    <v name="dipole">      0.00000000       0.00000000      -0.00000029 </v>
    <i name="Tr[quadrupol]">   -546.43588733 </i>
    <i name="Echarged">      0.00000000 </i>
    <i name="Edipol_quadrupol">      0.00000000 </i>
    <i name="Eion">      0.00000000 </i>
   </dipole>
   <energy>
    <i name="alphaZ">     54.30259313 </i>
    <i name="ewald">  26614.60408844 </i>
    <i name="hartreedc"> -28321.59468157 </i>
    <i name="XCdc">    208.38022726 </i>
    <i name="pawpsdc">   7586.99392558 </i>
    <i name="pawaedc">  -7565.42104503 </i>
    <i name="eentropy">     -0.00264597 </i>
    <i name="bandstr">   -776.51642161 </i>
    <i name="atom">   2017.72479794 </i>
    <i name="e_fr_energy">   -181.52916182 </i>
    <i name="e_wo_entrp">   -181.52651585 </i>
    <i name="e_0_energy">   -181.52783883 </i>
   </energy>
  </scstep>
  <scstep>
   <time name="dav">    9.45    9.52</time>
   <time name="total">    9.74    9.81</time>
   <dipole>
    <v name="dipole">      0.00000000       0.00000000       0.00000020 </v>
    <i name="Tr[quadrupol]">   -546.43841542 </i>
    <i name="Echarged">      0.00000000 </i>
    <i name="Edipol_quadrupol">      0.00000000 </i>
    <i name="Eion">      0.00000000 </i>
   </dipole>
   <energy>
    <i name="e_fr_energy">   -181.52915181 </i>
    <i name="e_wo_entrp">   -181.52650702 </i>
    <i name="e_0_energy">   -181.52782942 </i>
   </energy>
  </scstep>
  <scstep>
   <time name="dav">    9.01    9.07</time>
   <time name="total">    9.29    9.37</time>
   <dipole>
    <v name="dipole">      0.00000000       0.00000000       0.00000091 </v>
    <i name="Tr[quadrupol]">   -546.44214513 </i>
    <i name="Echarged">      0.00000000 </i>
    <i name="Edipol_quadrupol">      0.00000000 </i>
    <i name="Eion">      0.00000000 </i>
   </dipole>
   <energy>
    <i name="e_fr_energy">   -181.52914494 </i>
    <i name="e_wo_entrp">   -181.52650114 </i>
    <i name="e_0_energy">   -181.52782304 </i>
   </energy>
  </scstep>
  <scstep>
   <time name="dav">    8.85    8.93</time>
   <time name="total">    8.90    8.99</time>
   <dipole>
    <v name="dipole">      0.00000000       0.00000000       0.00000064 </v>
    <i name="Tr[quadrupol]">   -546.44574573 </i>
    <i name="Echarged">      0.00000000 </i>
    <i name="Edipol_quadrupol">      0.00000000 </i>
    <i name="Eion">      0.00000000 </i>
   </dipole>
   <energy>
    <i name="alphaZ">     54.30259276 </i>
    <i name="ewald">  26614.60408844 </i>
    <i name="hartreedc"> -28321.78219044 </i>
    <i name="XCdc">    208.38121303 </i>
    <i name="pawpsdc">   7590.62401147 </i>
    <i name="pawaedc">  -7569.05266036 </i>
    <i name="eentropy">     -0.00264356 </i>
    <i name="bandstr">   -776.32835496 </i>
    <i name="atom">   2017.72479794 </i>
    <i name="e_fr_energy">   -181.52914569 </i>
    <i name="e_wo_entrp">   -181.52650213 </i>
    <i name="e_0_energy">   -181.52782391 </i>
   </energy>
  </scstep>
  <structure>
   <crystal>
    <varray name="basis" >
     <v>       5.60616652      -0.11205991       0.00000000 </v>
     <v>      -0.12559165       6.07678266       0.00000000 </v>
     <v>       0.00000000       0.00000000      30.08811665 </v>
    </varray>
    <i name="volume">   1024.60212138 </i>
    <varray name="rec_basis" >
     <v>       0.17844873       0.00368808       0.00000000 </v>
     <v>       0.00329071       0.16462878       0.00000000 </v>
     <v>       0.00000000       0.00000000       0.03323571 </v>
    </varray>
   </crystal>
   <varray name="positions" >
    <v>       0.52121366       0.64113523       0.14930135 </v>
    <v>       0.52121366       0.64113523       0.25245582 </v>
    <v>       0.47878634       0.35886477       0.14930135 </v>
    <v>       0.47878634       0.35886477       0.25245582 </v>
    <v>       0.98279526       0.64084841       0.13505836 </v>
    <v>       0.98279526       0.64084841       0.26669881 </v>
    <v>       0.01720474       0.35915159       0.13505836 </v>
    <v>       0.01720474       0.35915159       0.26669881 </v>
    <v>       0.59606080       0.89941901       0.13354415 </v>
    <v>       0.59606080       0.89941901       0.26821302 </v>
    <v>       0.40393920       0.10058098       0.13354415 </v>
    <v>       0.40393920       0.10058098       0.26821302 </v>
    <v>       0.89892079       0.89579199       0.12174023 </v>
    <v>       0.89892079       0.89579199       0.28001694 </v>
    <v>       0.10107921       0.10420800       0.12174023 </v>
    <v>       0.10107921       0.10420800       0.28001694 </v>
    <v>       0.78276657       0.76381313       0.17265501 </v>
    <v>       0.69872269       0.67859182       0.30021653 </v>
    <v>       0.30127731       0.32140818       0.10154064 </v>
    <v>       0.21723343       0.23618687       0.22910216 </v>
    <v>       0.69872269       0.67859182       0.10154064 </v>
    <v>       0.78276657       0.76381313       0.22910216 </v>
    <v>       0.21723343       0.23618687       0.17265501 </v>
    <v>       0.30127731       0.32140818       0.30021653 </v>
    <v>       0.25129577       0.52331602       0.14363408 </v>
    <v>       0.25129577       0.52331602       0.25812309 </v>
    <v>       0.74870423       0.47668395       0.14363408 </v>
    <v>       0.74870423       0.47668395       0.25812309 </v>
    <v>       0.50000000       0.50000000       0.07561786 </v>
    <v>       0.50000000       0.50000000       0.32613932 </v>
   </varray>
  </structure>
  <varray name="forces" >
   <v>      -0.05299538      -0.03582919       0.01923195 </v>
   <v>      -0.05299538      -0.03582919      -0.01923195 </v>
   <v>       0.05299538       0.03582919       0.01923195 </v>
   <v>       0.05299538       0.03582919      -0.01923195 </v>
   <v>       0.01391171      -0.00695276       0.03407473 </v>
   <v>       0.01391171      -0.00695276      -0.03407473 </v>
   <v>      -0.01391171       0.00695276       0.03407473 </v>
   <v>      -0.01391171       0.00695276      -0.03407473 </v>
   <v>       0.02801257       0.01161746      -0.06226023 </v>
   <v>       0.02801257       0.01161746       0.06226023 </v>
   <v>      -0.02801257      -0.01161746      -0.06226023 </v>
   <v>      -0.02801257      -0.01161746       0.06226023 </v>
   <v>       0.03598034       0.07095758      -0.02128350 </v>
   <v>       0.03598034       0.07095758       0.02128350 </v>
   <v>      -0.03598034      -0.07095758      -0.02128350 </v>
   <v>      -0.03598034      -0.07095758       0.02128350 </v>
   <v>      -0.01874480       0.01589801       0.01505451 </v>
   <v>      -0.02387274      -0.04108150      -0.00273513 </v>
   <v>       0.02387274       0.04108150       0.00273513 </v>
   <v>       0.01874480      -0.01589801      -0.01505451 </v>
   <v>      -0.02387274      -0.04108150       0.00273513 </v>
   <v>      -0.01874480       0.01589801      -0.01505451 </v>
   <v>       0.01874480      -0.01589801       0.01505451 </v>
   <v>       0.02387274       0.04108150      -0.00273513 </v>
   <v>       0.00124215      -0.02588523      -0.00483384 </v>
   <v>       0.00124215      -0.02588523       0.00483384 </v>
   <v>      -0.00124215       0.02588523      -0.00483384 </v>
   <v>      -0.00124215       0.02588523       0.00483384 </v>
   <v>      -0.00000000       0.00000000      -0.05791439 </v>
   <v>      -0.00000000       0.00000000       0.05791439 </v>
  </varray>
  <varray name="stress" >
   <v>      -0.30315147       0.06771746       0.00000000 </v>
   <v>       0.06771746       0.10171770       0.00000000 </v>
   <v>       0.00000000       0.00000000       0.84963691 </v>
  </varray>
  <energy>
   <i name="e_fr_energy">   -185.08078231 </i>
   <i name="e_wo_entrp">   -185.07813875 </i>
   <i name="e_0_energy">   -185.07946053 </i>
  </energy>
  <time name="totalsc">   43.10   43.43</time>
 </calculation>
 <calculation>
  <scstep>
   <time name="dav">    7.71    7.77</time>
   <time name="total">    8.00    8.06</time>
   <dipole>
    <v name="dipole">      0.00000000       0.00000000       0.00000107 </v>
    <i name="Tr[quadrupol]">   -546.33203955 </i>
    <i name="Echarged">      0.00000000 </i>
    <i name="Edipol_quadrupol">      0.00000000 </i>
    <i name="Eion">      0.00000000 </i>
   </dipole>
   <energy>
    <i name="alphaZ">     54.34069280 </i>
    <i name="ewald">  26626.30364405 </i>
    <i name="hartreedc"> -28333.88032046 </i>
    <i name="XCdc">    208.39826099 </i>
    <i name="pawpsdc">   7590.82618491 </i>
    <i name="pawaedc">  -7569.25494139 </i>
    <i name="eentropy">     -0.00269033 </i>
    <i name="bandstr">   -775.98555477 </i>
    <i name="atom">   2017.72479794 </i>
    <i name="e_fr_energy">   -181.52992624 </i>
    <i name="e_wo_entrp">   -181.52723592 </i>
    <i name="e_0_energy">   -181.52858108 </i>
   </energy>
  </scstep>
  <scstep>
   <time name="dav">    9.40    9.47</time>
   <time name="total">    9.69    9.76</time>
   <dipole>
    <v name="dipole">      0.00000000       0.00000000       0.00000229 </v>
    <i name="Tr[quadrupol]">   -546.33433667 </i>
    <i name="Echarged">      0.00000000 </i>
    <i name="Edipol_quadrupol">      0.00000000 </i>
    <i name="Eion">      0.00000000 </i>
   </dipole>
   <energy>
    <i name="e_fr_energy">   -181.52970082 </i>
    <i name="e_wo_entrp">   -181.52702527 </i>
    <i name="e_0_energy">   -181.52836304 </i>
   </energy>
  </scstep>
  <scstep>
   <time name="dav">    9.07    9.13</time>
   <time name="total">    9.36    9.42</time>
   <dipole>
    <v name="dipole">      0.00000000       0.00000000       0.00000250 </v>
    <i name="Tr[quadrupol]">   -546.33936062 </i>
    <i name="Echarged">      0.00000000 </i>
    <i name="Edipol_quadrupol">      0.00000000 </i>
    <i name="Eion">      0.00000000 </i>
   </dipole>
   <energy>
    <i name="e_fr_energy">   -181.52959652 </i>
    <i name="e_wo_entrp">   -181.52692772 </i>
    <i name="e_0_energy">   -181.52826212 </i>
   </energy>
  </scstep>
  <scstep>
   <time name="dav">    8.84    8.92</time>
   <time name="total">    9.13    9.21</time>
   <dipole>
    <v name="dipole">      0.00000000       0.00000000       0.00000123 </v>
    <i name="Tr[quadrupol]">   -546.34473927 </i>
    <i name="Echarged">      0.00000000 </i>
    <i name="Edipol_quadrupol">      0.00000000 </i>
    <i name="Eion">      0.00000000 </i>
   </dipole>
   <energy>
    <i name="e_fr_energy">   -181.52959229 </i>
    <i name="e_wo_entrp">   -181.52692254 </i>
    <i name="e_0_energy">   -181.52825741 </i>
   </energy>
  </scstep>
  <scstep>
   <time name="dav">    9.07    9.15</time>
   <time name="total">    9.13    9.21</time>
   <dipole>
    <v name="dipole">      0.00000000       0.00000000       0.00000133 </v>
    <i name="Tr[quadrupol]">   -546.34923000 </i>
    <i name="Echarged">      0.00000000 </i>
    <i name="Edipol_quadrupol">      0.00000000 </i>
    <i name="Eion">      0.00000000 </i>
   </dipole>
   <energy>
    <i name="alphaZ">     54.34069270 </i>
    <i name="ewald">  26626.30364405 </i>
    <i name="hartreedc"> -28334.03699582 </i>
    <i name="XCdc">    208.39875518 </i>
    <i name="pawpsdc">   7594.65738627 </i>
    <i name="pawaedc">  -7573.08826082 </i>
    <i name="eentropy">     -0.00266953 </i>
    <i name="bandstr">   -775.82694305 </i>
    <i name="atom">   2017.72479794 </i>
    <i name="e_fr_energy">   -181.52959308 </i>
    <i name="e_wo_entrp">   -181.52692355 </i>
    <i name="e_0_energy">   -181.52825831 </i>
   </energy>
  </scstep>
  <structure>
   <crystal>
    <varray name="basis" >
     <v>       5.60282381      -0.11341673       0.00000000 </v>
     <v>      -0.12699901       6.07620561       0.00000000 </v>
     <v>       0.00000000       0.00000000      30.08811665 </v>
    </varray>
    <i name="volume">   1023.88373595 </i>
    <varray name="rec_basis" >
     <v>       0.17855698       0.00373203       0.00000000 </v>
     <v>       0.00333289       0.16464605       0.00000000 </v>
     <v>       0.00000000       0.00000000       0.03323571 </v>
    </varray>
   </crystal>
   <varray name="positions" >
    <v>       0.52105225       0.64101716       0.14925513 </v>
    <v>       0.52105225       0.64101716       0.25250204 </v>
    <v>       0.47894775       0.35898284       0.14925513 </v>
    <v>       0.47894775       0.35898284       0.25250204 </v>
    <v>       0.98282130       0.64080904       0.13512832 </v>
    <v>       0.98282130       0.64080904       0.26662885 </v>
    <v>       0.01717870       0.35919096       0.13512832 </v>
    <v>       0.01717870       0.35919096       0.26662885 </v>
    <v>       0.59616311       0.89947352       0.13338241 </v>
    <v>       0.59616311       0.89947352       0.26837476 </v>
    <v>       0.40383689       0.10052647       0.13338241 </v>
    <v>       0.40383689       0.10052647       0.26837476 </v>
    <v>       0.89917690       0.89609916       0.12166345 </v>
    <v>       0.89917690       0.89609916       0.28009372 </v>
    <v>       0.10082310       0.10390083       0.12166345 </v>
    <v>       0.10082310       0.10390083       0.28009372 </v>
    <v>       0.78254602       0.76406764       0.17267127 </v>
    <v>       0.69859254       0.67816552       0.30024857 </v>
    <v>       0.30140746       0.32183448       0.10150861 </v>
    <v>       0.21745398       0.23593236       0.22908590 </v>
    <v>       0.69859254       0.67816552       0.10150861 </v>
    <v>       0.78254602       0.76406764       0.22908590 </v>
    <v>       0.21745398       0.23593236       0.17267127 </v>
    <v>       0.30140746       0.32183448       0.30024857 </v>
    <v>       0.25130428       0.52315443       0.14369040 </v>
    <v>       0.25130428       0.52315443       0.25806677 </v>
    <v>       0.74869572       0.47684554       0.14369040 </v>
    <v>       0.74869572       0.47684554       0.25806677 </v>
    <v>       0.50000000       0.50000000       0.07558378 </v>
    <v>       0.50000000       0.50000000       0.32617340 </v>
   </varray>
  </structure>
  <varray name="forces" >
   <v>      -0.02847421       0.03636939       0.03034309 </v>
   <v>      -0.02847421       0.03636939      -0.03034309 </v>
   <v>       0.02847421      -0.03636939       0.03034309 </v>
   <v>       0.02847421      -0.03636939      -0.03034309 </v>
   <v>       0.01976774       0.04113944       0.02097945 </v>
   <v>       0.01976774       0.04113944      -0.02097945 </v>
   <v>      -0.01976774      -0.04113944       0.02097945 </v>
   <v>      -0.01976774      -0.04113944      -0.02097945 </v>
   <v>       0.01166943      -0.00612874      -0.04597501 </v>
   <v>       0.01166943      -0.00612874       0.04597501 </v>
   <v>      -0.01166943       0.00612874      -0.04597501 </v>
   <v>      -0.01166943       0.00612874       0.04597501 </v>
   <v>      -0.02810157      -0.04896149      -0.00293469 </v>
   <v>      -0.02810157      -0.04896149       0.00293469 </v>
   <v>       0.02810157       0.04896149      -0.00293469 </v>
   <v>       0.02810157       0.04896149       0.00293469 </v>
   <v>      -0.01487089       0.01769739      -0.03023889 </v>
   <v>      -0.00637524      -0.00742904      -0.00962720 </v>
   <v>       0.00637524       0.00742904       0.00962720 </v>
   <v>       0.01487089      -0.01769739       0.03023889 </v>
   <v>      -0.00637524      -0.00742904       0.00962720 </v>
   <v>      -0.01487089       0.01769739       0.03023889 </v>
   <v>       0.01487089      -0.01769739      -0.03023889 </v>
   <v>       0.00637524       0.00742904      -0.00962720 </v>
   <v>      -0.01624149      -0.01337286      -0.00665587 </v>
   <v>      -0.01624149      -0.01337286       0.00665587 </v>
   <v>       0.01624149       0.01337286      -0.00665587 </v>
   <v>       0.01624149       0.01337286       0.00665587 </v>
   <v>      -0.00000000      -0.00000000      -0.05496049 </v>
   <v>      -0.00000000      -0.00000000       0.05496049 </v>
  </varray>
  <varray name="stress" >
   <v>       0.52372195       0.36968692       0.00000000 </v>
   <v>       0.36968692       0.14408998       0.00000000 </v>
   <v>       0.00000000       0.00000000       0.54729625 </v>
  </varray>
  <energy>
   <i name="e_fr_energy">   -185.08282458 </i>
   <i name="e_wo_entrp">   -185.08015504 </i>
   <i name="e_0_energy">   -185.08148981 </i>
  </energy>
  <time name="totalsc">   52.14   52.54</time>
 </calculation>
 <calculation>
  <scstep>
   <time name="dav">    8.05    8.11</time>
   <time name="total">    8.34    8.40</time>
   <dipole>
    <v name="dipole">      0.00000000       0.00000000       0.00000149 </v>
    <i name="Tr[quadrupol]">   -546.33898009 </i>
    <i name="Echarged">      0.00000000 </i>
    <i name="Edipol_quadrupol">      0.00000000 </i>
    <i name="Eion">      0.00000000 </i>
   </dipole>
   <energy>
    <i name="alphaZ">     54.34491312 </i>
    <i name="ewald">  26627.59886308 </i>
    <i name="hartreedc"> -28335.41953974 </i>
    <i name="XCdc">    208.40082941 </i>
    <i name="pawpsdc">   7594.55400785 </i>
    <i name="pawaedc">  -7572.98490502 </i>
    <i name="eentropy">     -0.00267659 </i>
    <i name="bandstr">   -775.74573515 </i>
    <i name="atom">   2017.72479794 </i>
    <i name="e_fr_energy">   -181.52944510 </i>
    <i name="e_wo_entrp">   -181.52676851 </i>
    <i name="e_0_energy">   -181.52810681 </i>
   </energy>
  </scstep>
  <scstep>
   <time name="dav">    9.28    9.35</time>
   <time name="total">    9.57    9.64</time>
   <dipole>
    <v name="dipole">      0.00000000       0.00000000       0.00000184 </v>
    <i name="Tr[quadrupol]">   -546.34069297 </i>
    <i name="Echarged">      0.00000000 </i>
    <i name="Edipol_quadrupol">      0.00000000 </i>
    <i name="Eion">      0.00000000 </i>
   </dipole>
   <energy>
    <i name="e_fr_energy">   -181.52944369 </i>
    <i name="e_wo_entrp">   -181.52676860 </i>
    <i name="e_0_energy">   -181.52810614 </i>
   </energy>
  </scstep>
  <scstep>
   <time name="dav">    8.93    8.99</time>
   <time name="total">    8.98    9.05</time>
   <dipole>
    <v name="dipole">      0.00000000       0.00000000       0.00000224 </v>
    <i name="Tr[quadrupol]">   -546.34328814 </i>
    <i name="Echarged">      0.00000000 </i>
    <i name="Edipol_quadrupol">      0.00000000 </i>
    <i name="Eion">      0.00000000 </i>
   </dipole>
   <energy>
    <i name="alphaZ">     54.34491282 </i>
    <i name="ewald">  26627.59886308 </i>
    <i name="hartreedc"> -28335.47709256 </i>
    <i name="XCdc">    208.40101039 </i>
    <i name="pawpsdc">   7594.83162254 </i>
    <i name="pawaedc">  -7573.26270327 </i>
    <i name="eentropy">     -0.00267429 </i>
    <i name="bandstr">   -775.68818020 </i>
    <i name="atom">   2017.72479794 </i>
    <i name="e_fr_energy">   -181.52944356 </i>
    <i name="e_wo_entrp">   -181.52676927 </i>
    <i name="e_0_energy">   -181.52810642 </i>
   </energy>
  </scstep>
  <structure>
   <crystal>
    <varray name="basis" >
     <v>       5.60245381      -0.11356691       0.00000000 </v>
     <v>      -0.12715479       6.07614174       0.00000000 </v>
     <v>       0.00000000       0.00000000      30.08811665 </v>
    </varray>
    <i name="volume">   1023.80422009 </i>
    <varray name="rec_basis" >
     <v>       0.17856897       0.00373689       0.00000000 </v>
     <v>       0.00333757       0.16464797       0.00000000 </v>
     <v>       0.00000000       0.00000000       0.03323571 </v>
    </varray>
   </crystal>
   <varray name="positions" >
    <v>       0.52103437       0.64100409       0.14925002 </v>
    <v>       0.52103437       0.64100409       0.25250715 </v>
    <v>       0.47896563       0.35899591       0.14925002 </v>
    <v>       0.47896563       0.35899591       0.25250715 </v>
    <v>       0.98282418       0.64080468       0.13513607 </v>
    <v>       0.98282418       0.64080468       0.26662110 </v>
    <v>       0.01717582       0.35919532       0.13513607 </v>
    <v>       0.01717582       0.35919532       0.26662110 </v>
    <v>       0.59617444       0.89947956       0.13336451 </v>
    <v>       0.59617444       0.89947956       0.26839266 </v>
    <v>       0.40382556       0.10052044       0.13336451 </v>
    <v>       0.40382556       0.10052044       0.26839266 </v>
    <v>       0.89920527       0.89613317       0.12165496 </v>
    <v>       0.89920527       0.89613317       0.28010222 </v>
    <v>       0.10079473       0.10386682       0.12165496 </v>
    <v>       0.10079473       0.10386682       0.28010222 </v>
    <v>       0.78252159       0.76409580       0.17267307 </v>
    <v>       0.69857811       0.67811832       0.30025211 </v>
    <v>       0.30142189       0.32188168       0.10150506 </v>
    <v>       0.21747841       0.23590420       0.22908410 </v>
    <v>       0.69857811       0.67811832       0.10150506 </v>
    <v>       0.78252159       0.76409580       0.22908410 </v>
    <v>       0.21747841       0.23590420       0.17267307 </v>
    <v>       0.30142189       0.32188168       0.30025211 </v>
    <v>       0.25130521       0.52313654       0.14369663 </v>
    <v>       0.25130521       0.52313654       0.25806054 </v>
    <v>       0.74869479       0.47686343       0.14369663 </v>
    <v>       0.74869479       0.47686343       0.25806054 </v>
    <v>       0.50000000       0.50000000       0.07558001 </v>
    <v>       0.50000000       0.50000000       0.32617717 </v>
   </varray>
  </structure>
  <varray name="forces" >
   <v>      -0.02560178       0.04422244       0.03145037 </v>
   <v>      -0.02560178       0.04422244      -0.03145037 </v>
   <v>       0.02560178      -0.04422244       0.03145037 </v>
   <v>       0.02560178      -0.04422244      -0.03145037 </v>
   <v>       0.02039358       0.04611702       0.01966364 </v>
   <v>       0.02039358       0.04611702      -0.01966364 </v>
   <v>      -0.02039358      -0.04611702       0.01966364 </v>
   <v>      -0.02039358      -0.04611702      -0.01966364 </v>
   <v>       0.00996831      -0.00794804      -0.04461215 </v>
   <v>       0.00996831      -0.00794804       0.04461215 </v>
   <v>      -0.00996831       0.00794804      -0.04461215 </v>
   <v>      -0.00996831       0.00794804       0.04461215 </v>
   <v>      -0.03522787      -0.06179517      -0.00095375 </v>
   <v>      -0.03522787      -0.06179517       0.00095375 </v>
   <v>       0.03522787       0.06179517      -0.00095375 </v>
   <v>       0.03522787       0.06179517       0.00095375 </v>
   <v>      -0.01447645       0.01785094      -0.03507157 </v>
   <v>      -0.00453839      -0.00352518      -0.01047458 </v>
   <v>       0.00453839       0.00352518       0.01047458 </v>
   <v>       0.01447645      -0.01785094       0.03507157 </v>
   <v>      -0.00453839      -0.00352518       0.01047458 </v>
   <v>      -0.01447645       0.01785094       0.03507157 </v>
   <v>       0.01447645      -0.01785094      -0.03507157 </v>
   <v>       0.00453839       0.00352518      -0.01047458 </v>
   <v>      -0.01835563      -0.01210649      -0.00681924 </v>
   <v>      -0.01835563      -0.01210649       0.00681924 </v>
   <v>       0.01835563       0.01210649      -0.00681924 </v>
   <v>       0.01835563       0.01210649       0.00681924 </v>
   <v>       0.00000000       0.00000000      -0.05469070 </v>
   <v>       0.00000000       0.00000000       0.05469070 </v>
  </varray>
  <varray name="stress" >
   <v>       0.62062066       0.40181987       0.00000000 </v>
   <v>       0.40181987       0.15434295       0.00000000 </v>
   <v>       0.00000000       0.00000000       0.49407730 </v>
  </varray>
  <energy>
   <i name="e_fr_energy">   -185.08285122 </i>
   <i name="e_wo_entrp">   -185.08017693 </i>
   <i name="e_0_energy">   -185.08151408 </i>
  </energy>
  <time name="totalsc">   33.73   33.99</time>
 </calculation>
 <calculation>
  <scstep>
   <time name="dav">    7.68    7.74</time>
   <time name="total">    7.97    8.03</time>
   <dipole>
    <v name="dipole">      0.00000000       0.00000000       0.00000236 </v>
    <i name="Tr[quadrupol]">   -546.46931108 </i>
    <i name="Echarged">      0.00000000 </i>
    <i name="Edipol_quadrupol">      0.00000000 </i>
    <i name="Eion">      0.00000000 </i>
   </dipole>
   <energy>
    <i name="alphaZ">     54.34273939 </i>
    <i name="ewald">  26620.05269943 </i>
    <i name="hartreedc"> -28328.23441347 </i>
    <i name="XCdc">    208.37810774 </i>
    <i name="pawpsdc">   7594.86551997 </i>
    <i name="pawaedc">  -7573.29664181 </i>
    <i name="eentropy">     -0.00276661 </i>
    <i name="bandstr">   -775.36265705 </i>
    <i name="atom">   2017.72479794 </i>
    <i name="e_fr_energy">   -181.53261447 </i>
    <i name="e_wo_entrp">   -181.52984786 </i>
    <i name="e_0_energy">   -181.53123116 </i>
   </energy>
  </scstep>
  <scstep>
   <time name="dav">    9.44    9.51</time>
   <time name="total">    9.72    9.79</time>
   <dipole>
    <v name="dipole">      0.00000000       0.00000000       0.00000636 </v>
    <i name="Tr[quadrupol]">   -546.46568421 </i>
    <i name="Echarged">      0.00000000 </i>
    <i name="Edipol_quadrupol">      0.00000000 </i>
    <i name="Eion">      0.00000000 </i>
   </dipole>
   <energy>
    <i name="e_fr_energy">   -181.53256570 </i>
    <i name="e_wo_entrp">   -181.52981563 </i>
    <i name="e_0_energy">   -181.53119067 </i>
   </energy>
  </scstep>
  <scstep>
   <time name="dav">    9.20    9.26</time>
   <time name="total">    9.49    9.56</time>
   <dipole>
    <v name="dipole">      0.00000000       0.00000000       0.00000695 </v>
    <i name="Tr[quadrupol]">   -546.46750284 </i>
    <i name="Echarged">      0.00000000 </i>
    <i name="Edipol_quadrupol">      0.00000000 </i>
    <i name="Eion">      0.00000000 </i>
   </dipole>
   <energy>
    <i name="e_fr_energy">   -181.53252531 </i>
    <i name="e_wo_entrp">   -181.52978175 </i>
    <i name="e_0_energy">   -181.53115353 </i>
   </energy>
  </scstep>
  <scstep>
   <time name="dav">    8.85    8.92</time>
   <time name="total">    9.14    9.21</time>
   <dipole>
    <v name="dipole">      0.00000000       0.00000000       0.00000525 </v>
    <i name="Tr[quadrupol]">   -546.47148399 </i>
    <i name="Echarged">      0.00000000 </i>
    <i name="Edipol_quadrupol">      0.00000000 </i>
    <i name="Eion">      0.00000000 </i>
   </dipole>
   <energy>
    <i name="e_fr_energy">   -181.53252634 </i>
    <i name="e_wo_entrp">   -181.52978192 </i>
    <i name="e_0_energy">   -181.53115413 </i>
   </energy>
  </scstep>
  <scstep>
   <time name="dav">    8.17    8.22</time>
   <time name="total">    8.22    8.28</time>
   <dipole>
    <v name="dipole">      0.00000000       0.00000000       0.00000522 </v>
    <i name="Tr[quadrupol]">   -546.47311660 </i>
    <i name="Echarged">      0.00000000 </i>
    <i name="Edipol_quadrupol">      0.00000000 </i>
    <i name="Eion">      0.00000000 </i>
   </dipole>
   <energy>
    <i name="alphaZ">     54.34273824 </i>
    <i name="ewald">  26620.05269943 </i>
    <i name="hartreedc"> -28328.18544748 </i>
    <i name="XCdc">    208.37567066 </i>
    <i name="pawpsdc">   7587.97393355 </i>
    <i name="pawaedc">  -7566.40234646 </i>
    <i name="eentropy">     -0.00274424 </i>
    <i name="bandstr">   -775.41182870 </i>
    <i name="atom">   2017.72479794 </i>
    <i name="e_fr_energy">   -181.53252706 </i>
    <i name="e_wo_entrp">   -181.52978281 </i>
    <i name="e_0_energy">   -181.53115494 </i>
   </energy>
  </scstep>
  <structure>
   <crystal>
    <varray name="basis" >
     <v>       5.60246445      -0.11298168       0.00000000 </v>
     <v>      -0.12651615       6.07634695       0.00000000 </v>
     <v>       0.00000000       0.00000000      30.08811665 </v>
    </varray>
    <i name="volume">   1023.84516594 </i>
    <varray name="rec_basis" >
     <v>       0.17856786       0.00371798       0.00000000 </v>
     <v>       0.00332023       0.16464170       0.00000000 </v>
     <v>       0.00000000       0.00000000       0.03323571 </v>
    </varray>
   </crystal>
   <varray name="positions" >
    <v>       0.52077731       0.64115402       0.14925127 </v>
    <v>       0.52077731       0.64115402       0.25250591 </v>
    <v>       0.47922269       0.35884598       0.14925127 </v>
    <v>       0.47922269       0.35884598       0.25250591 </v>
    <v>       0.98296629       0.64102535       0.13520670 </v>
    <v>       0.98296629       0.64102535       0.26655047 </v>
    <v>       0.01703371       0.35897465       0.13520670 </v>
    <v>       0.01703371       0.35897465       0.26655047 </v>
    <v>       0.59630356       0.89947673       0.13320214 </v>
    <v>       0.59630356       0.89947673       0.26855503 </v>
    <v>       0.40369644       0.10052327       0.13320214 </v>
    <v>       0.40369644       0.10052327       0.26855503 </v>
    <v>       0.89917489       0.89601646       0.12159968 </v>
    <v>       0.89917489       0.89601646       0.28015749 </v>
    <v>       0.10082511       0.10398353       0.12159968 </v>
    <v>       0.10082511       0.10398353       0.28015749 </v>
    <v>       0.78228402       0.76436936       0.17264676 </v>
    <v>       0.69845929       0.67779774       0.30026345 </v>
    <v>       0.30154071       0.32220226       0.10149372 </v>
    <v>       0.21771598       0.23563064       0.22911042 </v>
    <v>       0.69845929       0.67779774       0.10149372 </v>
    <v>       0.78228402       0.76436936       0.22911042 </v>
    <v>       0.21771598       0.23563064       0.17264676 </v>
    <v>       0.30154071       0.32220226       0.30026345 </v>
    <v>       0.25120341       0.52295571       0.14372907 </v>
    <v>       0.25120341       0.52295571       0.25802810 </v>
    <v>       0.74879659       0.47704426       0.14372907 </v>
    <v>       0.74879659       0.47704426       0.25802810 </v>
    <v>       0.50000000       0.50000000       0.07549697 </v>
    <v>       0.50000000       0.50000000       0.32626020 </v>
   </varray>
  </structure>
  <varray name="forces" >
   <v>      -0.00588059       0.03575942       0.02353352 </v>
   <v>      -0.00588059       0.03575942      -0.02353352 </v>
   <v>       0.00588059      -0.03575942       0.02353352 </v>
   <v>       0.00588059      -0.03575942      -0.02353352 </v>
   <v>       0.01632209       0.01117590       0.01456396 </v>
   <v>       0.01632209       0.01117590      -0.01456396 </v>
   <v>      -0.01632209      -0.01117590       0.01456396 </v>
   <v>      -0.01632209      -0.01117590      -0.01456396 </v>
   <v>      -0.02502244       0.00185216      -0.02862283 </v>
   <v>      -0.02502244       0.00185216       0.02862283 </v>
   <v>       0.02502244      -0.00185216      -0.02862283 </v>
   <v>       0.02502244      -0.00185216       0.02862283 </v>
   <v>      -0.00996892      -0.03418843      -0.00287336 </v>
   <v>      -0.00996892      -0.03418843       0.00287336 </v>
   <v>       0.00996892       0.03418843      -0.00287336 </v>
   <v>       0.00996892       0.03418843       0.00287336 </v>
   <v>      -0.01492401       0.01594867      -0.01429173 </v>
   <v>      -0.00002996       0.00143739      -0.00550760 </v>
   <v>       0.00002996      -0.00143739       0.00550760 </v>
   <v>       0.01492401      -0.01594867       0.01429173 </v>
   <v>      -0.00002996       0.00143739       0.00550760 </v>
   <v>      -0.01492401       0.01594867       0.01429173 </v>
   <v>       0.01492401      -0.01594867      -0.01429173 </v>
   <v>       0.00002996      -0.00143739      -0.00550760 </v>
   <v>       0.00248031      -0.00754918      -0.00374633 </v>
   <v>       0.00248031      -0.00754918       0.00374633 </v>
   <v>      -0.00248031       0.00754918      -0.00374633 </v>
   <v>      -0.00248031       0.00754918       0.00374633 </v>
   <v>      -0.00000000      -0.00000000      -0.04188575 </v>
   <v>      -0.00000000      -0.00000000       0.04188575 </v>
  </varray>
  <varray name="stress" >
   <v>       0.54826403       0.23070691       0.00000000 </v>
   <v>       0.23070692      -0.09781095       0.00000000 </v>
   <v>       0.00000000       0.00000000       0.25511697 </v>
  </varray>
  <energy>
   <i name="e_fr_energy">   -185.08491286 </i>
   <i name="e_wo_entrp">   -185.08216862 </i>
   <i name="e_0_energy">   -185.08354074 </i>
  </energy>
  <time name="totalsc">   51.43   51.83</time>
 </calculation>
 <calculation>
  <scstep>
   <time name="dav">    7.68    7.73</time>
   <time name="total">    7.97    8.03</time>
   <dipole>
    <v name="dipole">      0.00000000       0.00000000       0.00000499 </v>
    <i name="Tr[quadrupol]">   -546.63536083 </i>
    <i name="Echarged">      0.00000000 </i>
    <i name="Edipol_quadrupol">      0.00000000 </i>
    <i name="Eion">      0.00000000 </i>
   </dipole>
   <energy>
    <i name="alphaZ">     54.33994033 </i>
    <i name="ewald">  26610.29654430 </i>
    <i name="hartreedc"> -28318.80969415 </i>
    <i name="XCdc">    208.34558305 </i>
    <i name="pawpsdc">   7587.86238880 </i>
    <i name="pawaedc">  -7566.29080298 </i>
    <i name="eentropy">     -0.00293098 </i>
    <i name="bandstr">   -775.00077648 </i>
    <i name="atom">   2017.72479794 </i>
    <i name="e_fr_energy">   -181.53495017 </i>
    <i name="e_wo_entrp">   -181.53201919 </i>
    <i name="e_0_energy">   -181.53348468 </i>
   </energy>
  </scstep>
  <scstep>
   <time name="dav">    9.41    9.47</time>
   <time name="total">    9.70    9.77</time>
   <dipole>
    <v name="dipole">      0.00000000       0.00000000       0.00000980 </v>
    <i name="Tr[quadrupol]">   -546.63011027 </i>
    <i name="Echarged">      0.00000000 </i>
    <i name="Edipol_quadrupol">      0.00000000 </i>
    <i name="Eion">      0.00000000 </i>
   </dipole>
   <energy>
    <i name="e_fr_energy">   -181.53487149 </i>
    <i name="e_wo_entrp">   -181.53197534 </i>
    <i name="e_0_energy">   -181.53342341 </i>
   </energy>
  </scstep>
  <scstep>
   <time name="dav">    9.14    9.20</time>
   <time name="total">    9.43    9.49</time>
   <dipole>
    <v name="dipole">      0.00000000       0.00000000       0.00000996 </v>
    <i name="Tr[quadrupol]">   -546.63159883 </i>
    <i name="Echarged">      0.00000000 </i>
    <i name="Edipol_quadrupol">      0.00000000 </i>
    <i name="Eion">      0.00000000 </i>
   </dipole>
   <energy>
    <i name="e_fr_energy">   -181.53480547 </i>
    <i name="e_wo_entrp">   -181.53192261 </i>
    <i name="e_0_energy">   -181.53336404 </i>
   </energy>
  </scstep>
  <scstep>
   <time name="dav">    8.96    9.02</time>
   <time name="total">    9.25    9.31</time>
   <dipole>
    <v name="dipole">      0.00000000       0.00000000       0.00000739 </v>
    <i name="Tr[quadrupol]">   -546.63622473 </i>
    <i name="Echarged">      0.00000000 </i>
    <i name="Edipol_quadrupol">      0.00000000 </i>
    <i name="Eion">      0.00000000 </i>
   </dipole>
   <energy>
    <i name="e_fr_energy">   -181.53480671 </i>
    <i name="e_wo_entrp">   -181.53192157 </i>
    <i name="e_0_energy">   -181.53336414 </i>
   </energy>
  </scstep>
  <scstep>
   <time name="dav">    9.29    9.35</time>
   <time name="total">    9.34    9.41</time>
   <dipole>
    <v name="dipole">      0.00000000       0.00000000       0.00000697 </v>
    <i name="Tr[quadrupol]">   -546.63788534 </i>
    <i name="Echarged">      0.00000000 </i>
    <i name="Edipol_quadrupol">      0.00000000 </i>
    <i name="Eion">      0.00000000 </i>
   </dipole>
   <energy>
    <i name="alphaZ">     54.33993954 </i>
    <i name="ewald">  26610.29654430 </i>
    <i name="hartreedc"> -28318.70204826 </i>
    <i name="XCdc">    208.34219646 </i>
    <i name="pawpsdc">   7578.87100956 </i>
    <i name="pawaedc">  -7557.29587677 </i>
    <i name="eentropy">     -0.00288485 </i>
    <i name="bandstr">   -775.10848543 </i>
    <i name="atom">   2017.72479794 </i>
    <i name="e_fr_energy">   -181.53480752 </i>
    <i name="e_wo_entrp">   -181.53192267 </i>
    <i name="e_0_energy">   -181.53336509 </i>
   </energy>
  </scstep>
  <structure>
   <crystal>
    <varray name="basis" >
     <v>       5.60247816      -0.11222770       0.00000000 </v>
     <v>      -0.12569338       6.07661131       0.00000000 </v>
     <v>       0.00000000       0.00000000      30.08811665 </v>
    </varray>
    <i name="volume">   1023.89788450 </i>
    <varray name="rec_basis" >
     <v>       0.17856643       0.00369361       0.00000000 </v>
     <v>       0.00329791       0.16463362       0.00000000 </v>
     <v>       0.00000000       0.00000000       0.03323571 </v>
    </varray>
   </crystal>
   <varray name="positions" >
    <v>       0.52044610       0.64134720       0.14925287 </v>
    <v>       0.52044610       0.64134720       0.25250430 </v>
    <v>       0.47955390       0.35865280       0.14925287 </v>
    <v>       0.47955390       0.35865280       0.25250430 </v>
    <v>       0.98314933       0.64130961       0.13529769 </v>
    <v>       0.98314933       0.64130961       0.26645948 </v>
    <v>       0.01685067       0.35869039       0.13529769 </v>
    <v>       0.01685067       0.35869039       0.26645948 </v>
    <v>       0.59646990       0.89947307       0.13299296 </v>
    <v>       0.59646990       0.89947307       0.26876422 </v>
    <v>       0.40353010       0.10052692       0.13299296 </v>
    <v>       0.40353010       0.10052692       0.26876422 </v>
    <v>       0.89913577       0.89586611       0.12152847 </v>
    <v>       0.89913577       0.89586611       0.28022871 </v>
    <v>       0.10086423       0.10413388       0.12152847 </v>
    <v>       0.10086423       0.10413388       0.28022871 </v>
    <v>       0.78197791       0.76472182       0.17261285 </v>
    <v>       0.69830626       0.67738475       0.30027806 </v>
    <v>       0.30169374       0.32261525       0.10147911 </v>
    <v>       0.21802209       0.23527818       0.22914432 </v>
    <v>       0.69830626       0.67738475       0.10147911 </v>
    <v>       0.78197791       0.76472182       0.22914432 </v>
    <v>       0.21802209       0.23527818       0.17261285 </v>
    <v>       0.30169374       0.32261525       0.30027806 </v>
    <v>       0.25107229       0.52272277       0.14377087 </v>
    <v>       0.25107229       0.52272277       0.25798630 </v>
    <v>       0.74892771       0.47727720       0.14377087 </v>
    <v>       0.74892771       0.47727720       0.25798630 </v>
    <v>       0.50000000       0.50000000       0.07539000 </v>
    <v>       0.50000000       0.50000000       0.32636718 </v>
   </varray>
  </structure>
  <varray name="forces" >
   <v>       0.01982443       0.02570646       0.01346524 </v>
   <v>       0.01982443       0.02570646      -0.01346524 </v>
   <v>      -0.01982443      -0.02570646       0.01346524 </v>
   <v>      -0.01982443      -0.02570646      -0.01346524 </v>
   <v>       0.01091490      -0.03300518       0.00830089 </v>
   <v>       0.01091490      -0.03300518      -0.00830089 </v>
   <v>      -0.01091490       0.03300518       0.00830089 </v>
   <v>      -0.01091490       0.03300518      -0.00830089 </v>
   <v>      -0.06994592       0.01409784      -0.00789626 </v>
   <v>      -0.06994592       0.01409784       0.00789626 </v>
   <v>       0.06994592      -0.01409784      -0.00789626 </v>
   <v>       0.06994592      -0.01409784       0.00789626 </v>
   <v>       0.02212417       0.00085997      -0.00505388 </v>
   <v>       0.02212417       0.00085997       0.00505388 </v>
   <v>      -0.02212417      -0.00085997      -0.00505388 </v>
   <v>      -0.02212417      -0.00085997       0.00505388 </v>
   <v>      -0.01553650       0.01334008       0.01224138 </v>
   <v>       0.00554777       0.00814750       0.00084471 </v>
   <v>      -0.00554777      -0.00814750      -0.00084471 </v>
   <v>       0.01553650      -0.01334008      -0.01224138 </v>
   <v>       0.00554777       0.00814750      -0.00084471 </v>
   <v>      -0.01553650       0.01334008      -0.01224138 </v>
   <v>       0.01553650      -0.01334008       0.01224138 </v>
   <v>      -0.00554777      -0.00814750       0.00084471 </v>
   <v>       0.02888872      -0.00168221       0.00060215 </v>
   <v>       0.02888872      -0.00168221      -0.00060215 </v>
   <v>      -0.02888872       0.00168221       0.00060215 </v>
   <v>      -0.02888872       0.00168221      -0.00060215 </v>
   <v>      -0.00000000       0.00000000      -0.02553768 </v>
   <v>      -0.00000000       0.00000000       0.02553768 </v>
  </varray>
  <varray name="stress" >
   <v>       0.46102251       0.01351501       0.00000000 </v>
   <v>       0.01351500      -0.41979010       0.00000000 </v>
   <v>       0.00000000       0.00000000      -0.05560045 </v>
  </varray>
  <energy>
   <i name="e_fr_energy">   -185.08587777 </i>
   <i name="e_wo_entrp">   -185.08299292 </i>
   <i name="e_0_energy">   -185.08443535 </i>
  </energy>
  <time name="totalsc">   52.60   52.98</time>
 </calculation>
 <calculation>
  <scstep>
   <time name="dav">    7.70    7.75</time>
   <time name="total">    7.99    8.05</time>
   <dipole>
    <v name="dipole">      0.00000000       0.00000000       0.00000637 </v>
    <i name="Tr[quadrupol]">   -546.80871601 </i>
    <i name="Echarged">      0.00000000 </i>
    <i name="Edipol_quadrupol">      0.00000000 </i>
    <i name="Eion">      0.00000000 </i>
   </dipole>
   <energy>
    <i name="alphaZ">     54.33640607 </i>
    <i name="ewald">  26602.99865875 </i>
    <i name="hartreedc"> -28311.87924429 </i>
    <i name="XCdc">    208.30566717 </i>
    <i name="pawpsdc">   7578.73632997 </i>
    <i name="pawaedc">  -7557.16120034 </i>
    <i name="eentropy">     -0.00295932 </i>
    <i name="bandstr">   -774.59497842 </i>
    <i name="atom">   2017.72479794 </i>
    <i name="e_fr_energy">   -181.53652246 </i>
    <i name="e_wo_entrp">   -181.53356314 </i>
    <i name="e_0_energy">   -181.53504280 </i>
   </energy>
  </scstep>
  <scstep>
   <time name="dav">    9.53    9.60</time>
   <time name="total">    9.82    9.89</time>
   <dipole>
    <v name="dipole">      0.00000000       0.00000000       0.00000922 </v>
    <i name="Tr[quadrupol]">   -546.80458000 </i>
    <i name="Echarged">      0.00000000 </i>
    <i name="Edipol_quadrupol">      0.00000000 </i>
    <i name="Eion">      0.00000000 </i>
   </dipole>
   <energy>
    <i name="e_fr_energy">   -181.53644901 </i>
    <i name="e_wo_entrp">   -181.53350600 </i>
    <i name="e_0_energy">   -181.53497751 </i>
   </energy>
  </scstep>
  <scstep>
   <time name="dav">    9.07    9.13</time>
   <time name="total">    9.36    9.43</time>
   <dipole>
    <v name="dipole">      0.00000000       0.00000000       0.00000978 </v>
    <i name="Tr[quadrupol]">   -546.80296671 </i>
    <i name="Echarged">      0.00000000 </i>
    <i name="Edipol_quadrupol">      0.00000000 </i>
    <i name="Eion">      0.00000000 </i>
   </dipole>
   <energy>
    <i name="e_fr_energy">   -181.53638444 </i>
    <i name="e_wo_entrp">   -181.53345268 </i>
    <i name="e_0_energy">   -181.53491856 </i>
   </energy>
  </scstep>
  <scstep>
   <time name="dav">    8.81    8.87</time>
   <time name="total">    9.09    9.15</time>
   <dipole>
    <v name="dipole">      0.00000000       0.00000000       0.00000836 </v>
    <i name="Tr[quadrupol]">   -546.80471114 </i>
    <i name="Echarged">      0.00000000 </i>
    <i name="Edipol_quadrupol">      0.00000000 </i>
    <i name="Eion">      0.00000000 </i>
   </dipole>
   <energy>
    <i name="e_fr_energy">   -181.53638451 </i>
    <i name="e_wo_entrp">   -181.53344808 </i>
    <i name="e_0_energy">   -181.53491629 </i>
   </energy>
  </scstep>
  <scstep>
   <time name="dav">    9.11    9.19</time>
   <time name="total">    9.40    9.48</time>
   <dipole>
    <v name="dipole">      0.00000000       0.00000000       0.00000760 </v>
    <i name="Tr[quadrupol]">   -546.80539588 </i>
    <i name="Echarged">      0.00000000 </i>
    <i name="Edipol_quadrupol">      0.00000000 </i>
    <i name="Eion">      0.00000000 </i>
   </dipole>
   <energy>
    <i name="e_fr_energy">   -181.53638562 </i>
    <i name="e_wo_entrp">   -181.53344783 </i>
    <i name="e_0_energy">   -181.53491673 </i>
   </energy>
  </scstep>
  <scstep>
   <time name="dav">    7.35    7.40</time>
   <time name="total">    7.40    7.46</time>
   <dipole>
    <v name="dipole">      0.00000000       0.00000000       0.00000688 </v>
    <i name="Tr[quadrupol]">   -546.80608106 </i>
    <i name="Echarged">      0.00000000 </i>
    <i name="Edipol_quadrupol">      0.00000000 </i>
    <i name="Eion">      0.00000000 </i>
   </dipole>
   <energy>
    <i name="alphaZ">     54.33640586 </i>
    <i name="ewald">  26602.99865875 </i>
    <i name="hartreedc"> -28311.60530938 </i>
    <i name="XCdc">    208.30260426 </i>
    <i name="pawpsdc">   7569.13636120 </i>
    <i name="pawaedc">  -7547.55761315 </i>
    <i name="eentropy">     -0.00293775 </i>
    <i name="bandstr">   -774.86935399 </i>
    <i name="atom">   2017.72479794 </i>
    <i name="e_fr_energy">   -181.53638625 </i>
    <i name="e_wo_entrp">   -181.53344850 </i>
    <i name="e_0_energy">   -181.53491738 </i>
   </energy>
  </scstep>
  <structure>
   <crystal>
    <varray name="basis" >
     <v>       5.60472918      -0.11169158       0.00000000 </v>
     <v>      -0.12520381       6.07454386       0.00000000 </v>
     <v>       0.00000000       0.00000000      30.08811665 </v>
    </varray>
    <i name="volume">   1023.96447256 </i>
    <varray name="rec_basis" >
     <v>       0.17849407       0.00367898       0.00000000 </v>
     <v>       0.00328194       0.16468906       0.00000000 </v>
     <v>       0.00000000       0.00000000       0.03323571 </v>
    </varray>
   </crystal>
   <varray name="positions" >
    <v>       0.52040576       0.64163253       0.14927204 </v>
    <v>       0.52040576       0.64163253       0.25248513 </v>
    <v>       0.47959424       0.35836747       0.14927204 </v>
    <v>       0.47959424       0.35836747       0.25248513 </v>
    <v>       0.98332807       0.64125128       0.13536076 </v>
    <v>       0.98332807       0.64125128       0.26639641 </v>
    <v>       0.01667193       0.35874872       0.13536076 </v>
    <v>       0.01667193       0.35874872       0.26639641 </v>
    <v>       0.59605726       0.89955624       0.13286313 </v>
    <v>       0.59605726       0.89955624       0.26889404 </v>
    <v>       0.40394274       0.10044375       0.13286313 </v>
    <v>       0.40394274       0.10044375       0.26889404 </v>
    <v>       0.89927478       0.89578925       0.12148106 </v>
    <v>       0.89927478       0.89578925       0.28027611 </v>
    <v>       0.10072522       0.10421075       0.12148106 </v>
    <v>       0.10072522       0.10421075       0.28027611 </v>
    <v>       0.78169241       0.76501003       0.17261014 </v>
    <v>       0.69826079       0.67720506       0.30028753 </v>
    <v>       0.30173921       0.32279494       0.10146965 </v>
    <v>       0.21830759       0.23498997       0.22914703 </v>
    <v>       0.69826079       0.67720506       0.10146965 </v>
    <v>       0.78169241       0.76501003       0.22914703 </v>
    <v>       0.21830759       0.23498997       0.17261014 </v>
    <v>       0.30173921       0.32279494       0.30028753 </v>
    <v>       0.25120782       0.52258273       0.14379548 </v>
    <v>       0.25120782       0.52258273       0.25796169 </v>
    <v>       0.74879218       0.47741724       0.14379548 </v>
    <v>       0.74879218       0.47741724       0.25796169 </v>
    <v>       0.50000000       0.50000000       0.07529446 </v>
    <v>       0.50000000       0.50000000       0.32646272 </v>
   </varray>
  </structure>
  <varray name="forces" >
   <v>       0.00757553      -0.01622031       0.00485840 </v>
   <v>       0.00757553      -0.01622031      -0.00485840 </v>
   <v>      -0.00757553       0.01622031       0.00485840 </v>
   <v>      -0.00757553       0.01622031      -0.00485840 </v>
   <v>      -0.01753920      -0.01484352       0.01148947 </v>
   <v>      -0.01753920      -0.01484352      -0.01148947 </v>
   <v>       0.01753920       0.01484352       0.01148947 </v>
   <v>       0.01753920       0.01484352      -0.01148947 </v>
   <v>       0.02519264      -0.03699046      -0.00438545 </v>
   <v>       0.02519264      -0.03699046       0.00438545 </v>
   <v>      -0.02519264       0.03699046      -0.00438545 </v>
   <v>      -0.02519264       0.03699046       0.00438545 </v>
   <v>      -0.01075696      -0.00172038       0.00609261 </v>
   <v>      -0.01075696      -0.00172038      -0.00609261 </v>
   <v>       0.01075696       0.00172038       0.00609261 </v>
   <v>       0.01075696       0.00172038      -0.00609261 </v>
   <v>      -0.01045928       0.01749271      -0.00369132 </v>
   <v>       0.00158978       0.01724545       0.00052870 </v>
   <v>      -0.00158978      -0.01724545      -0.00052870 </v>
   <v>       0.01045928      -0.01749271       0.00369132 </v>
   <v>       0.00158978       0.01724545      -0.00052870 </v>
   <v>      -0.01045928       0.01749271       0.00369132 </v>
   <v>       0.01045928      -0.01749271      -0.00369132 </v>
   <v>      -0.00158978      -0.01724545       0.00052870 </v>
   <v>       0.01947263       0.00562147       0.00228831 </v>
   <v>       0.01947263       0.00562147      -0.00228831 </v>
   <v>      -0.01947263      -0.00562147       0.00228831 </v>
   <v>      -0.01947263      -0.00562147      -0.00228831 </v>
   <v>      -0.00000000      -0.00000000      -0.01022419 </v>
   <v>      -0.00000000      -0.00000000       0.01022419 </v>
  </varray>
  <varray name="stress" >
   <v>      -0.22493936      -0.10607288       0.00000000 </v>
   <v>      -0.10607288      -0.24619871       0.00000000 </v>
   <v>       0.00000000       0.00000000      -0.35656495 </v>
  </varray>
  <energy>
   <i name="e_fr_energy">   -185.08672187 </i>
   <i name="e_wo_entrp">   -185.08378412 </i>
   <i name="e_0_energy">   -185.08525300 </i>
  </energy>
  <time name="totalsc">   59.98   60.41</time>
 </calculation>
 <calculation>
  <scstep>
   <time name="dav">    8.23    8.28</time>
   <time name="total">    8.52    8.58</time>
   <dipole>
    <v name="dipole">      0.00000000       0.00000000       0.00000604 </v>
    <i name="Tr[quadrupol]">   -546.79220948 </i>
    <i name="Echarged">      0.00000000 </i>
    <i name="Edipol_quadrupol">      0.00000000 </i>
    <i name="Eion">      0.00000000 </i>
   </dipole>
   <energy>
    <i name="alphaZ">     54.33671010 </i>
    <i name="ewald">  26603.62767289 </i>
    <i name="hartreedc"> -28312.20596111 </i>
    <i name="XCdc">    208.30575515 </i>
    <i name="pawpsdc">   7569.00648696 </i>
    <i name="pawaedc">  -7547.42772880 </i>
    <i name="eentropy">     -0.00293118 </i>
    <i name="bandstr">   -774.90113418 </i>
    <i name="atom">   2017.72479794 </i>
    <i name="e_fr_energy">   -181.53633223 </i>
    <i name="e_wo_entrp">   -181.53340106 </i>
    <i name="e_0_energy">   -181.53486664 </i>
   </energy>
  </scstep>
  <scstep>
   <time name="dav">    9.44    9.50</time>
   <time name="total">    9.73    9.79</time>
   <dipole>
    <v name="dipole">      0.00000000       0.00000000       0.00000538 </v>
    <i name="Tr[quadrupol]">   -546.79293372 </i>
    <i name="Echarged">      0.00000000 </i>
    <i name="Edipol_quadrupol">      0.00000000 </i>
    <i name="Eion">      0.00000000 </i>
   </dipole>
   <energy>
    <i name="e_fr_energy">   -181.53633241 </i>
    <i name="e_wo_entrp">   -181.53339988 </i>
    <i name="e_0_energy">   -181.53486614 </i>
   </energy>
  </scstep>
  <scstep>
   <time name="dav">    8.19    8.25</time>
   <time name="total">    8.25    8.30</time>
   <dipole>
    <v name="dipole">      0.00000000       0.00000000       0.00000464 </v>
    <i name="Tr[quadrupol]">   -546.79367275 </i>
    <i name="Echarged">      0.00000000 </i>
    <i name="Edipol_quadrupol">      0.00000000 </i>
    <i name="Eion">      0.00000000 </i>
   </dipole>
   <energy>
    <i name="alphaZ">     54.33671067 </i>
    <i name="ewald">  26603.62767289 </i>
    <i name="hartreedc"> -28312.24758054 </i>
    <i name="XCdc">    208.30605692 </i>
    <i name="pawpsdc">   7569.69205830 </i>
    <i name="pawaedc">  -7548.11359029 </i>
    <i name="eentropy">     -0.00293350 </i>
    <i name="bandstr">   -774.85952500 </i>
    <i name="atom">   2017.72479794 </i>
    <i name="e_fr_energy">   -181.53633262 </i>
    <i name="e_wo_entrp">   -181.53339912 </i>
    <i name="e_0_energy">   -181.53486587 </i>
   </energy>
  </scstep>
  <structure>
   <crystal>
    <varray name="basis" >
     <v>       5.60453518      -0.11173779       0.00000000 </v>
     <v>      -0.12524600       6.07472204       0.00000000 </v>
     <v>       0.00000000       0.00000000      30.08811665 </v>
    </varray>
    <i name="volume">   1023.95874558 </i>
    <varray name="rec_basis" >
     <v>       0.17850030       0.00368024       0.00000000 </v>
     <v>       0.00328332       0.16468428       0.00000000 </v>
     <v>       0.00000000       0.00000000       0.03323571 </v>
    </varray>
   </crystal>
   <varray name="positions" >
    <v>       0.52040924       0.64160793       0.14927039 </v>
    <v>       0.52040924       0.64160793       0.25248678 </v>
    <v>       0.47959076       0.35839207       0.14927039 </v>
    <v>       0.47959076       0.35839207       0.25248678 </v>
    <v>       0.98331267       0.64125631       0.13535533 </v>
    <v>       0.98331267       0.64125631       0.26640184 </v>
    <v>       0.01668733       0.35874369       0.13535533 </v>
    <v>       0.01668733       0.35874369       0.26640184 </v>
    <v>       0.59609280       0.89954907       0.13287432 </v>
    <v>       0.59609280       0.89954907       0.26888285 </v>
    <v>       0.40390720       0.10045093       0.13287432 </v>
    <v>       0.40390720       0.10045093       0.26888285 </v>
    <v>       0.89926281       0.89579587       0.12148515 </v>
    <v>       0.89926281       0.89579587       0.28027202 </v>
    <v>       0.10073719       0.10420412       0.12148515 </v>
    <v>       0.10073719       0.10420412       0.28027202 </v>
    <v>       0.78171700       0.76498519       0.17261037 </v>
    <v>       0.69826470       0.67722055       0.30028671 </v>
    <v>       0.30173530       0.32277945       0.10147046 </v>
    <v>       0.21828300       0.23501481       0.22914680 </v>
    <v>       0.69826470       0.67722055       0.10147046 </v>
    <v>       0.78171700       0.76498519       0.22914680 </v>
    <v>       0.21828300       0.23501481       0.17261037 </v>
    <v>       0.30173530       0.32277945       0.30028671 </v>
    <v>       0.25119614       0.52259480       0.14379336 </v>
    <v>       0.25119614       0.52259480       0.25796381 </v>
    <v>       0.74880386       0.47740517       0.14379336 </v>
    <v>       0.74880386       0.47740517       0.25796381 </v>
    <v>       0.50000000       0.50000000       0.07530269 </v>
    <v>       0.50000000       0.50000000       0.32645448 </v>
   </varray>
  </structure>
  <varray name="forces" >
   <v>       0.00850111      -0.01244812       0.00557038 </v>
   <v>       0.00850111      -0.01244812      -0.00557038 </v>
   <v>      -0.00850111       0.01244812       0.00557038 </v>
   <v>      -0.00850111       0.01244812      -0.00557038 </v>
   <v>      -0.01496228      -0.01646471       0.01123005 </v>
   <v>      -0.01496228      -0.01646471      -0.01123005 </v>
   <v>       0.01496228       0.01646471       0.01123005 </v>
   <v>       0.01496228       0.01646471      -0.01123005 </v>
   <v>       0.01663743      -0.03240758      -0.00495405 </v>
   <v>       0.01663743      -0.03240758       0.00495405 </v>
   <v>      -0.01663743       0.03240758      -0.00495405 </v>
   <v>      -0.01663743       0.03240758       0.00495405 </v>
   <v>      -0.00794152      -0.00133140       0.00491965 </v>
   <v>      -0.00794152      -0.00133140      -0.00491965 </v>
   <v>       0.00794152       0.00133140       0.00491965 </v>
   <v>       0.00794152       0.00133140      -0.00491965 </v>
   <v>      -0.01105988       0.01722684      -0.00223423 </v>
   <v>       0.00180563       0.01656814       0.00064626 </v>
   <v>      -0.00180563      -0.01656814      -0.00064626 </v>
   <v>       0.01105988      -0.01722684       0.00223423 </v>
   <v>       0.00180563       0.01656814      -0.00064626 </v>
   <v>      -0.01105988       0.01722684       0.00223423 </v>
   <v>       0.01105988      -0.01722684      -0.00223423 </v>
   <v>      -0.00180563      -0.01656814       0.00064626 </v>
   <v>       0.02037396       0.00505082       0.00220178 </v>
   <v>       0.02037396       0.00505082      -0.00220178 </v>
   <v>      -0.02037396      -0.00505082       0.00220178 </v>
   <v>      -0.02037396      -0.00505082      -0.00220178 </v>
   <v>       0.00000000       0.00000000      -0.01157240 </v>
   <v>      -0.00000000       0.00000000       0.01157240 </v>
  </varray>
  <varray name="stress" >
   <v>      -0.16643984      -0.09340524       0.00000000 </v>
   <v>      -0.09340524      -0.26332555       0.00000000 </v>
   <v>       0.00000000       0.00000000      -0.33377314 </v>
  </varray>
  <energy>
   <i name="e_fr_energy">   -185.08673150 </i>
   <i name="e_wo_entrp">   -185.08379800 </i>
   <i name="e_0_energy">   -185.08526475 </i>
  </energy>
  <time name="totalsc">   33.40   33.64</time>
 </calculation>
 <calculation>
  <scstep>
   <time name="dav">    7.77    7.83</time>
   <time name="total">    8.06    8.12</time>
   <dipole>
    <v name="dipole">      0.00000000       0.00000000       0.00000437 </v>
    <i name="Tr[quadrupol]">   -546.64260044 </i>
    <i name="Echarged">      0.00000000 </i>
    <i name="Edipol_quadrupol">      0.00000000 </i>
    <i name="Eion">      0.00000000 </i>
   </dipole>
   <energy>
    <i name="alphaZ">     54.35544656 </i>
    <i name="ewald">  26612.62131191 </i>
    <i name="hartreedc"> -28321.13674926 </i>
    <i name="XCdc">    208.33292452 </i>
    <i name="pawpsdc">   7569.75545931 </i>
    <i name="pawaedc">  -7548.17700268 </i>
    <i name="eentropy">     -0.00289312 </i>
    <i name="bandstr">   -775.00882583 </i>
    <i name="atom">   2017.72479794 </i>
    <i name="e_fr_energy">   -181.53553064 </i>
    <i name="e_wo_entrp">   -181.53263752 </i>
    <i name="e_0_energy">   -181.53408408 </i>
   </energy>
  </scstep>
  <scstep>
   <time name="dav">    9.27    9.33</time>
   <time name="total">    9.56    9.62</time>
   <dipole>
    <v name="dipole">      0.00000000       0.00000000       0.00000355 </v>
    <i name="Tr[quadrupol]">   -546.64428850 </i>
    <i name="Echarged">      0.00000000 </i>
    <i name="Edipol_quadrupol">      0.00000000 </i>
    <i name="Eion">      0.00000000 </i>
   </dipole>
   <energy>
    <i name="e_fr_energy">   -181.53550312 </i>
    <i name="e_wo_entrp">   -181.53261000 </i>
    <i name="e_0_energy">   -181.53405656 </i>
   </energy>
  </scstep>
  <scstep>
   <time name="dav">    9.12    9.18</time>
   <time name="total">    9.41    9.47</time>
   <dipole>
    <v name="dipole">      0.00000000       0.00000000       0.00000324 </v>
    <i name="Tr[quadrupol]">   -546.64537781 </i>
    <i name="Echarged">      0.00000000 </i>
    <i name="Edipol_quadrupol">      0.00000000 </i>
    <i name="Eion">      0.00000000 </i>
   </dipole>
   <energy>
    <i name="e_fr_energy">   -181.53549178 </i>
    <i name="e_wo_entrp">   -181.53260005 </i>
    <i name="e_0_energy">   -181.53404592 </i>
   </energy>
  </scstep>
  <scstep>
   <time name="dav">    9.07    9.13</time>
   <time name="total">    9.36    9.42</time>
   <dipole>
    <v name="dipole">      0.00000000       0.00000000       0.00000287 </v>
    <i name="Tr[quadrupol]">   -546.64627415 </i>
    <i name="Echarged">      0.00000000 </i>
    <i name="Edipol_quadrupol">      0.00000000 </i>
    <i name="Eion">      0.00000000 </i>
   </dipole>
   <energy>
    <i name="e_fr_energy">   -181.53549107 </i>
    <i name="e_wo_entrp">   -181.53260043 </i>
    <i name="e_0_energy">   -181.53404575 </i>
   </energy>
  </scstep>
  <scstep>
   <time name="dav">    7.13    7.18</time>
   <time name="total">    7.18    7.23</time>
   <dipole>
    <v name="dipole">      0.00000000       0.00000000       0.00000261 </v>
    <i name="Tr[quadrupol]">   -546.64708603 </i>
    <i name="Echarged">      0.00000000 </i>
    <i name="Edipol_quadrupol">      0.00000000 </i>
    <i name="Eion">      0.00000000 </i>
   </dipole>
   <energy>
    <i name="alphaZ">     54.35544727 </i>
    <i name="ewald">  26612.62131191 </i>
    <i name="hartreedc"> -28321.23518179 </i>
    <i name="XCdc">    208.33341087 </i>
    <i name="pawpsdc">   7577.69551612 </i>
    <i name="pawaedc">  -7556.12007925 </i>
    <i name="eentropy">     -0.00289094 </i>
    <i name="bandstr">   -774.90782363 </i>
    <i name="atom">   2017.72479794 </i>
    <i name="e_fr_energy">   -181.53549150 </i>
    <i name="e_wo_entrp">   -181.53260057 </i>
    <i name="e_0_energy">   -181.53404604 </i>
   </energy>
  </scstep>
  <structure>
   <crystal>
    <varray name="basis" >
     <v>       5.60451951      -0.11197592       0.00000000 </v>
     <v>      -0.12554493       6.07265728       0.00000000 </v>
     <v>       0.00000000       0.00000000      30.08811665 </v>
    </varray>
    <i name="volume">   1023.60579710 </i>
    <varray name="rec_basis" >
     <v>       0.17850116       0.00369030       0.00000000 </v>
     <v>       0.00329145       0.16474060       0.00000000 </v>
     <v>       0.00000000       0.00000000       0.03323571 </v>
    </varray>
   </crystal>
   <varray name="positions" >
    <v>       0.52045440       0.64162473       0.14928439 </v>
    <v>       0.52045440       0.64162473       0.25247278 </v>
    <v>       0.47954560       0.35837527       0.14928439 </v>
    <v>       0.47954560       0.35837527       0.25247278 </v>
    <v>       0.98326444       0.64112563       0.13539191 </v>
    <v>       0.98326444       0.64112563       0.26636526 </v>
    <v>       0.01673556       0.35887437       0.13539191 </v>
    <v>       0.01673556       0.35887437       0.26636526 </v>
    <v>       0.59606565       0.89936584       0.13282321 </v>
    <v>       0.59606565       0.89936584       0.26893397 </v>
    <v>       0.40393435       0.10063416       0.13282321 </v>
    <v>       0.40393435       0.10063416       0.26893397 </v>
    <v>       0.89925343       0.89575968       0.12147545 </v>
    <v>       0.89925343       0.89575968       0.28028172 </v>
    <v>       0.10074657       0.10424032       0.12147545 </v>
    <v>       0.10074657       0.10424032       0.28028172 </v>
    <v>       0.78154254       0.76519632       0.17260647 </v>
    <v>       0.69826449       0.67726855       0.30029082 </v>
    <v>       0.30173551       0.32273145       0.10146636 </v>
    <v>       0.21845746       0.23480368       0.22915071 </v>
    <v>       0.69826449       0.67726855       0.10146636 </v>
    <v>       0.78154254       0.76519632       0.22915071 </v>
    <v>       0.21845746       0.23480368       0.17260647 </v>
    <v>       0.30173551       0.32273145       0.30029082 </v>
    <v>       0.25138914       0.52258279       0.14380474 </v>
    <v>       0.25138914       0.52258279       0.25795244 </v>
    <v>       0.74861086       0.47741718       0.14380474 </v>
    <v>       0.74861086       0.47741718       0.25795244 </v>
    <v>       0.50000000       0.50000000       0.07525451 </v>
    <v>       0.50000000       0.50000000       0.32650266 </v>
   </varray>
  </structure>
  <varray name="forces" >
   <v>       0.00161583      -0.01127787       0.00311054 </v>
   <v>       0.00161583      -0.01127787      -0.00311054 </v>
   <v>      -0.00161583       0.01127787       0.00311054 </v>
   <v>      -0.00161583       0.01127787      -0.00311054 </v>
   <v>      -0.01284297       0.00585193       0.01006432 </v>
   <v>      -0.01284297       0.00585193      -0.01006432 </v>
   <v>       0.01284297      -0.00585193       0.01006432 </v>
   <v>       0.01284297      -0.00585193      -0.01006432 </v>
   <v>      -0.00627566       0.01903134      -0.00169406 </v>
   <v>      -0.00627566       0.01903134       0.00169406 </v>
   <v>       0.00627566      -0.01903134      -0.00169406 </v>
   <v>       0.00627566      -0.01903134       0.00169406 </v>
   <v>       0.00025176      -0.00256951       0.00749344 </v>
   <v>       0.00025176      -0.00256951      -0.00749344 </v>
   <v>      -0.00025176       0.00256951       0.00749344 </v>
   <v>      -0.00025176       0.00256951      -0.00749344 </v>
   <v>      -0.00089058       0.01152343       0.00059121 </v>
   <v>       0.00360229      -0.00152549       0.00374011 </v>
   <v>      -0.00360229       0.00152549      -0.00374011 </v>
   <v>       0.00089058      -0.01152343      -0.00059121 </v>
   <v>       0.00360229      -0.00152549      -0.00374011 </v>
   <v>      -0.00089058       0.01152343      -0.00059121 </v>
   <v>       0.00089058      -0.01152343       0.00059121 </v>
   <v>      -0.00360229       0.00152549       0.00374011 </v>
   <v>      -0.01956635       0.01557764      -0.00075648 </v>
   <v>      -0.01956635       0.01557764       0.00075648 </v>
   <v>       0.01956635      -0.01557764      -0.00075648 </v>
   <v>       0.01956635      -0.01557764       0.00075648 </v>
   <v>       0.00000000      -0.00000000      -0.00337570 </v>
   <v>       0.00000000      -0.00000000       0.00337570 </v>
  </varray>
  <varray name="stress" >
   <v>       0.04524171      -0.02730447       0.00000000 </v>
   <v>      -0.02730447       0.18094206       0.00000000 </v>
   <v>       0.00000000       0.00000000      -0.39090900 </v>
  </varray>
  <energy>
   <i name="e_fr_energy">   -185.08700582 </i>
   <i name="e_wo_entrp">   -185.08411488 </i>
   <i name="e_0_energy">   -185.08556035 </i>
  </energy>
  <time name="totalsc">   50.47   50.83</time>
 </calculation>
 <calculation>
  <scstep>
   <time name="dav">    8.19    8.25</time>
   <time name="total">    8.48    8.55</time>
   <dipole>
    <v name="dipole">      0.00000000       0.00000000       0.00000249 </v>
    <i name="Tr[quadrupol]">   -546.66685493 </i>
    <i name="Echarged">      0.00000000 </i>
    <i name="Edipol_quadrupol">      0.00000000 </i>
    <i name="Eion">      0.00000000 </i>
   </dipole>
   <energy>
    <i name="alphaZ">     54.35306222 </i>
    <i name="ewald">  26611.47650170 </i>
    <i name="hartreedc"> -28320.11115894 </i>
    <i name="XCdc">    208.32999142 </i>
    <i name="pawpsdc">   7577.68533738 </i>
    <i name="pawaedc">  -7556.10991540 </i>
    <i name="eentropy">     -0.00289577 </i>
    <i name="bandstr">   -774.88136098 </i>
    <i name="atom">   2017.72479794 </i>
    <i name="e_fr_energy">   -181.53564042 </i>
    <i name="e_wo_entrp">   -181.53274466 </i>
    <i name="e_0_energy">   -181.53419254 </i>
   </energy>
  </scstep>
  <scstep>
   <time name="dav">    9.24    9.30</time>
   <time name="total">    9.29    9.35</time>
   <dipole>
    <v name="dipole">      0.00000000       0.00000000       0.00000250 </v>
    <i name="Tr[quadrupol]">   -546.66697194 </i>
    <i name="Echarged">      0.00000000 </i>
    <i name="Edipol_quadrupol">      0.00000000 </i>
    <i name="Eion">      0.00000000 </i>
   </dipole>
   <energy>
    <i name="alphaZ">     54.35306221 </i>
    <i name="ewald">  26611.47650170 </i>
    <i name="hartreedc"> -28320.10981519 </i>
    <i name="XCdc">    208.32994357 </i>
    <i name="pawpsdc">   7577.29016292 </i>
    <i name="pawaedc">  -7555.71459031 </i>
    <i name="eentropy">     -0.00289567 </i>
    <i name="bandstr">   -774.88280678 </i>
    <i name="atom">   2017.72479794 </i>
    <i name="e_fr_energy">   -181.53563960 </i>
    <i name="e_wo_entrp">   -181.53274393 </i>
    <i name="e_0_energy">   -181.53419177 </i>
   </energy>
  </scstep>
  <structure>
   <crystal>
    <varray name="basis" >
     <v>       5.60452150      -0.11194562       0.00000000 </v>
     <v>      -0.12550689       6.07292005       0.00000000 </v>
     <v>       0.00000000       0.00000000      30.08811665 </v>
    </varray>
    <i name="volume">   1023.65071465 </i>
    <varray name="rec_basis" >
     <v>       0.17850105       0.00368902       0.00000000 </v>
     <v>       0.00329041       0.16473343       0.00000000 </v>
     <v>       0.00000000       0.00000000       0.03323571 </v>
    </varray>
   </crystal>
   <varray name="positions" >
    <v>       0.52044865       0.64162259       0.14928261 </v>
    <v>       0.52044865       0.64162259       0.25247457 </v>
    <v>       0.47955135       0.35837741       0.14928261 </v>
    <v>       0.47955135       0.35837741       0.25247457 </v>
    <v>       0.98327058       0.64114227       0.13538726 </v>
    <v>       0.98327058       0.64114227       0.26636991 </v>
    <v>       0.01672942       0.35885773       0.13538726 </v>
    <v>       0.01672942       0.35885773       0.26636991 </v>
    <v>       0.59606911       0.89938916       0.13282971 </v>
    <v>       0.59606911       0.89938916       0.26892746 </v>
    <v>       0.40393089       0.10061083       0.13282971 </v>
    <v>       0.40393089       0.10061083       0.26892746 </v>
    <v>       0.89925462       0.89576428       0.12147668 </v>
    <v>       0.89925462       0.89576428       0.28028049 </v>
    <v>       0.10074538       0.10423571       0.12147668 </v>
    <v>       0.10074538       0.10423571       0.28028049 </v>
    <v>       0.78156475       0.76516944       0.17260696 </v>
    <v>       0.69826451       0.67726244       0.30029030 </v>
    <v>       0.30173549       0.32273756       0.10146688 </v>
    <v>       0.21843525       0.23483056       0.22915021 </v>
    <v>       0.69826451       0.67726244       0.10146688 </v>
    <v>       0.78156475       0.76516944       0.22915021 </v>
    <v>       0.21843525       0.23483056       0.17260696 </v>
    <v>       0.30173549       0.32273756       0.30029030 </v>
    <v>       0.25136458       0.52258432       0.14380329 </v>
    <v>       0.25136458       0.52258432       0.25795388 </v>
    <v>       0.74863542       0.47741565       0.14380329 </v>
    <v>       0.74863542       0.47741565       0.25795388 </v>
    <v>       0.50000000       0.50000000       0.07526064 </v>
    <v>       0.50000000       0.50000000       0.32649653 </v>
   </varray>
  </structure>
  <varray name="forces" >
   <v>       0.00234128      -0.01139833       0.00354496 </v>
   <v>       0.00234128      -0.01139833      -0.00354496 </v>
   <v>      -0.00234128       0.01139833       0.00354496 </v>
   <v>      -0.00234128       0.01139833      -0.00354496 </v>
   <v>      -0.01323392       0.00301734       0.01036291 </v>
   <v>      -0.01323392       0.00301734      -0.01036291 </v>
   <v>       0.01323392      -0.00301734       0.01036291 </v>
   <v>       0.01323392      -0.00301734      -0.01036291 </v>
   <v>      -0.00344262       0.01289531      -0.00209812 </v>
   <v>      -0.00344262       0.01289531       0.00209812 </v>
   <v>       0.00344262      -0.01289531      -0.00209812 </v>
   <v>       0.00344262      -0.01289531       0.00209812 </v>
   <v>      -0.00069190      -0.00250007       0.00722191 </v>
   <v>      -0.00069190      -0.00250007      -0.00722191 </v>
   <v>       0.00069190       0.00250007       0.00722191 </v>
   <v>       0.00069190       0.00250007      -0.00722191 </v>
   <v>      -0.00205616       0.01226510       0.00028147 </v>
   <v>       0.00352077       0.00052061       0.00342460 </v>
   <v>      -0.00352077      -0.00052061      -0.00342460 </v>
   <v>       0.00205616      -0.01226510      -0.00028147 </v>
   <v>       0.00352077       0.00052061      -0.00342460 </v>
   <v>      -0.00205616       0.01226510      -0.00028147 </v>
   <v>       0.00205616      -0.01226510       0.00028147 </v>
   <v>      -0.00352077      -0.00052061       0.00342460 </v>
   <v>      -0.01467175       0.01431449      -0.00055339 </v>
   <v>      -0.01467175       0.01431449       0.00055339 </v>
   <v>       0.01467175      -0.01431449      -0.00055339 </v>
   <v>       0.01467175      -0.01431449       0.00055339 </v>
   <v>       0.00000000      -0.00000000      -0.00449325 </v>
   <v>       0.00000000      -0.00000000       0.00449325 </v>
  </varray>
  <varray name="stress" >
   <v>       0.01921626      -0.03125297       0.00000000 </v>
   <v>      -0.03125297       0.13151465       0.00000000 </v>
   <v>       0.00000000       0.00000000      -0.39042742 </v>
  </varray>
  <energy>
   <i name="e_fr_energy">   -185.08701192 </i>
   <i name="e_wo_entrp">   -185.08411625 </i>
   <i name="e_0_energy">   -185.08556409 </i>
  </energy>
  <time name="totalsc">   24.69   24.86</time>
 </calculation>
 <calculation>
  <scstep>
   <time name="dav">    7.78    7.83</time>
   <time name="total">    8.06    8.12</time>
   <dipole>
    <v name="dipole">      0.00000000       0.00000000       0.00000241 </v>
    <i name="Tr[quadrupol]">   -546.62914991 </i>
    <i name="Echarged">      0.00000000 </i>
    <i name="Edipol_quadrupol">      0.00000000 </i>
    <i name="Eion">      0.00000000 </i>
   </dipole>
   <energy>
    <i name="alphaZ">     54.35272081 </i>
    <i name="ewald">  26611.37280636 </i>
    <i name="hartreedc"> -28320.02986326 </i>
    <i name="XCdc">    208.32650964 </i>
    <i name="pawpsdc">   7576.90648536 </i>
    <i name="pawaedc">  -7555.33077981 </i>
    <i name="eentropy">     -0.00289568 </i>
    <i name="bandstr">   -774.85552764 </i>
    <i name="atom">   2017.72479794 </i>
    <i name="e_fr_energy">   -181.53574627 </i>
    <i name="e_wo_entrp">   -181.53285059 </i>
    <i name="e_0_energy">   -181.53429843 </i>
   </energy>
  </scstep>
  <scstep>
   <time name="dav">    9.53    9.59</time>
   <time name="total">    9.81    9.88</time>
   <dipole>
    <v name="dipole">      0.00000000       0.00000000       0.00000236 </v>
    <i name="Tr[quadrupol]">   -546.62918015 </i>
    <i name="Echarged">      0.00000000 </i>
    <i name="Edipol_quadrupol">      0.00000000 </i>
    <i name="Eion">      0.00000000 </i>
   </dipole>
   <energy>
    <i name="e_fr_energy">   -181.53574741 </i>
    <i name="e_wo_entrp">   -181.53285268 </i>
    <i name="e_0_energy">   -181.53430005 </i>
   </energy>
  </scstep>
  <scstep>
   <time name="dav">    9.23    9.30</time>
   <time name="total">    9.52    9.60</time>
   <dipole>
    <v name="dipole">      0.00000000       0.00000000       0.00000238 </v>
    <i name="Tr[quadrupol]">   -546.62923543 </i>
    <i name="Echarged">      0.00000000 </i>
    <i name="Edipol_quadrupol">      0.00000000 </i>
    <i name="Eion">      0.00000000 </i>
   </dipole>
   <energy>
    <i name="e_fr_energy">   -181.53574405 </i>
    <i name="e_wo_entrp">   -181.53285014 </i>
    <i name="e_0_energy">   -181.53429710 </i>
   </energy>
  </scstep>
  <scstep>
   <time name="dav">    7.62    7.67</time>
   <time name="total">    7.67    7.72</time>
   <dipole>
    <v name="dipole">      0.00000000       0.00000000       0.00000245 </v>
    <i name="Tr[quadrupol]">   -546.62920703 </i>
    <i name="Echarged">      0.00000000 </i>
    <i name="Edipol_quadrupol">      0.00000000 </i>
    <i name="Eion">      0.00000000 </i>
   </dipole>
   <energy>
    <i name="alphaZ">     54.35272080 </i>
    <i name="ewald">  26611.37280636 </i>
    <i name="hartreedc"> -28320.02077324 </i>
    <i name="XCdc">    208.32700085 </i>
    <i name="pawpsdc">   7576.45643748 </i>
    <i name="pawaedc">  -7554.88058230 </i>
    <i name="eentropy">     -0.00289429 </i>
    <i name="bandstr">   -774.86525771 </i>
    <i name="atom">   2017.72479794 </i>
    <i name="e_fr_energy">   -181.53574410 </i>
    <i name="e_wo_entrp">   -181.53284981 </i>
    <i name="e_0_energy">   -181.53429696 </i>
   </energy>
  </scstep>
  <structure>
   <crystal>
    <varray name="basis" >
     <v>       5.60460861      -0.11218589       0.00000000 </v>
     <v>      -0.12577010       6.07287444       0.00000000 </v>
     <v>       0.00000000       0.00000000      30.08811665 </v>
    </varray>
    <i name="volume">   1023.65714500 </i>
    <varray name="rec_basis" >
     <v>       0.17849859       0.00369673       0.00000000 </v>
     <v>       0.00329745       0.16473496       0.00000000 </v>
     <v>       0.00000000       0.00000000       0.03323571 </v>
    </varray>
   </crystal>
   <varray name="positions" >
    <v>       0.52047895       0.64155534       0.14929205 </v>
    <v>       0.52047895       0.64155534       0.25246513 </v>
    <v>       0.47952105       0.35844466       0.14929205 </v>
    <v>       0.47952105       0.35844466       0.25246513 </v>
    <v>       0.98316205       0.64111480       0.13541336 </v>
    <v>       0.98316205       0.64111480       0.26634381 </v>
    <v>       0.01683795       0.35888520       0.13541336 </v>
    <v>       0.01683795       0.35888520       0.26634381 </v>
    <v>       0.59603757       0.89940837       0.13280932 </v>
    <v>       0.59603757       0.89940837       0.26894785 </v>
    <v>       0.40396243       0.10059163       0.13280932 </v>
    <v>       0.40396243       0.10059163       0.26894785 </v>
    <v>       0.89924619       0.89573559       0.12148271 </v>
    <v>       0.89924619       0.89573559       0.28027446 </v>
    <v>       0.10075381       0.10426440       0.12148271 </v>
    <v>       0.10075381       0.10426440       0.28027446 </v>
    <v>       0.78149188       0.76532110       0.17260598 </v>
    <v>       0.69828907       0.67728283       0.30029616 </v>
    <v>       0.30171093       0.32271717       0.10146101 </v>
    <v>       0.21850812       0.23467890       0.22915119 </v>
    <v>       0.69828907       0.67728283       0.10146101 </v>
    <v>       0.78149188       0.76532110       0.22915119 </v>
    <v>       0.21850812       0.23467890       0.17260598 </v>
    <v>       0.30171093       0.32271717       0.30029616 </v>
    <v>       0.25133102       0.52267041       0.14380650 </v>
    <v>       0.25133102       0.52267041       0.25795067 </v>
    <v>       0.74866898       0.47732956       0.14380650 </v>
    <v>       0.74866898       0.47732956       0.25795067 </v>
    <v>       0.50000000       0.50000000       0.07523816 </v>
    <v>       0.50000000       0.50000000       0.32651901 </v>
   </varray>
  </structure>
  <varray name="forces" >
   <v>       0.00471581       0.00275931      -0.00247797 </v>
   <v>       0.00471581       0.00275931       0.00247797 </v>
   <v>      -0.00471581      -0.00275931      -0.00247797 </v>
   <v>      -0.00471581      -0.00275931       0.00247797 </v>
   <v>      -0.00191761       0.00896854       0.00627563 </v>
   <v>      -0.00191761       0.00896854      -0.00627563 </v>
   <v>       0.00191761      -0.00896854       0.00627563 </v>
   <v>       0.00191761      -0.00896854      -0.00627563 </v>
   <v>       0.00022418      -0.00048356       0.00106348 </v>
   <v>       0.00022418      -0.00048356      -0.00106348 </v>
   <v>      -0.00022418       0.00048356       0.00106348 </v>
   <v>      -0.00022418       0.00048356      -0.00106348 </v>
   <v>       0.00476505       0.00515033       0.00541870 </v>
   <v>       0.00476505       0.00515033      -0.00541870 </v>
   <v>      -0.00476505      -0.00515033       0.00541870 </v>
   <v>      -0.00476505      -0.00515033      -0.00541870 </v>
   <v>      -0.00164321       0.00813284       0.00191868 </v>
   <v>       0.00170669      -0.00478630      -0.00278498 </v>
   <v>      -0.00170669       0.00478630       0.00278498 </v>
   <v>       0.00164321      -0.00813284      -0.00191868 </v>
   <v>       0.00170669      -0.00478630       0.00278498 </v>
   <v>      -0.00164321       0.00813284      -0.00191868 </v>
   <v>       0.00164321      -0.00813284       0.00191868 </v>
   <v>      -0.00170669       0.00478630      -0.00278498 </v>
   <v>      -0.00175830       0.01104288      -0.00146053 </v>
   <v>      -0.00175830       0.01104288       0.00146053 </v>
   <v>       0.00175830      -0.01104288      -0.00146053 </v>
   <v>       0.00175830      -0.01104288       0.00146053 </v>
   <v>      -0.00000000       0.00000000      -0.00065176 </v>
   <v>      -0.00000000       0.00000000       0.00065176 </v>
  </varray>
  <varray name="stress" >
   <v>       0.09304995       0.05470769       0.00000000 </v>
   <v>       0.05470768       0.06651655       0.00000000 </v>
   <v>       0.00000000       0.00000000      -0.44883968 </v>
  </varray>
  <energy>
   <i name="e_fr_energy">   -185.08714812 </i>
   <i name="e_wo_entrp">   -185.08425382 </i>
   <i name="e_0_energy">   -185.08570097 </i>
  </energy>
  <time name="totalsc">   41.97   42.26</time>
 </calculation>
 <calculation>
  <scstep>
   <time name="dav">    7.85    7.90</time>
   <time name="total">    8.14    8.19</time>
   <dipole>
    <v name="dipole">      0.00000000       0.00000000       0.00000241 </v>
    <i name="Tr[quadrupol]">   -546.61291300 </i>
    <i name="Echarged">      0.00000000 </i>
    <i name="Edipol_quadrupol">      0.00000000 </i>
    <i name="Eion">      0.00000000 </i>
   </dipole>
   <energy>
    <i name="alphaZ">     54.35257428 </i>
    <i name="ewald">  26611.32805279 </i>
    <i name="hartreedc"> -28319.98588771 </i>
    <i name="XCdc">    208.32554747 </i>
    <i name="pawpsdc">   7576.43472302 </i>
    <i name="pawaedc">  -7554.85885618 </i>
    <i name="eentropy">     -0.00289433 </i>
    <i name="bandstr">   -774.85380205 </i>
    <i name="atom">   2017.72479794 </i>
    <i name="e_fr_energy">   -181.53574477 </i>
    <i name="e_wo_entrp">   -181.53285044 </i>
    <i name="e_0_energy">   -181.53429761 </i>
   </energy>
  </scstep>
  <scstep>
   <time name="dav">    9.50    9.56</time>
   <time name="total">    9.79    9.85</time>
   <dipole>
    <v name="dipole">      0.00000000       0.00000000       0.00000236 </v>
    <i name="Tr[quadrupol]">   -546.61291614 </i>
    <i name="Echarged">      0.00000000 </i>
    <i name="Edipol_quadrupol">      0.00000000 </i>
    <i name="Eion">      0.00000000 </i>
   </dipole>
   <energy>
    <i name="e_fr_energy">   -181.53574503 </i>
    <i name="e_wo_entrp">   -181.53285115 </i>
    <i name="e_0_energy">   -181.53429809 </i>
   </energy>
  </scstep>
  <scstep>
   <time name="dav">    7.66    7.71</time>
   <time name="total">    7.72    7.77</time>
   <dipole>
    <v name="dipole">      0.00000000       0.00000000       0.00000232 </v>
    <i name="Tr[quadrupol]">   -546.61291638 </i>
    <i name="Echarged">      0.00000000 </i>
    <i name="Edipol_quadrupol">      0.00000000 </i>
    <i name="Eion">      0.00000000 </i>
   </dipole>
   <energy>
    <i name="alphaZ">     54.35257432 </i>
    <i name="ewald">  26611.32805279 </i>
    <i name="hartreedc"> -28319.97992282 </i>
    <i name="XCdc">    208.32568018 </i>
    <i name="pawpsdc">   7576.32756606 </i>
    <i name="pawaedc">  -7554.75166452 </i>
    <i name="eentropy">     -0.00289354 </i>
    <i name="bandstr">   -774.85993491 </i>
    <i name="atom">   2017.72479794 </i>
    <i name="e_fr_energy">   -181.53574450 </i>
    <i name="e_wo_entrp">   -181.53285095 </i>
    <i name="e_0_energy">   -181.53429773 </i>
   </energy>
  </scstep>
  <structure>
   <crystal>
    <varray name="basis" >
     <v>       5.60464601      -0.11228905       0.00000000 </v>
     <v>      -0.12588311       6.07285486       0.00000000 </v>
     <v>       0.00000000       0.00000000      30.08811665 </v>
    </varray>
    <i name="volume">   1023.65990475 </i>
    <varray name="rec_basis" >
     <v>       0.17849753       0.00370004       0.00000000 </v>
     <v>       0.00330048       0.16473561       0.00000000 </v>
     <v>       0.00000000       0.00000000       0.03323571 </v>
    </varray>
   </crystal>
   <varray name="positions" >
    <v>       0.52049196       0.64152646       0.14929610 </v>
    <v>       0.52049196       0.64152646       0.25246107 </v>
    <v>       0.47950804       0.35847354       0.14929610 </v>
    <v>       0.47950804       0.35847354       0.25246107 </v>
    <v>       0.98311545       0.64110301       0.13542457 </v>
    <v>       0.98311545       0.64110301       0.26633261 </v>
    <v>       0.01688455       0.35889699       0.13542457 </v>
    <v>       0.01688455       0.35889699       0.26633261 </v>
    <v>       0.59602403       0.89941661       0.13280057 </v>
    <v>       0.59602403       0.89941661       0.26895661 </v>
    <v>       0.40397597       0.10058338       0.13280057 </v>
    <v>       0.40397597       0.10058338       0.26895661 </v>
    <v>       0.89924258       0.89572327       0.12148530 </v>
    <v>       0.89924258       0.89572327       0.28027188 </v>
    <v>       0.10075742       0.10427672       0.12148530 </v>
    <v>       0.10075742       0.10427672       0.28027188 </v>
    <v>       0.78146060       0.76538622       0.17260556 </v>
    <v>       0.69829961       0.67729159       0.30029868 </v>
    <v>       0.30170039       0.32270841       0.10145849 </v>
    <v>       0.21853940       0.23461378       0.22915162 </v>
    <v>       0.69829961       0.67729159       0.10145849 </v>
    <v>       0.78146060       0.76538622       0.22915162 </v>
    <v>       0.21853940       0.23461378       0.17260556 </v>
    <v>       0.30170039       0.32270841       0.30029868 </v>
    <v>       0.25131662       0.52270738       0.14380788 </v>
    <v>       0.25131662       0.52270738       0.25794929 </v>
    <v>       0.74868338       0.47729259       0.14380788 </v>
    <v>       0.74868338       0.47729259       0.25794929 </v>
    <v>       0.50000000       0.50000000       0.07522850 </v>
    <v>       0.50000000       0.50000000       0.32652867 </v>
   </varray>
  </structure>
  <varray name="forces" >
   <v>       0.00546169       0.00873389      -0.00492536 </v>
   <v>       0.00546169       0.00873389       0.00492536 </v>
   <v>      -0.00546169      -0.00873389      -0.00492536 </v>
   <v>      -0.00546169      -0.00873389       0.00492536 </v>
   <v>       0.00300077       0.01160732       0.00457211 </v>
   <v>       0.00300077       0.01160732      -0.00457211 </v>
   <v>      -0.00300077      -0.01160732       0.00457211 </v>
   <v>      -0.00300077      -0.01160732      -0.00457211 </v>
   <v>       0.00181457      -0.00596368       0.00242536 </v>
   <v>       0.00181457      -0.00596368      -0.00242536 </v>
   <v>      -0.00181457       0.00596368       0.00242536 </v>
   <v>      -0.00181457       0.00596368      -0.00242536 </v>
   <v>       0.00716143       0.00844557       0.00470525 </v>
   <v>       0.00716143       0.00844557      -0.00470525 </v>
   <v>      -0.00716143      -0.00844557       0.00470525 </v>
   <v>      -0.00716143      -0.00844557      -0.00470525 </v>
   <v>      -0.00137874       0.00639535       0.00263330 </v>
   <v>       0.00098239      -0.00713987      -0.00527864 </v>
   <v>      -0.00098239       0.00713987       0.00527864 </v>
   <v>       0.00137874      -0.00639535      -0.00263330 </v>
   <v>       0.00098239      -0.00713987       0.00527864 </v>
   <v>      -0.00137874       0.00639535      -0.00263330 </v>
   <v>       0.00137874      -0.00639535       0.00263330 </v>
   <v>      -0.00098239       0.00713987      -0.00527864 </v>
   <v>       0.00381494       0.00989737      -0.00184839 </v>
   <v>       0.00381494       0.00989737       0.00184839 </v>
   <v>      -0.00381494      -0.00989737      -0.00184839 </v>
   <v>      -0.00381494      -0.00989737       0.00184839 </v>
   <v>       0.00000000       0.00000000       0.00100879 </v>
   <v>       0.00000000       0.00000000      -0.00100879 </v>
  </varray>
  <varray name="stress" >
   <v>       0.12425345       0.09270883       0.00000000 </v>
   <v>       0.09270883       0.04325575       0.00000000 </v>
   <v>       0.00000000       0.00000000      -0.47795990 </v>
  </varray>
  <energy>
   <i name="e_fr_energy">   -185.08716210 </i>
   <i name="e_wo_entrp">   -185.08426855 </i>
   <i name="e_0_energy">   -185.08571532 </i>
  </energy>
  <time name="totalsc">   32.53   32.78</time>
 </calculation>
 <calculation>
  <scstep>
   <time name="dav">    7.76    7.81</time>
   <time name="total">    8.05    8.10</time>
   <dipole>
    <v name="dipole">      0.00000000       0.00000000       0.00000230 </v>
    <i name="Tr[quadrupol]">   -546.57308842 </i>
    <i name="Echarged">      0.00000000 </i>
    <i name="Edipol_quadrupol">      0.00000000 </i>
    <i name="Eion">      0.00000000 </i>
   </dipole>
   <energy>
    <i name="alphaZ">     54.34412173 </i>
    <i name="ewald">  26607.55966885 </i>
    <i name="hartreedc"> -28316.27881865 </i>
    <i name="XCdc">    208.31148298 </i>
    <i name="pawpsdc">   7576.31634515 </i>
    <i name="pawaedc">  -7554.74043634 </i>
    <i name="eentropy">     -0.00291360 </i>
    <i name="bandstr">   -774.77051742 </i>
    <i name="atom">   2017.72479794 </i>
    <i name="e_fr_energy">   -181.53626936 </i>
    <i name="e_wo_entrp">   -181.53335576 </i>
    <i name="e_0_energy">   -181.53481256 </i>
   </energy>
  </scstep>
  <scstep>
   <time name="dav">    9.36    9.42</time>
   <time name="total">    9.65    9.71</time>
   <dipole>
    <v name="dipole">      0.00000000       0.00000000       0.00000222 </v>
    <i name="Tr[quadrupol]">   -546.57288689 </i>
    <i name="Echarged">      0.00000000 </i>
    <i name="Edipol_quadrupol">      0.00000000 </i>
    <i name="Eion">      0.00000000 </i>
   </dipole>
   <energy>
    <i name="e_fr_energy">   -181.53626634 </i>
    <i name="e_wo_entrp">   -181.53335544 </i>
    <i name="e_0_energy">   -181.53481089 </i>
   </energy>
  </scstep>
  <scstep>
   <time name="dav">    8.85    8.91</time>
   <time name="total">    9.14    9.20</time>
   <dipole>
    <v name="dipole">      0.00000000       0.00000000       0.00000222 </v>
    <i name="Tr[quadrupol]">   -546.57231071 </i>
    <i name="Echarged">      0.00000000 </i>
    <i name="Edipol_quadrupol">      0.00000000 </i>
    <i name="Eion">      0.00000000 </i>
   </dipole>
   <energy>
    <i name="e_fr_energy">   -181.53626211 </i>
    <i name="e_wo_entrp">   -181.53335200 </i>
    <i name="e_0_energy">   -181.53480705 </i>
   </energy>
  </scstep>
  <scstep>
   <time name="dav">    8.01    8.06</time>
   <time name="total">    8.06    8.11</time>
   <dipole>
    <v name="dipole">      0.00000000       0.00000000       0.00000246 </v>
    <i name="Tr[quadrupol]">   -546.57160930 </i>
    <i name="Echarged">      0.00000000 </i>
    <i name="Edipol_quadrupol">      0.00000000 </i>
    <i name="Eion">      0.00000000 </i>
   </dipole>
   <energy>
    <i name="alphaZ">     54.34412167 </i>
    <i name="ewald">  26607.55966885 </i>
    <i name="hartreedc"> -28316.22739018 </i>
    <i name="XCdc">    208.31150780 </i>
    <i name="pawpsdc">   7573.08886684 </i>
    <i name="pawaedc">  -7551.51177663 </i>
    <i name="eentropy">     -0.00291018 </i>
    <i name="bandstr">   -774.82314771 </i>
    <i name="atom">   2017.72479794 </i>
    <i name="e_fr_energy">   -181.53626160 </i>
    <i name="e_wo_entrp">   -181.53335142 </i>
    <i name="e_0_energy">   -181.53480651 </i>
   </energy>
  </scstep>
  <structure>
   <crystal>
    <varray name="basis" >
     <v>       5.60532392      -0.11198423       0.00000000 </v>
     <v>      -0.12556412       6.07305125       0.00000000 </v>
     <v>       0.00000000       0.00000000      30.08811665 </v>
    </varray>
    <i name="volume">   1023.81912305 </i>
    <varray name="rec_basis" >
     <v>       0.17847554       0.00369009       0.00000000 </v>
     <v>       0.00329101       0.16472992       0.00000000 </v>
     <v>       0.00000000       0.00000000       0.03323571 </v>
    </varray>
   </crystal>
   <varray name="positions" >
    <v>       0.52055489       0.64154341       0.14929545 </v>
    <v>       0.52055489       0.64154341       0.25246172 </v>
    <v>       0.47944511       0.35845659       0.14929545 </v>
    <v>       0.47944511       0.35845659       0.25246172 </v>
    <v>       0.98306761       0.64116623       0.13544842 </v>
    <v>       0.98306761       0.64116623       0.26630875 </v>
    <v>       0.01693239       0.35883377       0.13544842 </v>
    <v>       0.01693239       0.35883377       0.26630875 </v>
    <v>       0.59601580       0.89938800       0.13279039 </v>
    <v>       0.59601580       0.89938800       0.26896678 </v>
    <v>       0.40398420       0.10061200       0.13279039 </v>
    <v>       0.40398420       0.10061200       0.26896678 </v>
    <v>       0.89929251       0.89576416       0.12149595 </v>
    <v>       0.89929251       0.89576416       0.28026122 </v>
    <v>       0.10070749       0.10423584       0.12149595 </v>
    <v>       0.10070749       0.10423584       0.28026122 </v>
    <v>       0.78140257       0.76553188       0.17260861 </v>
    <v>       0.69832231       0.67725543       0.30029515 </v>
    <v>       0.30167769       0.32274457       0.10146202 </v>
    <v>       0.21859743       0.23446812       0.22914856 </v>
    <v>       0.69832231       0.67725543       0.10146202 </v>
    <v>       0.78140257       0.76553188       0.22914856 </v>
    <v>       0.21859743       0.23446812       0.17260861 </v>
    <v>       0.30167769       0.32274457       0.30029515 </v>
    <v>       0.25132469       0.52283450       0.14380742 </v>
    <v>       0.25132469       0.52283450       0.25794976 </v>
    <v>       0.74867531       0.47716547       0.14380742 </v>
    <v>       0.74867531       0.47716547       0.25794976 </v>
    <v>       0.50000000       0.50000000       0.07521493 </v>
    <v>       0.50000000       0.50000000       0.32654224 </v>
   </varray>
  </structure>
  <varray name="forces" >
   <v>      -0.00013757      -0.00031316      -0.00283058 </v>
   <v>      -0.00013757      -0.00031316       0.00283058 </v>
   <v>       0.00013757       0.00031316      -0.00283058 </v>
   <v>       0.00013757       0.00031316       0.00283058 </v>
   <v>       0.00519113      -0.00463486       0.00475099 </v>
   <v>       0.00519113      -0.00463486      -0.00475099 </v>
   <v>      -0.00519113       0.00463486       0.00475099 </v>
   <v>      -0.00519113       0.00463486      -0.00475099 </v>
   <v>       0.00130628       0.00170341      -0.00000375 </v>
   <v>       0.00130628       0.00170341       0.00000375 </v>
   <v>      -0.00130628      -0.00170341      -0.00000375 </v>
   <v>      -0.00130628      -0.00170341       0.00000375 </v>
   <v>      -0.00687558      -0.00135523       0.00488489 </v>
   <v>      -0.00687558      -0.00135523      -0.00488489 </v>
   <v>       0.00687558       0.00135523       0.00488489 </v>
   <v>       0.00687558       0.00135523      -0.00488489 </v>
   <v>      -0.00075850       0.00182025       0.00147177 </v>
   <v>       0.00352179      -0.00628240      -0.00547728 </v>
   <v>      -0.00352179       0.00628240       0.00547728 </v>
   <v>       0.00075850      -0.00182025      -0.00147177 </v>
   <v>       0.00352179      -0.00628240       0.00547728 </v>
   <v>      -0.00075850       0.00182025      -0.00147177 </v>
   <v>       0.00075850      -0.00182025       0.00147177 </v>
   <v>      -0.00352179       0.00628240      -0.00547728 </v>
   <v>       0.00021466      -0.00085976      -0.00458921 </v>
   <v>       0.00021466      -0.00085976       0.00458921 </v>
   <v>      -0.00021466       0.00085976      -0.00458921 </v>
   <v>      -0.00021466       0.00085976       0.00458921 </v>
   <v>       0.00000000      -0.00000000       0.00296127 </v>
   <v>       0.00000000      -0.00000000      -0.00296127 </v>
  </varray>
  <varray name="stress" >
   <v>      -0.00768928       0.00375023       0.00000000 </v>
   <v>       0.00375023      -0.11999080       0.00000000 </v>
   <v>       0.00000000       0.00000000      -0.46658564 </v>
  </varray>
  <energy>
   <i name="e_fr_energy">   -185.08723761 </i>
   <i name="e_wo_entrp">   -185.08432743 </i>
   <i name="e_0_energy">   -185.08578252 </i>
  </energy>
  <time name="totalsc">   41.29   41.57</time>
  <eigenvalues>
   <array>
    <dimension dim="1">band</dimension>
    <dimension dim="2">kpoint</dimension>
    <dimension dim="3">spin</dimension>
    <field>eigene</field>
    <field>occ</field>
    <set>
     <set comment="spin 1">
      <set comment="kpoint 1">
       <r>  -18.5948    1.0000 </r>
       <r>  -18.3850    1.0000 </r>
       <r>  -17.3352    1.0000 </r>
       <r>  -17.1664    1.0000 </r>
       <r>  -14.3773    1.0000 </r>
       <r>  -14.1797    1.0000 </r>
       <r>  -13.9067    1.0000 </r>
       <r>  -13.7372    1.0000 </r>
       <r>  -11.9222    1.0000 </r>
       <r>  -11.6414    1.0000 </r>
       <r>  -11.4178    1.0000 </r>
       <r>  -10.8503    1.0000 </r>
       <r>  -10.5009    1.0000 </r>
       <r>  -10.3952    1.0000 </r>
       <r>  -10.2640    1.0000 </r>
       <r>  -10.1745    1.0000 </r>
       <r>  -10.0323    1.0000 </r>
       <r>   -9.8354    1.0000 </r>
       <r>   -9.6722    1.0000 </r>
       <r>   -8.8490    1.0000 </r>
       <r>   -8.8306    1.0000 </r>
       <r>   -8.1966    1.0000 </r>
       <r>   -7.9756    1.0000 </r>
       <r>   -7.1085    1.0000 </r>
       <r>   -7.0136    1.0000 </r>
       <r>   -6.8626    1.0000 </r>
       <r>   -6.5619    1.0000 </r>
       <r>   -6.3462    1.0000 </r>
       <r>   -6.1463    1.0000 </r>
       <r>   -5.7666    1.0000 </r>
       <r>   -5.5684    1.0000 </r>
       <r>   -5.4844    1.0000 </r>
       <r>   -5.4578    1.0000 </r>
       <r>   -5.2792    1.0000 </r>
       <r>   -5.2788    1.0000 </r>
       <r>   -4.9534    1.0000 </r>
       <r>   -4.6908    1.0000 </r>
       <r>   -4.6720    1.0000 </r>
       <r>   -4.3540    1.0000 </r>
       <r>   -4.2319    1.0000 </r>
       <r>   -4.1233    1.0000 </r>
       <r>   -3.7468    1.0000 </r>
       <r>   -3.5216    1.0000 </r>
       <r>   -3.0200    0.0000 </r>
       <r>   -2.0511    0.0000 </r>
       <r>   -1.1338    0.0000 </r>
       <r>   -0.8901    0.0000 </r>
       <r>   -0.6433    0.0000 </r>
       <r>   -0.1788    0.0000 </r>
       <r>    0.2605    0.0000 </r>
       <r>    0.4051    0.0000 </r>
       <r>    0.7130    0.0000 </r>
       <r>    0.8693    0.0000 </r>
       <r>    1.4631    0.0000 </r>
       <r>    1.4942    0.0000 </r>
       <r>    1.6297    0.0000 </r>
       <r>    1.8604    0.0000 </r>
       <r>    2.0875    0.0000 </r>
       <r>    2.1162    0.0000 </r>
       <r>    2.2791    0.0000 </r>
       <r>    2.6810    0.0000 </r>
       <r>    2.7561    0.0000 </r>
       <r>    2.9296    0.0000 </r>
      </set>
      <set comment="kpoint 2">
       <r>  -18.5500    1.0000 </r>
       <r>  -18.3410    1.0000 </r>
       <r>  -17.4160    1.0000 </r>
       <r>  -17.2444    1.0000 </r>
       <r>  -14.3361    1.0000 </r>
       <r>  -14.1413    1.0000 </r>
       <r>  -13.9021    1.0000 </r>
       <r>  -13.7319    1.0000 </r>
       <r>  -11.8742    1.0000 </r>
       <r>  -11.5856    1.0000 </r>
       <r>  -11.3637    1.0000 </r>
       <r>  -11.1357    1.0000 </r>
       <r>  -10.8402    1.0000 </r>
       <r>  -10.4012    1.0000 </r>
       <r>  -10.3734    1.0000 </r>
       <r>  -10.2923    1.0000 </r>
       <r>  -10.1275    1.0000 </r>
       <r>   -9.3523    1.0000 </r>
       <r>   -9.2002    1.0000 </r>
       <r>   -8.6267    1.0000 </r>
       <r>   -8.5903    1.0000 </r>
       <r>   -8.2647    1.0000 </r>
       <r>   -7.8933    1.0000 </r>
       <r>   -7.1280    1.0000 </r>
       <r>   -6.8683    1.0000 </r>
       <r>   -6.8394    1.0000 </r>
       <r>   -6.8096    1.0000 </r>
       <r>   -6.6669    1.0000 </r>
       <r>   -6.0873    1.0000 </r>
       <r>   -5.8445    1.0000 </r>
       <r>   -5.6826    1.0000 </r>
       <r>   -5.5597    1.0000 </r>
       <r>   -5.5302    1.0000 </r>
       <r>   -5.3023    1.0000 </r>
       <r>   -5.2720    1.0000 </r>
       <r>   -4.9429    1.0000 </r>
       <r>   -4.7589    1.0000 </r>
       <r>   -4.6926    1.0000 </r>
       <r>   -4.3895    1.0000 </r>
       <r>   -4.3179    1.0000 </r>
       <r>   -4.1373    1.0000 </r>
       <r>   -3.7911    1.0000 </r>
       <r>   -3.5809    1.0000 </r>
       <r>   -3.1665    0.0000 </r>
       <r>   -2.1032    0.0000 </r>
       <r>   -1.2292    0.0000 </r>
       <r>   -0.7346    0.0000 </r>
       <r>   -0.6511    0.0000 </r>
       <r>   -0.0038    0.0000 </r>
       <r>    0.3385    0.0000 </r>
       <r>    0.4667    0.0000 </r>
       <r>    0.8617    0.0000 </r>
       <r>    1.0849    0.0000 </r>
       <r>    1.5384    0.0000 </r>
       <r>    1.5909    0.0000 </r>
       <r>    1.6869    0.0000 </r>
       <r>    1.7719    0.0000 </r>
       <r>    2.1031    0.0000 </r>
       <r>    2.1273    0.0000 </r>
       <r>    2.3667    0.0000 </r>
       <r>    2.7392    0.0000 </r>
       <r>    2.7990    0.0000 </r>
       <r>    2.9308    0.0000 </r>
      </set>
      <set comment="kpoint 3">
       <r>  -18.4629    1.0000 </r>
       <r>  -18.2555    1.0000 </r>
       <r>  -17.5590    1.0000 </r>
       <r>  -17.3829    1.0000 </r>
       <r>  -14.2596    1.0000 </r>
       <r>  -14.0698    1.0000 </r>
       <r>  -13.8999    1.0000 </r>
       <r>  -13.7282    1.0000 </r>
       <r>  -11.7815    1.0000 </r>
       <r>  -11.6013    1.0000 </r>
       <r>  -11.4292    1.0000 </r>
       <r>  -11.3809    1.0000 </r>
       <r>  -11.1543    1.0000 </r>
       <r>  -10.5298    1.0000 </r>
       <r>  -10.2912    1.0000 </r>
       <r>  -10.2681    1.0000 </r>
       <r>  -10.0478    1.0000 </r>
       <r>   -8.8243    1.0000 </r>
       <r>   -8.7926    1.0000 </r>
       <r>   -8.5760    1.0000 </r>
       <r>   -8.2959    1.0000 </r>
       <r>   -7.9724    1.0000 </r>
       <r>   -7.6878    1.0000 </r>
       <r>   -7.3464    1.0000 </r>
       <r>   -7.1856    1.0000 </r>
       <r>   -7.1386    1.0000 </r>
       <r>   -6.7014    1.0000 </r>
       <r>   -6.6630    1.0000 </r>
       <r>   -6.0183    1.0000 </r>
       <r>   -6.0054    1.0000 </r>
       <r>   -5.8367    1.0000 </r>
       <r>   -5.7518    1.0000 </r>
       <r>   -5.6687    1.0000 </r>
       <r>   -5.3682    1.0000 </r>
       <r>   -5.2741    1.0000 </r>
       <r>   -4.9241    1.0000 </r>
       <r>   -4.8409    1.0000 </r>
       <r>   -4.7418    1.0000 </r>
       <r>   -4.6487    1.0000 </r>
       <r>   -4.2368    1.0000 </r>
       <r>   -4.1822    1.0000 </r>
       <r>   -3.8877    1.0000 </r>
       <r>   -3.7017    1.0000 </r>
       <r>   -3.4173    0.9942 </r>
       <r>   -2.1747    0.0000 </r>
       <r>   -1.3519    0.0000 </r>
       <r>   -0.6596    0.0000 </r>
       <r>   -0.3674    0.0000 </r>
       <r>    0.2672    0.0000 </r>
       <r>    0.4064    0.0000 </r>
       <r>    0.7504    0.0000 </r>
       <r>    1.0357    0.0000 </r>
       <r>    1.2891    0.0000 </r>
       <r>    1.3976    0.0000 </r>
       <r>    1.7421    0.0000 </r>
       <r>    1.7800    0.0000 </r>
       <r>    1.9882    0.0000 </r>
       <r>    2.1386    0.0000 </r>
       <r>    2.1863    0.0000 </r>
       <r>    2.5323    0.0000 </r>
       <r>    2.6526    0.0000 </r>
       <r>    2.8213    0.0000 </r>
       <r>    2.8640    0.0000 </r>
      </set>
      <set comment="kpoint 4">
       <r>  -18.3412    1.0000 </r>
       <r>  -18.1356    1.0000 </r>
       <r>  -17.7343    1.0000 </r>
       <r>  -17.5538    1.0000 </r>
       <r>  -14.1598    1.0000 </r>
       <r>  -13.9776    1.0000 </r>
       <r>  -13.9150    1.0000 </r>
       <r>  -13.7399    1.0000 </r>
       <r>  -11.7315    1.0000 </r>
       <r>  -11.6885    1.0000 </r>
       <r>  -11.5922    1.0000 </r>
       <r>  -11.5010    1.0000 </r>
       <r>  -11.3719    1.0000 </r>
       <r>  -10.7291    1.0000 </r>
       <r>  -10.1342    1.0000 </r>
       <r>   -9.9191    1.0000 </r>
       <r>   -9.7299    1.0000 </r>
       <r>   -9.0403    1.0000 </r>
       <r>   -8.3251    1.0000 </r>
       <r>   -8.1414    1.0000 </r>
       <r>   -8.0905    1.0000 </r>
       <r>   -7.8952    1.0000 </r>
       <r>   -7.7409    1.0000 </r>
       <r>   -7.5630    1.0000 </r>
       <r>   -7.3763    1.0000 </r>
       <r>   -7.1563    1.0000 </r>
       <r>   -6.5352    1.0000 </r>
       <r>   -6.4621    1.0000 </r>
       <r>   -6.2554    1.0000 </r>
       <r>   -6.1025    1.0000 </r>
       <r>   -5.9821    1.0000 </r>
       <r>   -5.8667    1.0000 </r>
       <r>   -5.7889    1.0000 </r>
       <r>   -5.6026    1.0000 </r>
       <r>   -5.2701    1.0000 </r>
       <r>   -5.0385    1.0000 </r>
       <r>   -4.9285    1.0000 </r>
       <r>   -4.8900    1.0000 </r>
       <r>   -4.6491    1.0000 </r>
       <r>   -4.2476    1.0000 </r>
       <r>   -4.1379    1.0000 </r>
       <r>   -4.0196    1.0000 </r>
       <r>   -3.8837    1.0000 </r>
       <r>   -3.6863    1.0000 </r>
       <r>   -2.2340    0.0000 </r>
       <r>   -1.4604    0.0000 </r>
       <r>   -0.4462    0.0000 </r>
       <r>    0.0440    0.0000 </r>
       <r>    0.4330    0.0000 </r>
       <r>    0.7437    0.0000 </r>
       <r>    0.8094    0.0000 </r>
       <r>    1.2270    0.0000 </r>
       <r>    1.2933    0.0000 </r>
       <r>    1.4030    0.0000 </r>
       <r>    1.7366    0.0000 </r>
       <r>    1.9713    0.0000 </r>
       <r>    2.1299    0.0000 </r>
       <r>    2.2288    0.0000 </r>
       <r>    2.3212    0.0000 </r>
       <r>    2.3665    0.0000 </r>
       <r>    2.6814    0.0000 </r>
       <r>    2.8139    0.0000 </r>
       <r>    2.8980    0.0000 </r>
      </set>
      <set comment="kpoint 5">
       <r>  -18.2120    1.0000 </r>
       <r>  -18.0059    1.0000 </r>
       <r>  -17.8956    1.0000 </r>
       <r>  -17.7140    1.0000 </r>
       <r>  -14.0583    1.0000 </r>
       <r>  -13.9615    1.0000 </r>
       <r>  -13.8889    1.0000 </r>
       <r>  -13.7761    1.0000 </r>
       <r>  -11.8126    1.0000 </r>
       <r>  -11.7731    1.0000 </r>
       <r>  -11.5804    1.0000 </r>
       <r>  -11.5178    1.0000 </r>
       <r>  -11.5037    1.0000 </r>
       <r>  -10.8878    1.0000 </r>
       <r>   -9.9937    1.0000 </r>
       <r>   -9.4024    1.0000 </r>
       <r>   -9.3575    1.0000 </r>
       <r>   -9.1051    1.0000 </r>
       <r>   -8.6937    1.0000 </r>
       <r>   -8.5379    1.0000 </r>
       <r>   -8.0516    1.0000 </r>
       <r>   -7.6110    1.0000 </r>
       <r>   -7.5726    1.0000 </r>
       <r>   -7.2790    1.0000 </r>
       <r>   -7.2643    1.0000 </r>
       <r>   -7.1597    1.0000 </r>
       <r>   -6.4769    1.0000 </r>
       <r>   -6.3927    1.0000 </r>
       <r>   -6.3173    1.0000 </r>
       <r>   -6.2767    1.0000 </r>
       <r>   -6.0914    1.0000 </r>
       <r>   -5.9012    1.0000 </r>
       <r>   -5.8764    1.0000 </r>
       <r>   -5.7146    1.0000 </r>
       <r>   -5.4500    1.0000 </r>
       <r>   -5.2176    1.0000 </r>
       <r>   -5.0436    1.0000 </r>
       <r>   -4.8225    1.0000 </r>
       <r>   -4.4880    1.0000 </r>
       <r>   -4.3862    1.0000 </r>
       <r>   -4.1110    1.0000 </r>
       <r>   -4.0451    1.0000 </r>
       <r>   -4.0283    1.0000 </r>
       <r>   -3.8983    1.0000 </r>
       <r>   -2.2664    0.0000 </r>
       <r>   -1.5240    0.0000 </r>
       <r>   -0.0834    0.0000 </r>
       <r>    0.3298    0.0000 </r>
       <r>    0.5853    0.0000 </r>
       <r>    0.6303    0.0000 </r>
       <r>    1.0625    0.0000 </r>
       <r>    1.2520    0.0000 </r>
       <r>    1.3385    0.0000 </r>
       <r>    1.4504    0.0000 </r>
       <r>    1.5210    0.0000 </r>
       <r>    2.0606    0.0000 </r>
       <r>    2.0883    0.0000 </r>
       <r>    2.3112    0.0000 </r>
       <r>    2.4103    0.0000 </r>
       <r>    2.4652    0.0000 </r>
       <r>    2.6951    0.0000 </r>
       <r>    2.8153    0.0000 </r>
       <r>    3.0750    0.0000 </r>
      </set>
      <set comment="kpoint 6">
       <r>  -18.5833    1.0000 </r>
       <r>  -18.3737    1.0000 </r>
       <r>  -17.3586    1.0000 </r>
       <r>  -17.1890    1.0000 </r>
       <r>  -14.3597    1.0000 </r>
       <r>  -14.1660    1.0000 </r>
       <r>  -13.8815    1.0000 </r>
       <r>  -13.7083    1.0000 </r>
       <r>  -11.9036    1.0000 </r>
       <r>  -11.7347    1.0000 </r>
       <r>  -11.5163    1.0000 </r>
       <r>  -11.0082    1.0000 </r>
       <r>  -10.6872    1.0000 </r>
       <r>  -10.4206    1.0000 </r>
       <r>  -10.3273    1.0000 </r>
       <r>  -10.1000    1.0000 </r>
       <r>   -9.9015    1.0000 </r>
       <r>   -9.6167    1.0000 </r>
       <r>   -9.4325    1.0000 </r>
       <r>   -8.7518    1.0000 </r>
       <r>   -8.7151    1.0000 </r>
       <r>   -8.2518    1.0000 </r>
       <r>   -7.9015    1.0000 </r>
       <r>   -7.1298    1.0000 </r>
       <r>   -6.8642    1.0000 </r>
       <r>   -6.8207    1.0000 </r>
       <r>   -6.6122    1.0000 </r>
       <r>   -6.4193    1.0000 </r>
       <r>   -6.1658    1.0000 </r>
       <r>   -5.8927    1.0000 </r>
       <r>   -5.6244    1.0000 </r>
       <r>   -5.5740    1.0000 </r>
       <r>   -5.5371    1.0000 </r>
       <r>   -5.3115    1.0000 </r>
       <r>   -5.2307    1.0000 </r>
       <r>   -4.9479    1.0000 </r>
       <r>   -4.9430    1.0000 </r>
       <r>   -4.7891    1.0000 </r>
       <r>   -4.5536    1.0000 </r>
       <r>   -4.3800    1.0000 </r>
       <r>   -4.1002    1.0000 </r>
       <r>   -3.8054    1.0000 </r>
       <r>   -3.1797    0.0000 </r>
       <r>   -2.7570    0.0000 </r>
       <r>   -2.0658    0.0000 </r>
       <r>   -1.1603    0.0000 </r>
       <r>   -0.8348    0.0000 </r>
       <r>   -0.6601    0.0000 </r>
       <r>   -0.1273    0.0000 </r>
       <r>    0.2893    0.0000 </r>
       <r>    0.3262    0.0000 </r>
       <r>    0.6069    0.0000 </r>
       <r>    1.0208    0.0000 </r>
       <r>    1.4397    0.0000 </r>
       <r>    1.5272    0.0000 </r>
       <r>    1.6689    0.0000 </r>
       <r>    2.0306    0.0000 </r>
       <r>    2.0589    0.0000 </r>
       <r>    2.1392    0.0000 </r>
       <r>    2.3212    0.0000 </r>
       <r>    2.6903    0.0000 </r>
       <r>    2.7081    0.0000 </r>
       <r>    2.8904    0.0000 </r>
      </set>
      <set comment="kpoint 7">
       <r>  -18.5855    1.0000 </r>
       <r>  -18.3759    1.0000 </r>
       <r>  -17.3518    1.0000 </r>
       <r>  -17.1825    1.0000 </r>
       <r>  -14.3836    1.0000 </r>
       <r>  -14.1847    1.0000 </r>
       <r>  -13.8668    1.0000 </r>
       <r>  -13.7011    1.0000 </r>
       <r>  -11.9236    1.0000 </r>
       <r>  -11.7853    1.0000 </r>
       <r>  -11.5830    1.0000 </r>
       <r>  -10.9093    1.0000 </r>
       <r>  -10.5451    1.0000 </r>
       <r>  -10.4056    1.0000 </r>
       <r>  -10.3046    1.0000 </r>
       <r>   -9.9292    1.0000 </r>
       <r>   -9.8133    1.0000 </r>
       <r>   -9.7816    1.0000 </r>
       <r>   -9.5932    1.0000 </r>
       <r>   -8.7633    1.0000 </r>
       <r>   -8.7546    1.0000 </r>
       <r>   -8.2087    1.0000 </r>
       <r>   -7.9800    1.0000 </r>
       <r>   -7.0507    1.0000 </r>
       <r>   -7.0203    1.0000 </r>
       <r>   -6.8475    1.0000 </r>
       <r>   -6.6478    1.0000 </r>
       <r>   -6.4741    1.0000 </r>
       <r>   -6.0039    1.0000 </r>
       <r>   -5.8287    1.0000 </r>
       <r>   -5.6711    1.0000 </r>
       <r>   -5.5951    1.0000 </r>
       <r>   -5.5359    1.0000 </r>
       <r>   -5.2986    1.0000 </r>
       <r>   -5.2646    1.0000 </r>
       <r>   -4.9622    1.0000 </r>
       <r>   -4.9068    1.0000 </r>
       <r>   -4.6798    1.0000 </r>
       <r>   -4.5137    1.0000 </r>
       <r>   -4.3985    1.0000 </r>
       <r>   -4.2550    1.0000 </r>
       <r>   -3.6806    1.0000 </r>
       <r>   -3.2611    0.0289 </r>
       <r>   -2.8064    0.0000 </r>
       <r>   -2.0394    0.0000 </r>
       <r>   -1.1271    0.0000 </r>
       <r>   -0.7413    0.0000 </r>
       <r>   -0.5452    0.0000 </r>
       <r>   -0.0516    0.0000 </r>
       <r>    0.0978    0.0000 </r>
       <r>    0.4819    0.0000 </r>
       <r>    0.6773    0.0000 </r>
       <r>    0.7158    0.0000 </r>
       <r>    1.4658    0.0000 </r>
       <r>    1.5094    0.0000 </r>
       <r>    1.6645    0.0000 </r>
       <r>    1.9104    0.0000 </r>
       <r>    2.1044    0.0000 </r>
       <r>    2.1599    0.0000 </r>
       <r>    2.3284    0.0000 </r>
       <r>    2.6972    0.0000 </r>
       <r>    2.7264    0.0000 </r>
       <r>    2.8793    0.0000 </r>
      </set>
      <set comment="kpoint 8">
       <r>  -18.5367    1.0000 </r>
       <r>  -18.3279    1.0000 </r>
       <r>  -17.4406    1.0000 </r>
       <r>  -17.2683    1.0000 </r>
       <r>  -14.3257    1.0000 </r>
       <r>  -14.1383    1.0000 </r>
       <r>  -13.8774    1.0000 </r>
       <r>  -13.6976    1.0000 </r>
       <r>  -11.8492    1.0000 </r>
       <r>  -11.6595    1.0000 </r>
       <r>  -11.4284    1.0000 </r>
       <r>  -11.1827    1.0000 </r>
       <r>  -10.9282    1.0000 </r>
       <r>  -10.4807    1.0000 </r>
       <r>  -10.3656    1.0000 </r>
       <r>  -10.2760    1.0000 </r>
       <r>  -10.1025    1.0000 </r>
       <r>   -9.2286    1.0000 </r>
       <r>   -9.0330    1.0000 </r>
       <r>   -8.6664    1.0000 </r>
       <r>   -8.4410    1.0000 </r>
       <r>   -8.1857    1.0000 </r>
       <r>   -7.7639    1.0000 </r>
       <r>   -7.2312    1.0000 </r>
       <r>   -6.8703    1.0000 </r>
       <r>   -6.7098    1.0000 </r>
       <r>   -6.6880    1.0000 </r>
       <r>   -6.6275    1.0000 </r>
       <r>   -6.2641    1.0000 </r>
       <r>   -6.0254    1.0000 </r>
       <r>   -5.6474    1.0000 </r>
       <r>   -5.5916    1.0000 </r>
       <r>   -5.5197    1.0000 </r>
       <r>   -5.4672    1.0000 </r>
       <r>   -5.1904    1.0000 </r>
       <r>   -5.0197    1.0000 </r>
       <r>   -4.9140    1.0000 </r>
       <r>   -4.9062    1.0000 </r>
       <r>   -4.6605    1.0000 </r>
       <r>   -4.3169    1.0000 </r>
       <r>   -4.0236    1.0000 </r>
       <r>   -3.9559    1.0000 </r>
       <r>   -3.2317    0.0032 </r>
       <r>   -2.9058    0.0000 </r>
       <r>   -2.1365    0.0000 </r>
       <r>   -1.2891    0.0000 </r>
       <r>   -0.7912    0.0000 </r>
       <r>   -0.6900    0.0000 </r>
       <r>   -0.0070    0.0000 </r>
       <r>    0.1931    0.0000 </r>
       <r>    0.6479    0.0000 </r>
       <r>    0.7519    0.0000 </r>
       <r>    1.3408    0.0000 </r>
       <r>    1.5843    0.0000 </r>
       <r>    1.6117    0.0000 </r>
       <r>    1.7589    0.0000 </r>
       <r>    1.8375    0.0000 </r>
       <r>    2.1026    0.0000 </r>
       <r>    2.1797    0.0000 </r>
       <r>    2.4164    0.0000 </r>
       <r>    2.7373    0.0000 </r>
       <r>    2.8117    0.0000 </r>
       <r>    2.9335    0.0000 </r>
      </set>
      <set comment="kpoint 9">
       <r>  -18.5433    1.0000 </r>
       <r>  -18.3346    1.0000 </r>
       <r>  -17.4226    1.0000 </r>
       <r>  -17.2508    1.0000 </r>
       <r>  -14.3798    1.0000 </r>
       <r>  -14.1790    1.0000 </r>
       <r>  -13.8520    1.0000 </r>
       <r>  -13.6915    1.0000 </r>
       <r>  -11.8985    1.0000 </r>
       <r>  -11.7895    1.0000 </r>
       <r>  -11.6028    1.0000 </r>
       <r>  -10.9621    1.0000 </r>
       <r>  -10.5957    1.0000 </r>
       <r>  -10.3551    1.0000 </r>
       <r>  -10.3265    1.0000 </r>
       <r>  -10.1689    1.0000 </r>
       <r>  -10.0717    1.0000 </r>
       <r>   -9.3680    1.0000 </r>
       <r>   -9.2347    1.0000 </r>
       <r>   -8.5701    1.0000 </r>
       <r>   -8.5265    1.0000 </r>
       <r>   -8.2058    1.0000 </r>
       <r>   -7.9681    1.0000 </r>
       <r>   -7.0493    1.0000 </r>
       <r>   -7.0185    1.0000 </r>
       <r>   -6.9328    1.0000 </r>
       <r>   -6.7978    1.0000 </r>
       <r>   -6.7913    1.0000 </r>
       <r>   -5.9265    1.0000 </r>
       <r>   -5.8591    1.0000 </r>
       <r>   -5.7302    1.0000 </r>
       <r>   -5.6458    1.0000 </r>
       <r>   -5.4779    1.0000 </r>
       <r>   -5.4311    1.0000 </r>
       <r>   -5.2737    1.0000 </r>
       <r>   -4.9572    1.0000 </r>
       <r>   -4.9240    1.0000 </r>
       <r>   -4.6225    1.0000 </r>
       <r>   -4.5568    1.0000 </r>
       <r>   -4.4318    1.0000 </r>
       <r>   -4.3628    1.0000 </r>
       <r>   -3.6234    1.0000 </r>
       <r>   -3.4342    0.9987 </r>
       <r>   -3.0161    0.0000 </r>
       <r>   -2.0731    0.0000 </r>
       <r>   -1.1954    0.0000 </r>
       <r>   -0.6268    0.0000 </r>
       <r>   -0.4566    0.0000 </r>
       <r>    0.1493    0.0000 </r>
       <r>    0.2084    0.0000 </r>
       <r>    0.4545    0.0000 </r>
       <r>    0.8144    0.0000 </r>
       <r>    0.9084    0.0000 </r>
       <r>    1.5581    0.0000 </r>
       <r>    1.5693    0.0000 </r>
       <r>    1.6948    0.0000 </r>
       <r>    1.8867    0.0000 </r>
       <r>    2.1070    0.0000 </r>
       <r>    2.1623    0.0000 </r>
       <r>    2.4096    0.0000 </r>
       <r>    2.7517    0.0000 </r>
       <r>    2.7874    0.0000 </r>
       <r>    2.9449    0.0000 </r>
      </set>
      <set comment="kpoint 10">
       <r>  -18.4486    1.0000 </r>
       <r>  -18.2414    1.0000 </r>
       <r>  -17.5799    1.0000 </r>
       <r>  -17.4034    1.0000 </r>
       <r>  -14.2792    1.0000 </r>
       <r>  -14.0977    1.0000 </r>
       <r>  -13.8717    1.0000 </r>
       <r>  -13.6881    1.0000 </r>
       <r>  -11.7965    1.0000 </r>
       <r>  -11.6606    1.0000 </r>
       <r>  -11.4627    1.0000 </r>
       <r>  -11.2895    1.0000 </r>
       <r>  -11.0631    1.0000 </r>
       <r>  -10.6133    1.0000 </r>
       <r>  -10.3274    1.0000 </r>
       <r>  -10.2788    1.0000 </r>
       <r>  -10.1104    1.0000 </r>
       <r>   -8.8537    1.0000 </r>
       <r>   -8.7340    1.0000 </r>
       <r>   -8.5354    1.0000 </r>
       <r>   -8.1950    1.0000 </r>
       <r>   -7.8458    1.0000 </r>
       <r>   -7.5406    1.0000 </r>
       <r>   -7.3503    1.0000 </r>
       <r>   -7.2809    1.0000 </r>
       <r>   -7.1777    1.0000 </r>
       <r>   -6.5539    1.0000 </r>
       <r>   -6.4186    1.0000 </r>
       <r>   -6.2583    1.0000 </r>
       <r>   -6.2152    1.0000 </r>
       <r>   -5.7935    1.0000 </r>
       <r>   -5.7335    1.0000 </r>
       <r>   -5.6196    1.0000 </r>
       <r>   -5.4068    1.0000 </r>
       <r>   -5.3012    1.0000 </r>
       <r>   -5.1010    1.0000 </r>
       <r>   -4.9435    1.0000 </r>
       <r>   -4.8781    1.0000 </r>
       <r>   -4.8340    1.0000 </r>
       <r>   -4.2177    1.0000 </r>
       <r>   -4.1703    1.0000 </r>
       <r>   -3.9625    1.0000 </r>
       <r>   -3.4315    0.9983 </r>
       <r>   -3.2193    0.0010 </r>
       <r>   -2.2094    0.0000 </r>
       <r>   -1.4300    0.0000 </r>
       <r>   -0.7277    0.0000 </r>
       <r>   -0.4242    0.0000 </r>
       <r>    0.1896    0.0000 </r>
       <r>    0.3454    0.0000 </r>
       <r>    0.8287    0.0000 </r>
       <r>    1.0994    0.0000 </r>
       <r>    1.4921    0.0000 </r>
       <r>    1.5929    0.0000 </r>
       <r>    1.7631    0.0000 </r>
       <r>    1.8162    0.0000 </r>
       <r>    1.9468    0.0000 </r>
       <r>    2.1208    0.0000 </r>
       <r>    2.2455    0.0000 </r>
       <r>    2.5619    0.0000 </r>
       <r>    2.6610    0.0000 </r>
       <r>    2.9660    0.0000 </r>
       <r>    2.9708    0.0000 </r>
      </set>
      <set comment="kpoint 11">
       <r>  -18.4595    1.0000 </r>
       <r>  -18.2524    1.0000 </r>
       <r>  -17.5560    1.0000 </r>
       <r>  -17.3800    1.0000 </r>
       <r>  -14.3314    1.0000 </r>
       <r>  -14.1317    1.0000 </r>
       <r>  -13.8650    1.0000 </r>
       <r>  -13.7059    1.0000 </r>
       <r>  -11.8599    1.0000 </r>
       <r>  -11.7565    1.0000 </r>
       <r>  -11.6170    1.0000 </r>
       <r>  -11.1307    1.0000 </r>
       <r>  -10.7663    1.0000 </r>
       <r>  -10.4253    1.0000 </r>
       <r>  -10.2929    1.0000 </r>
       <r>  -10.2438    1.0000 </r>
       <r>  -10.0285    1.0000 </r>
       <r>   -8.8620    1.0000 </r>
       <r>   -8.8593    1.0000 </r>
       <r>   -8.5585    1.0000 </r>
       <r>   -8.2819    1.0000 </r>
       <r>   -7.9332    1.0000 </r>
       <r>   -7.7954    1.0000 </r>
       <r>   -7.4241    1.0000 </r>
       <r>   -7.2737    1.0000 </r>
       <r>   -7.0366    1.0000 </r>
       <r>   -6.8749    1.0000 </r>
       <r>   -6.7298    1.0000 </r>
       <r>   -6.1174    1.0000 </r>
       <r>   -5.8484    1.0000 </r>
       <r>   -5.7806    1.0000 </r>
       <r>   -5.7498    1.0000 </r>
       <r>   -5.6293    1.0000 </r>
       <r>   -5.4374    1.0000 </r>
       <r>   -5.2172    1.0000 </r>
       <r>   -4.9536    1.0000 </r>
       <r>   -4.9419    1.0000 </r>
       <r>   -4.7459    1.0000 </r>
       <r>   -4.6332    1.0000 </r>
       <r>   -4.5303    1.0000 </r>
       <r>   -4.2850    1.0000 </r>
       <r>   -3.6760    1.0000 </r>
       <r>   -3.6508    1.0000 </r>
       <r>   -3.3308    0.5301 </r>
       <r>   -2.1404    0.0000 </r>
       <r>   -1.3058    0.0000 </r>
       <r>   -0.6482    0.0000 </r>
       <r>   -0.1421    0.0000 </r>
       <r>    0.2860    0.0000 </r>
       <r>    0.5343    0.0000 </r>
       <r>    0.5566    0.0000 </r>
       <r>    1.1086    0.0000 </r>
       <r>    1.1609    0.0000 </r>
       <r>    1.4076    0.0000 </r>
       <r>    1.6659    0.0000 </r>
       <r>    1.7117    0.0000 </r>
       <r>    2.1515    0.0000 </r>
       <r>    2.1640    0.0000 </r>
       <r>    2.2320    0.0000 </r>
       <r>    2.5679    0.0000 </r>
       <r>    2.7115    0.0000 </r>
       <r>    2.7815    0.0000 </r>
       <r>    2.8807    0.0000 </r>
      </set>
      <set comment="kpoint 12">
       <r>  -18.3271    1.0000 </r>
       <r>  -18.1215    1.0000 </r>
       <r>  -17.7487    1.0000 </r>
       <r>  -17.5682    1.0000 </r>
       <r>  -14.2092    1.0000 </r>
       <r>  -14.0336    1.0000 </r>
       <r>  -13.9029    1.0000 </r>
       <r>  -13.7161    1.0000 </r>
       <r>  -11.8211    1.0000 </r>
       <r>  -11.5789    1.0000 </r>
       <r>  -11.5315    1.0000 </r>
       <r>  -11.4503    1.0000 </r>
       <r>  -11.2255    1.0000 </r>
       <r>  -10.7712    1.0000 </r>
       <r>  -10.1011    1.0000 </r>
       <r>  -10.0298    1.0000 </r>
       <r>   -9.8427    1.0000 </r>
       <r>   -9.0901    1.0000 </r>
       <r>   -8.2692    1.0000 </r>
       <r>   -8.1297    1.0000 </r>
       <r>   -8.0866    1.0000 </r>
       <r>   -7.8539    1.0000 </r>
       <r>   -7.7746    1.0000 </r>
       <r>   -7.4710    1.0000 </r>
       <r>   -7.3373    1.0000 </r>
       <r>   -7.2262    1.0000 </r>
       <r>   -6.4034    1.0000 </r>
       <r>   -6.3600    1.0000 </r>
       <r>   -6.3275    1.0000 </r>
       <r>   -6.1477    1.0000 </r>
       <r>   -5.9995    1.0000 </r>
       <r>   -5.9937    1.0000 </r>
       <r>   -5.6437    1.0000 </r>
       <r>   -5.5569    1.0000 </r>
       <r>   -5.3035    1.0000 </r>
       <r>   -5.2054    1.0000 </r>
       <r>   -5.0704    1.0000 </r>
       <r>   -4.8361    1.0000 </r>
       <r>   -4.8195    1.0000 </r>
       <r>   -4.3083    1.0000 </r>
       <r>   -4.1203    1.0000 </r>
       <r>   -3.9841    1.0000 </r>
       <r>   -3.7436    1.0000 </r>
       <r>   -3.5984    1.0000 </r>
       <r>   -2.2584    0.0000 </r>
       <r>   -1.5264    0.0000 </r>
       <r>   -0.4786    0.0000 </r>
       <r>   -0.0364    0.0000 </r>
       <r>    0.3678    0.0000 </r>
       <r>    0.7914    0.0000 </r>
       <r>    0.8036    0.0000 </r>
       <r>    1.3187    0.0000 </r>
       <r>    1.4853    0.0000 </r>
       <r>    1.5086    0.0000 </r>
       <r>    1.7762    0.0000 </r>
       <r>    1.9129    0.0000 </r>
       <r>    2.0459    0.0000 </r>
       <r>    2.2390    0.0000 </r>
       <r>    2.3825    0.0000 </r>
       <r>    2.4164    0.0000 </r>
       <r>    2.7396    0.0000 </r>
       <r>    2.9385    0.0000 </r>
       <r>    2.9529    0.0000 </r>
      </set>
      <set comment="kpoint 13">
       <r>  -18.3413    1.0000 </r>
       <r>  -18.1360    1.0000 </r>
       <r>  -17.7247    1.0000 </r>
       <r>  -17.5443    1.0000 </r>
       <r>  -14.2377    1.0000 </r>
       <r>  -14.0419    1.0000 </r>
       <r>  -13.9194    1.0000 </r>
       <r>  -13.7572    1.0000 </r>
       <r>  -11.8441    1.0000 </r>
       <r>  -11.6442    1.0000 </r>
       <r>  -11.6139    1.0000 </r>
       <r>  -11.3793    1.0000 </r>
       <r>  -11.0590    1.0000 </r>
       <r>  -10.6551    1.0000 </r>
       <r>  -10.1492    1.0000 </r>
       <r>   -9.8931    1.0000 </r>
       <r>   -9.7127    1.0000 </r>
       <r>   -8.9877    1.0000 </r>
       <r>   -8.4593    1.0000 </r>
       <r>   -8.2625    1.0000 </r>
       <r>   -8.1614    1.0000 </r>
       <r>   -7.9434    1.0000 </r>
       <r>   -7.9111    1.0000 </r>
       <r>   -7.4092    1.0000 </r>
       <r>   -7.4048    1.0000 </r>
       <r>   -7.0808    1.0000 </r>
       <r>   -6.6722    1.0000 </r>
       <r>   -6.6380    1.0000 </r>
       <r>   -6.3002    1.0000 </r>
       <r>   -6.1341    1.0000 </r>
       <r>   -5.9174    1.0000 </r>
       <r>   -5.7524    1.0000 </r>
       <r>   -5.7201    1.0000 </r>
       <r>   -5.5602    1.0000 </r>
       <r>   -5.1656    1.0000 </r>
       <r>   -4.9751    1.0000 </r>
       <r>   -4.9206    1.0000 </r>
       <r>   -4.9156    1.0000 </r>
       <r>   -4.6783    1.0000 </r>
       <r>   -4.5273    1.0000 </r>
       <r>   -4.1891    1.0000 </r>
       <r>   -3.9695    1.0000 </r>
       <r>   -3.7600    1.0000 </r>
       <r>   -3.6815    1.0000 </r>
       <r>   -2.2087    0.0000 </r>
       <r>   -1.4178    0.0000 </r>
       <r>   -0.4772    0.0000 </r>
       <r>    0.2259    0.0000 </r>
       <r>    0.4296    0.0000 </r>
       <r>    0.7720    0.0000 </r>
       <r>    0.8642    0.0000 </r>
       <r>    1.1709    0.0000 </r>
       <r>    1.3068    0.0000 </r>
       <r>    1.3430    0.0000 </r>
       <r>    1.6711    0.0000 </r>
       <r>    1.9315    0.0000 </r>
       <r>    2.1643    0.0000 </r>
       <r>    2.2156    0.0000 </r>
       <r>    2.3730    0.0000 </r>
       <r>    2.4749    0.0000 </r>
       <r>    2.7229    0.0000 </r>
       <r>    2.7372    0.0000 </r>
       <r>    2.9720    0.0000 </r>
      </set>
      <set comment="kpoint 14">
       <r>  -18.2026    1.0000 </r>
       <r>  -17.9965    1.0000 </r>
       <r>  -17.8996    1.0000 </r>
       <r>  -17.7184    1.0000 </r>
       <r>  -14.1166    1.0000 </r>
       <r>  -13.9879    1.0000 </r>
       <r>  -13.9487    1.0000 </r>
       <r>  -13.7955    1.0000 </r>
       <r>  -11.7757    1.0000 </r>
       <r>  -11.6374    1.0000 </r>
       <r>  -11.4937    1.0000 </r>
       <r>  -11.4851    1.0000 </r>
       <r>  -11.4059    1.0000 </r>
       <r>  -10.8911    1.0000 </r>
       <r>   -9.9721    1.0000 </r>
       <r>   -9.5166    1.0000 </r>
       <r>   -9.4101    1.0000 </r>
       <r>   -9.1984    1.0000 </r>
       <r>   -8.7016    1.0000 </r>
       <r>   -8.5174    1.0000 </r>
       <r>   -8.0338    1.0000 </r>
       <r>   -7.6650    1.0000 </r>
       <r>   -7.5190    1.0000 </r>
       <r>   -7.3628    1.0000 </r>
       <r>   -7.3549    1.0000 </r>
       <r>   -7.1684    1.0000 </r>
       <r>   -6.4201    1.0000 </r>
       <r>   -6.3868    1.0000 </r>
       <r>   -6.3347    1.0000 </r>
       <r>   -6.2588    1.0000 </r>
       <r>   -6.0427    1.0000 </r>
       <r>   -5.8912    1.0000 </r>
       <r>   -5.8054    1.0000 </r>
       <r>   -5.6946    1.0000 </r>
       <r>   -5.4713    1.0000 </r>
       <r>   -5.1907    1.0000 </r>
       <r>   -5.0307    1.0000 </r>
       <r>   -4.8261    1.0000 </r>
       <r>   -4.6423    1.0000 </r>
       <r>   -4.3566    1.0000 </r>
       <r>   -4.1143    1.0000 </r>
       <r>   -4.0501    1.0000 </r>
       <r>   -3.9874    1.0000 </r>
       <r>   -3.9155    1.0000 </r>
       <r>   -2.2749    0.0000 </r>
       <r>   -1.5542    0.0000 </r>
       <r>   -0.0776    0.0000 </r>
       <r>    0.2359    0.0000 </r>
       <r>    0.6108    0.0000 </r>
       <r>    0.6798    0.0000 </r>
       <r>    1.1752    0.0000 </r>
       <r>    1.2934    0.0000 </r>
       <r>    1.2958    0.0000 </r>
       <r>    1.4141    0.0000 </r>
       <r>    1.6083    0.0000 </r>
       <r>    2.0736    0.0000 </r>
       <r>    2.0895    0.0000 </r>
       <r>    2.2427    0.0000 </r>
       <r>    2.4487    0.0000 </r>
       <r>    2.4564    0.0000 </r>
       <r>    2.6894    0.0000 </r>
       <r>    2.9596    0.0000 </r>
       <r>    3.0278    0.0000 </r>
      </set>
      <set comment="kpoint 15">
       <r>  -18.2139    1.0000 </r>
       <r>  -18.0084    1.0000 </r>
       <r>  -17.8847    1.0000 </r>
       <r>  -17.7030    1.0000 </r>
       <r>  -14.1165    1.0000 </r>
       <r>  -14.0071    1.0000 </r>
       <r>  -13.9303    1.0000 </r>
       <r>  -13.8344    1.0000 </r>
       <r>  -11.7784    1.0000 </r>
       <r>  -11.6145    1.0000 </r>
       <r>  -11.5511    1.0000 </r>
       <r>  -11.5189    1.0000 </r>
       <r>  -11.3184    1.0000 </r>
       <r>  -10.8425    1.0000 </r>
       <r>   -9.9988    1.0000 </r>
       <r>   -9.3930    1.0000 </r>
       <r>   -9.3696    1.0000 </r>
       <r>   -9.0399    1.0000 </r>
       <r>   -8.8225    1.0000 </r>
       <r>   -8.6805    1.0000 </r>
       <r>   -8.1212    1.0000 </r>
       <r>   -7.6814    1.0000 </r>
       <r>   -7.6395    1.0000 </r>
       <r>   -7.3293    1.0000 </r>
       <r>   -7.1796    1.0000 </r>
       <r>   -7.1550    1.0000 </r>
       <r>   -6.6056    1.0000 </r>
       <r>   -6.4970    1.0000 </r>
       <r>   -6.3101    1.0000 </r>
       <r>   -6.2546    1.0000 </r>
       <r>   -6.1100    1.0000 </r>
       <r>   -5.7861    1.0000 </r>
       <r>   -5.7508    1.0000 </r>
       <r>   -5.7131    1.0000 </r>
       <r>   -5.4206    1.0000 </r>
       <r>   -5.0408    1.0000 </r>
       <r>   -4.9630    1.0000 </r>
       <r>   -4.8887    1.0000 </r>
       <r>   -4.5387    1.0000 </r>
       <r>   -4.4236    1.0000 </r>
       <r>   -4.2506    1.0000 </r>
       <r>   -4.0927    1.0000 </r>
       <r>   -3.9569    1.0000 </r>
       <r>   -3.8955    1.0000 </r>
       <r>   -2.2572    0.0000 </r>
       <r>   -1.5112    0.0000 </r>
       <r>   -0.1220    0.0000 </r>
       <r>    0.4370    0.0000 </r>
       <r>    0.6166    0.0000 </r>
       <r>    0.6541    0.0000 </r>
       <r>    1.0195    0.0000 </r>
       <r>    1.2503    0.0000 </r>
       <r>    1.4160    0.0000 </r>
       <r>    1.4530    0.0000 </r>
       <r>    1.5106    0.0000 </r>
       <r>    2.0690    0.0000 </r>
       <r>    2.0736    0.0000 </r>
       <r>    2.1546    0.0000 </r>
       <r>    2.4444    0.0000 </r>
       <r>    2.4672    0.0000 </r>
       <r>    2.8111    0.0000 </r>
       <r>    2.8224    0.0000 </r>
       <r>    3.0504    0.0000 </r>
      </set>
      <set comment="kpoint 16">
       <r>  -18.5547    1.0000 </r>
       <r>  -18.3457    1.0000 </r>
       <r>  -17.4122    1.0000 </r>
       <r>  -17.2407    1.0000 </r>
       <r>  -14.3410    1.0000 </r>
       <r>  -14.1513    1.0000 </r>
       <r>  -13.7925    1.0000 </r>
       <r>  -13.6180    1.0000 </r>
       <r>  -12.0191    1.0000 </r>
       <r>  -11.8469    1.0000 </r>
       <r>  -11.7987    1.0000 </r>
       <r>  -11.2224    1.0000 </r>
       <r>  -10.9268    1.0000 </r>
       <r>  -10.4503    1.0000 </r>
       <r>  -10.3710    1.0000 </r>
       <r>   -9.7763    1.0000 </r>
       <r>   -9.5759    1.0000 </r>
       <r>   -9.2842    1.0000 </r>
       <r>   -9.0835    1.0000 </r>
       <r>   -8.7049    1.0000 </r>
       <r>   -8.4000    1.0000 </r>
       <r>   -8.1435    1.0000 </r>
       <r>   -7.7891    1.0000 </r>
       <r>   -7.1071    1.0000 </r>
       <r>   -6.8321    1.0000 </r>
       <r>   -6.7144    1.0000 </r>
       <r>   -6.6643    1.0000 </r>
       <r>   -6.5791    1.0000 </r>
       <r>   -6.2373    1.0000 </r>
       <r>   -6.1243    1.0000 </r>
       <r>   -6.0281    1.0000 </r>
       <r>   -5.8751    1.0000 </r>
       <r>   -5.5992    1.0000 </r>
       <r>   -5.3943    1.0000 </r>
       <r>   -5.2577    1.0000 </r>
       <r>   -5.1638    1.0000 </r>
       <r>   -5.0016    1.0000 </r>
       <r>   -4.9804    1.0000 </r>
       <r>   -4.9074    1.0000 </r>
       <r>   -4.3066    1.0000 </r>
       <r>   -4.1894    1.0000 </r>
       <r>   -4.0204    1.0000 </r>
       <r>   -2.7029    0.0000 </r>
       <r>   -2.3031    0.0000 </r>
       <r>   -2.0739    0.0000 </r>
       <r>   -1.2175    0.0000 </r>
       <r>   -0.7233    0.0000 </r>
       <r>   -0.4776    0.0000 </r>
       <r>   -0.1191    0.0000 </r>
       <r>    0.2171    0.0000 </r>
       <r>    0.3839    0.0000 </r>
       <r>    0.5837    0.0000 </r>
       <r>    1.0601    0.0000 </r>
       <r>    1.5086    0.0000 </r>
       <r>    1.6430    0.0000 </r>
       <r>    1.7985    0.0000 </r>
       <r>    2.0016    0.0000 </r>
       <r>    2.1792    0.0000 </r>
       <r>    2.2664    0.0000 </r>
       <r>    2.4543    0.0000 </r>
       <r>    2.5101    0.0000 </r>
       <r>    2.8248    0.0000 </r>
       <r>    2.9423    0.0000 </r>
      </set>
      <set comment="kpoint 17">
       <r>  -18.5585    1.0000 </r>
       <r>  -18.3494    1.0000 </r>
       <r>  -17.4017    1.0000 </r>
       <r>  -17.2305    1.0000 </r>
       <r>  -14.3723    1.0000 </r>
       <r>  -14.1753    1.0000 </r>
       <r>  -13.7761    1.0000 </r>
       <r>  -13.6134    1.0000 </r>
       <r>  -12.0933    1.0000 </r>
       <r>  -11.8606    1.0000 </r>
       <r>  -11.8449    1.0000 </r>
       <r>  -11.1227    1.0000 </r>
       <r>  -10.7918    1.0000 </r>
       <r>  -10.4096    1.0000 </r>
       <r>  -10.3752    1.0000 </r>
       <r>   -9.5928    1.0000 </r>
       <r>   -9.4485    1.0000 </r>
       <r>   -9.4418    1.0000 </r>
       <r>   -9.2482    1.0000 </r>
       <r>   -8.6806    1.0000 </r>
       <r>   -8.4542    1.0000 </r>
       <r>   -8.1491    1.0000 </r>
       <r>   -7.9163    1.0000 </r>
       <r>   -6.9854    1.0000 </r>
       <r>   -6.9028    1.0000 </r>
       <r>   -6.8765    1.0000 </r>
       <r>   -6.7266    1.0000 </r>
       <r>   -6.6853    1.0000 </r>
       <r>   -6.1806    1.0000 </r>
       <r>   -6.0471    1.0000 </r>
       <r>   -5.8471    1.0000 </r>
       <r>   -5.8203    1.0000 </r>
       <r>   -5.7689    1.0000 </r>
       <r>   -5.3676    1.0000 </r>
       <r>   -5.2947    1.0000 </r>
       <r>   -5.1834    1.0000 </r>
       <r>   -4.9511    1.0000 </r>
       <r>   -4.8840    1.0000 </r>
       <r>   -4.7839    1.0000 </r>
       <r>   -4.4424    1.0000 </r>
       <r>   -4.3383    1.0000 </r>
       <r>   -3.7766    1.0000 </r>
       <r>   -2.8218    0.0000 </r>
       <r>   -2.4087    0.0000 </r>
       <r>   -2.0381    0.0000 </r>
       <r>   -1.1686    0.0000 </r>
       <r>   -0.4398    0.0000 </r>
       <r>   -0.3605    0.0000 </r>
       <r>   -0.0978    0.0000 </r>
       <r>    0.0956    0.0000 </r>
       <r>    0.5349    0.0000 </r>
       <r>    0.5886    0.0000 </r>
       <r>    0.7165    0.0000 </r>
       <r>    1.5062    0.0000 </r>
       <r>    1.5833    0.0000 </r>
       <r>    1.7545    0.0000 </r>
       <r>    2.0425    0.0000 </r>
       <r>    2.1547    0.0000 </r>
       <r>    2.2194    0.0000 </r>
       <r>    2.4484    0.0000 </r>
       <r>    2.5729    0.0000 </r>
       <r>    2.8240    0.0000 </r>
       <r>    2.8675    0.0000 </r>
      </set>
      <set comment="kpoint 18">
       <r>  -18.5080    1.0000 </r>
       <r>  -18.2998    1.0000 </r>
       <r>  -17.4864    1.0000 </r>
       <r>  -17.3127    1.0000 </r>
       <r>  -14.3481    1.0000 </r>
       <r>  -14.1630    1.0000 </r>
       <r>  -13.7938    1.0000 </r>
       <r>  -13.6116    1.0000 </r>
       <r>  -11.9354    1.0000 </r>
       <r>  -11.7937    1.0000 </r>
       <r>  -11.7047    1.0000 </r>
       <r>  -11.2063    1.0000 </r>
       <r>  -10.9552    1.0000 </r>
       <r>  -10.5586    1.0000 </r>
       <r>  -10.3112    1.0000 </r>
       <r>  -10.0536    1.0000 </r>
       <r>   -9.8740    1.0000 </r>
       <r>   -9.0036    1.0000 </r>
       <r>   -8.8250    1.0000 </r>
       <r>   -8.7287    1.0000 </r>
       <r>   -8.2010    1.0000 </r>
       <r>   -7.9317    1.0000 </r>
       <r>   -7.6238    1.0000 </r>
       <r>   -7.2875    1.0000 </r>
       <r>   -7.0036    1.0000 </r>
       <r>   -6.8442    1.0000 </r>
       <r>   -6.5510    1.0000 </r>
       <r>   -6.4570    1.0000 </r>
       <r>   -6.2843    1.0000 </r>
       <r>   -6.2807    1.0000 </r>
       <r>   -5.9785    1.0000 </r>
       <r>   -5.9279    1.0000 </r>
       <r>   -5.5825    1.0000 </r>
       <r>   -5.4080    1.0000 </r>
       <r>   -5.4012    1.0000 </r>
       <r>   -5.1960    1.0000 </r>
       <r>   -5.0440    1.0000 </r>
       <r>   -5.0435    1.0000 </r>
       <r>   -4.8462    1.0000 </r>
       <r>   -4.2707    1.0000 </r>
       <r>   -4.2417    1.0000 </r>
       <r>   -3.9705    1.0000 </r>
       <r>   -2.8251    0.0000 </r>
       <r>   -2.5276    0.0000 </r>
       <r>   -2.1585    0.0000 </r>
       <r>   -1.3554    0.0000 </r>
       <r>   -0.8849    0.0000 </r>
       <r>   -0.4590    0.0000 </r>
       <r>   -0.1125    0.0000 </r>
       <r>    0.3609    0.0000 </r>
       <r>    0.4767    0.0000 </r>
       <r>    0.9306    0.0000 </r>
       <r>    1.3177    0.0000 </r>
       <r>    1.7118    0.0000 </r>
       <r>    1.7952    0.0000 </r>
       <r>    1.8918    0.0000 </r>
       <r>    1.9158    0.0000 </r>
       <r>    2.1641    0.0000 </r>
       <r>    2.2209    0.0000 </r>
       <r>    2.5633    0.0000 </r>
       <r>    2.6844    0.0000 </r>
       <r>    2.9304    0.0000 </r>
       <r>    3.0111    0.0000 </r>
      </set>
      <set comment="kpoint 19">
       <r>  -18.5191    1.0000 </r>
       <r>  -18.3110    1.0000 </r>
       <r>  -17.4584    1.0000 </r>
       <r>  -17.2854    1.0000 </r>
       <r>  -14.4154    1.0000 </r>
       <r>  -14.2135    1.0000 </r>
       <r>  -13.7743    1.0000 </r>
       <r>  -13.6188    1.0000 </r>
       <r>  -12.0756    1.0000 </r>
       <r>  -11.8387    1.0000 </r>
       <r>  -11.8109    1.0000 </r>
       <r>  -11.0042    1.0000 </r>
       <r>  -10.6373    1.0000 </r>
       <r>  -10.4119    1.0000 </r>
       <r>  -10.3010    1.0000 </r>
       <r>   -9.8372    1.0000 </r>
       <r>   -9.7596    1.0000 </r>
       <r>   -9.2134    1.0000 </r>
       <r>   -9.0627    1.0000 </r>
       <r>   -8.5745    1.0000 </r>
       <r>   -8.3097    1.0000 </r>
       <r>   -8.0206    1.0000 </r>
       <r>   -7.9523    1.0000 </r>
       <r>   -7.1623    1.0000 </r>
       <r>   -7.0288    1.0000 </r>
       <r>   -6.9890    1.0000 </r>
       <r>   -6.9828    1.0000 </r>
       <r>   -6.6793    1.0000 </r>
       <r>   -6.1906    1.0000 </r>
       <r>   -5.9581    1.0000 </r>
       <r>   -5.8721    1.0000 </r>
       <r>   -5.7208    1.0000 </r>
       <r>   -5.6832    1.0000 </r>
       <r>   -5.4130    1.0000 </r>
       <r>   -5.4050    1.0000 </r>
       <r>   -5.2112    1.0000 </r>
       <r>   -4.9690    1.0000 </r>
       <r>   -4.8114    1.0000 </r>
       <r>   -4.6485    1.0000 </r>
       <r>   -4.6143    1.0000 </r>
       <r>   -4.3540    1.0000 </r>
       <r>   -3.5777    1.0000 </r>
       <r>   -3.1075    0.0000 </r>
       <r>   -2.7521    0.0000 </r>
       <r>   -2.0711    0.0000 </r>
       <r>   -1.2185    0.0000 </r>
       <r>   -0.5614    0.0000 </r>
       <r>   -0.1460    0.0000 </r>
       <r>    0.1260    0.0000 </r>
       <r>    0.3883    0.0000 </r>
       <r>    0.4575    0.0000 </r>
       <r>    0.7900    0.0000 </r>
       <r>    0.8428    0.0000 </r>
       <r>    1.5578    0.0000 </r>
       <r>    1.5909    0.0000 </r>
       <r>    1.8818    0.0000 </r>
       <r>    1.9552    0.0000 </r>
       <r>    2.1787    0.0000 </r>
       <r>    2.1810    0.0000 </r>
       <r>    2.5271    0.0000 </r>
       <r>    2.7259    0.0000 </r>
       <r>    2.8796    0.0000 </r>
       <r>    2.9018    0.0000 </r>
      </set>
      <set comment="kpoint 20">
       <r>  -18.4215    1.0000 </r>
       <r>  -18.2149    1.0000 </r>
       <r>  -17.6109    1.0000 </r>
       <r>  -17.4338    1.0000 </r>
       <r>  -14.3539    1.0000 </r>
       <r>  -14.1709    1.0000 </r>
       <r>  -13.8301    1.0000 </r>
       <r>  -13.6444    1.0000 </r>
       <r>  -11.8984    1.0000 </r>
       <r>  -11.6542    1.0000 </r>
       <r>  -11.6168    1.0000 </r>
       <r>  -11.0641    1.0000 </r>
       <r>  -10.8381    1.0000 </r>
       <r>  -10.7015    1.0000 </r>
       <r>  -10.2804    1.0000 </r>
       <r>  -10.2479    1.0000 </r>
       <r>  -10.0733    1.0000 </r>
       <r>   -8.9359    1.0000 </r>
       <r>   -8.6101    1.0000 </r>
       <r>   -8.3931    1.0000 </r>
       <r>   -8.1295    1.0000 </r>
       <r>   -7.7434    1.0000 </r>
       <r>   -7.5364    1.0000 </r>
       <r>   -7.4431    1.0000 </r>
       <r>   -7.2123    1.0000 </r>
       <r>   -7.1820    1.0000 </r>
       <r>   -6.4571    1.0000 </r>
       <r>   -6.4251    1.0000 </r>
       <r>   -6.3521    1.0000 </r>
       <r>   -6.1944    1.0000 </r>
       <r>   -5.9007    1.0000 </r>
       <r>   -5.9002    1.0000 </r>
       <r>   -5.7796    1.0000 </r>
       <r>   -5.6239    1.0000 </r>
       <r>   -5.4118    1.0000 </r>
       <r>   -5.2253    1.0000 </r>
       <r>   -5.0875    1.0000 </r>
       <r>   -4.9579    1.0000 </r>
       <r>   -4.8110    1.0000 </r>
       <r>   -4.3257    1.0000 </r>
       <r>   -4.2138    1.0000 </r>
       <r>   -3.8356    1.0000 </r>
       <r>   -3.2082    0.0003 </r>
       <r>   -3.0181    0.0000 </r>
       <r>   -2.2296    0.0000 </r>
       <r>   -1.5074    0.0000 </r>
       <r>   -0.8020    0.0000 </r>
       <r>   -0.2744    0.0000 </r>
       <r>    0.0638    0.0000 </r>
       <r>    0.5098    0.0000 </r>
       <r>    0.7124    0.0000 </r>
       <r>    1.3303    0.0000 </r>
       <r>    1.5597    0.0000 </r>
       <r>    1.5858    0.0000 </r>
       <r>    1.8956    0.0000 </r>
       <r>    1.9171    0.0000 </r>
       <r>    2.1143    0.0000 </r>
       <r>    2.1550    0.0000 </r>
       <r>    2.3048    0.0000 </r>
       <r>    2.5086    0.0000 </r>
       <r>    2.7799    0.0000 </r>
       <r>    3.0428    0.0000 </r>
       <r>    3.1063    0.0000 </r>
      </set>
      <set comment="kpoint 21">
       <r>  -18.4396    1.0000 </r>
       <r>  -18.2331    1.0000 </r>
       <r>  -17.5730    1.0000 </r>
       <r>  -17.3966    1.0000 </r>
       <r>  -14.4189    1.0000 </r>
       <r>  -14.2157    1.0000 </r>
       <r>  -13.8374    1.0000 </r>
       <r>  -13.6805    1.0000 </r>
       <r>  -11.9618    1.0000 </r>
       <r>  -11.7373    1.0000 </r>
       <r>  -11.7306    1.0000 </r>
       <r>  -10.9805    1.0000 </r>
       <r>  -10.4782    1.0000 </r>
       <r>  -10.3147    1.0000 </r>
       <r>  -10.2097    1.0000 </r>
       <r>  -10.1689    1.0000 </r>
       <r>  -10.0492    1.0000 </r>
       <r>   -8.8457    1.0000 </r>
       <r>   -8.8410    1.0000 </r>
       <r>   -8.5300    1.0000 </r>
       <r>   -8.2440    1.0000 </r>
       <r>   -7.9191    1.0000 </r>
       <r>   -7.8951    1.0000 </r>
       <r>   -7.4119    1.0000 </r>
       <r>   -7.3225    1.0000 </r>
       <r>   -7.0543    1.0000 </r>
       <r>   -6.9750    1.0000 </r>
       <r>   -6.6647    1.0000 </r>
       <r>   -6.2837    1.0000 </r>
       <r>   -5.9741    1.0000 </r>
       <r>   -5.7843    1.0000 </r>
       <r>   -5.7019    1.0000 </r>
       <r>   -5.6534    1.0000 </r>
       <r>   -5.4585    1.0000 </r>
       <r>   -5.4282    1.0000 </r>
       <r>   -5.2503    1.0000 </r>
       <r>   -4.9896    1.0000 </r>
       <r>   -4.8666    1.0000 </r>
       <r>   -4.6595    1.0000 </r>
       <r>   -4.5179    1.0000 </r>
       <r>   -4.3240    1.0000 </r>
       <r>   -3.5302    1.0000 </r>
       <r>   -3.4841    1.0000 </r>
       <r>   -3.2239    0.0016 </r>
       <r>   -2.1280    0.0000 </r>
       <r>   -1.3113    0.0000 </r>
       <r>   -0.6650    0.0000 </r>
       <r>    0.1470    0.0000 </r>
       <r>    0.3236    0.0000 </r>
       <r>    0.5242    0.0000 </r>
       <r>    0.7052    0.0000 </r>
       <r>    1.1286    0.0000 </r>
       <r>    1.1417    0.0000 </r>
       <r>    1.5255    0.0000 </r>
       <r>    1.5405    0.0000 </r>
       <r>    1.6693    0.0000 </r>
       <r>    2.2162    0.0000 </r>
       <r>    2.2816    0.0000 </r>
       <r>    2.3170    0.0000 </r>
       <r>    2.6850    0.0000 </r>
       <r>    2.7728    0.0000 </r>
       <r>    2.8359    0.0000 </r>
       <r>    2.8657    0.0000 </r>
      </set>
      <set comment="kpoint 22">
       <r>  -18.3043    1.0000 </r>
       <r>  -18.0993    1.0000 </r>
       <r>  -17.7627    1.0000 </r>
       <r>  -17.5822    1.0000 </r>
       <r>  -14.3183    1.0000 </r>
       <r>  -14.1380    1.0000 </r>
       <r>  -13.9366    1.0000 </r>
       <r>  -13.7468    1.0000 </r>
       <r>  -11.8039    1.0000 </r>
       <r>  -11.5019    1.0000 </r>
       <r>  -11.4831    1.0000 </r>
       <r>  -11.1082    1.0000 </r>
       <r>  -10.8778    1.0000 </r>
       <r>  -10.7936    1.0000 </r>
       <r>  -10.1816    1.0000 </r>
       <r>  -10.0827    1.0000 </r>
       <r>   -9.9787    1.0000 </r>
       <r>   -9.1357    1.0000 </r>
       <r>   -8.3550    1.0000 </r>
       <r>   -8.1651    1.0000 </r>
       <r>   -8.1202    1.0000 </r>
       <r>   -7.8749    1.0000 </r>
       <r>   -7.8321    1.0000 </r>
       <r>   -7.4966    1.0000 </r>
       <r>   -7.2992    1.0000 </r>
       <r>   -7.1147    1.0000 </r>
       <r>   -6.4794    1.0000 </r>
       <r>   -6.4536    1.0000 </r>
       <r>   -6.2678    1.0000 </r>
       <r>   -6.1317    1.0000 </r>
       <r>   -6.0090    1.0000 </r>
       <r>   -5.9849    1.0000 </r>
       <r>   -5.7140    1.0000 </r>
       <r>   -5.5215    1.0000 </r>
       <r>   -5.4948    1.0000 </r>
       <r>   -5.2269    1.0000 </r>
       <r>   -5.1310    1.0000 </r>
       <r>   -4.9213    1.0000 </r>
       <r>   -4.8452    1.0000 </r>
       <r>   -4.2217    1.0000 </r>
       <r>   -4.1472    1.0000 </r>
       <r>   -3.8105    1.0000 </r>
       <r>   -3.7281    1.0000 </r>
       <r>   -3.5765    1.0000 </r>
       <r>   -2.2770    0.0000 </r>
       <r>   -1.6003    0.0000 </r>
       <r>   -0.4988    0.0000 </r>
       <r>    0.0074    0.0000 </r>
       <r>    0.3295    0.0000 </r>
       <r>    0.8194    0.0000 </r>
       <r>    0.8664    0.0000 </r>
       <r>    1.3860    0.0000 </r>
       <r>    1.5639    0.0000 </r>
       <r>    1.6540    0.0000 </r>
       <r>    1.7285    0.0000 </r>
       <r>    1.8214    0.0000 </r>
       <r>    2.0588    0.0000 </r>
       <r>    2.3969    0.0000 </r>
       <r>    2.4416    0.0000 </r>
       <r>    2.4518    0.0000 </r>
       <r>    2.8645    0.0000 </r>
       <r>    2.9636    0.0000 </r>
       <r>    3.0845    0.0000 </r>
      </set>
      <set comment="kpoint 23">
       <r>  -18.3276    1.0000 </r>
       <r>  -18.1230    1.0000 </r>
       <r>  -17.7241    1.0000 </r>
       <r>  -17.5438    1.0000 </r>
       <r>  -14.3600    1.0000 </r>
       <r>  -14.1586    1.0000 </r>
       <r>  -13.9596    1.0000 </r>
       <r>  -13.7959    1.0000 </r>
       <r>  -11.7858    1.0000 </r>
       <r>  -11.6251    1.0000 </r>
       <r>  -11.5626    1.0000 </r>
       <r>  -11.1340    1.0000 </r>
       <r>  -10.6447    1.0000 </r>
       <r>  -10.4748    1.0000 </r>
       <r>  -10.1568    1.0000 </r>
       <r>   -9.9826    1.0000 </r>
       <r>   -9.8100    1.0000 </r>
       <r>   -8.9383    1.0000 </r>
       <r>   -8.6225    1.0000 </r>
       <r>   -8.4361    1.0000 </r>
       <r>   -8.2944    1.0000 </r>
       <r>   -8.0469    1.0000 </r>
       <r>   -8.0348    1.0000 </r>
       <r>   -7.3266    1.0000 </r>
       <r>   -7.2312    1.0000 </r>
       <r>   -7.1283    1.0000 </r>
       <r>   -6.8565    1.0000 </r>
       <r>   -6.6735    1.0000 </r>
       <r>   -6.3211    1.0000 </r>
       <r>   -6.1294    1.0000 </r>
       <r>   -5.9276    1.0000 </r>
       <r>   -5.7548    1.0000 </r>
       <r>   -5.5602    1.0000 </r>
       <r>   -5.3675    1.0000 </r>
       <r>   -5.2978    1.0000 </r>
       <r>   -5.2113    1.0000 </r>
       <r>   -5.0945    1.0000 </r>
       <r>   -4.8908    1.0000 </r>
       <r>   -4.6213    1.0000 </r>
       <r>   -4.5190    1.0000 </r>
       <r>   -4.2527    1.0000 </r>
       <r>   -4.0283    1.0000 </r>
       <r>   -3.7313    1.0000 </r>
       <r>   -3.4733    1.0000 </r>
       <r>   -2.1923    0.0000 </r>
       <r>   -1.4128    0.0000 </r>
       <r>   -0.5156    0.0000 </r>
       <r>    0.4187    0.0000 </r>
       <r>    0.4387    0.0000 </r>
       <r>    0.8952    0.0000 </r>
       <r>    0.9046    0.0000 </r>
       <r>    1.0582    0.0000 </r>
       <r>    1.4254    0.0000 </r>
       <r>    1.4752    0.0000 </r>
       <r>    1.5275    0.0000 </r>
       <r>    1.7914    0.0000 </r>
       <r>    2.1659    0.0000 </r>
       <r>    2.3253    0.0000 </r>
       <r>    2.4406    0.0000 </r>
       <r>    2.4780    0.0000 </r>
       <r>    2.7636    0.0000 </r>
       <r>    2.8597    0.0000 </r>
       <r>    3.0359    0.0000 </r>
      </set>
      <set comment="kpoint 24">
       <r>  -18.1899    1.0000 </r>
       <r>  -17.9844    1.0000 </r>
       <r>  -17.8951    1.0000 </r>
       <r>  -17.7141    1.0000 </r>
       <r>  -14.2319    1.0000 </r>
       <r>  -14.0883    1.0000 </r>
       <r>  -14.0567    1.0000 </r>
       <r>  -13.8928    1.0000 </r>
       <r>  -11.6345    1.0000 </r>
       <r>  -11.4080    1.0000 </r>
       <r>  -11.3318    1.0000 </r>
       <r>  -11.2722    1.0000 </r>
       <r>  -11.1042    1.0000 </r>
       <r>  -10.8433    1.0000 </r>
       <r>   -9.9393    1.0000 </r>
       <r>   -9.7227    1.0000 </r>
       <r>   -9.5782    1.0000 </r>
       <r>   -9.2670    1.0000 </r>
       <r>   -8.8630    1.0000 </r>
       <r>   -8.6279    1.0000 </r>
       <r>   -8.0595    1.0000 </r>
       <r>   -7.7270    1.0000 </r>
       <r>   -7.5085    1.0000 </r>
       <r>   -7.4726    1.0000 </r>
       <r>   -7.4130    1.0000 </r>
       <r>   -7.2407    1.0000 </r>
       <r>   -6.4864    1.0000 </r>
       <r>   -6.4593    1.0000 </r>
       <r>   -6.3674    1.0000 </r>
       <r>   -6.2891    1.0000 </r>
       <r>   -5.9081    1.0000 </r>
       <r>   -5.7856    1.0000 </r>
       <r>   -5.7321    1.0000 </r>
       <r>   -5.4860    1.0000 </r>
       <r>   -5.4576    1.0000 </r>
       <r>   -5.1511    1.0000 </r>
       <r>   -4.9772    1.0000 </r>
       <r>   -4.8874    1.0000 </r>
       <r>   -4.8473    1.0000 </r>
       <r>   -4.3064    1.0000 </r>
       <r>   -4.2522    1.0000 </r>
       <r>   -4.1096    1.0000 </r>
       <r>   -3.8889    1.0000 </r>
       <r>   -3.8097    1.0000 </r>
       <r>   -2.2836    0.0000 </r>
       <r>   -1.6024    0.0000 </r>
       <r>   -0.0956    0.0000 </r>
       <r>    0.2312    0.0000 </r>
       <r>    0.6189    0.0000 </r>
       <r>    0.8001    0.0000 </r>
       <r>    1.1929    0.0000 </r>
       <r>    1.2692    0.0000 </r>
       <r>    1.2888    0.0000 </r>
       <r>    1.3914    0.0000 </r>
       <r>    1.6211    0.0000 </r>
       <r>    2.0168    0.0000 </r>
       <r>    2.1980    0.0000 </r>
       <r>    2.3348    0.0000 </r>
       <r>    2.3902    0.0000 </r>
       <r>    2.4292    0.0000 </r>
       <r>    2.8229    0.0000 </r>
       <r>    2.9849    0.0000 </r>
       <r>    3.0544    0.0000 </r>
      </set>
      <set comment="kpoint 25">
       <r>  -18.2077    1.0000 </r>
       <r>  -18.0031    1.0000 </r>
       <r>  -17.8717    1.0000 </r>
       <r>  -17.6900    1.0000 </r>
       <r>  -14.2435    1.0000 </r>
       <r>  -14.1021    1.0000 </r>
       <r>  -14.0474    1.0000 </r>
       <r>  -13.9291    1.0000 </r>
       <r>  -11.5792    1.0000 </r>
       <r>  -11.5105    1.0000 </r>
       <r>  -11.3543    1.0000 </r>
       <r>  -11.3500    1.0000 </r>
       <r>  -10.9748    1.0000 </r>
       <r>  -10.7217    1.0000 </r>
       <r>   -9.9920    1.0000 </r>
       <r>   -9.5103    1.0000 </r>
       <r>   -9.4650    1.0000 </r>
       <r>   -9.0707    1.0000 </r>
       <r>   -9.0096    1.0000 </r>
       <r>   -8.9324    1.0000 </r>
       <r>   -8.1918    1.0000 </r>
       <r>   -7.7529    1.0000 </r>
       <r>   -7.7520    1.0000 </r>
       <r>   -7.3802    1.0000 </r>
       <r>   -7.2368    1.0000 </r>
       <r>   -7.1543    1.0000 </r>
       <r>   -6.7567    1.0000 </r>
       <r>   -6.6186    1.0000 </r>
       <r>   -6.2382    1.0000 </r>
       <r>   -6.2176    1.0000 </r>
       <r>   -6.0263    1.0000 </r>
       <r>   -5.7546    1.0000 </r>
       <r>   -5.6460    1.0000 </r>
       <r>   -5.4299    1.0000 </r>
       <r>   -5.3481    1.0000 </r>
       <r>   -5.0054    1.0000 </r>
       <r>   -4.9383    1.0000 </r>
       <r>   -4.8248    1.0000 </r>
       <r>   -4.7050    1.0000 </r>
       <r>   -4.6190    1.0000 </r>
       <r>   -4.4434    1.0000 </r>
       <r>   -4.1628    1.0000 </r>
       <r>   -3.9300    1.0000 </r>
       <r>   -3.6319    1.0000 </r>
       <r>   -2.2507    0.0000 </r>
       <r>   -1.5251    0.0000 </r>
       <r>   -0.1652    0.0000 </r>
       <r>    0.5114    0.0000 </r>
       <r>    0.6766    0.0000 </r>
       <r>    0.6820    0.0000 </r>
       <r>    1.0127    0.0000 </r>
       <r>    1.2393    0.0000 </r>
       <r>    1.3779    0.0000 </r>
       <r>    1.4844    0.0000 </r>
       <r>    1.5913    0.0000 </r>
       <r>    2.0372    0.0000 </r>
       <r>    2.0726    0.0000 </r>
       <r>    2.1386    0.0000 </r>
       <r>    2.4084    0.0000 </r>
       <r>    2.4380    0.0000 </r>
       <r>    2.8981    0.0000 </r>
       <r>    3.0117    0.0000 </r>
       <r>    3.0846    0.0000 </r>
      </set>
      <set comment="kpoint 26">
       <r>  -18.5204    1.0000 </r>
       <r>  -18.3120    1.0000 </r>
       <r>  -17.4726    1.0000 </r>
       <r>  -17.2990    1.0000 </r>
       <r>  -14.3264    1.0000 </r>
       <r>  -14.1392    1.0000 </r>
       <r>  -13.6670    1.0000 </r>
       <r>  -13.4954    1.0000 </r>
       <r>  -12.3076    1.0000 </r>
       <r>  -12.0934    1.0000 </r>
       <r>  -11.7930    1.0000 </r>
       <r>  -11.3929    1.0000 </r>
       <r>  -11.1034    1.0000 </r>
       <r>  -10.5705    1.0000 </r>
       <r>  -10.3110    1.0000 </r>
       <r>   -9.4045    1.0000 </r>
       <r>   -9.2039    1.0000 </r>
       <r>   -8.8793    1.0000 </r>
       <r>   -8.8563    1.0000 </r>
       <r>   -8.6241    1.0000 </r>
       <r>   -8.0333    1.0000 </r>
       <r>   -7.7827    1.0000 </r>
       <r>   -7.6718    1.0000 </r>
       <r>   -7.1076    1.0000 </r>
       <r>   -6.9609    1.0000 </r>
       <r>   -6.8601    1.0000 </r>
       <r>   -6.8351    1.0000 </r>
       <r>   -6.6837    1.0000 </r>
       <r>   -6.4917    1.0000 </r>
       <r>   -6.4469    1.0000 </r>
       <r>   -6.2074    1.0000 </r>
       <r>   -6.1436    1.0000 </r>
       <r>   -5.7949    1.0000 </r>
       <r>   -5.6716    1.0000 </r>
       <r>   -5.3549    1.0000 </r>
       <r>   -5.1910    1.0000 </r>
       <r>   -5.1234    1.0000 </r>
       <r>   -5.0806    1.0000 </r>
       <r>   -4.8406    1.0000 </r>
       <r>   -4.3572    1.0000 </r>
       <r>   -4.2753    1.0000 </r>
       <r>   -4.2187    1.0000 </r>
       <r>   -2.3314    0.0000 </r>
       <r>   -2.1098    0.0000 </r>
       <r>   -1.9118    0.0000 </r>
       <r>   -1.2798    0.0000 </r>
       <r>   -0.7430    0.0000 </r>
       <r>   -0.2556    0.0000 </r>
       <r>   -0.1137    0.0000 </r>
       <r>    0.2188    0.0000 </r>
       <r>    0.5850    0.0000 </r>
       <r>    0.6712    0.0000 </r>
       <r>    1.2010    0.0000 </r>
       <r>    1.5995    0.0000 </r>
       <r>    1.7127    0.0000 </r>
       <r>    1.9042    0.0000 </r>
       <r>    1.9528    0.0000 </r>
       <r>    2.2288    0.0000 </r>
       <r>    2.2625    0.0000 </r>
       <r>    2.6328    0.0000 </r>
       <r>    2.7042    0.0000 </r>
       <r>    2.9684    0.0000 </r>
       <r>    3.0612    0.0000 </r>
      </set>
      <set comment="kpoint 27">
       <r>  -18.5240    1.0000 </r>
       <r>  -18.3157    1.0000 </r>
       <r>  -17.4633    1.0000 </r>
       <r>  -17.2900    1.0000 </r>
       <r>  -14.3497    1.0000 </r>
       <r>  -14.1565    1.0000 </r>
       <r>  -13.6583    1.0000 </r>
       <r>  -13.4978    1.0000 </r>
       <r>  -12.3497    1.0000 </r>
       <r>  -12.1263    1.0000 </r>
       <r>  -11.7945    1.0000 </r>
       <r>  -11.3314    1.0000 </r>
       <r>  -11.0206    1.0000 </r>
       <r>  -10.5367    1.0000 </r>
       <r>  -10.3181    1.0000 </r>
       <r>   -9.2808    1.0000 </r>
       <r>   -9.1182    1.0000 </r>
       <r>   -8.9861    1.0000 </r>
       <r>   -8.8420    1.0000 </r>
       <r>   -8.6961    1.0000 </r>
       <r>   -8.0361    1.0000 </r>
       <r>   -7.8196    1.0000 </r>
       <r>   -7.8072    1.0000 </r>
       <r>   -7.0995    1.0000 </r>
       <r>   -6.9289    1.0000 </r>
       <r>   -6.9144    1.0000 </r>
       <r>   -6.8398    1.0000 </r>
       <r>   -6.7514    1.0000 </r>
       <r>   -6.6299    1.0000 </r>
       <r>   -6.4744    1.0000 </r>
       <r>   -6.1693    1.0000 </r>
       <r>   -5.9254    1.0000 </r>
       <r>   -5.8895    1.0000 </r>
       <r>   -5.7158    1.0000 </r>
       <r>   -5.3855    1.0000 </r>
       <r>   -5.0786    1.0000 </r>
       <r>   -4.9770    1.0000 </r>
       <r>   -4.9719    1.0000 </r>
       <r>   -4.8933    1.0000 </r>
       <r>   -4.6311    1.0000 </r>
       <r>   -4.2476    1.0000 </r>
       <r>   -4.0043    1.0000 </r>
       <r>   -2.4604    0.0000 </r>
       <r>   -2.1246    0.0000 </r>
       <r>   -1.9988    0.0000 </r>
       <r>   -1.2407    0.0000 </r>
       <r>   -0.4554    0.0000 </r>
       <r>   -0.1165    0.0000 </r>
       <r>   -0.0219    0.0000 </r>
       <r>    0.1009    0.0000 </r>
       <r>    0.5386    0.0000 </r>
       <r>    0.7336    0.0000 </r>
       <r>    0.9296    0.0000 </r>
       <r>    1.6252    0.0000 </r>
       <r>    1.6412    0.0000 </r>
       <r>    1.8918    0.0000 </r>
       <r>    1.9540    0.0000 </r>
       <r>    2.2910    0.0000 </r>
       <r>    2.3444    0.0000 </r>
       <r>    2.4162    0.0000 </r>
       <r>    2.6766    0.0000 </r>
       <r>    3.0215    0.0000 </r>
       <r>    3.0224    0.0000 </r>
      </set>
      <set comment="kpoint 28">
       <r>  -18.4756    1.0000 </r>
       <r>  -18.2680    1.0000 </r>
       <r>  -17.5341    1.0000 </r>
       <r>  -17.3590    1.0000 </r>
       <r>  -14.3731    1.0000 </r>
       <r>  -14.1866    1.0000 </r>
       <r>  -13.7142    1.0000 </r>
       <r>  -13.5352    1.0000 </r>
       <r>  -12.1367    1.0000 </r>
       <r>  -11.9174    1.0000 </r>
       <r>  -11.7481    1.0000 </r>
       <r>  -11.3058    1.0000 </r>
       <r>  -11.0526    1.0000 </r>
       <r>  -10.6391    1.0000 </r>
       <r>  -10.2490    1.0000 </r>
       <r>   -9.6751    1.0000 </r>
       <r>   -9.5000    1.0000 </r>
       <r>   -8.8933    1.0000 </r>
       <r>   -8.6766    1.0000 </r>
       <r>   -8.4316    1.0000 </r>
       <r>   -8.0653    1.0000 </r>
       <r>   -7.7389    1.0000 </r>
       <r>   -7.5550    1.0000 </r>
       <r>   -7.3114    1.0000 </r>
       <r>   -7.0419    1.0000 </r>
       <r>   -6.9453    1.0000 </r>
       <r>   -6.7516    1.0000 </r>
       <r>   -6.5958    1.0000 </r>
       <r>   -6.4686    1.0000 </r>
       <r>   -6.3256    1.0000 </r>
       <r>   -6.2612    1.0000 </r>
       <r>   -6.1716    1.0000 </r>
       <r>   -5.8143    1.0000 </r>
       <r>   -5.5457    1.0000 </r>
       <r>   -5.4202    1.0000 </r>
       <r>   -5.2662    1.0000 </r>
       <r>   -5.2321    1.0000 </r>
       <r>   -5.0575    1.0000 </r>
       <r>   -4.8007    1.0000 </r>
       <r>   -4.3757    1.0000 </r>
       <r>   -4.2151    1.0000 </r>
       <r>   -4.0525    1.0000 </r>
       <r>   -2.5909    0.0000 </r>
       <r>   -2.3254    0.0000 </r>
       <r>   -2.1559    0.0000 </r>
       <r>   -1.3967    0.0000 </r>
       <r>   -0.9092    0.0000 </r>
       <r>   -0.1644    0.0000 </r>
       <r>   -0.0888    0.0000 </r>
       <r>    0.4077    0.0000 </r>
       <r>    0.6904    0.0000 </r>
       <r>    1.0007    0.0000 </r>
       <r>    1.3693    0.0000 </r>
       <r>    1.6548    0.0000 </r>
       <r>    1.8835    0.0000 </r>
       <r>    1.9865    0.0000 </r>
       <r>    2.0258    0.0000 </r>
       <r>    2.1005    0.0000 </r>
       <r>    2.3064    0.0000 </r>
       <r>    2.7072    0.0000 </r>
       <r>    2.8380    0.0000 </r>
       <r>    2.9661    0.0000 </r>
       <r>    3.0798    0.0000 </r>
      </set>
      <set comment="kpoint 29">
       <r>  -18.4864    1.0000 </r>
       <r>  -18.2790    1.0000 </r>
       <r>  -17.5087    1.0000 </r>
       <r>  -17.3342    1.0000 </r>
       <r>  -14.4235    1.0000 </r>
       <r>  -14.2239    1.0000 </r>
       <r>  -13.7108    1.0000 </r>
       <r>  -13.5540    1.0000 </r>
       <r>  -12.2201    1.0000 </r>
       <r>  -11.9930    1.0000 </r>
       <r>  -11.7654    1.0000 </r>
       <r>  -11.1706    1.0000 </r>
       <r>  -10.8424    1.0000 </r>
       <r>  -10.5256    1.0000 </r>
       <r>  -10.2617    1.0000 </r>
       <r>   -9.4481    1.0000 </r>
       <r>   -9.3661    1.0000 </r>
       <r>   -8.8945    1.0000 </r>
       <r>   -8.8205    1.0000 </r>
       <r>   -8.5771    1.0000 </r>
       <r>   -8.0970    1.0000 </r>
       <r>   -7.9032    1.0000 </r>
       <r>   -7.8129    1.0000 </r>
       <r>   -7.2630    1.0000 </r>
       <r>   -7.1353    1.0000 </r>
       <r>   -6.9983    1.0000 </r>
       <r>   -6.9086    1.0000 </r>
       <r>   -6.6764    1.0000 </r>
       <r>   -6.4727    1.0000 </r>
       <r>   -6.4653    1.0000 </r>
       <r>   -6.2252    1.0000 </r>
       <r>   -5.8224    1.0000 </r>
       <r>   -5.7460    1.0000 </r>
       <r>   -5.7327    1.0000 </r>
       <r>   -5.4517    1.0000 </r>
       <r>   -5.1237    1.0000 </r>
       <r>   -5.0432    1.0000 </r>
       <r>   -4.8960    1.0000 </r>
       <r>   -4.7154    1.0000 </r>
       <r>   -4.6314    1.0000 </r>
       <r>   -4.2907    1.0000 </r>
       <r>   -3.7044    1.0000 </r>
       <r>   -2.8600    0.0000 </r>
       <r>   -2.5521    0.0000 </r>
       <r>   -2.1001    0.0000 </r>
       <r>   -1.2830    0.0000 </r>
       <r>   -0.6146    0.0000 </r>
       <r>    0.2080    0.0000 </r>
       <r>    0.2674    0.0000 </r>
       <r>    0.2818    0.0000 </r>
       <r>    0.7551    0.0000 </r>
       <r>    0.8010    0.0000 </r>
       <r>    0.9341    0.0000 </r>
       <r>    1.5554    0.0000 </r>
       <r>    1.6789    0.0000 </r>
       <r>    1.8881    0.0000 </r>
       <r>    2.0209    0.0000 </r>
       <r>    2.2502    0.0000 </r>
       <r>    2.3494    0.0000 </r>
       <r>    2.5773    0.0000 </r>
       <r>    2.7526    0.0000 </r>
       <r>    3.0133    0.0000 </r>
       <r>    3.0389    0.0000 </r>
      </set>
      <set comment="kpoint 30">
       <r>  -18.3932    1.0000 </r>
       <r>  -18.1872    1.0000 </r>
       <r>  -17.6392    1.0000 </r>
       <r>  -17.4614    1.0000 </r>
       <r>  -14.4211    1.0000 </r>
       <r>  -14.2335    1.0000 </r>
       <r>  -13.8358    1.0000 </r>
       <r>  -13.6515    1.0000 </r>
       <r>  -11.9023    1.0000 </r>
       <r>  -11.6280    1.0000 </r>
       <r>  -11.6095    1.0000 </r>
       <r>  -11.0925    1.0000 </r>
       <r>  -10.8617    1.0000 </r>
       <r>  -10.7358    1.0000 </r>
       <r>  -10.1550    1.0000 </r>
       <r>   -9.9866    1.0000 </r>
       <r>   -9.8182    1.0000 </r>
       <r>   -9.0089    1.0000 </r>
       <r>   -8.3946    1.0000 </r>
       <r>   -8.2489    1.0000 </r>
       <r>   -8.1570    1.0000 </r>
       <r>   -7.9272    1.0000 </r>
       <r>   -7.6883    1.0000 </r>
       <r>   -7.4828    1.0000 </r>
       <r>   -7.0356    1.0000 </r>
       <r>   -7.0144    1.0000 </r>
       <r>   -6.5993    1.0000 </r>
       <r>   -6.5912    1.0000 </r>
       <r>   -6.3705    1.0000 </r>
       <r>   -6.3562    1.0000 </r>
       <r>   -6.1719    1.0000 </r>
       <r>   -6.0301    1.0000 </r>
       <r>   -5.9374    1.0000 </r>
       <r>   -5.7444    1.0000 </r>
       <r>   -5.4915    1.0000 </r>
       <r>   -5.2028    1.0000 </r>
       <r>   -5.0910    1.0000 </r>
       <r>   -4.9063    1.0000 </r>
       <r>   -4.8608    1.0000 </r>
       <r>   -4.2203    1.0000 </r>
       <r>   -4.1977    1.0000 </r>
       <r>   -3.8078    1.0000 </r>
       <r>   -3.1750    0.0000 </r>
       <r>   -2.9933    0.0000 </r>
       <r>   -2.2263    0.0000 </r>
       <r>   -1.5439    0.0000 </r>
       <r>   -0.7741    0.0000 </r>
       <r>    0.0044    0.0000 </r>
       <r>    0.0784    0.0000 </r>
       <r>    0.6593    0.0000 </r>
       <r>    0.7793    0.0000 </r>
       <r>    1.3618    0.0000 </r>
       <r>    1.5150    0.0000 </r>
       <r>    1.5738    0.0000 </r>
       <r>    1.8266    0.0000 </r>
       <r>    1.9791    0.0000 </r>
       <r>    2.1868    0.0000 </r>
       <r>    2.2012    0.0000 </r>
       <r>    2.4198    0.0000 </r>
       <r>    2.4381    0.0000 </r>
       <r>    2.8652    0.0000 </r>
       <r>    2.9934    0.0000 </r>
       <r>    3.0847    0.0000 </r>
      </set>
      <set comment="kpoint 31">
       <r>  -18.4107    1.0000 </r>
       <r>  -18.2049    1.0000 </r>
       <r>  -17.6042    1.0000 </r>
       <r>  -17.4270    1.0000 </r>
       <r>  -14.4721    1.0000 </r>
       <r>  -14.2696    1.0000 </r>
       <r>  -13.8496    1.0000 </r>
       <r>  -13.6866    1.0000 </r>
       <r>  -11.9405    1.0000 </r>
       <r>  -11.7190    1.0000 </r>
       <r>  -11.6965    1.0000 </r>
       <r>  -11.0288    1.0000 </r>
       <r>  -10.5956    1.0000 </r>
       <r>  -10.4594    1.0000 </r>
       <r>  -10.1459    1.0000 </r>
       <r>   -9.7690    1.0000 </r>
       <r>   -9.7315    1.0000 </r>
       <r>   -8.8178    1.0000 </r>
       <r>   -8.7077    1.0000 </r>
       <r>   -8.4594    1.0000 </r>
       <r>   -8.2534    1.0000 </r>
       <r>   -8.0936    1.0000 </r>
       <r>   -8.0298    1.0000 </r>
       <r>   -7.2680    1.0000 </r>
       <r>   -7.2070    1.0000 </r>
       <r>   -7.0893    1.0000 </r>
       <r>   -6.9148    1.0000 </r>
       <r>   -6.6371    1.0000 </r>
       <r>   -6.3949    1.0000 </r>
       <r>   -6.2269    1.0000 </r>
       <r>   -6.1171    1.0000 </r>
       <r>   -5.8484    1.0000 </r>
       <r>   -5.8310    1.0000 </r>
       <r>   -5.6675    1.0000 </r>
       <r>   -5.5426    1.0000 </r>
       <r>   -5.1136    1.0000 </r>
       <r>   -5.0391    1.0000 </r>
       <r>   -4.9315    1.0000 </r>
       <r>   -4.5102    1.0000 </r>
       <r>   -4.4236    1.0000 </r>
       <r>   -4.3194    1.0000 </r>
       <r>   -3.4636    0.9999 </r>
       <r>   -3.4547    0.9998 </r>
       <r>   -3.2083    0.0003 </r>
       <r>   -2.1457    0.0000 </r>
       <r>   -1.3611    0.0000 </r>
       <r>   -0.6675    0.0000 </r>
       <r>    0.3737    0.0000 </r>
       <r>    0.3763    0.0000 </r>
       <r>    0.7049    0.0000 </r>
       <r>    0.8812    0.0000 </r>
       <r>    1.0195    0.0000 </r>
       <r>    1.2550    0.0000 </r>
       <r>    1.4741    0.0000 </r>
       <r>    1.5570    0.0000 </r>
       <r>    1.6871    0.0000 </r>
       <r>    2.2139    0.0000 </r>
       <r>    2.3348    0.0000 </r>
       <r>    2.3480    0.0000 </r>
       <r>    2.7196    0.0000 </r>
       <r>    2.8294    0.0000 </r>
       <r>    2.9037    0.0000 </r>
       <r>    2.9591    0.0000 </r>
      </set>
      <set comment="kpoint 32">
       <r>  -18.2833    1.0000 </r>
       <r>  -18.0789    1.0000 </r>
       <r>  -17.7700    1.0000 </r>
       <r>  -17.5895    1.0000 </r>
       <r>  -14.4157    1.0000 </r>
       <r>  -14.2286    1.0000 </r>
       <r>  -14.0153    1.0000 </r>
       <r>  -13.8251    1.0000 </r>
       <r>  -11.6892    1.0000 </r>
       <r>  -11.3941    1.0000 </r>
       <r>  -11.2822    1.0000 </r>
       <r>  -10.8462    1.0000 </r>
       <r>  -10.8178    1.0000 </r>
       <r>  -10.6285    1.0000 </r>
       <r>  -10.2016    1.0000 </r>
       <r>  -10.1204    1.0000 </r>
       <r>   -9.9503    1.0000 </r>
       <r>   -9.1784    1.0000 </r>
       <r>   -8.6448    1.0000 </r>
       <r>   -8.3728    1.0000 </r>
       <r>   -8.1147    1.0000 </r>
       <r>   -7.8544    1.0000 </r>
       <r>   -7.8075    1.0000 </r>
       <r>   -7.5842    1.0000 </r>
       <r>   -7.1712    1.0000 </r>
       <r>   -7.0861    1.0000 </r>
       <r>   -6.6228    1.0000 </r>
       <r>   -6.5123    1.0000 </r>
       <r>   -6.2726    1.0000 </r>
       <r>   -6.2643    1.0000 </r>
       <r>   -6.0637    1.0000 </r>
       <r>   -5.9170    1.0000 </r>
       <r>   -5.8908    1.0000 </r>
       <r>   -5.7652    1.0000 </r>
       <r>   -5.4802    1.0000 </r>
       <r>   -5.2064    1.0000 </r>
       <r>   -4.9034    1.0000 </r>
       <r>   -4.8826    1.0000 </r>
       <r>   -4.8143    1.0000 </r>
       <r>   -4.2091    1.0000 </r>
       <r>   -3.9939    1.0000 </r>
       <r>   -3.8518    1.0000 </r>
       <r>   -3.6823    1.0000 </r>
       <r>   -3.6316    1.0000 </r>
       <r>   -2.2823    0.0000 </r>
       <r>   -1.6485    0.0000 </r>
       <r>   -0.4622    0.0000 </r>
       <r>    0.1608    0.0000 </r>
       <r>    0.3641    0.0000 </r>
       <r>    0.8944    0.0000 </r>
       <r>    0.9114    0.0000 </r>
       <r>    1.2971    0.0000 </r>
       <r>    1.5449    0.0000 </r>
       <r>    1.6045    0.0000 </r>
       <r>    1.6519    0.0000 </r>
       <r>    1.7899    0.0000 </r>
       <r>    2.1062    0.0000 </r>
       <r>    2.2036    0.0000 </r>
       <r>    2.5841    0.0000 </r>
       <r>    2.5989    0.0000 </r>
       <r>    2.9326    0.0000 </r>
       <r>    2.9371    0.0000 </r>
       <r>    3.0160    0.0000 </r>
      </set>
      <set comment="kpoint 33">
       <r>  -18.3055    1.0000 </r>
       <r>  -18.1015    1.0000 </r>
       <r>  -17.7341    1.0000 </r>
       <r>  -17.5538    1.0000 </r>
       <r>  -14.4526    1.0000 </r>
       <r>  -14.2504    1.0000 </r>
       <r>  -14.0312    1.0000 </r>
       <r>  -13.8593    1.0000 </r>
       <r>  -11.5959    1.0000 </r>
       <r>  -11.5945    1.0000 </r>
       <r>  -11.3833    1.0000 </r>
       <r>  -11.0499    1.0000 </r>
       <r>  -10.3263    1.0000 </r>
       <r>  -10.1907    1.0000 </r>
       <r>  -10.1298    1.0000 </r>
       <r>  -10.1149    1.0000 </r>
       <r>   -9.9159    1.0000 </r>
       <r>   -8.9234    1.0000 </r>
       <r>   -8.9036    1.0000 </r>
       <r>   -8.7180    1.0000 </r>
       <r>   -8.3098    1.0000 </r>
       <r>   -8.0640    1.0000 </r>
       <r>   -8.0014    1.0000 </r>
       <r>   -7.3828    1.0000 </r>
       <r>   -7.1109    1.0000 </r>
       <r>   -7.1082    1.0000 </r>
       <r>   -6.9542    1.0000 </r>
       <r>   -6.6852    1.0000 </r>
       <r>   -6.2384    1.0000 </r>
       <r>   -6.1192    1.0000 </r>
       <r>   -5.9019    1.0000 </r>
       <r>   -5.8162    1.0000 </r>
       <r>   -5.8106    1.0000 </r>
       <r>   -5.6760    1.0000 </r>
       <r>   -5.4399    1.0000 </r>
       <r>   -5.0634    1.0000 </r>
       <r>   -5.0548    1.0000 </r>
       <r>   -4.9183    1.0000 </r>
       <r>   -4.4101    1.0000 </r>
       <r>   -4.3356    1.0000 </r>
       <r>   -4.3021    1.0000 </r>
       <r>   -4.1260    1.0000 </r>
       <r>   -3.7814    1.0000 </r>
       <r>   -3.3441    0.6744 </r>
       <r>   -2.1962    0.0000 </r>
       <r>   -1.4594    0.0000 </r>
       <r>   -0.4982    0.0000 </r>
       <r>    0.5099    0.0000 </r>
       <r>    0.5333    0.0000 </r>
       <r>    0.9392    0.0000 </r>
       <r>    0.9560    0.0000 </r>
       <r>    1.0542    0.0000 </r>
       <r>    1.3821    0.0000 </r>
       <r>    1.5181    0.0000 </r>
       <r>    1.5379    0.0000 </r>
       <r>    1.6877    0.0000 </r>
       <r>    2.1180    0.0000 </r>
       <r>    2.2364    0.0000 </r>
       <r>    2.4189    0.0000 </r>
       <r>    2.6565    0.0000 </r>
       <r>    2.8591    0.0000 </r>
       <r>    2.9931    0.0000 </r>
       <r>    3.0389    0.0000 </r>
      </set>
      <set comment="kpoint 34">
       <r>  -18.1802    1.0000 </r>
       <r>  -17.9756    1.0000 </r>
       <r>  -17.8835    1.0000 </r>
       <r>  -17.7026    1.0000 </r>
       <r>  -14.3417    1.0000 </r>
       <r>  -14.2031    1.0000 </r>
       <r>  -14.1581    1.0000 </r>
       <r>  -14.0067    1.0000 </r>
       <r>  -11.5218    1.0000 </r>
       <r>  -11.2654    1.0000 </r>
       <r>  -10.9650    1.0000 </r>
       <r>  -10.9297    1.0000 </r>
       <r>  -10.7344    1.0000 </r>
       <r>  -10.6962    1.0000 </r>
       <r>   -9.9850    1.0000 </r>
       <r>   -9.9072    1.0000 </r>
       <r>   -9.8374    1.0000 </r>
       <r>   -9.3584    1.0000 </r>
       <r>   -9.1662    1.0000 </r>
       <r>   -8.8153    1.0000 </r>
       <r>   -8.1171    1.0000 </r>
       <r>   -7.7939    1.0000 </r>
       <r>   -7.5158    1.0000 </r>
       <r>   -7.4924    1.0000 </r>
       <r>   -7.4035    1.0000 </r>
       <r>   -7.3126    1.0000 </r>
       <r>   -6.6169    1.0000 </r>
       <r>   -6.6084    1.0000 </r>
       <r>   -6.4795    1.0000 </r>
       <r>   -6.1741    1.0000 </r>
       <r>   -5.7697    1.0000 </r>
       <r>   -5.6897    1.0000 </r>
       <r>   -5.5604    1.0000 </r>
       <r>   -5.5343    1.0000 </r>
       <r>   -5.4668    1.0000 </r>
       <r>   -5.2275    1.0000 </r>
       <r>   -4.9202    1.0000 </r>
       <r>   -4.8902    1.0000 </r>
       <r>   -4.7485    1.0000 </r>
       <r>   -4.4804    1.0000 </r>
       <r>   -4.4029    1.0000 </r>
       <r>   -4.1824    1.0000 </r>
       <r>   -3.6890    1.0000 </r>
       <r>   -3.5593    1.0000 </r>
       <r>   -2.2900    0.0000 </r>
       <r>   -1.6575    0.0000 </r>
       <r>   -0.1262    0.0000 </r>
       <r>    0.3250    0.0000 </r>
       <r>    0.6407    0.0000 </r>
       <r>    0.8637    0.0000 </r>
       <r>    1.0602    0.0000 </r>
       <r>    1.1222    0.0000 </r>
       <r>    1.3495    0.0000 </r>
       <r>    1.4321    0.0000 </r>
       <r>    1.5629    0.0000 </r>
       <r>    1.9012    0.0000 </r>
       <r>    2.1950    0.0000 </r>
       <r>    2.2328    0.0000 </r>
       <r>    2.4408    0.0000 </r>
       <r>    2.5211    0.0000 </r>
       <r>    2.7802    0.0000 </r>
       <r>    2.9931    0.0000 </r>
       <r>    3.0239    0.0000 </r>
      </set>
      <set comment="kpoint 35">
       <r>  -18.1961    1.0000 </r>
       <r>  -17.9924    1.0000 </r>
       <r>  -17.8624    1.0000 </r>
       <r>  -17.6809    1.0000 </r>
       <r>  -14.3583    1.0000 </r>
       <r>  -14.2063    1.0000 </r>
       <r>  -14.1595    1.0000 </r>
       <r>  -14.0261    1.0000 </r>
       <r>  -11.4965    1.0000 </r>
       <r>  -11.2537    1.0000 </r>
       <r>  -11.1769    1.0000 </r>
       <r>  -11.0493    1.0000 </r>
       <r>  -10.5543    1.0000 </r>
       <r>  -10.4458    1.0000 </r>
       <r>   -9.9996    1.0000 </r>
       <r>   -9.7622    1.0000 </r>
       <r>   -9.6624    1.0000 </r>
       <r>   -9.4096    1.0000 </r>
       <r>   -9.2771    1.0000 </r>
       <r>   -8.9834    1.0000 </r>
       <r>   -8.2295    1.0000 </r>
       <r>   -7.8307    1.0000 </r>
       <r>   -7.7210    1.0000 </r>
       <r>   -7.4823    1.0000 </r>
       <r>   -7.2738    1.0000 </r>
       <r>   -7.1787    1.0000 </r>
       <r>   -6.8701    1.0000 </r>
       <r>   -6.6910    1.0000 </r>
       <r>   -6.3243    1.0000 </r>
       <r>   -6.1262    1.0000 </r>
       <r>   -5.8523    1.0000 </r>
       <r>   -5.6495    1.0000 </r>
       <r>   -5.5265    1.0000 </r>
       <r>   -5.3651    1.0000 </r>
       <r>   -5.3142    1.0000 </r>
       <r>   -5.1032    1.0000 </r>
       <r>   -5.0357    1.0000 </r>
       <r>   -4.8975    1.0000 </r>
       <r>   -4.7892    1.0000 </r>
       <r>   -4.6918    1.0000 </r>
       <r>   -4.4141    1.0000 </r>
       <r>   -4.2317    1.0000 </r>
       <r>   -3.7961    1.0000 </r>
       <r>   -3.3861    0.9493 </r>
       <r>   -2.2509    0.0000 </r>
       <r>   -1.5762    0.0000 </r>
       <r>   -0.1785    0.0000 </r>
       <r>    0.5533    0.0000 </r>
       <r>    0.6729    0.0000 </r>
       <r>    0.7030    0.0000 </r>
       <r>    1.0495    0.0000 </r>
       <r>    1.2379    0.0000 </r>
       <r>    1.2868    0.0000 </r>
       <r>    1.3682    0.0000 </r>
       <r>    1.5932    0.0000 </r>
       <r>    1.9578    0.0000 </r>
       <r>    2.1124    0.0000 </r>
       <r>    2.2414    0.0000 </r>
       <r>    2.3424    0.0000 </r>
       <r>    2.3994    0.0000 </r>
       <r>    2.8328    0.0000 </r>
       <r>    2.9865    0.0000 </r>
       <r>    3.1102    0.0000 </r>
      </set>
      <set comment="kpoint 36">
       <r>  -18.4970    1.0000 </r>
       <r>  -18.2891    1.0000 </r>
       <r>  -17.5113    1.0000 </r>
       <r>  -17.3364    1.0000 </r>
       <r>  -14.3208    1.0000 </r>
       <r>  -14.1337    1.0000 </r>
       <r>  -13.5639    1.0000 </r>
       <r>  -13.3988    1.0000 </r>
       <r>  -12.5053    1.0000 </r>
       <r>  -12.2884    1.0000 </r>
       <r>  -11.7522    1.0000 </r>
       <r>  -11.4783    1.0000 </r>
       <r>  -11.1863    1.0000 </r>
       <r>  -10.6430    1.0000 </r>
       <r>  -10.2698    1.0000 </r>
       <r>   -9.1329    1.0000 </r>
       <r>   -8.9571    1.0000 </r>
       <r>   -8.8999    1.0000 </r>
       <r>   -8.4453    1.0000 </r>
       <r>   -8.1869    1.0000 </r>
       <r>   -7.8523    1.0000 </r>
       <r>   -7.7064    1.0000 </r>
       <r>   -7.5849    1.0000 </r>
       <r>   -7.2017    1.0000 </r>
       <r>   -7.1430    1.0000 </r>
       <r>   -7.0910    1.0000 </r>
       <r>   -6.9102    1.0000 </r>
       <r>   -6.8920    1.0000 </r>
       <r>   -6.6579    1.0000 </r>
       <r>   -6.5062    1.0000 </r>
       <r>   -6.4306    1.0000 </r>
       <r>   -6.2828    1.0000 </r>
       <r>   -6.0112    1.0000 </r>
       <r>   -5.8167    1.0000 </r>
       <r>   -5.2869    1.0000 </r>
       <r>   -5.2709    1.0000 </r>
       <r>   -5.1200    1.0000 </r>
       <r>   -5.0272    1.0000 </r>
       <r>   -4.7859    1.0000 </r>
       <r>   -4.5454    1.0000 </r>
       <r>   -4.4051    1.0000 </r>
       <r>   -4.1710    1.0000 </r>
       <r>   -2.1533    0.0000 </r>
       <r>   -2.1087    0.0000 </r>
       <r>   -1.7542    0.0000 </r>
       <r>   -1.3088    0.0000 </r>
       <r>   -0.7743    0.0000 </r>
       <r>   -0.3113    0.0000 </r>
       <r>    0.0714    0.0000 </r>
       <r>    0.5178    0.0000 </r>
       <r>    0.5595    0.0000 </r>
       <r>    0.8322    0.0000 </r>
       <r>    1.3566    0.0000 </r>
       <r>    1.4017    0.0000 </r>
       <r>    1.7872    0.0000 </r>
       <r>    1.9829    0.0000 </r>
       <r>    2.0433    0.0000 </r>
       <r>    2.1227    0.0000 </r>
       <r>    2.4666    0.0000 </r>
       <r>    2.8286    0.0000 </r>
       <r>    2.8365    0.0000 </r>
       <r>    3.0410    0.0000 </r>
       <r>    3.0718    0.0000 </r>
      </set>
      <set comment="kpoint 37">
       <r>  -18.4985    1.0000 </r>
       <r>  -18.2907    1.0000 </r>
       <r>  -17.5075    1.0000 </r>
       <r>  -17.3328    1.0000 </r>
       <r>  -14.3290    1.0000 </r>
       <r>  -14.1397    1.0000 </r>
       <r>  -13.5620    1.0000 </r>
       <r>  -13.4018    1.0000 </r>
       <r>  -12.5180    1.0000 </r>
       <r>  -12.2971    1.0000 </r>
       <r>  -11.7524    1.0000 </r>
       <r>  -11.4592    1.0000 </r>
       <r>  -11.1590    1.0000 </r>
       <r>  -10.6298    1.0000 </r>
       <r>  -10.2732    1.0000 </r>
       <r>   -9.0902    1.0000 </r>
       <r>   -8.9629    1.0000 </r>
       <r>   -8.8424    1.0000 </r>
       <r>   -8.4965    1.0000 </r>
       <r>   -8.2437    1.0000 </r>
       <r>   -7.8167    1.0000 </r>
       <r>   -7.7469    1.0000 </r>
       <r>   -7.5544    1.0000 </r>
       <r>   -7.2477    1.0000 </r>
       <r>   -7.1148    1.0000 </r>
       <r>   -7.0967    1.0000 </r>
       <r>   -7.0098    1.0000 </r>
       <r>   -6.8931    1.0000 </r>
       <r>   -6.6448    1.0000 </r>
       <r>   -6.6115    1.0000 </r>
       <r>   -6.3032    1.0000 </r>
       <r>   -6.2852    1.0000 </r>
       <r>   -6.0355    1.0000 </r>
       <r>   -5.8476    1.0000 </r>
       <r>   -5.2677    1.0000 </r>
       <r>   -5.1752    1.0000 </r>
       <r>   -5.0674    1.0000 </r>
       <r>   -5.0213    1.0000 </r>
       <r>   -4.8183    1.0000 </r>
       <r>   -4.6797    1.0000 </r>
       <r>   -4.2642    1.0000 </r>
       <r>   -4.1826    1.0000 </r>
       <r>   -2.2174    0.0000 </r>
       <r>   -2.1028    0.0000 </r>
       <r>   -1.8152    0.0000 </r>
       <r>   -1.2942    0.0000 </r>
       <r>   -0.6637    0.0000 </r>
       <r>   -0.2077    0.0000 </r>
       <r>    0.0669    0.0000 </r>
       <r>    0.3907    0.0000 </r>
       <r>    0.6685    0.0000 </r>
       <r>    0.8431    0.0000 </r>
       <r>    1.2218    0.0000 </r>
       <r>    1.3747    0.0000 </r>
       <r>    1.8217    0.0000 </r>
       <r>    1.9503    0.0000 </r>
       <r>    1.9902    0.0000 </r>
       <r>    2.2605    0.0000 </r>
       <r>    2.5180    0.0000 </r>
       <r>    2.6590    0.0000 </r>
       <r>    2.8718    0.0000 </r>
       <r>    2.9914    0.0000 </r>
       <r>    2.9999    0.0000 </r>
      </set>
      <set comment="kpoint 38">
       <r>  -18.4556    1.0000 </r>
       <r>  -18.2486    1.0000 </r>
       <r>  -17.5604    1.0000 </r>
       <r>  -17.3844    1.0000 </r>
       <r>  -14.3928    1.0000 </r>
       <r>  -14.2028    1.0000 </r>
       <r>  -13.6759    1.0000 </r>
       <r>  -13.5034    1.0000 </r>
       <r>  -12.2440    1.0000 </r>
       <r>  -12.0292    1.0000 </r>
       <r>  -11.7221    1.0000 </r>
       <r>  -11.3585    1.0000 </r>
       <r>  -11.0950    1.0000 </r>
       <r>  -10.6741    1.0000 </r>
       <r>  -10.2121    1.0000 </r>
       <r>   -9.3242    1.0000 </r>
       <r>   -9.1818    1.0000 </r>
       <r>   -8.9214    1.0000 </r>
       <r>   -8.3391    1.0000 </r>
       <r>   -8.1128    1.0000 </r>
       <r>   -8.0737    1.0000 </r>
       <r>   -7.8491    1.0000 </r>
       <r>   -7.7350    1.0000 </r>
       <r>   -7.2333    1.0000 </r>
       <r>   -7.1873    1.0000 </r>
       <r>   -7.0702    1.0000 </r>
       <r>   -6.8147    1.0000 </r>
       <r>   -6.7751    1.0000 </r>
       <r>   -6.6099    1.0000 </r>
       <r>   -6.5674    1.0000 </r>
       <r>   -6.2297    1.0000 </r>
       <r>   -6.1770    1.0000 </r>
       <r>   -6.1403    1.0000 </r>
       <r>   -5.6093    1.0000 </r>
       <r>   -5.4693    1.0000 </r>
       <r>   -5.2516    1.0000 </r>
       <r>   -5.1283    1.0000 </r>
       <r>   -5.0491    1.0000 </r>
       <r>   -4.8551    1.0000 </r>
       <r>   -4.2356    1.0000 </r>
       <r>   -4.2126    1.0000 </r>
       <r>   -4.1944    1.0000 </r>
       <r>   -2.5737    0.0000 </r>
       <r>   -2.3211    0.0000 </r>
       <r>   -2.1415    0.0000 </r>
       <r>   -1.3912    0.0000 </r>
       <r>   -0.8280    0.0000 </r>
       <r>   -0.0684    0.0000 </r>
       <r>    0.2638    0.0000 </r>
       <r>    0.4713    0.0000 </r>
       <r>    0.9223    0.0000 </r>
       <r>    0.9311    0.0000 </r>
       <r>    1.3998    0.0000 </r>
       <r>    1.6301    0.0000 </r>
       <r>    1.6966    0.0000 </r>
       <r>    1.9118    0.0000 </r>
       <r>    1.9558    0.0000 </r>
       <r>    2.2650    0.0000 </r>
       <r>    2.5171    0.0000 </r>
       <r>    2.6307    0.0000 </r>
       <r>    2.8286    0.0000 </r>
       <r>    3.0537    0.0000 </r>
       <r>    3.0668    0.0000 </r>
      </set>
      <set comment="kpoint 39">
       <r>  -18.4602    1.0000 </r>
       <r>  -18.2533    1.0000 </r>
       <r>  -17.5501    1.0000 </r>
       <r>  -17.3743    1.0000 </r>
       <r>  -14.4110    1.0000 </r>
       <r>  -14.2162    1.0000 </r>
       <r>  -13.6776    1.0000 </r>
       <r>  -13.5138    1.0000 </r>
       <r>  -12.2715    1.0000 </r>
       <r>  -12.0532    1.0000 </r>
       <r>  -11.7277    1.0000 </r>
       <r>  -11.3127    1.0000 </r>
       <r>  -11.0214    1.0000 </r>
       <r>  -10.6308    1.0000 </r>
       <r>  -10.2198    1.0000 </r>
       <r>   -9.2158    1.0000 </r>
       <r>   -9.1410    1.0000 </r>
       <r>   -8.8312    1.0000 </r>
       <r>   -8.4918    1.0000 </r>
       <r>   -8.2414    1.0000 </r>
       <r>   -8.0475    1.0000 </r>
       <r>   -7.8977    1.0000 </r>
       <r>   -7.8223    1.0000 </r>
       <r>   -7.2239    1.0000 </r>
       <r>   -7.0868    1.0000 </r>
       <r>   -7.0810    1.0000 </r>
       <r>   -6.8889    1.0000 </r>
       <r>   -6.8440    1.0000 </r>
       <r>   -6.7695    1.0000 </r>
       <r>   -6.4662    1.0000 </r>
       <r>   -6.3813    1.0000 </r>
       <r>   -6.1166    1.0000 </r>
       <r>   -5.9935    1.0000 </r>
       <r>   -5.6969    1.0000 </r>
       <r>   -5.4390    1.0000 </r>
       <r>   -5.1781    1.0000 </r>
       <r>   -5.0748    1.0000 </r>
       <r>   -4.9031    1.0000 </r>
       <r>   -4.8976    1.0000 </r>
       <r>   -4.4366    1.0000 </r>
       <r>   -4.2244    1.0000 </r>
       <r>   -3.9523    1.0000 </r>
       <r>   -2.6881    0.0000 </r>
       <r>   -2.4124    0.0000 </r>
       <r>   -2.1290    0.0000 </r>
       <r>   -1.3469    0.0000 </r>
       <r>   -0.7070    0.0000 </r>
       <r>    0.1051    0.0000 </r>
       <r>    0.3535    0.0000 </r>
       <r>    0.4923    0.0000 </r>
       <r>    0.8418    0.0000 </r>
       <r>    0.9561    0.0000 </r>
       <r>    1.2834    0.0000 </r>
       <r>    1.3387    0.0000 </r>
       <r>    1.8149    0.0000 </r>
       <r>    1.8220    0.0000 </r>
       <r>    1.9981    0.0000 </r>
       <r>    2.4052    0.0000 </r>
       <r>    2.5221    0.0000 </r>
       <r>    2.5698    0.0000 </r>
       <r>    2.7847    0.0000 </r>
       <r>    3.0148    0.0000 </r>
       <r>    3.1175    0.0000 </r>
      </set>
      <set comment="kpoint 40">
       <r>  -18.3783    1.0000 </r>
       <r>  -18.1728    1.0000 </r>
       <r>  -17.6498    1.0000 </r>
       <r>  -17.4717    1.0000 </r>
       <r>  -14.4645    1.0000 </r>
       <r>  -14.2713    1.0000 </r>
       <r>  -13.8644    1.0000 </r>
       <r>  -13.6843    1.0000 </r>
       <r>  -11.8444    1.0000 </r>
       <r>  -11.6122    1.0000 </r>
       <r>  -11.5933    1.0000 </r>
       <r>  -11.1737    1.0000 </r>
       <r>  -10.9144    1.0000 </r>
       <r>  -10.7094    1.0000 </r>
       <r>  -10.1126    1.0000 </r>
       <r>   -9.6032    1.0000 </r>
       <r>   -9.4722    1.0000 </r>
       <r>   -9.0202    1.0000 </r>
       <r>   -8.5211    1.0000 </r>
       <r>   -8.2587    1.0000 </r>
       <r>   -8.2039    1.0000 </r>
       <r>   -7.9256    1.0000 </r>
       <r>   -7.8545    1.0000 </r>
       <r>   -7.4264    1.0000 </r>
       <r>   -7.0511    1.0000 </r>
       <r>   -6.9206    1.0000 </r>
       <r>   -6.7856    1.0000 </r>
       <r>   -6.6761    1.0000 </r>
       <r>   -6.6533    1.0000 </r>
       <r>   -6.5040    1.0000 </r>
       <r>   -6.2456    1.0000 </r>
       <r>   -5.9838    1.0000 </r>
       <r>   -5.9635    1.0000 </r>
       <r>   -5.8087    1.0000 </r>
       <r>   -5.5158    1.0000 </r>
       <r>   -5.2115    1.0000 </r>
       <r>   -4.9315    1.0000 </r>
       <r>   -4.9182    1.0000 </r>
       <r>   -4.8505    1.0000 </r>
       <r>   -4.2379    1.0000 </r>
       <r>   -3.9305    1.0000 </r>
       <r>   -3.8964    1.0000 </r>
       <r>   -3.2769    0.0737 </r>
       <r>   -3.0836    0.0000 </r>
       <r>   -2.2052    0.0000 </r>
       <r>   -1.5149    0.0000 </r>
       <r>   -0.6904    0.0000 </r>
       <r>    0.1974    0.0000 </r>
       <r>    0.3506    0.0000 </r>
       <r>    0.6356    0.0000 </r>
       <r>    1.0920    0.0000 </r>
       <r>    1.2111    0.0000 </r>
       <r>    1.4117    0.0000 </r>
       <r>    1.4845    0.0000 </r>
       <r>    1.7223    0.0000 </r>
       <r>    1.8441    0.0000 </r>
       <r>    1.9481    0.0000 </r>
       <r>    2.3386    0.0000 </r>
       <r>    2.5930    0.0000 </r>
       <r>    2.6556    0.0000 </r>
       <r>    2.8680    0.0000 </r>
       <r>    2.9260    0.0000 </r>
       <r>    3.0514    0.0000 </r>
      </set>
      <set comment="kpoint 41">
       <r>  -18.3857    1.0000 </r>
       <r>  -18.1803    1.0000 </r>
       <r>  -17.6355    1.0000 </r>
       <r>  -17.4576    1.0000 </r>
       <r>  -14.4838    1.0000 </r>
       <r>  -14.2851    1.0000 </r>
       <r>  -13.8707    1.0000 </r>
       <r>  -13.6984    1.0000 </r>
       <r>  -11.8578    1.0000 </r>
       <r>  -11.6563    1.0000 </r>
       <r>  -11.6384    1.0000 </r>
       <r>  -11.1372    1.0000 </r>
       <r>  -10.8066    1.0000 </r>
       <r>  -10.6106    1.0000 </r>
       <r>  -10.1177    1.0000 </r>
       <r>   -9.4587    1.0000 </r>
       <r>   -9.4197    1.0000 </r>
       <r>   -8.8898    1.0000 </r>
       <r>   -8.6857    1.0000 </r>
       <r>   -8.4550    1.0000 </r>
       <r>   -8.2331    1.0000 </r>
       <r>   -8.0268    1.0000 </r>
       <r>   -7.9743    1.0000 </r>
       <r>   -7.3179    1.0000 </r>
       <r>   -7.0363    1.0000 </r>
       <r>   -7.0305    1.0000 </r>
       <r>   -6.8404    1.0000 </r>
       <r>   -6.7096    1.0000 </r>
       <r>   -6.5883    1.0000 </r>
       <r>   -6.4516    1.0000 </r>
       <r>   -6.3200    1.0000 </r>
       <r>   -5.9568    1.0000 </r>
       <r>   -5.9181    1.0000 </r>
       <r>   -5.7758    1.0000 </r>
       <r>   -5.5328    1.0000 </r>
       <r>   -5.1277    1.0000 </r>
       <r>   -5.0007    1.0000 </r>
       <r>   -4.9409    1.0000 </r>
       <r>   -4.6314    1.0000 </r>
       <r>   -4.2748    1.0000 </r>
       <r>   -4.1362    1.0000 </r>
       <r>   -3.6307    1.0000 </r>
       <r>   -3.3912    0.9629 </r>
       <r>   -3.1751    0.0000 </r>
       <r>   -2.1760    0.0000 </r>
       <r>   -1.4390    0.0000 </r>
       <r>   -0.6539    0.0000 </r>
       <r>    0.3258    0.0000 </r>
       <r>    0.5066    0.0000 </r>
       <r>    0.7251    0.0000 </r>
       <r>    1.0363    0.0000 </r>
       <r>    1.1758    0.0000 </r>
       <r>    1.3057    0.0000 </r>
       <r>    1.3294    0.0000 </r>
       <r>    1.6537    0.0000 </r>
       <r>    1.7426    0.0000 </r>
       <r>    2.0013    0.0000 </r>
       <r>    2.3443    0.0000 </r>
       <r>    2.5197    0.0000 </r>
       <r>    2.7828    0.0000 </r>
       <r>    2.8601    0.0000 </r>
       <r>    3.0606    0.0000 </r>
       <r>    3.1012    0.0000 </r>
      </set>
      <set comment="kpoint 42">
       <r>  -18.2751    1.0000 </r>
       <r>  -18.0713    1.0000 </r>
       <r>  -17.7657    1.0000 </r>
       <r>  -17.5852    1.0000 </r>
       <r>  -14.4763    1.0000 </r>
       <r>  -14.2824    1.0000 </r>
       <r>  -14.0784    1.0000 </r>
       <r>  -13.8911    1.0000 </r>
       <r>  -11.5962    1.0000 </r>
       <r>  -11.2844    1.0000 </r>
       <r>  -11.0625    1.0000 </r>
       <r>  -10.9801    1.0000 </r>
       <r>  -10.6829    1.0000 </r>
       <r>  -10.6791    1.0000 </r>
       <r>  -10.0109    1.0000 </r>
       <r>   -9.9073    1.0000 </r>
       <r>   -9.7585    1.0000 </r>
       <r>   -9.2363    1.0000 </r>
       <r>   -9.0252    1.0000 </r>
       <r>   -8.6763    1.0000 </r>
       <r>   -8.1475    1.0000 </r>
       <r>   -7.8834    1.0000 </r>
       <r>   -7.7432    1.0000 </r>
       <r>   -7.5660    1.0000 </r>
       <r>   -7.0934    1.0000 </r>
       <r>   -7.0872    1.0000 </r>
       <r>   -6.7789    1.0000 </r>
       <r>   -6.5933    1.0000 </r>
       <r>   -6.3896    1.0000 </r>
       <r>   -6.3192    1.0000 </r>
       <r>   -6.1779    1.0000 </r>
       <r>   -6.0829    1.0000 </r>
       <r>   -5.7957    1.0000 </r>
       <r>   -5.6582    1.0000 </r>
       <r>   -5.4560    1.0000 </r>
       <r>   -5.1638    1.0000 </r>
       <r>   -4.9330    1.0000 </r>
       <r>   -4.7599    1.0000 </r>
       <r>   -4.6186    1.0000 </r>
       <r>   -4.2788    1.0000 </r>
       <r>   -4.0290    1.0000 </r>
       <r>   -3.9581    1.0000 </r>
       <r>   -3.6736    1.0000 </r>
       <r>   -3.5411    1.0000 </r>
       <r>   -2.2626    0.0000 </r>
       <r>   -1.6301    0.0000 </r>
       <r>   -0.4257    0.0000 </r>
       <r>    0.3823    0.0000 </r>
       <r>    0.4450    0.0000 </r>
       <r>    0.8596    0.0000 </r>
       <r>    1.0842    0.0000 </r>
       <r>    1.1536    0.0000 </r>
       <r>    1.4282    0.0000 </r>
       <r>    1.5261    0.0000 </r>
       <r>    1.6081    0.0000 </r>
       <r>    1.6382    0.0000 </r>
       <r>    2.0853    0.0000 </r>
       <r>    2.1853    0.0000 </r>
       <r>    2.6375    0.0000 </r>
       <r>    2.7319    0.0000 </r>
       <r>    2.7760    0.0000 </r>
       <r>    2.8976    0.0000 </r>
       <r>    2.9392    0.0000 </r>
      </set>
      <set comment="kpoint 43">
       <r>  -18.2844    1.0000 </r>
       <r>  -18.0808    1.0000 </r>
       <r>  -17.7509    1.0000 </r>
       <r>  -17.5705    1.0000 </r>
       <r>  -14.4912    1.0000 </r>
       <r>  -14.2918    1.0000 </r>
       <r>  -14.0834    1.0000 </r>
       <r>  -13.9027    1.0000 </r>
       <r>  -11.5735    1.0000 </r>
       <r>  -11.3584    1.0000 </r>
       <r>  -11.1523    1.0000 </r>
       <r>  -11.0675    1.0000 </r>
       <r>  -10.5317    1.0000 </r>
       <r>  -10.4507    1.0000 </r>
       <r>   -9.9990    1.0000 </r>
       <r>   -9.7514    1.0000 </r>
       <r>   -9.7229    1.0000 </r>
       <r>   -9.2120    1.0000 </r>
       <r>   -9.1395    1.0000 </r>
       <r>   -8.8243    1.0000 </r>
       <r>   -8.2372    1.0000 </r>
       <r>   -7.9734    1.0000 </r>
       <r>   -7.8396    1.0000 </r>
       <r>   -7.4943    1.0000 </r>
       <r>   -7.0870    1.0000 </r>
       <r>   -7.0387    1.0000 </r>
       <r>   -6.9476    1.0000 </r>
       <r>   -6.6610    1.0000 </r>
       <r>   -6.2683    1.0000 </r>
       <r>   -6.2270    1.0000 </r>
       <r>   -6.1409    1.0000 </r>
       <r>   -6.0144    1.0000 </r>
       <r>   -5.8267    1.0000 </r>
       <r>   -5.7157    1.0000 </r>
       <r>   -5.4205    1.0000 </r>
       <r>   -5.0829    1.0000 </r>
       <r>   -4.9357    1.0000 </r>
       <r>   -4.8382    1.0000 </r>
       <r>   -4.4386    1.0000 </r>
       <r>   -4.3151    1.0000 </r>
       <r>   -4.1534    1.0000 </r>
       <r>   -4.0932    1.0000 </r>
       <r>   -3.7613    1.0000 </r>
       <r>   -3.3775    0.9188 </r>
       <r>   -2.2249    0.0000 </r>
       <r>   -1.5487    0.0000 </r>
       <r>   -0.4461    0.0000 </r>
       <r>    0.5195    0.0000 </r>
       <r>    0.5501    0.0000 </r>
       <r>    0.8297    0.0000 </r>
       <r>    1.1253    0.0000 </r>
       <r>    1.1379    0.0000 </r>
       <r>    1.3467    0.0000 </r>
       <r>    1.3754    0.0000 </r>
       <r>    1.5938    0.0000 </r>
       <r>    1.6386    0.0000 </r>
       <r>    2.1098    0.0000 </r>
       <r>    2.1861    0.0000 </r>
       <r>    2.5056    0.0000 </r>
       <r>    2.6458    0.0000 </r>
       <r>    2.8356    0.0000 </r>
       <r>    3.0459    0.0000 </r>
       <r>    3.0702    0.0000 </r>
      </set>
      <set comment="kpoint 44">
       <r>  -18.1781    1.0000 </r>
       <r>  -17.9744    1.0000 </r>
       <r>  -17.8702    1.0000 </r>
       <r>  -17.6891    1.0000 </r>
       <r>  -14.4103    1.0000 </r>
       <r>  -14.2735    1.0000 </r>
       <r>  -14.2188    1.0000 </r>
       <r>  -14.0800    1.0000 </r>
       <r>  -11.4800    1.0000 </r>
       <r>  -11.1587    1.0000 </r>
       <r>  -10.6967    1.0000 </r>
       <r>  -10.5418    1.0000 </r>
       <r>  -10.4904    1.0000 </r>
       <r>  -10.4581    1.0000 </r>
       <r>  -10.1122    1.0000 </r>
       <r>  -10.0157    1.0000 </r>
       <r>   -9.8798    1.0000 </r>
       <r>   -9.5899    1.0000 </r>
       <r>   -9.5641    1.0000 </r>
       <r>   -8.9326    1.0000 </r>
       <r>   -8.1909    1.0000 </r>
       <r>   -7.8409    1.0000 </r>
       <r>   -7.5204    1.0000 </r>
       <r>   -7.5193    1.0000 </r>
       <r>   -7.3438    1.0000 </r>
       <r>   -7.3210    1.0000 </r>
       <r>   -6.7714    1.0000 </r>
       <r>   -6.6868    1.0000 </r>
       <r>   -6.4885    1.0000 </r>
       <r>   -6.1041    1.0000 </r>
       <r>   -5.7668    1.0000 </r>
       <r>   -5.6491    1.0000 </r>
       <r>   -5.6255    1.0000 </r>
       <r>   -5.4630    1.0000 </r>
       <r>   -5.4233    1.0000 </r>
       <r>   -5.1646    1.0000 </r>
       <r>   -4.9312    1.0000 </r>
       <r>   -4.9194    1.0000 </r>
       <r>   -4.6771    1.0000 </r>
       <r>   -4.6650    1.0000 </r>
       <r>   -4.3782    1.0000 </r>
       <r>   -4.2453    1.0000 </r>
       <r>   -3.5752    1.0000 </r>
       <r>   -3.3524    0.7538 </r>
       <r>   -2.2831    0.0000 </r>
       <r>   -1.6809    0.0000 </r>
       <r>   -0.1484    0.0000 </r>
       <r>    0.4467    0.0000 </r>
       <r>    0.6643    0.0000 </r>
       <r>    0.8086    0.0000 </r>
       <r>    1.0094    0.0000 </r>
       <r>    1.0950    0.0000 </r>
       <r>    1.3334    0.0000 </r>
       <r>    1.4331    0.0000 </r>
       <r>    1.5323    0.0000 </r>
       <r>    1.7498    0.0000 </r>
       <r>    2.1350    0.0000 </r>
       <r>    2.1780    0.0000 </r>
       <r>    2.3708    0.0000 </r>
       <r>    2.4920    0.0000 </r>
       <r>    2.7289    0.0000 </r>
       <r>    2.9076    0.0000 </r>
       <r>    3.1536    0.0000 </r>
      </set>
      <set comment="kpoint 45">
       <r>  -18.1845    1.0000 </r>
       <r>  -17.9811    1.0000 </r>
       <r>  -17.8617    1.0000 </r>
       <r>  -17.6805    1.0000 </r>
       <r>  -14.4183    1.0000 </r>
       <r>  -14.2729    1.0000 </r>
       <r>  -14.2212    1.0000 </r>
       <r>  -14.0853    1.0000 </r>
       <r>  -11.4769    1.0000 </r>
       <r>  -11.1279    1.0000 </r>
       <r>  -10.9083    1.0000 </r>
       <r>  -10.7089    1.0000 </r>
       <r>  -10.2309    1.0000 </r>
       <r>  -10.1155    1.0000 </r>
       <r>  -10.0748    1.0000 </r>
       <r>  -10.0439    1.0000 </r>
       <r>   -9.8019    1.0000 </r>
       <r>   -9.7757    1.0000 </r>
       <r>   -9.6451    1.0000 </r>
       <r>   -8.9655    1.0000 </r>
       <r>   -8.2342    1.0000 </r>
       <r>   -7.8490    1.0000 </r>
       <r>   -7.6177    1.0000 </r>
       <r>   -7.5319    1.0000 </r>
       <r>   -7.2948    1.0000 </r>
       <r>   -7.2545    1.0000 </r>
       <r>   -6.8693    1.0000 </r>
       <r>   -6.7095    1.0000 </r>
       <r>   -6.4288    1.0000 </r>
       <r>   -6.0904    1.0000 </r>
       <r>   -5.6915    1.0000 </r>
       <r>   -5.6515    1.0000 </r>
       <r>   -5.5667    1.0000 </r>
       <r>   -5.5069    1.0000 </r>
       <r>   -5.3820    1.0000 </r>
       <r>   -5.1012    1.0000 </r>
       <r>   -4.9817    1.0000 </r>
       <r>   -4.9266    1.0000 </r>
       <r>   -4.7673    1.0000 </r>
       <r>   -4.7102    1.0000 </r>
       <r>   -4.3349    1.0000 </r>
       <r>   -4.2744    1.0000 </r>
       <r>   -3.6273    1.0000 </r>
       <r>   -3.2849    0.1107 </r>
       <r>   -2.2633    0.0000 </r>
       <r>   -1.6449    0.0000 </r>
       <r>   -0.1669    0.0000 </r>
       <r>    0.5337    0.0000 </r>
       <r>    0.6918    0.0000 </r>
       <r>    0.7149    0.0000 </r>
       <r>    1.0688    0.0000 </r>
       <r>    1.1632    0.0000 </r>
       <r>    1.2121    0.0000 </r>
       <r>    1.4070    0.0000 </r>
       <r>    1.5458    0.0000 </r>
       <r>    1.7857    0.0000 </r>
       <r>    2.1311    0.0000 </r>
       <r>    2.2300    0.0000 </r>
       <r>    2.3226    0.0000 </r>
       <r>    2.3714    0.0000 </r>
       <r>    2.7683    0.0000 </r>
       <r>    2.9193    0.0000 </r>
       <r>    3.1323    0.0000 </r>
      </set>
     </set>
    </set>
   </array>
  </eigenvalues>
  <separator name="orbital magnetization" >
   <v name="MAGDIPOLOUT">      0.00000000      0.00000000      0.00000000</v>
  </separator>
  <dos>
   <i name="efermi">     -3.32813274 </i>
   <total>
    <array>
     <dimension dim="1">gridpoints</dimension>
     <dimension dim="2">spin</dimension>
     <field>energy</field>
     <field>total</field>
     <field>integrated</field>
     <set>
      <set comment="spin 1">
       <r>   -19.6823     0.0000     0.0000 </r>
       <r>   -19.6025     0.0000     0.0000 </r>
       <r>   -19.5228     0.0000     0.0000 </r>
       <r>   -19.4430     0.0000     0.0000 </r>
       <r>   -19.3633     0.0000     0.0000 </r>
       <r>   -19.2835     0.0000     0.0000 </r>
       <r>   -19.2038     0.0000     0.0000 </r>
       <r>   -19.1240     0.0000     0.0000 </r>
       <r>   -19.0443     0.0000     0.0000 </r>
       <r>   -18.9646     0.0000     0.0000 </r>
       <r>   -18.8848     0.0000     0.0000 </r>
       <r>   -18.8051     0.0000     0.0000 </r>
       <r>   -18.7253     0.0001     0.0000 </r>
       <r>   -18.6456     0.0993     0.0079 </r>
       <r>   -18.5658     2.2532     0.1876 </r>
       <r>   -18.4861     5.6647     0.6393 </r>
       <r>   -18.4063     5.5689     1.0834 </r>
       <r>   -18.3266     7.4804     1.6799 </r>
       <r>   -18.2469     9.4359     2.4324 </r>
       <r>   -18.1671     8.1063     3.0788 </r>
       <r>   -18.0874     4.8418     3.4649 </r>
       <r>   -18.0076     3.3109     3.7290 </r>
       <r>   -17.9279     3.7050     4.0244 </r>
       <r>   -17.8481     3.7414     4.3228 </r>
       <r>   -17.7684     2.5629     4.5271 </r>
       <r>   -17.6886     6.2960     5.0292 </r>
       <r>   -17.6089     5.0557     5.4324 </r>
       <r>   -17.5292     7.7140     6.0475 </r>
       <r>   -17.4494     6.4016     6.5580 </r>
       <r>   -17.3697     7.1008     7.1243 </r>
       <r>   -17.2899     5.6297     7.5732 </r>
       <r>   -17.2102     3.5366     7.8552 </r>
       <r>   -17.1304     1.6607     7.9876 </r>
       <r>   -17.0507     0.1546     8.0000 </r>
       <r>   -16.9710     0.0004     8.0000 </r>
       <r>   -16.8912     0.0000     8.0000 </r>
       <r>   -16.8115     0.0000     8.0000 </r>
       <r>   -16.7317     0.0000     8.0000 </r>
       <r>   -16.6520     0.0000     8.0000 </r>
       <r>   -16.5722     0.0000     8.0000 </r>
       <r>   -16.4925     0.0000     8.0000 </r>
       <r>   -16.4127     0.0000     8.0000 </r>
       <r>   -16.3330     0.0000     8.0000 </r>
       <r>   -16.2533     0.0000     8.0000 </r>
       <r>   -16.1735     0.0000     8.0000 </r>
       <r>   -16.0938     0.0000     8.0000 </r>
       <r>   -16.0140     0.0000     8.0000 </r>
       <r>   -15.9343     0.0000     8.0000 </r>
       <r>   -15.8545     0.0000     8.0000 </r>
       <r>   -15.7748     0.0000     8.0000 </r>
       <r>   -15.6950     0.0000     8.0000 </r>
       <r>   -15.6153     0.0000     8.0000 </r>
       <r>   -15.5356     0.0000     8.0000 </r>
       <r>   -15.4558     0.0000     8.0000 </r>
       <r>   -15.3761     0.0000     8.0000 </r>
       <r>   -15.2963     0.0000     8.0000 </r>
       <r>   -15.2166     0.0000     8.0000 </r>
       <r>   -15.1368     0.0000     8.0000 </r>
       <r>   -15.0571     0.0000     8.0000 </r>
       <r>   -14.9773     0.0000     8.0000 </r>
       <r>   -14.8976     0.0000     8.0000 </r>
       <r>   -14.8179     0.0000     8.0000 </r>
       <r>   -14.7381     0.0000     8.0000 </r>
       <r>   -14.6584     0.0000     8.0000 </r>
       <r>   -14.5786     0.0080     8.0006 </r>
       <r>   -14.4989     0.8751     8.0704 </r>
       <r>   -14.4191     4.9406     8.4644 </r>
       <r>   -14.3394     9.2701     9.2036 </r>
       <r>   -14.2596     9.1580     9.9339 </r>
       <r>   -14.1799    11.3997    10.8430 </r>
       <r>   -14.1002    11.1940    11.7357 </r>
       <r>   -14.0204     7.3862    12.3247 </r>
       <r>   -13.9407     5.7167    12.7805 </r>
       <r>   -13.8609     9.3684    13.5276 </r>
       <r>   -13.7812     7.8044    14.1500 </r>
       <r>   -13.7014     8.2109    14.8048 </r>
       <r>   -13.6217     7.6178    15.4122 </r>
       <r>   -13.5419     3.4559    15.6878 </r>
       <r>   -13.4622     2.5360    15.8901 </r>
       <r>   -13.3825     1.0358    15.9727 </r>
       <r>   -13.3027     0.3397    15.9997 </r>
       <r>   -13.2230     0.0032    16.0000 </r>
       <r>   -13.1432     0.0000    16.0000 </r>
       <r>   -13.0635     0.0000    16.0000 </r>
       <r>   -12.9837     0.0000    16.0000 </r>
       <r>   -12.9040     0.0000    16.0000 </r>
       <r>   -12.8242     0.0000    16.0000 </r>
       <r>   -12.7445     0.0000    16.0000 </r>
       <r>   -12.6648     0.0000    16.0000 </r>
       <r>   -12.5850     0.0228    16.0018 </r>
       <r>   -12.5053     0.6127    16.0507 </r>
       <r>   -12.4255     0.4792    16.0889 </r>
       <r>   -12.3458     0.4690    16.1263 </r>
       <r>   -12.2660     1.9518    16.2819 </r>
       <r>   -12.1863     1.4264    16.3957 </r>
       <r>   -12.1065     1.4485    16.5112 </r>
       <r>   -12.0268     2.3875    16.7016 </r>
       <r>   -11.9471     2.6043    16.9093 </r>
       <r>   -11.8673     5.7998    17.3718 </r>
       <r>   -11.7876     9.4650    18.1265 </r>
       <r>   -11.7078     9.7464    18.9038 </r>
       <r>   -11.6281     8.7873    19.6045 </r>
       <r>   -11.5483    11.1214    20.4914 </r>
       <r>   -11.4686     8.5069    21.1698 </r>
       <r>   -11.3888     6.8247    21.7140 </r>
       <r>   -11.3091     6.7060    22.2488 </r>
       <r>   -11.2294     4.6234    22.6174 </r>
       <r>   -11.1496     5.8736    23.0858 </r>
       <r>   -11.0699     7.6293    23.6942 </r>
       <r>   -10.9901     6.3348    24.1994 </r>
       <r>   -10.9104     5.4659    24.6353 </r>
       <r>   -10.8306     5.9852    25.1125 </r>
       <r>   -10.7509     4.8338    25.4980 </r>
       <r>   -10.6711     6.2280    25.9947 </r>
       <r>   -10.5914     6.5838    26.5197 </r>
       <r>   -10.5117     5.5283    26.9605 </r>
       <r>   -10.4319     5.9827    27.4376 </r>
       <r>   -10.3522     6.4082    27.9486 </r>
       <r>   -10.2724     8.9645    28.6635 </r>
       <r>   -10.1927     7.6831    29.2762 </r>
       <r>   -10.1129     8.4262    29.9481 </r>
       <r>   -10.0332     8.5328    30.6286 </r>
       <r>    -9.9534     7.6616    31.2395 </r>
       <r>    -9.8737     5.4665    31.6755 </r>
       <r>    -9.7940     5.3191    32.0996 </r>
       <r>    -9.7142     5.8638    32.5672 </r>
       <r>    -9.6345     3.5153    32.8476 </r>
       <r>    -9.5547     3.7683    33.1481 </r>
       <r>    -9.4750     3.1996    33.4032 </r>
       <r>    -9.3952     5.4613    33.8387 </r>
       <r>    -9.3155     4.5949    34.2051 </r>
       <r>    -9.2358     4.1097    34.5329 </r>
       <r>    -9.1560     5.6432    34.9829 </r>
       <r>    -9.0763     4.8477    35.3695 </r>
       <r>    -8.9965     5.5743    35.8140 </r>
       <r>    -8.9168     6.4885    36.3314 </r>
       <r>    -8.8370     8.9269    37.0433 </r>
       <r>    -8.7573     7.0158    37.6027 </r>
       <r>    -8.6775     6.5325    38.1237 </r>
       <r>    -8.5978     5.8690    38.5917 </r>
       <r>    -8.5181     5.3969    39.0221 </r>
       <r>    -8.4383     5.0454    39.4244 </r>
       <r>    -8.3586     4.0719    39.7491 </r>
       <r>    -8.2788     5.0061    40.1483 </r>
       <r>    -8.1991     9.3858    40.8968 </r>
       <r>    -8.1193     9.0528    41.6187 </r>
       <r>    -8.0396     8.4957    42.2962 </r>
       <r>    -7.9598     7.2807    42.8768 </r>
       <r>    -7.8801     8.7013    43.5706 </r>
       <r>    -7.8004     9.9215    44.3618 </r>
       <r>    -7.7206     8.1247    45.0097 </r>
       <r>    -7.6409     4.9675    45.4058 </r>
       <r>    -7.5611     4.8022    45.7888 </r>
       <r>    -7.4814     7.1343    46.3577 </r>
       <r>    -7.4016     5.8305    46.8227 </r>
       <r>    -7.3219     7.5909    47.4280 </r>
       <r>    -7.2421     9.3962    48.1773 </r>
       <r>    -7.1624    10.1043    48.9831 </r>
       <r>    -7.0827    12.8116    50.0047 </r>
       <r>    -7.0029    11.6195    50.9313 </r>
       <r>    -6.9232     8.1483    51.5811 </r>
       <r>    -6.8434    10.6708    52.4320 </r>
       <r>    -6.7637     8.7037    53.1261 </r>
       <r>    -6.6839     9.4932    53.8831 </r>
       <r>    -6.6042    13.0446    54.9234 </r>
       <r>    -6.5244     8.0404    55.5645 </r>
       <r>    -6.4447    10.4951    56.4015 </r>
       <r>    -6.3650     9.5030    57.1593 </r>
       <r>    -6.2852    10.8311    58.0230 </r>
       <r>    -6.2055    12.4569    59.0164 </r>
       <r>    -6.1257    10.9425    59.8890 </r>
       <r>    -6.0460     9.1228    60.6165 </r>
       <r>    -5.9662     9.7351    61.3928 </r>
       <r>    -5.8865    10.5223    62.2319 </r>
       <r>    -5.8067    13.1382    63.2796 </r>
       <r>    -5.7270    15.3017    64.4998 </r>
       <r>    -5.6473    13.4313    65.5709 </r>
       <r>    -5.5675    10.8770    66.4382 </r>
       <r>    -5.4878    11.3556    67.3438 </r>
       <r>    -5.4080    13.1054    68.3889 </r>
       <r>    -5.3283     8.7034    69.0829 </r>
       <r>    -5.2485    10.5683    69.9257 </r>
       <r>    -5.1688    11.8416    70.8700 </r>
       <r>    -5.0890    10.2309    71.6858 </r>
       <r>    -5.0093    12.4272    72.6768 </r>
       <r>    -4.9296    17.1041    74.0408 </r>
       <r>    -4.8498    19.0383    75.5590 </r>
       <r>    -4.7701    10.9855    76.4350 </r>
       <r>    -4.6903     7.1364    77.0041 </r>
       <r>    -4.6106     9.1826    77.7364 </r>
       <r>    -4.5308     5.0926    78.1425 </r>
       <r>    -4.4511     5.1189    78.5507 </r>
       <r>    -4.3713     8.0140    79.1897 </r>
       <r>    -4.2916    10.6857    80.0419 </r>
       <r>    -4.2119    13.6899    81.1336 </r>
       <r>    -4.1321    10.6579    81.9835 </r>
       <r>    -4.0524     6.5426    82.5052 </r>
       <r>    -3.9726     6.6560    83.0360 </r>
       <r>    -3.8929     6.1653    83.5276 </r>
       <r>    -3.8131     4.4908    83.8857 </r>
       <r>    -3.7334     5.4981    84.3242 </r>
       <r>    -3.6536     6.0069    84.8032 </r>
       <r>    -3.5739     5.1414    85.2132 </r>
       <r>    -3.4942     3.4891    85.4914 </r>
       <r>    -3.4144     3.2204    85.7482 </r>
       <r>    -3.3347     2.9623    85.9845 </r>
       <r>    -3.2549     2.3763    86.1740 </r>
       <r>    -3.1752     3.6023    86.4612 </r>
       <r>    -3.0954     2.0134    86.6218 </r>
       <r>    -3.0157     1.5724    86.7472 </r>
       <r>    -2.9359     1.2931    86.8503 </r>
       <r>    -2.8562     0.9861    86.9289 </r>
       <r>    -2.7765     1.8222    87.0742 </r>
       <r>    -2.6967     1.5050    87.1942 </r>
       <r>    -2.6170     0.8246    87.2600 </r>
       <r>    -2.5372     1.3957    87.3713 </r>
       <r>    -2.4575     1.0232    87.4529 </r>
       <r>    -2.3777     1.2305    87.5510 </r>
       <r>    -2.2980     3.3656    87.8194 </r>
       <r>    -2.2182     8.3242    88.4832 </r>
       <r>    -2.1385     7.7422    89.1006 </r>
       <r>    -2.0588     6.7938    89.6424 </r>
       <r>    -1.9790     2.5946    89.8493 </r>
       <r>    -1.8993     0.5774    89.8953 </r>
       <r>    -1.8195     0.4654    89.9324 </r>
       <r>    -1.7398     0.6855    89.9871 </r>
       <r>    -1.6600     1.3902    90.0980 </r>
       <r>    -1.5803     2.9910    90.3365 </r>
       <r>    -1.5006     4.2378    90.6744 </r>
       <r>    -1.4208     3.5023    90.9537 </r>
       <r>    -1.3411     3.7433    91.2522 </r>
       <r>    -1.2613     4.0639    91.5763 </r>
       <r>    -1.1816     3.0770    91.8217 </r>
       <r>    -1.1018     1.9558    91.9776 </r>
       <r>    -1.0221     0.2799    91.9999 </r>
       <r>    -0.9423     0.1669    92.0132 </r>
       <r>    -0.8626     1.4401    92.1281 </r>
       <r>    -0.7829     2.5173    92.3288 </r>
       <r>    -0.7031     4.3212    92.6734 </r>
       <r>    -0.6234     5.6730    93.1258 </r>
       <r>    -0.5436     2.4469    93.3209 </r>
       <r>    -0.4639     4.2993    93.6638 </r>
       <r>    -0.3841     4.2823    94.0053 </r>
       <r>    -0.3044     1.4774    94.1231 </r>
       <r>    -0.2246     1.4791    94.2410 </r>
       <r>    -0.1449     4.3897    94.5911 </r>
       <r>    -0.0652     6.8346    95.1361 </r>
       <r>     0.0146     4.0464    95.4588 </r>
       <r>     0.0943     4.0081    95.7784 </r>
       <r>     0.1741     4.2461    96.1170 </r>
       <r>     0.2538     5.6572    96.5681 </r>
       <r>     0.3336     6.6295    97.0968 </r>
       <r>     0.4133     8.8024    97.7988 </r>
       <r>     0.4931     8.2707    98.4583 </r>
       <r>     0.5728     8.6289    99.1464 </r>
       <r>     0.6525     7.7825    99.7670 </r>
       <r>     0.7323    10.0849   100.5712 </r>
       <r>     0.8120     8.2917   101.2324 </r>
       <r>     0.8918     8.8708   101.9398 </r>
       <r>     0.9715     6.4709   102.4558 </r>
       <r>     1.0513     6.0518   102.9384 </r>
       <r>     1.1310     7.4482   103.5324 </r>
       <r>     1.2108     6.5259   104.0528 </r>
       <r>     1.2905     7.7163   104.6681 </r>
       <r>     1.3702    11.2191   105.5628 </r>
       <r>     1.4500    11.3487   106.4678 </r>
       <r>     1.5297    12.1390   107.4358 </r>
       <r>     1.6095    14.7763   108.6141 </r>
       <r>     1.6892    12.3279   109.5972 </r>
       <r>     1.7690     9.3933   110.3463 </r>
       <r>     1.8487     8.5351   111.0269 </r>
       <r>     1.9285     8.7496   111.7246 </r>
       <r>     2.0082     9.7261   112.5002 </r>
       <r>     2.0879    10.9414   113.3727 </r>
       <r>     2.1677    15.8886   114.6398 </r>
       <r>     2.2474    14.8645   115.8251 </r>
       <r>     2.3272    10.7661   116.6837 </r>
       <r>     2.4069    11.7214   117.6184 </r>
       <r>     2.4867    12.1200   118.5849 </r>
       <r>     2.5664     8.1180   119.2322 </r>
       <r>     2.6462     6.5383   119.7536 </r>
       <r>     2.7259    11.0692   120.6363 </r>
       <r>     2.8056    12.9284   121.6673 </r>
       <r>     2.8854    14.5729   122.8294 </r>
       <r>     2.9651    13.7703   123.9275 </r>
       <r>     3.0449    14.0575   125.0485 </r>
       <r>     3.1246     9.8866   125.8369 </r>
       <r>     3.2044     1.9817   125.9950 </r>
       <r>     3.2841     0.0631   126.0000 </r>
       <r>     3.3639     0.0001   126.0000 </r>
       <r>     3.4436     0.0000   126.0000 </r>
       <r>     3.5233     0.0000   126.0000 </r>
       <r>     3.6031     0.0000   126.0000 </r>
       <r>     3.6828     0.0000   126.0000 </r>
       <r>     3.7626     0.0000   126.0000 </r>
       <r>     3.8423     0.0000   126.0000 </r>
       <r>     3.9221     0.0000   126.0000 </r>
       <r>     4.0018     0.0000   126.0000 </r>
       <r>     4.0816     0.0000   126.0000 </r>
       <r>     4.1613     0.0000   126.0000 </r>
       <r>     4.2410     0.0000   126.0000 </r>
      </set>
     </set>
    </array>
   </total>
  </dos>
 </calculation>
 <structure name="finalpos" >
  <crystal>
   <varray name="basis" >
    <v>       5.60532392      -0.11198423       0.00000000 </v>
    <v>      -0.12556412       6.07305125       0.00000000 </v>
    <v>       0.00000000       0.00000000      30.08811665 </v>
   </varray>
   <i name="volume">   1023.81912305 </i>
   <varray name="rec_basis" >
    <v>       0.17847554       0.00369009       0.00000000 </v>
    <v>       0.00329101       0.16472992       0.00000000 </v>
    <v>       0.00000000       0.00000000       0.03323571 </v>
   </varray>
  </crystal>
  <varray name="positions" >
   <v>       0.52055489       0.64154341       0.14929545 </v>
   <v>       0.52055489       0.64154341       0.25246172 </v>
   <v>       0.47944511       0.35845659       0.14929545 </v>
   <v>       0.47944511       0.35845659       0.25246172 </v>
   <v>       0.98306761       0.64116623       0.13544842 </v>
   <v>       0.98306761       0.64116623       0.26630875 </v>
   <v>       0.01693239       0.35883377       0.13544842 </v>
   <v>       0.01693239       0.35883377       0.26630875 </v>
   <v>       0.59601580       0.89938800       0.13279039 </v>
   <v>       0.59601580       0.89938800       0.26896678 </v>
   <v>       0.40398420       0.10061200       0.13279039 </v>
   <v>       0.40398420       0.10061200       0.26896678 </v>
   <v>       0.89929251       0.89576416       0.12149595 </v>
   <v>       0.89929251       0.89576416       0.28026122 </v>
   <v>       0.10070749       0.10423584       0.12149595 </v>
   <v>       0.10070749       0.10423584       0.28026122 </v>
   <v>       0.78140257       0.76553188       0.17260861 </v>
   <v>       0.69832231       0.67725543       0.30029515 </v>
   <v>       0.30167769       0.32274457       0.10146202 </v>
   <v>       0.21859743       0.23446812       0.22914856 </v>
   <v>       0.69832231       0.67725543       0.10146202 </v>
   <v>       0.78140257       0.76553188       0.22914856 </v>
   <v>       0.21859743       0.23446812       0.17260861 </v>
   <v>       0.30167769       0.32274457       0.30029515 </v>
   <v>       0.25132469       0.52283450       0.14380742 </v>
   <v>       0.25132469       0.52283450       0.25794976 </v>
   <v>       0.74867531       0.47716547       0.14380742 </v>
   <v>       0.74867531       0.47716547       0.25794976 </v>
   <v>       0.50000000       0.50000000       0.07521493 </v>
   <v>       0.50000000       0.50000000       0.32654224 </v>
  </varray>
 </structure>
</modeling>
