k-points
0
Monkhorst-pack
34  48  31
0   0   0