 running  168 mpi-ranks, on    1 nodes
 distrk:  each k-point on  168 cores,    1 groups
 distr:  one band on    7 cores,   24 groups
 vasp.6.5.1 10Mar25 (build Mar 14 2025 17:12:02) complex                        
  
 POSCAR found type information on POSCAR B H 
 POSCAR found :  2 types and     288 ions
 Reading from existing POTCAR
 scaLAPACK will be used
 Reading from existing POTCAR
 LDA part: xc-table for (Slater+PW92), standard interpolation
 POSCAR, INCAR and KPOINTS ok, starting setup
 FFT: planning ... GRIDC
 FFT: planning ... GRID_SOFT
 FFT: planning ... GRID
 WAVECAR not read
 entering main loop
       N       E                     dE             d eps       ncg     rms          rms(c)
DAV:   1     0.606992459100E+04    0.60699E+04   -0.29715E+05  6696   0.119E+03
DAV:   2    -0.101220629515E+04   -0.70821E+04   -0.68638E+04  9576   0.257E+02
DAV:   3    -0.187777280452E+04   -0.86557E+03   -0.85469E+03  7824   0.953E+01
DAV:   4    -0.190381727960E+04   -0.26044E+02   -0.25896E+02  8832   0.173E+01
DAV:   5    -0.190465389076E+04   -0.83661E+00   -0.83542E+00  8736   0.278E+00    0.567E+01
DAV:   6    -0.179488915138E+04    0.10976E+03   -0.11296E+02  7248   0.108E+01    0.318E+01
DAV:   7    -0.175566542364E+04    0.39224E+02   -0.13028E+02  7680   0.109E+01    0.650E+00
DAV:   8    -0.175559425310E+04    0.71171E-01   -0.98852E+00  8208   0.365E+00    0.248E+00
DAV:   9    -0.175543275243E+04    0.16150E+00   -0.10638E+00  8208   0.115E+00    0.107E+00
DAV:  10    -0.175541241650E+04    0.20336E-01   -0.35865E-01  8088   0.792E-01    0.700E-01
DAV:  11    -0.175538349142E+04    0.28925E-01   -0.15161E-01  7872   0.499E-01    0.372E-01
DAV:  12    -0.175536076026E+04    0.22731E-01   -0.97680E-02  7992   0.349E-01    0.233E-01
DAV:  13    -0.175536661290E+04   -0.58526E-02   -0.24056E-02  7920   0.218E-01    0.162E-01
DAV:  14    -0.175537927936E+04   -0.12666E-01   -0.13082E-02  7320   0.136E-01    0.958E-02
DAV:  15    -0.175538532636E+04   -0.60470E-02   -0.38662E-03  7512   0.826E-02    0.709E-02
DAV:  16    -0.175539081648E+04   -0.54901E-02   -0.15869E-03  7488   0.528E-02    0.482E-02
DAV:  17    -0.175539842373E+04   -0.76072E-02   -0.11300E-03  7560   0.337E-02    0.291E-02
DAV:  18    -0.175540318331E+04   -0.47596E-02   -0.26307E-04  7632   0.195E-02    0.189E-02
DAV:  19    -0.175540616083E+04   -0.29775E-02   -0.19395E-04  7392   0.161E-02    0.142E-02
DAV:  20    -0.175540789650E+04   -0.17357E-02   -0.94322E-05  7608   0.107E-02    0.103E-02
DAV:  21    -0.175541031480E+04   -0.24183E-02   -0.12119E-04  7512   0.815E-03    0.570E-03
DAV:  22    -0.175541118195E+04   -0.86716E-03   -0.30203E-05  7800   0.440E-03    0.366E-03
DAV:  23    -0.175541169970E+04   -0.51774E-03   -0.13762E-05  7296   0.291E-03    0.246E-03
DAV:  24    -0.175541197124E+04   -0.27155E-03   -0.60012E-06  6864   0.188E-03    0.116E-03
DAV:  25    -0.175541209492E+04   -0.12367E-03   -0.22755E-06  6624   0.110E-03    0.662E-04
DAV:  26    -0.175541213603E+04   -0.41118E-04   -0.53122E-07  5808   0.628E-04    0.379E-04
DAV:  27    -0.175541214938E+04   -0.13350E-04   -0.13312E-07  5280   0.380E-04    0.217E-04
DAV:  28    -0.175541215954E+04   -0.10155E-04   -0.97726E-08  5016   0.255E-04    0.104E-04
DAV:  29    -0.175541216291E+04   -0.33667E-05   -0.15689E-08  4992   0.143E-04    0.574E-05
DAV:  30    -0.175541216433E+04   -0.14219E-05    0.77777E-09  4536   0.919E-05    0.303E-05
DAV:  31    -0.175541216500E+04   -0.67704E-06    0.14277E-08  5016   0.642E-05
   1 F= -.17855813E+04 E0= -.17854718E+04  d E =-.218998E+00
