 running   42 mpi-ranks, on    1 nodes
 distrk:  each k-point on   42 cores,    1 groups
 distr:  one band on    7 cores,    6 groups
 vasp.6.5.0 16Dec24 (build Jan 08 2025 16:17:04) complex                        
  
 POSCAR found type information on POSCAR B H 
 POSCAR found :  2 types and     162 ions
 Reading from existing POTCAR
 scaLAPACK will be used
 Reading from existing POTCAR
 LDA part: xc-table for (Slater+PW92), standard interpolation
 POSCAR, INCAR and KPOINTS ok, starting setup
 FFT: planning ... GRIDC
 FFT: planning ... GRID_SOFT
 FFT: planning ... GRID
 WAVECAR not read
 entering main loop
       N       E                     dE             d eps       ncg     rms          rms(c)
DAV:   1     0.331505956520E+04    0.33151E+04   -0.13792E+05  3744   0.108E+03
DAV:   2    -0.408965251089E+03   -0.37240E+04   -0.36001E+04  5244   0.229E+02
DAV:   3    -0.100413841183E+04   -0.59517E+03   -0.58983E+03  4404   0.986E+01
DAV:   4    -0.102330078702E+04   -0.19162E+02   -0.19032E+02  4416   0.198E+01
DAV:   5    -0.102382060868E+04   -0.51982E+00   -0.51852E+00  4728   0.292E+00    0.423E+01
DAV:   6    -0.963726655956E+03    0.60094E+02   -0.60135E+01  3972   0.106E+01    0.237E+01
DAV:   7    -0.940422127350E+03    0.23305E+02   -0.71168E+01  4188   0.108E+01    0.486E+00
DAV:   8    -0.940162076827E+03    0.26005E+00   -0.53806E+00  4416   0.349E+00    0.224E+00
DAV:   9    -0.939955833411E+03    0.20624E+00   -0.94126E-01  4440   0.166E+00    0.131E+00
DAV:  10    -0.939788838264E+03    0.16700E+00   -0.28936E-01  4500   0.117E+00    0.708E-01
DAV:  11    -0.939764448040E+03    0.24390E-01   -0.12420E-01  4416   0.604E-01    0.513E-01
DAV:  12    -0.939742524975E+03    0.21923E-01   -0.45066E-02  4308   0.397E-01    0.313E-01
DAV:  13    -0.939729252114E+03    0.13273E-01   -0.62264E-02  4284   0.375E-01    0.225E-01
DAV:  14    -0.939732535552E+03   -0.32834E-02   -0.20234E-02  4248   0.241E-01    0.158E-01
DAV:  15    -0.939744231441E+03   -0.11696E-01   -0.68932E-03  3912   0.153E-01    0.118E-01
DAV:  16    -0.939752687400E+03   -0.84560E-02   -0.40486E-03  4128   0.125E-01    0.720E-02
DAV:  17    -0.939760089826E+03   -0.74024E-02   -0.18937E-03  4056   0.671E-02    0.499E-02
DAV:  18    -0.939772367426E+03   -0.12278E-01   -0.10802E-03  3996   0.439E-02    0.284E-02
DAV:  19    -0.939778349857E+03   -0.59824E-02   -0.36799E-04  4032   0.261E-02    0.191E-02
DAV:  20    -0.939782266444E+03   -0.39166E-02   -0.20296E-04  4032   0.178E-02    0.136E-02
DAV:  21    -0.939785748028E+03   -0.34816E-02   -0.19848E-04  4008   0.147E-02    0.804E-03
DAV:  22    -0.939787139364E+03   -0.13913E-02   -0.56620E-05  4080   0.852E-03    0.536E-03
DAV:  23    -0.939787824617E+03   -0.68525E-03   -0.20011E-05  3912   0.572E-03    0.326E-03
DAV:  24    -0.939788213498E+03   -0.38888E-03   -0.94998E-06  3684   0.338E-03    0.183E-03
DAV:  25    -0.939788399723E+03   -0.18623E-03   -0.35595E-06  3456   0.195E-03    0.930E-04
DAV:  26    -0.939788485232E+03   -0.85509E-04   -0.15037E-06  3216   0.118E-03    0.453E-04
DAV:  27    -0.939788513246E+03   -0.28014E-04   -0.31661E-07  2844   0.587E-04    0.229E-04
DAV:  28    -0.939788522078E+03   -0.88324E-05   -0.11654E-07  2850   0.313E-04    0.122E-04
DAV:  29    -0.939788525650E+03   -0.35716E-05   -0.25422E-08  2760   0.187E-04    0.608E-05
DAV:  30    -0.939788526942E+03   -0.12923E-05   -0.35095E-09  2676   0.125E-04    0.319E-05
DAV:  31    -0.939788527320E+03   -0.37714E-06    0.68774E-09  2580   0.744E-05
   1 F= -.95251683E+03 E0= -.95242176E+03  d E =-.190134E+00
