o-B14                                   
   1.00000000000000     
     5.7194924874008013    0.0000000000000000    0.0000000000000000
     0.0000000000000000    6.3490955856932922    0.0000000000000000
     0.0000000000000000    0.0000000000000000   28.0881166459999996
  B             
    28
Direct
     0.5099247278968030    0.6449423237320844    0.0755303457300711
     0.5099247278968030    0.6449423237320844    0.2124247616534606
     0.4900752721558201    0.3550576762679155    0.0755303457300711
     0.4900752721558201    0.3550576762679155    0.2124247616534606
     0.9900752721821312    0.6449423237320844    0.0755303457300711
     0.9900752721821312    0.6449423237320844    0.2124247616534606
     0.0099247278704913    0.3550576762679155    0.0755303457300711
     0.0099247278704913    0.3550576762679155    0.2124247616534606
     0.5979573698959336    0.9032369555191446    0.0757887978791306
     0.5979573698959336    0.9032369555191446    0.2121663095044009
     0.4020426301566892    0.0967630370637413    0.0757887978791306
     0.4020426301566892    0.0967630370637413    0.2121663095044009
     0.9020426301830006    0.9032369555191446    0.0757887978791306
     0.9020426301830006    0.9032369555191446    0.2121663095044009
     0.0979573698696223    0.0967630370637413    0.0757887978791306
     0.0979573698696223    0.0967630370637413    0.2121663095044009
     0.7499999999517613    0.7234670043488243    0.1138365849972560
     0.7499999999517613    0.7231352550500978    0.2435137522789734
     0.2499999999254499    0.2768647449499023    0.0444413572762894
     0.2499999999254499    0.2765329956511760    0.1741185245580068
     0.7499999999517613    0.7231352550500978    0.0444413572762894
     0.7499999999517613    0.7234670043488243    0.1741185245580068
     0.2499999999254499    0.2765329956511760    0.1138365849972560
     0.2499999999254499    0.2768647449499024    0.2435137522789734
     0.2499999999254499    0.5166392725816848    0.0739767696198138
     0.2499999999254499    0.5166392725816847    0.2139783377637178
     0.7499999999517613    0.4833606977498520    0.0739767696198138
     0.7499999999517613    0.4833606977498520    0.2139783377637178
 
  0.00000000E+00  0.00000000E+00  0.00000000E+00
  0.00000000E+00  0.00000000E+00  0.00000000E+00
  0.00000000E+00  0.00000000E+00  0.00000000E+00
  0.00000000E+00  0.00000000E+00  0.00000000E+00
  0.00000000E+00  0.00000000E+00  0.00000000E+00
  0.00000000E+00  0.00000000E+00  0.00000000E+00
  0.00000000E+00  0.00000000E+00  0.00000000E+00
  0.00000000E+00  0.00000000E+00  0.00000000E+00
  0.00000000E+00  0.00000000E+00  0.00000000E+00
  0.00000000E+00  0.00000000E+00  0.00000000E+00
  0.00000000E+00  0.00000000E+00  0.00000000E+00
  0.00000000E+00  0.00000000E+00  0.00000000E+00
  0.00000000E+00  0.00000000E+00  0.00000000E+00
  0.00000000E+00  0.00000000E+00  0.00000000E+00
  0.00000000E+00  0.00000000E+00  0.00000000E+00
  0.00000000E+00  0.00000000E+00  0.00000000E+00
  0.00000000E+00  0.00000000E+00  0.00000000E+00
  0.00000000E+00  0.00000000E+00  0.00000000E+00
  0.00000000E+00  0.00000000E+00  0.00000000E+00
  0.00000000E+00  0.00000000E+00  0.00000000E+00
  0.00000000E+00  0.00000000E+00  0.00000000E+00
  0.00000000E+00  0.00000000E+00  0.00000000E+00
  0.00000000E+00  0.00000000E+00  0.00000000E+00
  0.00000000E+00  0.00000000E+00  0.00000000E+00
  0.00000000E+00  0.00000000E+00  0.00000000E+00
  0.00000000E+00  0.00000000E+00  0.00000000E+00
  0.00000000E+00  0.00000000E+00  0.00000000E+00
  0.00000000E+00  0.00000000E+00  0.00000000E+00
