k-points
0
Monkhorst-pack
10  9   1
0   0   0