k-points
0
Monkhorst-pack
30  42  28
0   0   0