o-B14
1.0
    5.7009706497         0.0000000000         0.0000000000
    0.0000000000         6.2018713950         0.0000000000
    0.0000000000         0.0000000000         28.0881166460
    B
   36
Cartesian
2.971858335     3.956531562     2.022029161
2.971858335     3.956531562     6.066087484
2.729112315     2.245339833     2.022029161
2.729112315     2.245339833     6.066087484
5.579597640     3.956531562     2.022029161
5.579597640     3.956531562     6.066087484
0.121373010     2.245339833     2.022029161
0.121373010     2.245339833     6.066087484
3.406042978     5.580867528     2.022029161
3.406042978     5.580867528     6.066087484
2.294927672     0.621003821     2.022029161
2.294927672     0.621003821     6.066087484
5.145412997     5.580867528     2.022029161
5.145412997     5.580867528     6.066087484
0.555557653     0.621003821     2.022029161
0.555557653     0.621003821     6.066087484
4.275727987     4.524757544     3.201134789
4.275727987     4.524757544     7.245193112
1.425242662     1.677113851     0.842923594
1.425242662     1.677113851     4.886981917
4.275727987     4.524757544     0.842923594
4.275727987     4.524757544     4.886981917
1.425242662     1.677113851     3.201134789
1.425242662     1.677113851     7.245193112
1.425242662     3.249737293     2.022029161
1.425242662     3.249737293     6.066087484
4.275727987     2.952133918     2.022029161
4.275727987     2.952133918     6.066087484
-0.121373010    3.956531562     2.022029161
-1.425242662    2.952133918     2.022029161
-0.121373010    3.956531562     6.066087484
-1.425242662    2.952133918     6.066087484
-0.555557653    -0.621003867    2.022029161
-0.555557653    -0.621003867    6.066087484
1.425242662     1.677113851     -0.842923533
1.425242662     1.677113851     8.931040240
