 running   42 mpi-ranks, on    1 nodes
 distrk:  each k-point on   42 cores,    1 groups
 distr:  one band on    7 cores,    6 groups
 vasp.6.5.0 16Dec24 (build Jan 08 2025 16:17:04) complex                        
  
 POSCAR found type information on POSCAR B H 
 POSCAR found :  2 types and     270 ions
 Reading from existing POTCAR
 scaLAPACK will be used
 Reading from existing POTCAR
 LDA part: xc-table for (Slater+PW92), standard interpolation
 POSCAR, INCAR and KPOINTS ok, starting setup
 FFT: planning ... GRIDC
 FFT: planning ... GRID_SOFT
 FFT: planning ... GRID
 WAVECAR not read
 entering main loop
       N       E                     dE             d eps       ncg     rms          rms(c)
DAV:   1     0.607490018398E+04    0.60749E+04   -0.29267E+05  6576   0.122E+03
DAV:   2    -0.893110049431E+03   -0.69680E+04   -0.67241E+04  9072   0.263E+02
DAV:   3    -0.176220529036E+04   -0.86910E+03   -0.85629E+03  7200   0.981E+01
DAV:   4    -0.179175339411E+04   -0.29548E+02   -0.29315E+02  8556   0.186E+01
DAV:   5    -0.179276038657E+04   -0.10070E+01   -0.10049E+01  8388   0.301E+00    0.547E+01
DAV:   6    -0.166556355872E+04    0.12720E+03   -0.17786E+02  7320   0.142E+01    0.291E+01
DAV:   7    -0.163529583665E+04    0.30268E+02   -0.11354E+02  7680   0.110E+01    0.883E+00
DAV:   8    -0.163433450263E+04    0.96133E+00   -0.93963E+00  7764   0.379E+00    0.326E+00
DAV:   9    -0.163391581136E+04    0.41869E+00   -0.12477E+00  7656   0.131E+00    0.115E+00
DAV:  10    -0.163386239042E+04    0.53421E-01   -0.17438E-01  8100   0.465E-01    0.649E-01
DAV:  11    -0.163380711483E+04    0.55276E-01   -0.91443E-02  7464   0.304E-01    0.302E-01
DAV:  12    -0.163380292342E+04    0.41914E-02   -0.40283E-02  7668   0.206E-01    0.215E-01
DAV:  13    -0.163382317992E+04   -0.20257E-01   -0.20164E-02  7116   0.156E-01    0.131E-01
DAV:  14    -0.163383811628E+04   -0.14936E-01   -0.77073E-03  7104   0.113E-01    0.738E-02
DAV:  15    -0.163385029533E+04   -0.12179E-01   -0.26629E-03  7344   0.539E-02    0.493E-02
DAV:  16    -0.163386027998E+04   -0.99847E-02   -0.92011E-04  7632   0.309E-02    0.247E-02
DAV:  17    -0.163386531067E+04   -0.50307E-02   -0.26508E-04  7500   0.170E-02    0.176E-02
DAV:  18    -0.163386987661E+04   -0.45659E-02   -0.30218E-04  7392   0.131E-02    0.105E-02
DAV:  19    -0.163387214723E+04   -0.22706E-02   -0.12968E-04  7716   0.844E-03    0.675E-03
DAV:  20    -0.163387348790E+04   -0.13407E-02   -0.63808E-05  7380   0.570E-03    0.391E-03
DAV:  21    -0.163387411302E+04   -0.62512E-03   -0.18004E-05  7260   0.294E-03    0.220E-03
DAV:  22    -0.163387443496E+04   -0.32195E-03   -0.78653E-06  6468   0.173E-03    0.111E-03
DAV:  23    -0.163387454697E+04   -0.11200E-03   -0.19721E-06  6072   0.921E-04    0.582E-04
DAV:  24    -0.163387458897E+04   -0.42007E-04   -0.54084E-07  5532   0.518E-04    0.267E-04
DAV:  25    -0.163387460230E+04   -0.13326E-04   -0.10315E-07  5136   0.275E-04    0.114E-04
DAV:  26    -0.163387460606E+04   -0.37583E-05   -0.26491E-08  4872   0.151E-04    0.574E-05
DAV:  27    -0.163387460761E+04   -0.15557E-05    0.60431E-09  4452   0.918E-05    0.258E-05
DAV:  28    -0.163387460817E+04   -0.55577E-06    0.15028E-08  4500   0.633E-05
   1 F= -.16658336E+04 E0= -.16657613E+04  d E =-.144562E+00
