       N       E                     dE             d eps       ncg     rms          rms(c)
DAV:   1     0.328985994959E+04    0.32899E+04   -0.13064E+05  3564   0.109E+03
DAV:   2    -0.267133645302E+03   -0.35570E+04   -0.34111E+04  4896   0.228E+02
DAV:   3    -0.867404454499E+03   -0.60027E+03   -0.59472E+03  3912   0.101E+02
DAV:   4    -0.891658637814E+03   -0.24254E+02   -0.23923E+02  4140   0.218E+01
DAV:   5    -0.892447716125E+03   -0.78908E+00   -0.78387E+00  4596   0.347E+00    0.386E+01
DAV:   6    -0.823910658073E+03    0.68537E+02   -0.91151E+01  3876   0.135E+01    0.202E+01
DAV:   7    -0.807061993275E+03    0.16849E+02   -0.69895E+01  3924   0.112E+01    0.626E+00
DAV:   8    -0.806120934442E+03    0.94106E+00   -0.62140E+00  4116   0.436E+00    0.181E+00
DAV:   9    -0.805747543371E+03    0.37339E+00   -0.70557E-01  3936   0.130E+00    0.828E-01
DAV:  10    -0.805674219607E+03    0.73324E-01   -0.10179E-01  4236   0.475E-01    0.457E-01
DAV:  11    -0.805595119207E+03    0.79100E-01   -0.12919E-01  3912   0.391E-01    0.279E-01
DAV:  12    -0.805603778195E+03   -0.86590E-02   -0.33023E-02  4092   0.232E-01    0.203E-01
DAV:  13    -0.805623049143E+03   -0.19271E-01   -0.90091E-03  3612   0.152E-01    0.108E-01
DAV:  14    -0.805639145512E+03   -0.16096E-01   -0.57176E-03  3960   0.830E-02    0.638E-02
DAV:  15    -0.805652933765E+03   -0.13788E-01   -0.12136E-03  3888   0.387E-02    0.378E-02
DAV:  16    -0.805666012051E+03   -0.13078E-01   -0.15276E-03  3876   0.328E-02    0.191E-02
DAV:  17    -0.805670427401E+03   -0.44153E-02   -0.30573E-04  4032   0.151E-02    0.123E-02
DAV:  18    -0.805673872268E+03   -0.34449E-02   -0.29754E-04  3912   0.110E-02    0.652E-03
DAV:  19    -0.805675101045E+03   -0.12288E-02   -0.74196E-05  3780   0.532E-03    0.368E-03
DAV:  20    -0.805675700610E+03   -0.59957E-03   -0.24001E-05  3444   0.357E-03    0.207E-03
DAV:  21    -0.805675864354E+03   -0.16374E-03   -0.31105E-06  3156   0.158E-03    0.106E-03
DAV:  22    -0.805675951179E+03   -0.86825E-04   -0.18225E-06  3036   0.106E-03    0.431E-04
DAV:  23    -0.805675972059E+03   -0.20879E-04   -0.22108E-07  2844   0.490E-04    0.241E-04
DAV:  24    -0.805675979337E+03   -0.72788E-05   -0.89849E-08  2796   0.270E-04    0.881E-05
DAV:  25    -0.805675980578E+03   -0.12407E-05   -0.30028E-09  2544   0.143E-04    0.411E-05
DAV:  26    -0.805675980854E+03   -0.27561E-06    0.94435E-09  2448   0.813E-05
   1 F= -.81835275E+03 E0= -.81835275E+03  d E =-.172520E-04
