 vasp.6.5.0 16Dec24 (build Jan 08 2025 16:17:04) complex                        
  
 executed on             LinuxIFC date 2026.02.02  03:03:06
 running   42 mpi-ranks, on    1 nodes
 distrk:  each k-point on   42 cores,    1 groups
 distr:  one band on NCORE=   7 cores,    6 groups


--------------------------------------------------------------------------------------------------------


 INCAR:
   SYSTEM = SCF
   PREC = Accurate
   LORBIT = 11
   ENCUT = 600
   LCHARG = .FALSE.
   LWAVE = .FALSE.
   ALGO = Normal
   NELM = 150
   EDIFF = 1E-6
   EDIFFG = -1E-3
   SIGMA = 0.1
   ISMEAR = 0
   NSW = 0
   IBRION = -1
   NCORE = 7
   LREAL = Auto
   GGA = PE
   IVDW = 12
   LDIPOL = .TRUE.
   IDIPOL = 3
   DIPOL = 0.5 0.5 0.154432

 POTCAR:    PAW_PBE B 06Sep2000                   
 POTCAR:    PAW_PBE H 15Jun2001                   
 POTCAR:    PAW_PBE B 06Sep2000                   
   SHA256 =  a32ced30f5ae56fd4d10b4325ff17eb3e4e38ee0f4288bc219fb012fddfa6e97 B/POTCAR              
   COPYR  = (c) Copyright 06Sep2000 Georg Kresse                                                    
   COPYR  = This file is part of the software VASP. Any use, copying, and all other rights are regul
   COPYR  = If you do not have a valid VASP license, you may not use, copy or distribute this file. 
   VRHFIN =B: s2p1                                                                                  
   LEXCH  = PE                                                                                      
   EATOM  =    71.1703 eV,    5.2309 Ry                                                             
                                                                                                    
   TITEL  = PAW_PBE B 06Sep2000                                                                     
   LULTRA =        F    use ultrasoft PP ?                                                          
   IUNSCR =        1    unscreen: 0-lin 1-nonlin 2-no                                               
   RPACOR =    1.200    partial core radius                                                         
   POMASS =   10.811; ZVAL   =    3.000    mass and valenz                                          
   RCORE  =    1.700    outmost cutoff radius                                                       
   RWIGS  =    1.710; RWIGS  =    0.905    wigner-seitz radius (au A)                               
   ENMAX  =  318.614; ENMIN  =  238.960 eV                                                          
   ICORE  =        2    local potential                                                             
   LCOR   =        T    correct aug charges                                                         
   LPAW   =        T    paw PP                                                                      
   EAUG   =  535.514                                                                                
   DEXC   =    0.000                                                                                
   RMAX   =    1.732    core radius for proj-oper                                                   
   RAUG   =    1.300    factor for augmentation sphere                                              
   RDEP   =    1.757    radius for radial grids                                                     
   RDEPT  =    1.436    core radius for aug-charge                                                  
                                                                                                    
   Atomic configuration                                                                             
    4 entries                                                                                       
     n  l   j            E        occ.                                                              
     1  0  0.50      -180.5896   2.0000                                                             
     2  0  0.50        -9.4431   2.0000                                                             
     2  1  0.50        -3.6068   1.0000                                                             
     3  2  1.50        -4.0817   0.0000                                                             
   Description                                                                                      
     l       E           TYP  RCUT    TYP  RCUT                                                     
     0     -9.4430752     23  1.500                                                                 
     0      0.8675899     23  1.500                                                                 
     1     -3.6067955     23  1.700                                                                 
     1      6.1086146     23  1.700                                                                 
     2     -4.0817478      7  1.700                                                                 
  local pseudopotential read in
  partial core-charges read in
  partial kinetic energy density read in
  atomic valenz-charges read in
  non local Contribution for L=           0  read in
    real space projection operators read in
  non local Contribution for L=           0  read in
    real space projection operators read in
  non local Contribution for L=           1  read in
    real space projection operators read in
  non local Contribution for L=           1  read in
    real space projection operators read in
    PAW grid and wavefunctions read in
 
   number of l-projection  operators is LMAX  =           4
   number of lm-projection operators is LMMAX =           8
 
 POTCAR:    PAW_PBE H 15Jun2001                   
   SHA256 =  030f79b5d3ab3cf0e668861823c8fb652ff669f3e15e46930bd03bfd63a607b6 H/POTCAR              
   COPYR  = (c) Copyright 15Jun2001 Georg Kresse                                                    
   COPYR  = This file is part of the software VASP. Any use, copying, and all other rights are regul
   COPYR  = If you do not have a valid VASP license, you may not use, copy or distribute this file. 
   VRHFIN =H: ultrasoft test                                                                        
   LEXCH  = PE                                                                                      
   EATOM  =    12.4884 eV,    0.9179 Ry                                                             
                                                                                                    
   TITEL  = PAW_PBE H 15Jun2001                                                                     
   LULTRA =        F    use ultrasoft PP ?                                                          
   IUNSCR =        0    unscreen: 0-lin 1-nonlin 2-no                                               
   RPACOR =    0.000    partial core radius                                                         
   POMASS =    1.000; ZVAL   =    1.000    mass and valenz                                          
   RCORE  =    1.100    outmost cutoff radius                                                       
   RWIGS  =    0.700; RWIGS  =    0.370    wigner-seitz radius (au A)                               
   ENMAX  =  250.000; ENMIN  =  200.000 eV                                                          
   RCLOC  =    0.701    cutoff for local pot                                                        
   LCOR   =        T    correct aug charges                                                         
   LPAW   =        T    paw PP                                                                      
   EAUG   =  400.000                                                                                
   RMAX   =    1.123    core radius for proj-oper                                                   
   RAUG   =    1.200    factor for augmentation sphere                                              
   RDEP   =    1.112    radius for radial grids                                                     
   RDEPT  =    0.926    core radius for aug-charge                                                  
                                                                                                    
   Atomic configuration                                                                             
    2 entries                                                                                       
     n  l   j            E        occ.                                                              
     1  0  0.50        -6.4927   1.0000                                                             
     2  1  0.50        -3.4015   0.0000                                                             
   Description                                                                                      
     l       E           TYP  RCUT    TYP  RCUT                                                     
     0     -6.4927494     23  1.100                                                                 
     0      6.8029130     23  1.100                                                                 
     1     -4.0817478     23  1.100                                                                 
  local pseudopotential read in
  atomic valenz-charges read in
  non local Contribution for L=           0  read in
    real space projection operators read in
  non local Contribution for L=           0  read in
    real space projection operators read in
  non local Contribution for L=           1  read in
    real space projection operators read in
    PAW grid and wavefunctions read in
 
   number of l-projection  operators is LMAX  =           3
   number of lm-projection operators is LMMAX =           5
 
 Optimization of the real space projectors (new method)

 maximal supplied QI-value         = 22.11
 optimisation between [QCUT,QGAM] = [ 12.38, 24.98] = [ 42.93,174.79] Ry 
 Optimized for a Real-space Cutoff    1.03 Angstroem

   l    n(q)    QCUT    max X(q) W(low)/X(q) W(high)/X(q)  e(spline) 
   0      8    12.381    53.033    0.22E-03    0.47E-03    0.92E-07
   0      8    12.381    34.740    0.21E-03    0.46E-03    0.93E-07
   1      7    12.381    30.949    0.11E-03    0.42E-03    0.70E-07
   1      7    12.381    19.518    0.10E-03    0.38E-03    0.67E-07
 Optimization of the real space projectors (new method)

 maximal supplied QI-value         = 34.20
 optimisation between [QCUT,QGAM] = [ 12.31, 24.97] = [ 42.46,174.58] Ry 
 Optimized for a Real-space Cutoff    1.13 Angstroem

   l    n(q)    QCUT    max X(q) W(low)/X(q) W(high)/X(q)  e(spline) 
   0      8    12.313    19.460    0.10E-03    0.25E-03    0.27E-06
   0      8    12.313    12.209    0.92E-04    0.23E-03    0.26E-06
   1      8    12.313     4.655    0.24E-03    0.28E-03    0.15E-06
  PAW_PBE B 06Sep2000                   :
 energy of atom  1       EATOM=  -71.1703
 kinetic energy error for atom=    0.0007 (will be added to EATOM!!)
  PAW_PBE H 15Jun2001                   :
 energy of atom  2       EATOM=  -12.4884
 kinetic energy error for atom=    0.0004 (will be added to EATOM!!)
 
 
 POSCAR: generated by phonopy
  positions in direct lattice
  No initial velocities read in
 IVDW         = 12
 VDW_S6       =    1.0000
 VDW_S8       =    0.7875
 VDW_A1       =    0.4289
 VDW_A2       =    4.4407
 VDW_RADIUS   =   50.2022 A
 VDW_CNRADIUS =   21.1671 A


 exchange-correlation table for PE
   RHO(1)=    0.500       N(1)  =     2000
   RHO(2)=  100.500       N(2)  =     4000
 


--------------------------------------------------------------------------------------------------------


 ion  position               nearest neighbor table
   1  0.166  0.219  0.154- 109 1.64  37 1.68  91 1.72  73 1.72 118 1.82  10 1.98
   2  0.500  0.219  0.154- 110 1.64  38 1.68  92 1.72  74 1.72 119 1.82  11 1.98
   3  0.833  0.219  0.154- 111 1.64  39 1.68  93 1.72  75 1.72 120 1.82  12 1.98
   4  0.166  0.552  0.154- 112 1.64  40 1.68  94 1.72  76 1.72 121 1.82  13 1.98
   5  0.500  0.552  0.154- 113 1.64  41 1.68  95 1.72  77 1.72 122 1.82  14 1.98
   6  0.833  0.552  0.154- 114 1.64  42 1.68  96 1.72  78 1.72 123 1.82  15 1.98
   7  0.166  0.886  0.154- 115 1.64  43 1.68  97 1.72  79 1.72 124 1.82  16 1.98
   8  0.500  0.886  0.154- 116 1.64  44 1.68  98 1.72  80 1.72 125 1.82  17 1.98
   9  0.833  0.886  0.154- 117 1.64  45 1.68  99 1.72  81 1.72 126 1.82  18 1.98
  10  0.167  0.114  0.154- 118 1.64  46 1.68  82 1.72 100 1.72 109 1.82   1 1.98
  11  0.500  0.114  0.154- 119 1.64  47 1.68  83 1.72 101 1.72 110 1.82   2 1.98
  12  0.834  0.114  0.154- 120 1.64  48 1.68  84 1.72 102 1.72 111 1.82   3 1.98
  13  0.167  0.448  0.154- 121 1.64  49 1.68  85 1.72 103 1.72 112 1.82   4 1.98
  14  0.500  0.448  0.154- 122 1.64  50 1.68  86 1.72 104 1.72 113 1.82   5 1.98
  15  0.834  0.448  0.154- 123 1.64  51 1.68  87 1.72 105 1.72 114 1.82   6 1.98
  16  0.167  0.781  0.154- 124 1.64  52 1.68  88 1.72 106 1.72 115 1.82   7 1.98
  17  0.500  0.781  0.154- 125 1.64  53 1.68  89 1.72 107 1.72 116 1.82   8 1.98
  18  0.834  0.781  0.154- 126 1.64  54 1.68  90 1.72 108 1.72 117 1.82   9 1.98
  19  0.327  0.214  0.154- 118 1.66  55 1.71 110 1.73  91 1.79  73 1.79  29 1.79
  20  0.660  0.214  0.154- 119 1.66  56 1.71 111 1.73  92 1.79  74 1.79  30 1.79
  21  0.994  0.214  0.154- 120 1.66  57 1.71 109 1.73  93 1.79  75 1.79  28 1.79
  22  0.327  0.547  0.154- 121 1.66  58 1.71 113 1.73  94 1.79  76 1.79  32 1.79
  23  0.660  0.547  0.154- 122 1.66  59 1.71 114 1.73  95 1.79  77 1.79  33 1.79
  24  0.994  0.547  0.154- 123 1.66  60 1.71 112 1.73  96 1.79  78 1.79  31 1.79
  25  0.327  0.880  0.154- 124 1.66  61 1.71 116 1.73  97 1.79  79 1.79  35 1.79
  26  0.660  0.880  0.154- 125 1.66  62 1.71 117 1.73  98 1.79  80 1.79  36 1.79
  27  0.994  0.880  0.154- 126 1.66  63 1.71 115 1.73  99 1.79  81 1.79  34 1.79
  28  0.006  0.120  0.154- 109 1.66  64 1.71 120 1.73  82 1.79 100 1.79  21 1.79
  29  0.340  0.120  0.154- 110 1.66  65 1.71 118 1.73  83 1.79 101 1.79  19 1.79
  30  0.673  0.120  0.154- 111 1.66  66 1.71 119 1.73  84 1.79 102 1.79  20 1.79
  31  0.006  0.453  0.154- 112 1.66  67 1.71 123 1.73  85 1.79 103 1.79  24 1.79
  32  0.340  0.453  0.154- 113 1.66  68 1.71 121 1.73  86 1.79 104 1.79  22 1.79
  33  0.673  0.453  0.154- 114 1.66  69 1.71 122 1.73  87 1.79 105 1.79  23 1.79
  34  0.006  0.786  0.154- 115 1.66  70 1.71 126 1.73  88 1.79 106 1.79  27 1.79
  35  0.340  0.786  0.154- 116 1.66  71 1.71 124 1.73  89 1.79 107 1.79  25 1.79
  36  0.673  0.786  0.154- 117 1.66  72 1.71 125 1.73  90 1.79 108 1.79  26 1.79
  37  0.201  0.303  0.154-  49 1.66   1 1.68  55 1.68  91 1.75  73 1.75
  38  0.535  0.303  0.154-  50 1.66   2 1.68  56 1.68  92 1.75  74 1.75
  39  0.868  0.303  0.154-  51 1.66   3 1.68  57 1.68  93 1.75  75 1.75
  40  0.201  0.636  0.154-  52 1.66   4 1.68  58 1.68  94 1.75  76 1.75
  41  0.535  0.636  0.154-  53 1.66   5 1.68  59 1.68  95 1.75  77 1.75
  42  0.868  0.636  0.154-  54 1.66   6 1.68  60 1.68  96 1.75  78 1.75
  43  0.201  0.969  0.154-  46 1.66   7 1.68  61 1.68  97 1.75  79 1.75
  44  0.535  0.969  0.154-  47 1.66   8 1.68  62 1.68  98 1.75  80 1.75
  45  0.868  0.969  0.154-  48 1.66   9 1.68  63 1.68  99 1.75  81 1.75
  46  0.132  0.031  0.154-  43 1.66  10 1.68  64 1.68  82 1.75 100 1.75
  47  0.465  0.031  0.154-  44 1.66  11 1.68  65 1.68  83 1.75 101 1.75
  48  0.799  0.031  0.154-  45 1.66  12 1.68  66 1.68  84 1.75 102 1.75
  49  0.132  0.364  0.154-  37 1.66  13 1.68  67 1.68  85 1.75 103 1.75
  50  0.465  0.364  0.154-  38 1.66  14 1.68  68 1.68  86 1.75 104 1.75
  51  0.799  0.364  0.154-  39 1.66  15 1.68  69 1.68  87 1.75 105 1.75
  52  0.132  0.697  0.154-  40 1.66  16 1.68  70 1.68  88 1.75 106 1.75
  53  0.465  0.697  0.154-  41 1.66  17 1.68  71 1.68  89 1.75 107 1.75
  54  0.799  0.697  0.154-  42 1.66  18 1.68  72 1.68  90 1.75 108 1.75
  55  0.300  0.300  0.154-  68 1.68  37 1.68  19 1.71  91 1.80  73 1.80
  56  0.633  0.300  0.154-  69 1.68  38 1.68  20 1.71  92 1.80  74 1.80
  57  0.966  0.300  0.154-  67 1.68  39 1.68  21 1.71  93 1.80  75 1.80
  58  0.300  0.634  0.154-  71 1.68  40 1.68  22 1.71  94 1.80  76 1.80
  59  0.633  0.634  0.154-  72 1.68  41 1.68  23 1.71  95 1.80  77 1.80
  60  0.966  0.634  0.154-  70 1.68  42 1.68  24 1.71  96 1.80  78 1.80
  61  0.300  0.967  0.154-  65 1.68  43 1.68  25 1.71  97 1.80  79 1.80
  62  0.633  0.967  0.154-  66 1.68  44 1.68  26 1.71  98 1.80  80 1.80
  63  0.966  0.967  0.154-  64 1.68  45 1.68  27 1.71  99 1.80  81 1.80
  64  0.034  0.033  0.154-  63 1.68  46 1.68  28 1.71  82 1.80 100 1.80
  65  0.367  0.033  0.154-  61 1.68  47 1.68  29 1.71  83 1.80 101 1.80
  66  0.700  0.033  0.154-  62 1.68  48 1.68  30 1.71  84 1.80 102 1.80
  67  0.034  0.366  0.154-  57 1.68  49 1.68  31 1.71  85 1.80 103 1.80
  68  0.367  0.366  0.154-  55 1.68  50 1.68  32 1.71  86 1.80 104 1.80
  69  0.700  0.366  0.154-  56 1.68  51 1.68  33 1.71  87 1.80 105 1.80
  70  0.034  0.700  0.154-  60 1.68  52 1.68  34 1.71  88 1.80 106 1.80
  71  0.367  0.700  0.154-  58 1.68  53 1.68  35 1.71  89 1.80 107 1.80
  72  0.700  0.700  0.154-  59 1.68  54 1.68  36 1.71  90 1.80 108 1.80
  73  0.245  0.238  0.193-   1 1.72  37 1.75  19 1.79 118 1.79  55 1.80  91 2.01
  74  0.579  0.238  0.193-   2 1.72  38 1.75  20 1.79 119 1.79  56 1.80  92 2.01
  75  0.912  0.238  0.193-   3 1.72  39 1.75  21 1.79 120 1.79  57 1.80  93 2.01
  76  0.245  0.572  0.193-   4 1.72  40 1.75  22 1.79 121 1.79  58 1.80  94 2.01
  77  0.579  0.572  0.193-   5 1.72  41 1.75  23 1.79 122 1.79  59 1.80  95 2.01
  78  0.912  0.572  0.193-   6 1.72  42 1.75  24 1.79 123 1.79  60 1.80  96 2.01
  79  0.245  0.905  0.193-   7 1.72  43 1.75  25 1.79 124 1.79  61 1.80  97 2.01
  80  0.579  0.905  0.193-   8 1.72  44 1.75  26 1.79 125 1.79  62 1.80  98 2.01
  81  0.912  0.905  0.193-   9 1.72  45 1.75  27 1.79 126 1.79  63 1.80  99 2.01
  82  0.088  0.095  0.116-  10 1.72  46 1.75  28 1.79 109 1.79  64 1.80 100 2.01
  83  0.421  0.095  0.116-  11 1.72  47 1.75  29 1.79 110 1.79  65 1.80 101 2.01
  84  0.755  0.095  0.116-  12 1.72  48 1.75  30 1.79 111 1.79  66 1.80 102 2.01
  85  0.088  0.428  0.116-  13 1.72  49 1.75  31 1.79 112 1.79  67 1.80 103 2.01
  86  0.421  0.428  0.116-  14 1.72  50 1.75  32 1.79 113 1.79  68 1.80 104 2.01
  87  0.755  0.428  0.116-  15 1.72  51 1.75  33 1.79 114 1.79  69 1.80 105 2.01
  88  0.088  0.762  0.116-  16 1.72  52 1.75  34 1.79 115 1.79  70 1.80 106 2.01
  89  0.421  0.762  0.116-  17 1.72  53 1.75  35 1.79 116 1.79  71 1.80 107 2.01
  90  0.755  0.762  0.116-  18 1.72  54 1.75  36 1.79 117 1.79  72 1.80 108 2.01
  91  0.245  0.238  0.116-   1 1.72  37 1.75  19 1.79 118 1.79  55 1.80  73 2.01
  92  0.579  0.238  0.116-   2 1.72  38 1.75  20 1.79 119 1.79  56 1.80  74 2.01
  93  0.912  0.238  0.116-   3 1.72  39 1.75  21 1.79 120 1.79  57 1.80  75 2.01
  94  0.245  0.572  0.116-   4 1.72  40 1.75  22 1.79 121 1.79  58 1.80  76 2.01
  95  0.579  0.572  0.116-   5 1.72  41 1.75  23 1.79 122 1.79  59 1.80  77 2.01
  96  0.912  0.572  0.116-   6 1.72  42 1.75  24 1.79 123 1.79  60 1.80  78 2.01
  97  0.245  0.905  0.116-   7 1.72  43 1.75  25 1.79 124 1.79  61 1.80  79 2.01
  98  0.579  0.905  0.116-   8 1.72  44 1.75  26 1.79 125 1.79  62 1.80  80 2.01
  99  0.912  0.905  0.116-   9 1.72  45 1.75  27 1.79 126 1.79  63 1.80  81 2.01
 100  0.088  0.095  0.193-  10 1.72  46 1.75  28 1.79 109 1.79  64 1.80  82 2.01
 101  0.421  0.095  0.193-  11 1.72  47 1.75  29 1.79 110 1.79  65 1.80  83 2.01
 102  0.755  0.095  0.193-  12 1.72  48 1.75  30 1.79 111 1.79  66 1.80  84 2.01
 103  0.088  0.428  0.193-  13 1.72  49 1.75  31 1.79 112 1.79  67 1.80  85 2.01
 104  0.421  0.428  0.193-  14 1.72  50 1.75  32 1.79 113 1.79  68 1.80  86 2.01
 105  0.755  0.428  0.193-  15 1.72  51 1.75  33 1.79 114 1.79  69 1.80  87 2.01
 106  0.088  0.762  0.193-  16 1.72  52 1.75  34 1.79 115 1.79  70 1.80  88 2.01
 107  0.421  0.762  0.193-  17 1.72  53 1.75  35 1.79 116 1.79  71 1.80  89 2.01
 108  0.755  0.762  0.193-  18 1.72  54 1.75  36 1.79 117 1.79  72 1.80  90 2.01
 109  0.084  0.173  0.154-   1 1.64  28 1.66  21 1.73  82 1.79 100 1.79  10 1.82
 110  0.417  0.173  0.154-   2 1.64  29 1.66  19 1.73  83 1.79 101 1.79  11 1.82
 111  0.751  0.173  0.154-   3 1.64  30 1.66  20 1.73  84 1.79 102 1.79  12 1.82
 112  0.084  0.507  0.154-   4 1.64  31 1.66  24 1.73  85 1.79 103 1.79  13 1.82
 113  0.417  0.507  0.154-   5 1.64  32 1.66  22 1.73  86 1.79 104 1.79  14 1.82
 114  0.751  0.507  0.154-   6 1.64  33 1.66  23 1.73  87 1.79 105 1.79  15 1.82
 115  0.084  0.840  0.154-   7 1.64  34 1.66  27 1.73  88 1.79 106 1.79  16 1.82
 116  0.417  0.840  0.154-   8 1.64  35 1.66  25 1.73  89 1.79 107 1.79  17 1.82
 117  0.751  0.840  0.154-   9 1.64  36 1.66  26 1.73  90 1.79 108 1.79  18 1.82
 118  0.249  0.160  0.154-  10 1.64  19 1.66  29 1.73  91 1.79  73 1.79   1 1.82
 119  0.583  0.160  0.154-  11 1.64  20 1.66  30 1.73  92 1.79  74 1.79   2 1.82
 120  0.916  0.160  0.154-  12 1.64  21 1.66  28 1.73  93 1.79  75 1.79   3 1.82
 121  0.249  0.493  0.154-  13 1.64  22 1.66  32 1.73  94 1.79  76 1.79   4 1.82
 122  0.583  0.493  0.154-  14 1.64  23 1.66  33 1.73  95 1.79  77 1.79   5 1.82
 123  0.916  0.493  0.154-  15 1.64  24 1.66  31 1.73  96 1.79  78 1.79   6 1.82
 124  0.249  0.827  0.154-  16 1.64  25 1.66  35 1.73  97 1.79  79 1.79   7 1.82
 125  0.583  0.827  0.154-  17 1.64  26 1.66  36 1.73  98 1.79  80 1.79   8 1.82
 126  0.916  0.827  0.154-  18 1.64  27 1.66  34 1.73  99 1.79  81 1.79   9 1.82
 127  0.166  0.167  0.093-
 128  0.500  0.167  0.094-
 129  0.833  0.167  0.094-
 130  0.167  0.500  0.094-
 131  0.500  0.500  0.094-
 132  0.833  0.500  0.094-
 133  0.167  0.833  0.094-
 134  0.500  0.833  0.094-
 135  0.833  0.833  0.094-
 136  0.167  0.167  0.215-
 137  0.500  0.167  0.215-
 138  0.833  0.167  0.215-
 139  0.167  0.500  0.215-
 140  0.500  0.500  0.215-
 141  0.833  0.500  0.215-
 142  0.167  0.833  0.215-
 143  0.500  0.833  0.215-
 144  0.833  0.833  0.215-
 
  LATTYP: Found a simple monoclinic cell.
 ALAT       =    17.0991657483
 B/A-ratio  =     1.5231186263
 C/A-ratio  =     1.1025852060
 COS(beta)  =    -0.0130771663
  
  Lattice vectors:
  
 A1 = (  17.0988253201,  -0.1078979226,   0.0000000000)
 A2 = (   0.0000000000,   0.0000000000, -26.0440578461)
 A3 = (  -0.1275861832,  18.8528554762,   0.0000000000)


Analysis of symmetry for initial positions (statically):
=====================================================================
 Subroutine PRICEL returns:
 Original cell was already a primitive cell.
 

 Routine SETGRP: Setting up the symmetry group for a 
 simple monoclinic supercell.


 Subroutine GETGRP returns: Found  1 space group operations
 (whereof  1 operations were pure point group operations)
 out of a pool of  4 trial point group operations.


The static configuration has the point symmetry C_1 .


Analysis of symmetry for dynamics (positions and initial velocities):
=====================================================================
 Subroutine PRICEL returns:
 Original cell was already a primitive cell.
 

 Routine SETGRP: Setting up the symmetry group for a 
 simple monoclinic supercell.


 Subroutine GETGRP returns: Found  1 space group operations
 (whereof  1 operations were pure point group operations)
 out of a pool of  4 trial point group operations.


The dynamic configuration has the point symmetry C_1 .


 Subroutine INISYM returns: Found  1 space group operations
 (whereof  1 operations are pure point group operations),
 and found     1 'primitive' translations


----------------------------------------------------------------------------------------

                                     Primitive cell                                     

  volume of cell :    8395.2478

  direct lattice vectors                    reciprocal lattice vectors
    17.098825320 -0.107897923  0.000000000     0.058486047  0.000395803  0.000000000
    -0.127586183 18.852855476  0.000000000     0.000334725  0.053044628  0.000000000
     0.000000000  0.000000000 26.044057846     0.000000000  0.000000000  0.038396474

  length of vectors
    17.099165748 18.853287189 26.044057846     0.058487387  0.053045684  0.038396474

  position of ions in fractional coordinates (direct lattice)
     0.166191712  0.219119530  0.154431738
     0.499525045  0.219119530  0.154431738
     0.832858379  0.219119530  0.154431738
     0.166191712  0.552452863  0.154431738
     0.499525045  0.552452863  0.154431738
     0.832858379  0.552452863  0.154431738
     0.166191712  0.885786196  0.154431738
     0.499525045  0.885786196  0.154431738
     0.832858379  0.885786196  0.154431738
     0.167141621  0.114213804  0.154431738
     0.500474955  0.114213804  0.154431738
     0.833808288  0.114213804  0.154431738
     0.167141621  0.447547137  0.154431738
     0.500474955  0.447547137  0.154431738
     0.833808288  0.447547137  0.154431738
     0.167141621  0.780880470  0.154431738
     0.500474955  0.780880470  0.154431738
     0.833808288  0.780880470  0.154431738
     0.326837303  0.213757157  0.154431738
     0.660170636  0.213757157  0.154431738
     0.993503970  0.213757157  0.154431738
     0.326837303  0.547090491  0.154431738
     0.660170636  0.547090491  0.154431738
     0.993503970  0.547090491  0.154431738
     0.326837303  0.880423824  0.154431738
     0.660170636  0.880423824  0.154431738
     0.993503970  0.880423824  0.154431738
     0.006496030  0.119576176  0.154431738
     0.339829364  0.119576176  0.154431738
     0.673162697  0.119576176  0.154431738
     0.006496030  0.452909509  0.154431738
     0.339829364  0.452909509  0.154431738
     0.673162697  0.452909509  0.154431738
     0.006496030  0.786242843  0.154431738
     0.339829364  0.786242843  0.154431738
     0.673162697  0.786242843  0.154431738
     0.201339746  0.302770269  0.154431738
     0.534673079  0.302770269  0.154431738
     0.868006413  0.302770269  0.154431738
     0.201339746  0.636103602  0.154431738
     0.534673079  0.636103602  0.154431738
     0.868006413  0.636103602  0.154431738
     0.201339746  0.969436935  0.154431738
     0.534673079  0.969436935  0.154431738
     0.868006413  0.969436935  0.154431738
     0.131993587  0.030563062  0.154431738
     0.465326921  0.030563062  0.154431738
     0.798660254  0.030563062  0.154431738
     0.131993587  0.363896395  0.154431738
     0.465326921  0.363896395  0.154431738
     0.798660254  0.363896395  0.154431738
     0.131993587  0.697229729  0.154431738
     0.465326921  0.697229729  0.154431738
     0.798660254  0.697229729  0.154431738
     0.299712086  0.300464012  0.154431738
     0.633045419  0.300464012  0.154431738
     0.966378752  0.300464012  0.154431738
     0.299712086  0.633797346  0.154431738
     0.633045419  0.633797346  0.154431738
     0.966378752  0.633797346  0.154431738
     0.299712086  0.967130679  0.154431738
     0.633045419  0.967130679  0.154431738
     0.966378752  0.967130679  0.154431738
     0.033621248  0.032869318  0.154431738
     0.366954581  0.032869318  0.154431738
     0.700287914  0.032869318  0.154431738
     0.033621248  0.366202652  0.154431738
     0.366954581  0.366202652  0.154431738
     0.700287914  0.366202652  0.154431738
     0.033621248  0.699535985  0.154431738
     0.366954581  0.699535985  0.154431738
     0.700287914  0.699535985  0.154431738
     0.245201909  0.238211757  0.193022715
     0.578535242  0.238211757  0.193022715
     0.911868576  0.238211757  0.193022715
     0.245201909  0.571545090  0.193022715
     0.578535242  0.571545090  0.193022715
     0.911868576  0.571545090  0.193022715
     0.245201909  0.904878423  0.193022715
     0.578535242  0.904878423  0.193022715
     0.911868576  0.904878423  0.193022715
     0.088131424  0.095121577  0.115840764
     0.421464758  0.095121577  0.115840764
     0.754798091  0.095121577  0.115840764
     0.088131424  0.428454910  0.115840764
     0.421464758  0.428454910  0.115840764
     0.754798091  0.428454910  0.115840764
     0.088131424  0.761788243  0.115840764
     0.421464758  0.761788243  0.115840764
     0.754798091  0.761788243  0.115840764
     0.245201909  0.238211757  0.115840764
     0.578535242  0.238211757  0.115840764
     0.911868576  0.238211757  0.115840764
     0.245201909  0.571545090  0.115840764
     0.578535242  0.571545090  0.115840764
     0.911868576  0.571545090  0.115840764
     0.245201909  0.904878423  0.115840764
     0.578535242  0.904878423  0.115840764
     0.911868576  0.904878423  0.115840764
     0.088131424  0.095121577  0.193022715
     0.421464758  0.095121577  0.193022715
     0.754798091  0.095121577  0.193022715
     0.088131424  0.428454910  0.193022715
     0.421464758  0.428454910  0.193022715
     0.754798091  0.428454910  0.193022715
     0.088131424  0.761788243  0.193022715
     0.421464758  0.761788243  0.193022715
     0.754798091  0.761788243  0.193022715
     0.083868329  0.173448887  0.154431738
     0.417201663  0.173448887  0.154431738
     0.750534996  0.173448887  0.154431738
     0.083868329  0.506782220  0.154431738
     0.417201663  0.506782220  0.154431738
     0.750534996  0.506782220  0.154431738
     0.083868329  0.840115553  0.154431738
     0.417201663  0.840115553  0.154431738
     0.750534996  0.840115553  0.154431738
     0.249465004  0.159884437  0.154431738
     0.582798337  0.159884437  0.154431738
     0.916131671  0.159884437  0.154431738
     0.249465004  0.493217770  0.154431738
     0.582798337  0.493217770  0.154431738
     0.916131671  0.493217770  0.154431738
     0.249465004  0.826551103  0.154431738
     0.582798337  0.826551103  0.154431738
     0.916131671  0.826551103  0.154431738
     0.166345698  0.166666667  0.093347357
     0.500000000  0.166666667  0.093668326
     0.833333333  0.166666667  0.093668326
     0.166666667  0.500000000  0.093668326
     0.500000000  0.500000000  0.093668326
     0.833333333  0.500000000  0.093668326
     0.166666667  0.833333333  0.093668326
     0.500000000  0.833333333  0.093668326
     0.833333333  0.833333333  0.093668326
     0.166666667  0.166666667  0.215195152
     0.500000000  0.166666667  0.215195152
     0.833333333  0.166666667  0.215195152
     0.166666667  0.500000000  0.215195152
     0.500000000  0.500000000  0.215195152
     0.833333333  0.500000000  0.215195152
     0.166666667  0.833333333  0.215195152
     0.500000000  0.833333333  0.215195152
     0.833333333  0.833333333  0.215195152

  ion indices of the primitive-cell ions
   primitive index   ion index
                 1           1
                 2           2
                 3           3
                 4           4
                 5           5
                 6           6
                 7           7
                 8           8
                 9           9
                10          10
                11          11
                12          12
                13          13
                14          14
                15          15
                16          16
                17          17
                18          18
                19          19
                20          20
                21          21
                22          22
                23          23
                24          24
                25          25
                26          26
                27          27
                28          28
                29          29
                30          30
                31          31
                32          32
                33          33
                34          34
                35          35
                36          36
                37          37
                38          38
                39          39
                40          40
                41          41
                42          42
                43          43
                44          44
                45          45
                46          46
                47          47
                48          48
                49          49
                50          50
                51          51
                52          52
                53          53
                54          54
                55          55
                56          56
                57          57
                58          58
                59          59
                60          60
                61          61
                62          62
                63          63
                64          64
                65          65
                66          66
                67          67
                68          68
                69          69
                70          70
                71          71
                72          72
                73          73
                74          74
                75          75
                76          76
                77          77
                78          78
                79          79
                80          80
                81          81
                82          82
                83          83
                84          84
                85          85
                86          86
                87          87
                88          88
                89          89
                90          90
                91          91
                92          92
                93          93
                94          94
                95          95
                96          96
                97          97
                98          98
                99          99
               100         100
               101         101
               102         102
               103         103
               104         104
               105         105
               106         106
               107         107
               108         108
               109         109
               110         110
               111         111
               112         112
               113         113
               114         114
               115         115
               116         116
               117         117
               118         118
               119         119
               120         120
               121         121
               122         122
               123         123
               124         124
               125         125
               126         126
               127         127
               128         128
               129         129
               130         130
               131         131
               132         132
               133         133
               134         134
               135         135
               136         136
               137         137
               138         138
               139         139
               140         140
               141         141
               142         142
               143         143
               144         144

----------------------------------------------------------------------------------------

 
 
 KPOINTS: k-points                                

Automatic generation of k-mesh.
 Grid dimensions read from file:
 generate k-points for:    4    3    1

 Generating k-lattice:

  Cartesian coordinates                     Fractional coordinates (reciprocal lattice)
     0.014621512  0.000098951  0.000000000     0.250000000  0.000000000  0.000000000
     0.000111575  0.017681543  0.000000000    -0.000000000  0.333333333  0.000000000
     0.000000000  0.000000000  0.038396474     0.000000000  0.000000000  1.000000000

  Length of vectors
     0.014621847  0.017681895  0.038396474

  Shift w.r.t. Gamma in fractional coordinates (k-lattice)
     0.500000000  0.000000000  0.000000000

 
 Subroutine IBZKPT returns following result:
 ===========================================
 
 Found      6 irreducible k-points:
 
 Following reciprocal coordinates:
            Coordinates               Weight
  0.125000  0.000000  0.000000      2.000000
  0.375000  0.000000  0.000000      2.000000
  0.125000  0.333333  0.000000      2.000000
  0.375000  0.333333  0.000000      2.000000
 -0.375000  0.333333  0.000000      2.000000
 -0.125000  0.333333  0.000000      2.000000
 
 Following cartesian coordinates:
            Coordinates               Weight
  0.007311  0.000049  0.000000      2.000000
  0.021932  0.000148  0.000000      2.000000
  0.007422  0.017731  0.000000      2.000000
  0.022044  0.017830  0.000000      2.000000
 -0.021821  0.017533  0.000000      2.000000
 -0.007199  0.017632  0.000000      2.000000
 


--------------------------------------------------------------------------------------------------------




 Dimension of arrays:
   k-points           NKPTS =      6   k-points in BZ     NKDIM =      6   number of bands    NBANDS=    276
   number of dos      NEDOS =    301   number of ions     NIONS =    144
   non local maximal  LDIM  =      4   non local SUM 2l+1 LMDIM =      8
   total plane-waves  NPLWV = ******
   max r-space proj   IRMAX =   3411   max aug-charges    IRDMAX=   8936
   dimension x,y,z NGX =   140 NGY =  160 NGZ =  210
   dimension x,y,z NGXF=   280 NGYF=  320 NGZF=  420
   support grid    NGXF=   280 NGYF=  320 NGZF=  420
   ions per type =             126  18
   NGX,Y,Z   is equivalent  to a cutoff of  13.61, 14.11, 13.40 a.u.
   NGXF,Y,Z  is equivalent  to a cutoff of  27.22, 28.22, 26.81 a.u.

 SYSTEM =  SCF                                     
 POSCAR =  generated by phonopy                    

 Startparameter for this run:
   NWRITE =      2    write-flag & timer
   PREC   = accura    normal or accurate (medium, high low for compatibility)
   ISTART =      0    job   : 0-new  1-cont  2-samecut
   ICHARG =      2    charge: 1-file 2-atom 10-const
   ISPIN  =      1    spin polarized calculation?
   LNONCOLLINEAR =      F non collinear calculations
   LSORBIT =      F    spin-orbit coupling
   INIWAV =      1    electr: 0-lowe 1-rand  2-diag
   LASPH  =      F    aspherical Exc in radial PAW
 Electronic Relaxation 1
   ENCUT  =  600.0 eV  44.10 Ry    6.64 a.u.  34.15 37.65 52.02*2*pi/ulx,y,z
   ENINI  =  600.0     initial cutoff
   ENAUG  =  535.5 eV  augmentation charge cutoff
   NELM   =    150;   NELMIN=  2; NELMDL= -5     # of ELM steps 
   EDIFF  = 0.1E-05   stopping-criterion for ELM
   LREAL  =      T    real-space projection
   NLSPLINE    = F    spline interpolate recip. space projectors
   LCOMPAT=      F    compatible to vasp.4.4
   GGA_COMPAT  = T    GGA compatible to vasp.4.4-vasp.4.6
   LMAXPAW     = -100 max onsite density
   LMAXMIX     =    2 max onsite mixed and CHGCAR
   VOSKOWN=      0    Vosko Wilk Nusair interpolation
   ROPT   =   -0.00025  -0.00025
 Ionic relaxation
   EDIFFG = -.1E-02   stopping-criterion for IOM
   NSW    =      0    number of steps for IOM
   NBLOCK =      1;   KBLOCK =      1    inner block; outer block 
   IBRION =     -1    ionic relax: 0-MD 1-quasi-New 2-CG
   NFREE  =      0    steps in history (QN), initial steepest desc. (CG)
   ISIF   =      2    stress and relaxation
   IWAVPR =     10    prediction:  0-non 1-charg 2-wave 3-comb
   ISYM   =      2    0-nonsym 1-usesym 2-fastsym
   LCORR  =      T    Harris-Foulkes like correction to forces

   POTIM  = 0.5000    time-step for ionic-motion
   TEIN   =    0.0    initial temperature
   TEBEG  =    0.0;   TEEND  =   0.0 temperature during run
   SMASS  =  -3.00    Nose mass-parameter (am)
   estimated Nose-frequenzy (Omega)   =  0.10E-29 period in steps = 0.13E+47 mass=  -0.668E-26a.u.
   SCALEE = 1.0000    scale energy and forces
   NPACO  =    256;   APACO  = 10.0  distance and # of slots for P.C.
   PSTRESS=    0.0 pullay stress

  Mass of Ions in am
   POMASS =  10.81  1.00
  Ionic Valenz
   ZVAL   =   3.00  1.00
  Atomic Wigner-Seitz radii
   RWIGS  =  -1.00 -1.00
  virtual crystal weights 
   VCA    =   1.00  1.00
   NELECT =     396.0000    total number of electrons
   NUPDOWN=      -1.0000    fix difference up-down

 DOS related values:
   EMIN   =  10.00;   EMAX   =-10.00  energy-range for DOS
   EFERMI =   0.00;   METHOD = LEGACY      
   ISMEAR =     0;   SIGMA  =   0.10  broadening in eV -4-tet -1-fermi 0-gaus
   EFERMI_NEDOS =   21; number of points for ismear=-14 and -15

 Electronic relaxation 2 (details)
   IALGO  =     38    algorithm
   LDIAG  =      T    sub-space diagonalisation (order eigenvalues)
   LSUBROT=      F    optimize rotation matrix (better conditioning)
   TURBO    =      0    0=normal 1=particle mesh
   IRESTART =      0    0=no restart 2=restart with 2 vectors
   NREBOOT  =      0    no. of reboots
   NMIN     =      0    reboot dimension
   EREF     =   0.00    reference energy to select bands
   IMIX   =      4    mixing-type and parameters
     AMIX     =   0.40;   BMIX     =  1.00
     AMIX_MAG =   1.60;   BMIX_MAG =  1.00
     AMIN     =   0.10
     WC   =   100.;   INIMIX=   1;  MIXPRE=   1;  MAXMIX= -45

 Intra band minimization:
   WEIMIN = 0.0000     energy-eigenvalue tresh-hold
   EBREAK =  0.91E-09  absolut break condition
   DEPER  =   0.30     relativ break condition  

   TIME   =   0.40     timestep for ELM

  volume/ion in A,a.u.               =      58.30       393.43
  Fermi-wavevector in a.u.,A,eV,Ry     =   0.591510  1.117792  4.760461  0.349884
  Thomas-Fermi vector in A             =   1.639966
 
 Write flags
   LWAVE        =      F    write WAVECAR
   LDOWNSAMPLE  =      F    k-point downsampling of WAVECAR
   LCHARG       =      F    write CHGCAR
   LVTOT        =      F    write LOCPOT, total local potential
   LVHAR        =      F    write LOCPOT, Hartree potential only
   WRT_POTENTIAL= false  ! write potential to hdf5 file
   LELF         =      F    write electronic localiz. function (ELF)
   LORBIT       =     11    0 simple, 1 ext, 2 COOP (PROOUT), +10 PAW based schemes


 Python interface
   PLUGINS active      =      F    recompile with -DPLUGINS to activate
 
 Dipole corrections
   LMONO      =      F    monopole corrections only (constant potential shift)
   LDIPOL     =      T    correct potential (dipole corrections)
   IDIPOL     =      3    1-x, 2-y, 3-z, 4-all directions 
   EPSILON    =  1.0000000 bulk dielectric constant
   LVACPOTAV  =      F  vacuum potentials using an averaging scheme for the charge density
   VACPOTFLAT =  0.1000000 required flatness to determine vacuum potential
 
Coulomb truncation method
  LTRUNCATE          =      F  Coulomb kernel truncation to be used
  IDIMENSIONALITY    =      3  Dimensionality of cutoff (0 molecules / 2 surfaces)
  ISURFACE           =     -1  Direction of surface normal
  LCOARSEN           =      F  Coarsen the charge grid before padding, preferred

 
 Exchange correlation treatment:
   GGA     = PE    functional components
   XC_C    = 1    coefficients multiplying the functional components
   LIBXC   =     F    Libxc                    
   VOSKOWN =     0    Vosko Wilk Nusair interpolation
   LHFCALC =     F    Hartree Fock is set to
   LHFONE  =     F    Hartree Fock one center treatment
   AEXX    =    0.0000 exact exchange contribution

 Parameters of functionals:
   PE:
     No parameter
 
 Van der Waals corrections
   IVDW    =    12    specifies the selected vdW correction

 Linear response parameters
   LEPSILON=     F    determine dielectric tensor
   LRPA    =     F    only Hartree local field effects (RPA)
   LNABLA  =     F    use nabla operator in PAW spheres
   LVEL    =     F    velocity operator in full k-point grid
   CSHIFT  =0.1000    complex shift for real part using Kramers Kronig
   OMEGAMAX=  -1.0    maximum frequency
   DEG_THRESHOLD= 0.2000000E-02 threshold for treating states as degnerate
   RTIME   =   -0.100 relaxation time in fs
  (WPLASMAI=    0.000 imaginary part of plasma frequency in eV, 0.658/RTIME)
   DFIELD  = 0.0000000 0.0000000 0.0000000 field for delta impulse in time
 
  Optional k-point grid parameters
   LKPOINTS_OPT  =     F    use optional k-point grid
   KPOINTS_OPT_MODE=     1    mode for optional k-point grid
 
 Orbital magnetization related:
   ORBITALMAG=     F  switch on orbital magnetization
   LCHIMAG   =     F  perturbation theory with respect to B field
   DQ        =  0.001000  dq finite difference perturbation B field
   LLRAUG    =     F  two centre corrections for induced B field
   LBONE     =     F  B-component reconstruction in AE one-centre
   LVGVCALC  =     T  calculate vGv susceptibility
   LVGVAPPL  =     F  apply vGv susceptibility instead of pGv for G=0

 Random number generation:
   RANDOM_GENERATOR = DEFAULT
   PCG_SEED         = not used


--------------------------------------------------------------------------------------------------------


 Static calculation
 charge density and potential will be updated during run
 non-spin polarized calculation
 Variant of blocked Davidson
 Davidson routine will perform the subspace rotation
 perform sub-space diagonalisation
    after iterative eigenvector-optimisation
 modified Broyden-mixing scheme, WC =      100.0
 initial mixing is a Kerker type mixing with AMIX =  0.4000 and BMIX =      1.0000
 Hartree-type preconditioning will be used
 using additional bands           78
 real space projection scheme for non local part
 use partial core corrections
 calculate Harris-corrections to forces 
   (improved forces if not selfconsistent)
 use gradient corrections 
 use of overlap-Matrix (Vanderbilt PP)
 Gauss-broadening in eV      SIGMA  =   0.10


--------------------------------------------------------------------------------------------------------


  energy-cutoff  :      600.00
  volume of cell :     8395.25
      direct lattice vectors                 reciprocal lattice vectors
    17.098825320 -0.107897923  0.000000000     0.058486047  0.000395803  0.000000000
    -0.127586183 18.852855476  0.000000000     0.000334725  0.053044628  0.000000000
     0.000000000  0.000000000 26.044057846     0.000000000  0.000000000  0.038396474

  length of vectors
    17.099165748 18.853287189 26.044057846     0.058487387  0.053045684  0.038396474


 
 k-points in units of 2pi/SCALE and weight: k-points                                
   0.00731076  0.00004948  0.00000000       0.167
   0.02193227  0.00014843  0.00000000       0.167
   0.00742233  0.01773102  0.00000000       0.167
   0.02204384  0.01782997  0.00000000       0.167
  -0.02182069  0.01753312  0.00000000       0.167
  -0.00719918  0.01763207  0.00000000       0.167
 
 k-points in reciprocal lattice and weights: k-points                                
   0.12500000  0.00000000  0.00000000       0.167
   0.37500000  0.00000000  0.00000000       0.167
   0.12500000  0.33333333  0.00000000       0.167
   0.37500000  0.33333333  0.00000000       0.167
  -0.37500000  0.33333333  0.00000000       0.167
  -0.12500000  0.33333333  0.00000000       0.167
 
 position of ions in fractional coordinates (direct lattice) 
   0.16619171  0.21911953  0.15443174
   0.49952505  0.21911953  0.15443174
   0.83285838  0.21911953  0.15443174
   0.16619171  0.55245286  0.15443174
   0.49952505  0.55245286  0.15443174
   0.83285838  0.55245286  0.15443174
   0.16619171  0.88578620  0.15443174
   0.49952505  0.88578620  0.15443174
   0.83285838  0.88578620  0.15443174
   0.16714162  0.11421380  0.15443174
   0.50047495  0.11421380  0.15443174
   0.83380829  0.11421380  0.15443174
   0.16714162  0.44754714  0.15443174
   0.50047495  0.44754714  0.15443174
   0.83380829  0.44754714  0.15443174
   0.16714162  0.78088047  0.15443174
   0.50047495  0.78088047  0.15443174
   0.83380829  0.78088047  0.15443174
   0.32683730  0.21375716  0.15443174
   0.66017064  0.21375716  0.15443174
   0.99350397  0.21375716  0.15443174
   0.32683730  0.54709049  0.15443174
   0.66017064  0.54709049  0.15443174
   0.99350397  0.54709049  0.15443174
   0.32683730  0.88042382  0.15443174
   0.66017064  0.88042382  0.15443174
   0.99350397  0.88042382  0.15443174
   0.00649603  0.11957618  0.15443174
   0.33982936  0.11957618  0.15443174
   0.67316270  0.11957618  0.15443174
   0.00649603  0.45290951  0.15443174
   0.33982936  0.45290951  0.15443174
   0.67316270  0.45290951  0.15443174
   0.00649603  0.78624284  0.15443174
   0.33982936  0.78624284  0.15443174
   0.67316270  0.78624284  0.15443174
   0.20133975  0.30277027  0.15443174
   0.53467308  0.30277027  0.15443174
   0.86800641  0.30277027  0.15443174
   0.20133975  0.63610360  0.15443174
   0.53467308  0.63610360  0.15443174
   0.86800641  0.63610360  0.15443174
   0.20133975  0.96943694  0.15443174
   0.53467308  0.96943694  0.15443174
   0.86800641  0.96943694  0.15443174
   0.13199359  0.03056306  0.15443174
   0.46532692  0.03056306  0.15443174
   0.79866025  0.03056306  0.15443174
   0.13199359  0.36389640  0.15443174
   0.46532692  0.36389640  0.15443174
   0.79866025  0.36389640  0.15443174
   0.13199359  0.69722973  0.15443174
   0.46532692  0.69722973  0.15443174
   0.79866025  0.69722973  0.15443174
   0.29971209  0.30046401  0.15443174
   0.63304542  0.30046401  0.15443174
   0.96637875  0.30046401  0.15443174
   0.29971209  0.63379735  0.15443174
   0.63304542  0.63379735  0.15443174
   0.96637875  0.63379735  0.15443174
   0.29971209  0.96713068  0.15443174
   0.63304542  0.96713068  0.15443174
   0.96637875  0.96713068  0.15443174
   0.03362125  0.03286932  0.15443174
   0.36695458  0.03286932  0.15443174
   0.70028791  0.03286932  0.15443174
   0.03362125  0.36620265  0.15443174
   0.36695458  0.36620265  0.15443174
   0.70028791  0.36620265  0.15443174
   0.03362125  0.69953599  0.15443174
   0.36695458  0.69953599  0.15443174
   0.70028791  0.69953599  0.15443174
   0.24520191  0.23821176  0.19302271
   0.57853524  0.23821176  0.19302271
   0.91186858  0.23821176  0.19302271
   0.24520191  0.57154509  0.19302271
   0.57853524  0.57154509  0.19302271
   0.91186858  0.57154509  0.19302271
   0.24520191  0.90487842  0.19302271
   0.57853524  0.90487842  0.19302271
   0.91186858  0.90487842  0.19302271
   0.08813142  0.09512158  0.11584076
   0.42146476  0.09512158  0.11584076
   0.75479809  0.09512158  0.11584076
   0.08813142  0.42845491  0.11584076
   0.42146476  0.42845491  0.11584076
   0.75479809  0.42845491  0.11584076
   0.08813142  0.76178824  0.11584076
   0.42146476  0.76178824  0.11584076
   0.75479809  0.76178824  0.11584076
   0.24520191  0.23821176  0.11584076
   0.57853524  0.23821176  0.11584076
   0.91186858  0.23821176  0.11584076
   0.24520191  0.57154509  0.11584076
   0.57853524  0.57154509  0.11584076
   0.91186858  0.57154509  0.11584076
   0.24520191  0.90487842  0.11584076
   0.57853524  0.90487842  0.11584076
   0.91186858  0.90487842  0.11584076
   0.08813142  0.09512158  0.19302271
   0.42146476  0.09512158  0.19302271
   0.75479809  0.09512158  0.19302271
   0.08813142  0.42845491  0.19302271
   0.42146476  0.42845491  0.19302271
   0.75479809  0.42845491  0.19302271
   0.08813142  0.76178824  0.19302271
   0.42146476  0.76178824  0.19302271
   0.75479809  0.76178824  0.19302271
   0.08386833  0.17344889  0.15443174
   0.41720166  0.17344889  0.15443174
   0.75053500  0.17344889  0.15443174
   0.08386833  0.50678222  0.15443174
   0.41720166  0.50678222  0.15443174
   0.75053500  0.50678222  0.15443174
   0.08386833  0.84011555  0.15443174
   0.41720166  0.84011555  0.15443174
   0.75053500  0.84011555  0.15443174
   0.24946500  0.15988444  0.15443174
   0.58279834  0.15988444  0.15443174
   0.91613167  0.15988444  0.15443174
   0.24946500  0.49321777  0.15443174
   0.58279834  0.49321777  0.15443174
   0.91613167  0.49321777  0.15443174
   0.24946500  0.82655110  0.15443174
   0.58279834  0.82655110  0.15443174
   0.91613167  0.82655110  0.15443174
   0.16634570  0.16666667  0.09334736
   0.50000000  0.16666667  0.09366833
   0.83333333  0.16666667  0.09366833
   0.16666667  0.50000000  0.09366833
   0.50000000  0.50000000  0.09366833
   0.83333333  0.50000000  0.09366833
   0.16666667  0.83333333  0.09366833
   0.50000000  0.83333333  0.09366833
   0.83333333  0.83333333  0.09366833
   0.16666667  0.16666667  0.21519515
   0.50000000  0.16666667  0.21519515
   0.83333333  0.16666667  0.21519515
   0.16666667  0.50000000  0.21519515
   0.50000000  0.50000000  0.21519515
   0.83333333  0.50000000  0.21519515
   0.16666667  0.83333333  0.21519515
   0.50000000  0.83333333  0.21519515
   0.83333333  0.83333333  0.21519515
 
 position of ions in cartesian coordinates  (Angst):
   2.81372643  4.11309708  4.02202912
   8.51333487  4.07713111  4.02202912
  14.21294331  4.04116513  4.02202912
   2.77119770 10.39738224  4.02202912
   8.47080614 10.36141627  4.02202912
  14.17041458 10.32545029  4.02202912
   2.72866897 16.68166740  4.02202912
   8.42827741 16.64570142  4.02202912
  14.12788585 16.60973545  4.02202912
   2.84335329  2.13522210  4.02202912
   8.54296173  2.09925613  4.02202912
  14.24257017  2.06329015  4.02202912
   2.80082456  8.41950726  4.02202912
   8.50043300  8.38354129  4.02202912
  14.20004144  8.34757531  4.02202912
   2.75829583 14.70379242  4.02202912
   8.45790427 14.66782645  4.02202912
  14.15751271 14.63186047  4.02202912
   5.56126149  3.99466773  4.02202912
  11.26086993  3.95870175  4.02202912
  16.96047837  3.92273578  4.02202912
   5.51873277 10.27895289  4.02202912
  11.21834121 10.24298691  4.02202912
  16.91794965 10.20702094  4.02202912
   5.47620404 16.56323804  4.02202912
  11.17581248 16.52727207  4.02202912
  16.87542092 16.49130610  4.02202912
   0.09581822  2.25365146  4.02202912
   5.79542666  2.21768548  4.02202912
  11.49503510  2.18171951  4.02202912
   0.05328949  8.53793662  4.02202912
   5.75289793  8.50197064  4.02202912
  11.45250637  8.46600467  4.02202912
   0.01076076 14.82222177  4.02202912
   5.71036920 14.78625580  4.02202912
  11.40997764 14.75028983  4.02202912
   3.40404384  5.68635998  4.02202912
   9.10365228  5.65039400  4.02202912
  14.80326072  5.61442803  4.02202912
   3.36151512 11.97064514  4.02202912
   9.06112356 11.93467916  4.02202912
  14.76073200 11.89871319  4.02202912
   3.31898639 18.25493030  4.02202912
   9.01859483 18.21896432  4.02202912
  14.71820327 18.18299835  4.02202912
   2.25303587  0.56195916  4.02202912
   7.95264431  0.52599319  4.02202912
  13.65225275  0.49002721  4.02202912
   2.21050714  6.84624432  4.02202912
   7.91011558  6.81027834  4.02202912
  13.60972402  6.77431237  4.02202912
   2.16797841 13.13052948  4.02202912
   7.86758685 13.09456350  4.02202912
  13.56719529 13.05859753  4.02202912
   5.08638954  5.63226629  4.02202912
  10.78599798  5.59630032  4.02202912
  16.48560642  5.56033434  4.02202912
   5.04386081 11.91655145  4.02202912
  10.74346925 11.88058548  4.02202912
  16.44307769 11.84461950  4.02202912
   5.00133209 18.20083661  4.02202912
  10.70094053 18.16487063  4.02202912
  16.40054897 18.12890466  4.02202912
   0.57069017  0.61605285  4.02202912
   6.27029861  0.58008687  4.02202912
  11.96990705  0.54412090  4.02202912
   0.52816144  6.90033801  4.02202912
   6.22776988  6.86437203  4.02202912
  11.92737832  6.82840606  4.02202912
   0.48563272 13.18462316  4.02202912
   6.18524116 13.14865719  4.02202912
  11.88484960 13.11269122  4.02202912
   4.16227208  4.46451504  5.02709474
   9.86188052  4.42854907  5.02709474
  15.56148896  4.39258310  5.02709474
   4.11974335 10.74880020  5.02709474
   9.81935179 10.71283423  5.02709474
  15.51896023 10.67686826  5.02709474
   4.07721462 17.03308536  5.02709474
   9.77682306 16.99711939  5.02709474
  15.47643150 16.96115341  5.02709474
   1.49480763  1.78380414  3.01696356
   7.19441607  1.74783817  3.01696356
  12.89402451  1.71187219  3.01696356
   1.45227890  8.06808930  3.01696356
   7.15188734  8.03212332  3.01696356
  12.85149578  7.99615735  3.01696356
   1.40975018 14.35237446  3.01696356
   7.10935862 14.31640848  3.01696356
  12.80896706 14.28044251  3.01696356
   4.16227208  4.46451504  3.01696356
   9.86188052  4.42854907  3.01696356
  15.56148896  4.39258310  3.01696356
   4.11974335 10.74880020  3.01696356
   9.81935179 10.71283423  3.01696356
  15.51896023 10.67686826  3.01696356
   4.07721462 17.03308536  3.01696356
   9.77682306 16.99711939  3.01696356
  15.47643150 16.96115341  3.01696356
   1.49480763  1.78380414  5.02709474
   7.19441607  1.74783817  5.02709474
  12.89402451  1.71187219  5.02709474
   1.45227890  8.06808930  5.02709474
   7.15188734  8.03212332  5.02709474
  12.85149578  7.99615735  5.02709474
   1.40975018 14.35237446  5.02709474
   7.10935862 14.31640848  5.02709474
  12.80896706 14.28044251  5.02709474
   1.41192023  3.26095757  4.02202912
   7.11152867  3.22499160  4.02202912
  12.81113711  3.18902563  4.02202912
   1.36939150  9.54524273  4.02202912
   7.06899994  9.50927676  4.02202912
  12.76860838  9.47331078  4.02202912
   1.32686277 15.82952789  4.02202912
   7.02647121 15.79356192  4.02202912
  12.72607965 15.75759594  4.02202912
   4.24515948  2.98736142  4.02202912
   9.94476792  2.95139545  4.02202912
  15.64437636  2.91542948  4.02202912
   4.20263076  9.27164658  4.02202912
   9.90223920  9.23568061  4.02202912
  15.60184764  9.19971463  4.02202912
   4.16010203 15.55593174  4.02202912
   9.85971047 15.51996577  4.02202912
  15.55931891 15.48399979  4.02202912
   2.82305166  3.12419422  2.43114397
   8.52814830  3.08819362  2.43950331
  14.22775674  3.05222764  2.43950331
   2.78601113  9.40844475  2.43950331
   8.48561957  9.37247878  2.43950331
  14.18522801  9.33651280  2.43950331
   2.74348240 15.69272991  2.43950331
   8.44309084 15.65676394  2.43950331
  14.14269928 15.62079796  2.43950331
   2.82853986  3.12415959  5.60455500
   8.52814830  3.08819362  5.60455500
  14.22775674  3.05222764  5.60455500
   2.78601113  9.40844475  5.60455500
   8.48561957  9.37247878  5.60455500
  14.18522801  9.33651280  5.60455500
   2.74348240 15.69272991  5.60455500
   8.44309084 15.65676394  5.60455500
  14.14269928 15.62079796  5.60455500
 


--------------------------------------------------------------------------------------------------------


 k-point     1 :   0.1250 0.0000 0.0000  plane waves:  280158
 k-point     2 :   0.3750 0.0000 0.0000  plane waves:  280185
 k-point     3 :   0.1250 0.3333 0.0000  plane waves:  280065
 k-point     4 :   0.3750 0.3333 0.0000  plane waves:  280150
 k-point     5 :  -0.3750 0.3333 0.0000  plane waves:  280104
 k-point     6 :  -0.1250 0.3333 0.0000  plane waves:  280165

 maximum and minimum number of plane-waves per node :     40114    39957

 maximum number of plane-waves:    280185
 maximum index in each direction: 
   IXMAX=   34   IYMAX=   37   IZMAX=   52
   IXMIN=  -34   IYMIN=  -37   IZMIN=  -52


 real space projection operators:
  total allocation   :      21985.96 KBytes
  max/ min on nodes  :       3149.16       3131.46


 parallel 3D FFT for wavefunctions:
    minimum data exchange during FFTs selected (reduces bandwidth)
 parallel 3D FFT for charge:
    minimum data exchange during FFTs selected (reduces bandwidth)


 total amount of memory used by VASP MPI-rank0   350913. kBytes
=======================================================================

   base                                    :      30000. kBytes
   nonlr-proj                              :      12165. kBytes
   fftplans                                :      51260. kBytes
   grid                                    :      79795. kBytes
   one-center                              :         64. kBytes
   wavefun                                 :     177629. kBytes
 
     INWAV:  cpu time      0.0000: real time      0.0000
 Broyden mixing: mesh for mixing (old mesh)
   NGX = 69   NGY = 75   NGZ =105
  (NGX  =280   NGY  =320   NGZ  =420)
  gives a total of 543375 points

 initial charge density was supplied:
 charge density of overlapping atoms calculated
 number of electron     396.0000000 magnetization 
 keeping initial charge density in first step


--------------------------------------------------------------------------------------------------------


 Maximum index for non-local projection operator          492
 Maximum index for augmentation-charges          510 (set IRDMAX)


--------------------------------------------------------------------------------------------------------


 First call to EWALD:  gamma=   0.087
 Maximum number of real-space cells   3x   3x   2
 Maximum number of reciprocal cells   2x   3x   3

    FEWALD:  cpu time      0.0115: real time      0.0115


--------------------------------------- Ionic step        1  -------------------------------------------




--------------------------------------- Iteration      1(   1)  ---------------------------------------


    POTLOK:  cpu time      0.9543: real time      0.9602
    SETDIJ:  cpu time      0.0049: real time      0.0049
     EDDAV:  cpu time    103.1436: real time    104.0298
       DOS:  cpu time      0.0005: real time      0.0005
    --------------------------------------------
      LOOP:  cpu time    104.1036: real time    104.9958

 eigenvalue-minimisations  :  3564
 total energy-change (2. order) : 0.3289782E+04  (-0.1306356E+05)
 number of electron     396.0000000 magnetization 
 augmentation part      396.0000000 magnetization 

 DIPCOR: dipole corrections for dipol
 direction  3 min pos   275,
 dipolmoment           0.000000      0.000000     -0.000046 electrons x Angstroem
 Tr[quadrupol]    -21715.975039

 energy correction for charged system         0.000000 eV
 dipol+quadrupol energy correction           -0.000000 eV
 added-field ion interaction          0.000021 eV  (added to PSCEN)


 Free energy of the ion-electron system (eV)
  ---------------------------------------------------
  alpha Z        PSCENC =       138.35985093
  Ewald energy   TEWEN  =     69624.22114912
  -Hartree energ DENC   =    -75099.66793752
  -exchange      EXHF   =         0.00000000
  -V(xc)+E(xc)   XCENC  =       913.58756618
  PAW double counting   =      5519.39554754    -5411.78503430
  entropy T*S    EENTRO =        -0.25385738
  eigenvalues    EBANDS =     -1586.22843584
  atomic energy  EATOM  =      9192.15348662
  Solvation  Ediel_sol  =         0.00000000
  ---------------------------------------------------
  free energy    TOTEN  =      3289.78233536 eV

  energy without entropy =     3290.03619274  energy(sigma->0) =     3289.90926405


--------------------------------------------------------------------------------------------------------




--------------------------------------- Iteration      1(   2)  ---------------------------------------


     EDDAV:  cpu time    131.7753: real time    132.7932
       DOS:  cpu time      0.0004: real time      0.0004
    --------------------------------------------
      LOOP:  cpu time    131.7758: real time    132.7936

 eigenvalue-minimisations  :  4896
 total energy-change (2. order) :-0.3556921E+04  (-0.3411026E+04)
 number of electron     396.0000000 magnetization 
 augmentation part      396.0000000 magnetization 

 DIPCOR: dipole corrections for dipol
 direction  3 min pos   275,
 dipolmoment           0.000000      0.000000     -0.000046 electrons x Angstroem
 Tr[quadrupol]    -21715.975039

 energy correction for charged system         0.000000 eV
 dipol+quadrupol energy correction           -0.000000 eV
 added-field ion interaction          0.000021 eV  (added to PSCEN)


 Free energy of the ion-electron system (eV)
  ---------------------------------------------------
  alpha Z        PSCENC =       138.35985093
  Ewald energy   TEWEN  =     69624.22114912
  -Hartree energ DENC   =    -75099.66793752
  -exchange      EXHF   =         0.00000000
  -V(xc)+E(xc)   XCENC  =       913.58756618
  PAW double counting   =      5519.39554754    -5411.78503430
  entropy T*S    EENTRO =        -0.00000000
  eigenvalues    EBANDS =     -5143.40349339
  atomic energy  EATOM  =      9192.15348662
  Solvation  Ediel_sol  =         0.00000000
  ---------------------------------------------------
  free energy    TOTEN  =      -267.13886481 eV

  energy without entropy =     -267.13886481  energy(sigma->0) =     -267.13886481


--------------------------------------------------------------------------------------------------------




--------------------------------------- Iteration      1(   3)  ---------------------------------------


     EDDAV:  cpu time    110.3115: real time    111.1552
       DOS:  cpu time      0.0005: real time      0.0005
    --------------------------------------------
      LOOP:  cpu time    110.3119: real time    111.1557

 eigenvalue-minimisations  :  3912
 total energy-change (2. order) :-0.6002630E+03  (-0.5947150E+03)
 number of electron     396.0000000 magnetization 
 augmentation part      396.0000000 magnetization 

 DIPCOR: dipole corrections for dipol
 direction  3 min pos   275,
 dipolmoment           0.000000      0.000000     -0.000046 electrons x Angstroem
 Tr[quadrupol]    -21715.975039

 energy correction for charged system         0.000000 eV
 dipol+quadrupol energy correction           -0.000000 eV
 added-field ion interaction          0.000021 eV  (added to PSCEN)


 Free energy of the ion-electron system (eV)
  ---------------------------------------------------
  alpha Z        PSCENC =       138.35985093
  Ewald energy   TEWEN  =     69624.22114912
  -Hartree energ DENC   =    -75099.66793752
  -exchange      EXHF   =         0.00000000
  -V(xc)+E(xc)   XCENC  =       913.58756618
  PAW double counting   =      5519.39554754    -5411.78503430
  entropy T*S    EENTRO =        -0.00033774
  eigenvalues    EBANDS =     -5743.66614128
  atomic energy  EATOM  =      9192.15348662
  Solvation  Ediel_sol  =         0.00000000
  ---------------------------------------------------
  free energy    TOTEN  =      -867.40185045 eV

  energy without entropy =     -867.40151271  energy(sigma->0) =     -867.40168158


--------------------------------------------------------------------------------------------------------




--------------------------------------- Iteration      1(   4)  ---------------------------------------


     EDDAV:  cpu time    115.1123: real time    116.0623
       DOS:  cpu time      0.0009: real time      0.0009
    --------------------------------------------
      LOOP:  cpu time    115.1131: real time    116.0631

 eigenvalue-minimisations  :  4140
 total energy-change (2. order) :-0.2425450E+02  (-0.2392344E+02)
 number of electron     396.0000000 magnetization 
 augmentation part      396.0000000 magnetization 

 DIPCOR: dipole corrections for dipol
 direction  3 min pos   275,
 dipolmoment           0.000000      0.000000     -0.000046 electrons x Angstroem
 Tr[quadrupol]    -21715.975039

 energy correction for charged system         0.000000 eV
 dipol+quadrupol energy correction           -0.000000 eV
 added-field ion interaction          0.000021 eV  (added to PSCEN)


 Free energy of the ion-electron system (eV)
  ---------------------------------------------------
  alpha Z        PSCENC =       138.35985093
  Ewald energy   TEWEN  =     69624.22114912
  -Hartree energ DENC   =    -75099.66793752
  -exchange      EXHF   =         0.00000000
  -V(xc)+E(xc)   XCENC  =       913.58756618
  PAW double counting   =      5519.39554754    -5411.78503430
  entropy T*S    EENTRO =        -0.01063402
  eigenvalues    EBANDS =     -5767.91034422
  atomic energy  EATOM  =      9192.15348662
  Solvation  Ediel_sol  =         0.00000000
  ---------------------------------------------------
  free energy    TOTEN  =      -891.65634966 eV

  energy without entropy =     -891.64571565  energy(sigma->0) =     -891.65103265


--------------------------------------------------------------------------------------------------------




--------------------------------------- Iteration      1(   5)  ---------------------------------------


     EDDAV:  cpu time    124.6226: real time    125.8721
       DOS:  cpu time      0.0005: real time      0.0005
    CHARGE:  cpu time      7.0456: real time      7.1057
    MIXING:  cpu time      0.0251: real time      0.0252
    --------------------------------------------
      LOOP:  cpu time    131.6934: real time    133.0032

 eigenvalue-minimisations  :  4596
 total energy-change (2. order) :-0.7884772E+00  (-0.7832592E+00)
 number of electron     395.9999995 magnetization 
 augmentation part       -0.8616611 magnetization 

 DIPCOR: dipole corrections for dipol
 direction  3 min pos   275,
 dipolmoment           0.000000      0.000000     -0.000046 electrons x Angstroem
 Tr[quadrupol]    -21715.975039

 energy correction for charged system         0.000000 eV
 dipol+quadrupol energy correction           -0.000000 eV
 added-field ion interaction          0.000021 eV  (added to PSCEN)


 Broyden mixing:
  rms(total) = 0.38606E+01    rms(broyden)= 0.38606E+01
  rms(prec ) = 0.42026E+01
  weight for this iteration     100.00

 Free energy of the ion-electron system (eV)
  ---------------------------------------------------
  alpha Z        PSCENC =       138.35985093
  Ewald energy   TEWEN  =     69624.22114912
  -Hartree energ DENC   =    -75099.66793752
  -exchange      EXHF   =         0.00000000
  -V(xc)+E(xc)   XCENC  =       913.58756618
  PAW double counting   =      5519.39554754    -5411.78503430
  entropy T*S    EENTRO =        -0.01286170
  eigenvalues    EBANDS =     -5768.69659377
  atomic energy  EATOM  =      9192.15348662
  Solvation  Ediel_sol  =         0.00000000
  ---------------------------------------------------
  free energy    TOTEN  =      -892.44482690 eV

  energy without entropy =     -892.43196520  energy(sigma->0) =     -892.43839605


--------------------------------------------------------------------------------------------------------




--------------------------------------- Iteration      1(   6)  ---------------------------------------


    POTLOK:  cpu time      0.9459: real time      0.9537
    SETDIJ:  cpu time      0.0049: real time      0.0049
     EDDAV:  cpu time    110.4783: real time    111.6614
       DOS:  cpu time      0.0004: real time      0.0004
    CHARGE:  cpu time      6.8776: real time      6.9377
    MIXING:  cpu time      0.0270: real time      0.0272
    --------------------------------------------
      LOOP:  cpu time    118.3340: real time    119.5854

 eigenvalue-minimisations  :  3876
 total energy-change (2. order) : 0.6853239E+02  (-0.9111331E+01)
 number of electron     395.9999995 magnetization 
 augmentation part       -1.1171441 magnetization 

 DIPCOR: dipole corrections for dipol
 direction  3 min pos   275,
 dipolmoment           0.000000      0.000000     -0.003798 electrons x Angstroem
 Tr[quadrupol]    -21726.327956

 energy correction for charged system         0.000000 eV
 dipol+quadrupol energy correction           -0.000000 eV
 added-field ion interaction          0.001746 eV  (added to PSCEN)


 Broyden mixing:
  rms(total) = 0.20245E+01    rms(broyden)= 0.20245E+01
  rms(prec ) = 0.21708E+01
  weight for this iteration     100.00

 eigenvalues of (default mixing * dielectric matrix)
  average eigenvalue GAMMA=   1.8826
  1.8826

 Free energy of the ion-electron system (eV)
  ---------------------------------------------------
  alpha Z        PSCENC =       138.36157568
  Ewald energy   TEWEN  =     69624.22114912
  -Hartree energ DENC   =    -75682.23239049
  -exchange      EXHF   =         0.00000000
  -V(xc)+E(xc)   XCENC  =       926.92587664
  PAW double counting   =     13824.79718324   -13723.00069255
  entropy T*S    EENTRO =        -0.00000000
  eigenvalues    EBANDS =     -5125.13862818
  atomic energy  EATOM  =      9192.15348662
  Solvation  Ediel_sol  =         0.00000000
  ---------------------------------------------------
  free energy    TOTEN  =      -823.91243992 eV

  energy without entropy =     -823.91243992  energy(sigma->0) =     -823.91243992


--------------------------------------------------------------------------------------------------------




--------------------------------------- Iteration      1(   7)  ---------------------------------------


    POTLOK:  cpu time      0.9620: real time      0.9707
    SETDIJ:  cpu time      0.0044: real time      0.0044
     EDDAV:  cpu time    110.4467: real time    111.7087
       DOS:  cpu time      0.0009: real time      0.0009
    CHARGE:  cpu time      7.0113: real time      7.1100
    MIXING:  cpu time      0.0272: real time      0.0275
    --------------------------------------------
      LOOP:  cpu time    118.4525: real time    119.8222

 eigenvalue-minimisations  :  3924
 total energy-change (2. order) : 0.1684958E+02  (-0.6989493E+01)
 number of electron     395.9999994 magnetization 
 augmentation part       -1.3512922 magnetization 

 DIPCOR: dipole corrections for dipol
 direction  3 min pos   275,
 dipolmoment           0.000000      0.000000     -0.006044 electrons x Angstroem
 Tr[quadrupol]    -21738.454779

 energy correction for charged system         0.000000 eV
 dipol+quadrupol energy correction           -0.000000 eV
 added-field ion interaction          0.002779 eV  (added to PSCEN)


 Broyden mixing:
  rms(total) = 0.62547E+00    rms(broyden)= 0.62546E+00
  rms(prec ) = 0.67101E+00
  weight for this iteration     100.00

 eigenvalues of (default mixing * dielectric matrix)
  average eigenvalue GAMMA=   1.9521
  1.7206  2.1836

 Free energy of the ion-electron system (eV)
  ---------------------------------------------------
  alpha Z        PSCENC =       138.36260835
  Ewald energy   TEWEN  =     69624.22114912
  -Hartree energ DENC   =    -76277.26760587
  -exchange      EXHF   =         0.00000000
  -V(xc)+E(xc)   XCENC  =       943.01155201
  PAW double counting   =     27705.00407362   -27607.86601750
  entropy T*S    EENTRO =        -0.00000179
  eigenvalues    EBANDS =     -4524.68210328
  atomic energy  EATOM  =      9192.15348662
  Solvation  Ediel_sol  =         0.00000000
  ---------------------------------------------------
  free energy    TOTEN  =      -807.06285872 eV

  energy without entropy =     -807.06285693  energy(sigma->0) =     -807.06285783


--------------------------------------------------------------------------------------------------------




--------------------------------------- Iteration      1(   8)  ---------------------------------------


    POTLOK:  cpu time      0.9386: real time      0.9473
    SETDIJ:  cpu time      0.0050: real time      0.0050
     EDDAV:  cpu time    115.2650: real time    116.4677
       DOS:  cpu time      0.0004: real time      0.0004
    CHARGE:  cpu time      7.3965: real time      7.4813
    MIXING:  cpu time      0.0266: real time      0.0271
    --------------------------------------------
      LOOP:  cpu time    123.6320: real time    124.9289

 eigenvalue-minimisations  :  4116
 total energy-change (2. order) : 0.9408685E+00  (-0.6214776E+00)
 number of electron     395.9999994 magnetization 
 augmentation part       -1.4579698 magnetization 

 DIPCOR: dipole corrections for dipol
 direction  3 min pos   275,
 dipolmoment           0.000000      0.000000     -0.002579 electrons x Angstroem
 Tr[quadrupol]    -21744.722936

 energy correction for charged system         0.000000 eV
 dipol+quadrupol energy correction           -0.000000 eV
 added-field ion interaction          0.001186 eV  (added to PSCEN)


 Broyden mixing:
  rms(total) = 0.18083E+00    rms(broyden)= 0.18083E+00
  rms(prec ) = 0.23024E+00
  weight for this iteration     100.00

 eigenvalues of (default mixing * dielectric matrix)
  average eigenvalue GAMMA=   1.8101
  2.5774  1.4265  1.4265

 Free energy of the ion-electron system (eV)
  ---------------------------------------------------
  alpha Z        PSCENC =       138.36101576
  Ewald energy   TEWEN  =     69624.22114912
  -Hartree energ DENC   =    -76422.26565079
  -exchange      EXHF   =         0.00000000
  -V(xc)+E(xc)   XCENC  =       947.43212224
  PAW double counting   =     32715.97048323   -32618.84659025
  entropy T*S    EENTRO =        -0.00000038
  eigenvalues    EBANDS =     -4383.14800578
  atomic energy  EATOM  =      9192.15348662
  Solvation  Ediel_sol  =         0.00000000
  ---------------------------------------------------
  free energy    TOTEN  =      -806.12199024 eV

  energy without entropy =     -806.12198986  energy(sigma->0) =     -806.12199005


--------------------------------------------------------------------------------------------------------




--------------------------------------- Iteration      1(   9)  ---------------------------------------


    POTLOK:  cpu time      0.9799: real time      0.9939
    SETDIJ:  cpu time      0.0053: real time      0.0053
     EDDAV:  cpu time    110.7274: real time    111.8318
       DOS:  cpu time      0.0004: real time      0.0004
    CHARGE:  cpu time      7.0643: real time      7.1223
    MIXING:  cpu time      0.0284: real time      0.0287
    --------------------------------------------
      LOOP:  cpu time    118.8057: real time    119.9825

 eigenvalue-minimisations  :  3936
 total energy-change (2. order) : 0.3734448E+00  (-0.7056956E-01)
 number of electron     395.9999994 magnetization 
 augmentation part       -1.4613233 magnetization 

 DIPCOR: dipole corrections for dipol
 direction  3 min pos   275,
 dipolmoment           0.000000      0.000000     -0.000757 electrons x Angstroem
 Tr[quadrupol]    -21748.807559

 energy correction for charged system         0.000000 eV
 dipol+quadrupol energy correction           -0.000000 eV
 added-field ion interaction          0.000348 eV  (added to PSCEN)


 Broyden mixing:
  rms(total) = 0.82799E-01    rms(broyden)= 0.82799E-01
  rms(prec ) = 0.12451E+00
  weight for this iteration     100.00

 eigenvalues of (default mixing * dielectric matrix)
  average eigenvalue GAMMA=   1.6995
  1.1965  1.1965  2.2563  2.1489

 Free energy of the ion-electron system (eV)
  ---------------------------------------------------
  alpha Z        PSCENC =       138.36017799
  Ewald energy   TEWEN  =     69624.22114912
  -Hartree energ DENC   =    -76533.40944387
  -exchange      EXHF   =         0.00000000
  -V(xc)+E(xc)   XCENC  =       949.97965819
  PAW double counting   =     34036.90424673   -33939.92932829
  entropy T*S    EENTRO =        -0.00000373
  eigenvalues    EBANDS =     -4274.02848825
  atomic energy  EATOM  =      9192.15348662
  Solvation  Ediel_sol  =         0.00000000
  ---------------------------------------------------
  free energy    TOTEN  =      -805.74854548 eV

  energy without entropy =     -805.74854175  energy(sigma->0) =     -805.74854361


--------------------------------------------------------------------------------------------------------




--------------------------------------- Iteration      1(  10)  ---------------------------------------


    POTLOK:  cpu time      0.9449: real time      0.9525
    SETDIJ:  cpu time      0.0059: real time      0.0059
     EDDAV:  cpu time    117.1964: real time    118.3249
       DOS:  cpu time      0.0303: real time      0.0304
    CHARGE:  cpu time      7.0132: real time      7.0661
    MIXING:  cpu time      0.0290: real time      0.0292
    --------------------------------------------
      LOOP:  cpu time    125.2196: real time    126.4090

 eigenvalue-minimisations  :  4212
 total energy-change (2. order) : 0.7354811E-01  (-0.1019751E-01)
 number of electron     395.9999994 magnetization 
 augmentation part       -1.4631887 magnetization 

 DIPCOR: dipole corrections for dipol
 direction  3 min pos   275,
 dipolmoment           0.000000      0.000000      0.001739 electrons x Angstroem
 Tr[quadrupol]    -21751.649951

 energy correction for charged system         0.000000 eV
 dipol+quadrupol energy correction           -0.000000 eV
 added-field ion interaction         -0.000800 eV  (added to PSCEN)


 Broyden mixing:
  rms(total) = 0.45752E-01    rms(broyden)= 0.45752E-01
  rms(prec ) = 0.84996E-01
  weight for this iteration     100.00

 eigenvalues of (default mixing * dielectric matrix)
  average eigenvalue GAMMA=   1.7548
  2.5539  2.5539  1.0771  1.2945  1.2945

 Free energy of the ion-electron system (eV)
  ---------------------------------------------------
  alpha Z        PSCENC =       138.35903028
  Ewald energy   TEWEN  =     69624.22114912
  -Hartree energ DENC   =    -76586.00606196
  -exchange      EXHF   =         0.00000000
  -V(xc)+E(xc)   XCENC  =       950.61383182
  PAW double counting   =     33645.25023325   -33548.06024094
  entropy T*S    EENTRO =        -0.00000351
  eigenvalues    EBANDS =     -4222.20642205
  atomic energy  EATOM  =      9192.15348662
  Solvation  Ediel_sol  =         0.00000000
  ---------------------------------------------------
  free energy    TOTEN  =      -805.67499737 eV

  energy without entropy =     -805.67499386  energy(sigma->0) =     -805.67499562


--------------------------------------------------------------------------------------------------------




--------------------------------------- Iteration      1(  11)  ---------------------------------------


    POTLOK:  cpu time      0.9657: real time      0.9732
    SETDIJ:  cpu time      0.0052: real time      0.0052
     EDDAV:  cpu time    111.7467: real time    112.8298
       DOS:  cpu time      0.0004: real time      0.0004
    CHARGE:  cpu time      7.0162: real time      7.0708
    MIXING:  cpu time      0.0263: real time      0.0266
    --------------------------------------------
      LOOP:  cpu time    119.7605: real time    120.9060

 eigenvalue-minimisations  :  3924
 total energy-change (2. order) : 0.7906106E-01  (-0.1287173E-01)
 number of electron     395.9999994 magnetization 
 augmentation part       -1.4649210 magnetization 

 DIPCOR: dipole corrections for dipol
 direction  3 min pos   275,
 dipolmoment           0.000000      0.000000      0.005552 electrons x Angstroem
 Tr[quadrupol]    -21756.480176

 energy correction for charged system         0.000000 eV
 dipol+quadrupol energy correction           -0.000000 eV
 added-field ion interaction         -0.002553 eV  (added to PSCEN)


 Broyden mixing:
  rms(total) = 0.27940E-01    rms(broyden)= 0.27940E-01
  rms(prec ) = 0.47666E-01
  weight for this iteration     100.00

 eigenvalues of (default mixing * dielectric matrix)
  average eigenvalue GAMMA=   1.8024
  3.2445  2.5333  1.7349  1.2316  1.2316  0.8386

 Free energy of the ion-electron system (eV)
  ---------------------------------------------------
  alpha Z        PSCENC =       138.35727708
  Ewald energy   TEWEN  =     69624.22114912
  -Hartree energ DENC   =    -76685.03394030
  -exchange      EXHF   =         0.00000000
  -V(xc)+E(xc)   XCENC  =       951.94183936
  PAW double counting   =     33613.41053863   -33516.10282301
  entropy T*S    EENTRO =        -0.00000915
  eigenvalues    EBANDS =     -4124.54345465
  atomic energy  EATOM  =      9192.15348662
  Solvation  Ediel_sol  =         0.00000000
  ---------------------------------------------------
  free energy    TOTEN  =      -805.59593631 eV

  energy without entropy =     -805.59592716  energy(sigma->0) =     -805.59593174


--------------------------------------------------------------------------------------------------------




--------------------------------------- Iteration      1(  12)  ---------------------------------------


    POTLOK:  cpu time      0.9493: real time      0.9568
    SETDIJ:  cpu time      0.0053: real time      0.0053
     EDDAV:  cpu time    114.0399: real time    115.1772
       DOS:  cpu time      0.0005: real time      0.0005
    CHARGE:  cpu time      7.0693: real time      7.1251
    MIXING:  cpu time      0.0289: real time      0.0291
    --------------------------------------------
      LOOP:  cpu time    122.0932: real time    123.2941

 eigenvalue-minimisations  :  4092
 total energy-change (2. order) :-0.8611940E-02  (-0.3313344E-02)
 number of electron     395.9999994 magnetization 
 augmentation part       -1.4687149 magnetization 

 DIPCOR: dipole corrections for dipol
 direction  3 min pos   275,
 dipolmoment           0.000000      0.000000      0.007706 electrons x Angstroem
 Tr[quadrupol]    -21758.880263

 energy correction for charged system         0.000000 eV
 dipol+quadrupol energy correction           -0.000001 eV
 added-field ion interaction         -0.003543 eV  (added to PSCEN)


 Broyden mixing:
  rms(total) = 0.20347E-01    rms(broyden)= 0.20347E-01
  rms(prec ) = 0.31901E-01
  weight for this iteration     100.00

 eigenvalues of (default mixing * dielectric matrix)
  average eigenvalue GAMMA=   1.9708
  4.3615  2.5874  1.7648  1.7648  0.9641  1.1764  1.1764

 Free energy of the ion-electron system (eV)
  ---------------------------------------------------
  alpha Z        PSCENC =       138.35628658
  Ewald energy   TEWEN  =     69624.22114912
  -Hartree energ DENC   =    -76732.53845862
  -exchange      EXHF   =         0.00000000
  -V(xc)+E(xc)   XCENC  =       952.36086372
  PAW double counting   =     33544.71901462   -33447.40173998
  entropy T*S    EENTRO =        -0.00001632
  eigenvalues    EBANDS =     -4077.47513398
  atomic energy  EATOM  =      9192.15348662
  Solvation  Ediel_sol  =         0.00000000
  ---------------------------------------------------
  free energy    TOTEN  =      -805.60454825 eV

  energy without entropy =     -805.60453193  energy(sigma->0) =     -805.60454009


--------------------------------------------------------------------------------------------------------




--------------------------------------- Iteration      1(  13)  ---------------------------------------


    POTLOK:  cpu time      0.9412: real time      0.9482
    SETDIJ:  cpu time      0.0047: real time      0.0047
     EDDAV:  cpu time    103.4231: real time    104.4067
       DOS:  cpu time      0.0007: real time      0.0007
    CHARGE:  cpu time      7.0541: real time      7.1166
    MIXING:  cpu time      0.0287: real time      0.0291
    --------------------------------------------
      LOOP:  cpu time    111.4524: real time    112.5062

 eigenvalue-minimisations  :  3612
 total energy-change (2. order) :-0.1927909E-01  (-0.9024834E-03)
 number of electron     395.9999994 magnetization 
 augmentation part       -1.4701058 magnetization 

 DIPCOR: dipole corrections for dipol
 direction  3 min pos   275,
 dipolmoment           0.000000      0.000000      0.009124 electrons x Angstroem
 Tr[quadrupol]    -21760.788721

 energy correction for charged system         0.000000 eV
 dipol+quadrupol energy correction           -0.000001 eV
 added-field ion interaction         -0.004194 eV  (added to PSCEN)


 Broyden mixing:
  rms(total) = 0.10799E-01    rms(broyden)= 0.10799E-01
  rms(prec ) = 0.17356E-01
  weight for this iteration     100.00

 eigenvalues of (default mixing * dielectric matrix)
  average eigenvalue GAMMA=   2.1541
  5.5903  3.0332  2.5407  1.5417  1.2391  1.2391  1.0244  1.0244

 Free energy of the ion-electron system (eV)
  ---------------------------------------------------
  alpha Z        PSCENC =       138.35563468
  Ewald energy   TEWEN  =     69624.22114912
  -Hartree energ DENC   =    -76765.73089677
  -exchange      EXHF   =         0.00000000
  -V(xc)+E(xc)   XCENC  =       952.43826635
  PAW double counting   =     33484.71533735   -33387.38334720
  entropy T*S    EENTRO =        -0.00001616
  eigenvalues    EBANDS =     -4044.39344132
  atomic energy  EATOM  =      9192.15348662
  Solvation  Ediel_sol  =         0.00000000
  ---------------------------------------------------
  free energy    TOTEN  =      -805.62382734 eV

  energy without entropy =     -805.62381118  energy(sigma->0) =     -805.62381926


--------------------------------------------------------------------------------------------------------




--------------------------------------- Iteration      1(  14)  ---------------------------------------


    POTLOK:  cpu time      0.9554: real time      0.9665
    SETDIJ:  cpu time      0.0052: real time      0.0053
     EDDAV:  cpu time    111.8607: real time    112.9943
       DOS:  cpu time      0.0005: real time      0.0005
    CHARGE:  cpu time      7.0604: real time      7.1149
    MIXING:  cpu time      0.0286: real time      0.0289
    --------------------------------------------
      LOOP:  cpu time    119.9108: real time    121.1103

 eigenvalue-minimisations  :  3960
 total energy-change (2. order) :-0.1609343E-01  (-0.5720788E-03)
 number of electron     395.9999994 magnetization 
 augmentation part       -1.4704495 magnetization 

 DIPCOR: dipole corrections for dipol
 direction  3 min pos   275,
 dipolmoment           0.000000      0.000000      0.009210 electrons x Angstroem
 Tr[quadrupol]    -21761.888640

 energy correction for charged system         0.000000 eV
 dipol+quadrupol energy correction           -0.000001 eV
 added-field ion interaction         -0.004234 eV  (added to PSCEN)


 Broyden mixing:
  rms(total) = 0.63853E-02    rms(broyden)= 0.63853E-02
  rms(prec ) = 0.92412E-02
  weight for this iteration     100.00

 eigenvalues of (default mixing * dielectric matrix)
  average eigenvalue GAMMA=   2.1622
  6.1251  3.1657  2.4945  1.6667  1.6667  1.2049  1.2049  0.9642  0.9669

 Free energy of the ion-electron system (eV)
  ---------------------------------------------------
  alpha Z        PSCENC =       138.35559510
  Ewald energy   TEWEN  =     69624.22114912
  -Hartree energ DENC   =    -76787.62720939
  -exchange      EXHF   =         0.00000000
  -V(xc)+E(xc)   XCENC  =       952.44128693
  PAW double counting   =     33519.69297101   -33422.39345038
  entropy T*S    EENTRO =        -0.00001756
  eigenvalues    EBANDS =     -4022.48373222
  atomic energy  EATOM  =      9192.15348662
  Solvation  Ediel_sol  =         0.00000000
  ---------------------------------------------------
  free energy    TOTEN  =      -805.63992077 eV

  energy without entropy =     -805.63990321  energy(sigma->0) =     -805.63991199


--------------------------------------------------------------------------------------------------------




--------------------------------------- Iteration      1(  15)  ---------------------------------------


    POTLOK:  cpu time      0.9498: real time      0.9572
    SETDIJ:  cpu time      0.0048: real time      0.0049
     EDDAV:  cpu time    109.4338: real time    110.5368
       DOS:  cpu time      0.0004: real time      0.0004
    CHARGE:  cpu time      7.0801: real time      7.1384
    MIXING:  cpu time      0.0296: real time      0.0299
    --------------------------------------------
      LOOP:  cpu time    117.4985: real time    118.6676

 eigenvalue-minimisations  :  3888
 total energy-change (2. order) :-0.1383415E-01  (-0.1221170E-03)
 number of electron     395.9999994 magnetization 
 augmentation part       -1.4708136 magnetization 

 DIPCOR: dipole corrections for dipol
 direction  3 min pos   275,
 dipolmoment           0.000000      0.000000      0.007810 electrons x Angstroem
 Tr[quadrupol]    -21762.075086

 energy correction for charged system         0.000000 eV
 dipol+quadrupol energy correction           -0.000001 eV
 added-field ion interaction         -0.003591 eV  (added to PSCEN)


 Broyden mixing:
  rms(total) = 0.37707E-02    rms(broyden)= 0.37707E-02
  rms(prec ) = 0.58231E-02
  weight for this iteration     100.00

 eigenvalues of (default mixing * dielectric matrix)
  average eigenvalue GAMMA=   2.2773
  6.7086  3.8078  2.7157  2.3361  1.5635  1.2919  1.2919  0.9562  1.0506  1.0506

 Free energy of the ion-electron system (eV)
  ---------------------------------------------------
  alpha Z        PSCENC =       138.35623878
  Ewald energy   TEWEN  =     69624.22114912
  -Hartree energ DENC   =    -76793.60117678
  -exchange      EXHF   =         0.00000000
  -V(xc)+E(xc)   XCENC  =       952.45011965
  PAW double counting   =     33517.39668518   -33420.09123513
  entropy T*S    EENTRO =        -0.00001777
  eigenvalues    EBANDS =     -4016.53900459
  atomic energy  EATOM  =      9192.15348662
  Solvation  Ediel_sol  =         0.00000000
  ---------------------------------------------------
  free energy    TOTEN  =      -805.65375493 eV

  energy without entropy =     -805.65373715  energy(sigma->0) =     -805.65374604


--------------------------------------------------------------------------------------------------------




--------------------------------------- Iteration      1(  16)  ---------------------------------------


    POTLOK:  cpu time      0.9507: real time      0.9589
    SETDIJ:  cpu time      0.0051: real time      0.0051
     EDDAV:  cpu time    109.8826: real time    111.0348
       DOS:  cpu time      0.0005: real time      0.0005
    CHARGE:  cpu time      7.0485: real time      7.1110
    MIXING:  cpu time      0.0310: real time      0.0312
    --------------------------------------------
      LOOP:  cpu time    117.9184: real time    119.1414

 eigenvalue-minimisations  :  3876
 total energy-change (2. order) :-0.1307646E-01  (-0.1529123E-03)
 number of electron     395.9999994 magnetization 
 augmentation part       -1.4709552 magnetization 

 DIPCOR: dipole corrections for dipol
 direction  3 min pos   275,
 dipolmoment           0.000000      0.000000      0.005569 electrons x Angstroem
 Tr[quadrupol]    -21762.126100

 energy correction for charged system         0.000000 eV
 dipol+quadrupol energy correction           -0.000000 eV
 added-field ion interaction         -0.002560 eV  (added to PSCEN)


 Broyden mixing:
  rms(total) = 0.19047E-02    rms(broyden)= 0.19047E-02
  rms(prec ) = 0.28856E-02
  weight for this iteration     100.00

 eigenvalues of (default mixing * dielectric matrix)
  average eigenvalue GAMMA=   2.3157
  7.4900  4.2262  2.5989  2.5989  1.6908  1.2022  1.2022  1.2547  1.2547  0.9771
  0.9771

 Free energy of the ion-electron system (eV)
  ---------------------------------------------------
  alpha Z        PSCENC =       138.35726949
  Ewald energy   TEWEN  =     69624.22114912
  -Hartree energ DENC   =    -76797.97434108
  -exchange      EXHF   =         0.00000000
  -V(xc)+E(xc)   XCENC  =       952.44347320
  PAW double counting   =     33525.55638305   -33428.24663782
  entropy T*S    EENTRO =        -0.00001781
  eigenvalues    EBANDS =     -4012.17759615
  atomic energy  EATOM  =      9192.15348662
  Solvation  Ediel_sol  =         0.00000000
  ---------------------------------------------------
  free energy    TOTEN  =      -805.66683139 eV

  energy without entropy =     -805.66681358  energy(sigma->0) =     -805.66682248


--------------------------------------------------------------------------------------------------------




--------------------------------------- Iteration      1(  17)  ---------------------------------------


    POTLOK:  cpu time      0.9415: real time      0.9486
    SETDIJ:  cpu time      0.0048: real time      0.0048
     EDDAV:  cpu time    112.6743: real time    113.6350
       DOS:  cpu time      0.0004: real time      0.0004
    CHARGE:  cpu time      6.8167: real time      6.8941
    MIXING:  cpu time      0.0282: real time      0.0283
    --------------------------------------------
      LOOP:  cpu time    120.4659: real time    121.5113

 eigenvalue-minimisations  :  4032
 total energy-change (2. order) :-0.4514326E-02  (-0.3227742E-04)
 number of electron     395.9999994 magnetization 
 augmentation part       -1.4708879 magnetization 

 DIPCOR: dipole corrections for dipol
 direction  3 min pos   275,
 dipolmoment           0.000000      0.000000      0.003743 electrons x Angstroem
 Tr[quadrupol]    -21762.080795

 energy correction for charged system         0.000000 eV
 dipol+quadrupol energy correction           -0.000000 eV
 added-field ion interaction         -0.001721 eV  (added to PSCEN)


 Broyden mixing:
  rms(total) = 0.12172E-02    rms(broyden)= 0.12172E-02
  rms(prec ) = 0.18001E-02
  weight for this iteration     100.00

 eigenvalues of (default mixing * dielectric matrix)
  average eigenvalue GAMMA=   2.4161
  7.8800  5.0456  2.8952  2.5693  2.0134  1.7979  1.2469  1.2469  0.9710  1.0265
  1.1502  1.1502

 Free energy of the ion-electron system (eV)
  ---------------------------------------------------
  alpha Z        PSCENC =       138.35810887
  Ewald energy   TEWEN  =     69624.22114912
  -Hartree energ DENC   =    -76799.25393378
  -exchange      EXHF   =         0.00000000
  -V(xc)+E(xc)   XCENC  =       952.43398854
  PAW double counting   =     33516.26008020   -33418.94885588
  entropy T*S    EENTRO =        -0.00001804
  eigenvalues    EBANDS =     -4010.89535136
  atomic energy  EATOM  =      9192.15348662
  Solvation  Ediel_sol  =         0.00000000
  ---------------------------------------------------
  free energy    TOTEN  =      -805.67134572 eV

  energy without entropy =     -805.67132767  energy(sigma->0) =     -805.67133669


--------------------------------------------------------------------------------------------------------




--------------------------------------- Iteration      1(  18)  ---------------------------------------


    POTLOK:  cpu time      0.9528: real time      0.9616
    SETDIJ:  cpu time      0.0047: real time      0.0048
     EDDAV:  cpu time    109.4669: real time    110.4040
       DOS:  cpu time      0.0005: real time      0.0005
    CHARGE:  cpu time      7.0318: real time      7.0861
    MIXING:  cpu time      0.0294: real time      0.0296
    --------------------------------------------
      LOOP:  cpu time    117.4861: real time    118.4865

 eigenvalue-minimisations  :  3888
 total energy-change (2. order) :-0.3703422E-02  (-0.3744997E-04)
 number of electron     395.9999994 magnetization 
 augmentation part       -1.4708451 magnetization 

 DIPCOR: dipole corrections for dipol
 direction  3 min pos   275,
 dipolmoment           0.000000      0.000000      0.001611 electrons x Angstroem
 Tr[quadrupol]    -21761.985041

 energy correction for charged system         0.000000 eV
 dipol+quadrupol energy correction           -0.000000 eV
 added-field ion interaction         -0.000741 eV  (added to PSCEN)


 Broyden mixing:
  rms(total) = 0.61405E-03    rms(broyden)= 0.61405E-03
  rms(prec ) = 0.83384E-03
  weight for this iteration     100.00

 eigenvalues of (default mixing * dielectric matrix)
  average eigenvalue GAMMA=   2.4523
  8.4190  5.4870  3.3016  2.5580  2.5092  1.5799  1.3671  1.3671  1.1279  1.1279
  1.0097  1.0097  1.0160

 Free energy of the ion-electron system (eV)
  ---------------------------------------------------
  alpha Z        PSCENC =       138.35908929
  Ewald energy   TEWEN  =     69624.22114912
  -Hartree energ DENC   =    -76800.11736274
  -exchange      EXHF   =         0.00000000
  -V(xc)+E(xc)   XCENC  =       952.43581145
  PAW double counting   =     33517.13616813   -33419.82470828
  entropy T*S    EENTRO =        -0.00001813
  eigenvalues    EBANDS =     -4010.03866459
  atomic energy  EATOM  =      9192.15348662
  Solvation  Ediel_sol  =         0.00000000
  ---------------------------------------------------
  free energy    TOTEN  =      -805.67504914 eV

  energy without entropy =     -805.67503100  energy(sigma->0) =     -805.67504007


--------------------------------------------------------------------------------------------------------




--------------------------------------- Iteration      1(  19)  ---------------------------------------


    POTLOK:  cpu time      0.9351: real time      0.9418
    SETDIJ:  cpu time      0.0055: real time      0.0056
     EDDAV:  cpu time    108.6163: real time    109.6396
       DOS:  cpu time      0.0005: real time      0.0005
    CHARGE:  cpu time      7.0420: real time      7.0942
    MIXING:  cpu time      0.0302: real time      0.0304
    --------------------------------------------
      LOOP:  cpu time    116.6296: real time    117.7121

 eigenvalue-minimisations  :  3828
 total energy-change (2. order) :-0.9836466E-03  (-0.5240764E-05)
 number of electron     395.9999994 magnetization 
 augmentation part       -1.4708832 magnetization 

 DIPCOR: dipole corrections for dipol
 direction  3 min pos   275,
 dipolmoment           0.000000      0.000000      0.000377 electrons x Angstroem
 Tr[quadrupol]    -21761.937001

 energy correction for charged system         0.000000 eV
 dipol+quadrupol energy correction           -0.000000 eV
 added-field ion interaction         -0.000173 eV  (added to PSCEN)


 Broyden mixing:
  rms(total) = 0.31000E-03    rms(broyden)= 0.31000E-03
  rms(prec ) = 0.42890E-03
  weight for this iteration     100.00

 eigenvalues of (default mixing * dielectric matrix)
  average eigenvalue GAMMA=   2.4956
  8.6431  6.1258  3.5670  2.6421  2.6421  1.7961  1.7961  1.3049  1.3049  1.1079
  1.1079  0.9529  0.9740  0.9740

 Free energy of the ion-electron system (eV)
  ---------------------------------------------------
  alpha Z        PSCENC =       138.35965648
  Ewald energy   TEWEN  =     69624.22114912
  -Hartree energ DENC   =    -76800.27933539
  -exchange      EXHF   =         0.00000000
  -V(xc)+E(xc)   XCENC  =       952.43388702
  PAW double counting   =     33516.82417221   -33419.51330747
  entropy T*S    EENTRO =        -0.00001823
  eigenvalues    EBANDS =     -4009.87572314
  atomic energy  EATOM  =      9192.15348662
  Solvation  Ediel_sol  =         0.00000000
  ---------------------------------------------------
  free energy    TOTEN  =      -805.67603279 eV

  energy without entropy =     -805.67601456  energy(sigma->0) =     -805.67602367


--------------------------------------------------------------------------------------------------------




--------------------------------------- Iteration      1(  20)  ---------------------------------------


    POTLOK:  cpu time      0.9418: real time      0.9493
    SETDIJ:  cpu time      0.0049: real time      0.0049
     EDDAV:  cpu time     92.1961: real time     93.0315
       DOS:  cpu time      0.0005: real time      0.0005
    CHARGE:  cpu time      7.0202: real time      7.0732
    MIXING:  cpu time      0.0326: real time      0.0329
    --------------------------------------------
      LOOP:  cpu time    100.1960: real time    101.0924

 eigenvalue-minimisations  :  3096
 total energy-change (2. order) :-0.4732427E-03  (-0.1557795E-05)
 number of electron     395.9999994 magnetization 
 augmentation part       -1.4709009 magnetization 

 DIPCOR: dipole corrections for dipol
 direction  3 min pos   275,
 dipolmoment           0.000000      0.000000     -0.000283 electrons x Angstroem
 Tr[quadrupol]    -21761.905130

 energy correction for charged system         0.000000 eV
 dipol+quadrupol energy correction           -0.000000 eV
 added-field ion interaction          0.000130 eV  (added to PSCEN)


 Broyden mixing:
  rms(total) = 0.18074E-03    rms(broyden)= 0.18074E-03
  rms(prec ) = 0.22846E-03
  weight for this iteration     100.00

 eigenvalues of (default mixing * dielectric matrix)
  average eigenvalue GAMMA=   2.4903
  8.6512  6.6331  3.7569  2.9475  2.6034  2.1731  1.6304  1.3762  1.3762  1.1384
  1.1384  1.0215  1.0215  0.9646  0.9215

 Free energy of the ion-electron system (eV)
  ---------------------------------------------------
  alpha Z        PSCENC =       138.35995996
  Ewald energy   TEWEN  =     69624.22114912
  -Hartree energ DENC   =    -76800.36935417
  -exchange      EXHF   =         0.00000000
  -V(xc)+E(xc)   XCENC  =       952.43291592
  PAW double counting   =     33517.29583119   -33419.98523074
  entropy T*S    EENTRO =        -0.00001826
  eigenvalues    EBANDS =     -4009.78524567
  atomic energy  EATOM  =      9192.15348662
  Solvation  Ediel_sol  =         0.00000000
  ---------------------------------------------------
  free energy    TOTEN  =      -805.67650603 eV

  energy without entropy =     -805.67648776  energy(sigma->0) =     -805.67649690


--------------------------------------------------------------------------------------------------------




--------------------------------------- Iteration      1(  21)  ---------------------------------------


    POTLOK:  cpu time      0.9587: real time      0.9677
    SETDIJ:  cpu time      0.0082: real time      0.0083
     EDDAV:  cpu time     92.0419: real time     92.8809
       DOS:  cpu time      0.0004: real time      0.0004
    CHARGE:  cpu time      7.0042: real time      7.0684
    MIXING:  cpu time      0.0330: real time      0.0332
    --------------------------------------------
      LOOP:  cpu time    100.0464: real time    100.9590

 eigenvalue-minimisations  :  3096
 total energy-change (2. order) :-0.1478150E-03  (-0.2808667E-06)
 number of electron     395.9999994 magnetization 
 augmentation part       -1.4708951 magnetization 

 DIPCOR: dipole corrections for dipol
 direction  3 min pos   275,
 dipolmoment           0.000000      0.000000     -0.000702 electrons x Angstroem
 Tr[quadrupol]    -21761.892535

 energy correction for charged system         0.000000 eV
 dipol+quadrupol energy correction           -0.000000 eV
 added-field ion interaction          0.000323 eV  (added to PSCEN)


 Broyden mixing:
  rms(total) = 0.99187E-04    rms(broyden)= 0.99187E-04
  rms(prec ) = 0.12148E-03
  weight for this iteration     100.00

 eigenvalues of (default mixing * dielectric matrix)
  average eigenvalue GAMMA=   2.4951
  8.9246  6.8749  4.1481  3.0902  2.5349  2.3985  1.7432  1.5466  1.2822  1.2822
  1.1069  1.1069  1.0329  1.0329  0.9672  0.8490

 Free energy of the ion-electron system (eV)
  ---------------------------------------------------
  alpha Z        PSCENC =       138.36015262
  Ewald energy   TEWEN  =     69624.22114912
  -Hartree energ DENC   =    -76800.39962864
  -exchange      EXHF   =         0.00000000
  -V(xc)+E(xc)   XCENC  =       952.43250190
  PAW double counting   =     33517.32391926   -33420.01324122
  entropy T*S    EENTRO =        -0.00001825
  eigenvalues    EBANDS =     -4009.75497526
  atomic energy  EATOM  =      9192.15348662
  Solvation  Ediel_sol  =         0.00000000
  ---------------------------------------------------
  free energy    TOTEN  =      -805.67665384 eV

  energy without entropy =     -805.67663559  energy(sigma->0) =     -805.67664472


--------------------------------------------------------------------------------------------------------




--------------------------------------- Iteration      1(  22)  ---------------------------------------


    POTLOK:  cpu time      0.9312: real time      0.9374
    SETDIJ:  cpu time      0.0055: real time      0.0055
     EDDAV:  cpu time     90.8822: real time     91.7097
       DOS:  cpu time      0.0009: real time      0.0009
    CHARGE:  cpu time      7.0912: real time      7.1461
    MIXING:  cpu time      0.0362: real time      0.0364
    --------------------------------------------
      LOOP:  cpu time     98.9472: real time     99.8360

 eigenvalue-minimisations  :  3024
 total energy-change (2. order) :-0.7060029E-04  (-0.1317868E-06)
 number of electron     395.9999994 magnetization 
 augmentation part       -1.4708918 magnetization 

 DIPCOR: dipole corrections for dipol
 direction  3 min pos   275,
 dipolmoment           0.000000      0.000000     -0.000911 electrons x Angstroem
 Tr[quadrupol]    -21761.883538

 energy correction for charged system         0.000000 eV
 dipol+quadrupol energy correction           -0.000000 eV
 added-field ion interaction          0.000419 eV  (added to PSCEN)


 Broyden mixing:
  rms(total) = 0.39422E-04    rms(broyden)= 0.39421E-04
  rms(prec ) = 0.48217E-04
  weight for this iteration     100.00

 eigenvalues of (default mixing * dielectric matrix)
  average eigenvalue GAMMA=   2.4875
  9.0334  6.9415  4.3970  3.1486  2.6028  2.6028  1.8749  1.5868  1.4185  1.4185
  1.1548  1.1548  1.0855  1.0855  0.9750  0.9750  0.8315

 Free energy of the ion-electron system (eV)
  ---------------------------------------------------
  alpha Z        PSCENC =       138.36024889
  Ewald energy   TEWEN  =     69624.22114912
  -Hartree energ DENC   =    -76800.39213834
  -exchange      EXHF   =         0.00000000
  -V(xc)+E(xc)   XCENC  =       952.43192899
  PAW double counting   =     33517.12647759   -33419.81569887
  entropy T*S    EENTRO =        -0.00001824
  eigenvalues    EBANDS =     -4009.76216021
  atomic energy  EATOM  =      9192.15348662
  Solvation  Ediel_sol  =         0.00000000
  ---------------------------------------------------
  free energy    TOTEN  =      -805.67672444 eV

  energy without entropy =     -805.67670620  energy(sigma->0) =     -805.67671532


--------------------------------------------------------------------------------------------------------




--------------------------------------- Iteration      1(  23)  ---------------------------------------


    POTLOK:  cpu time      0.9358: real time      0.9420
    SETDIJ:  cpu time      0.0087: real time      0.0087
     EDDAV:  cpu time     86.3606: real time     87.1156
       DOS:  cpu time      0.0008: real time      0.0008
    CHARGE:  cpu time      7.0734: real time      7.1207
    MIXING:  cpu time      0.0350: real time      0.0353
    --------------------------------------------
      LOOP:  cpu time     94.4142: real time     95.2231

 eigenvalue-minimisations  :  2832
 total energy-change (2. order) :-0.1974816E-04  (-0.2040000E-07)
 number of electron     395.9999994 magnetization 
 augmentation part       -1.4708931 magnetization 

 DIPCOR: dipole corrections for dipol
 direction  3 min pos   275,
 dipolmoment           0.000000      0.000000     -0.000990 electrons x Angstroem
 Tr[quadrupol]    -21761.880625

 energy correction for charged system         0.000000 eV
 dipol+quadrupol energy correction           -0.000000 eV
 added-field ion interaction          0.000455 eV  (added to PSCEN)


 Broyden mixing:
  rms(total) = 0.21728E-04    rms(broyden)= 0.21728E-04
  rms(prec ) = 0.25534E-04
  weight for this iteration     100.00

 eigenvalues of (default mixing * dielectric matrix)
  average eigenvalue GAMMA=   2.4818
  9.1130  6.9990  4.6718  3.2919  2.7820  2.6308  2.2671  1.7515  1.3799  1.3799
  1.2078  1.2078  1.1000  1.1000  0.9782  0.9802  0.9802  0.8508

 Free energy of the ion-electron system (eV)
  ---------------------------------------------------
  alpha Z        PSCENC =       138.36028528
  Ewald energy   TEWEN  =     69624.22114912
  -Hartree energ DENC   =    -76800.40038397
  -exchange      EXHF   =         0.00000000
  -V(xc)+E(xc)   XCENC  =       952.43205786
  PAW double counting   =     33517.10521262   -33419.79438637
  entropy T*S    EENTRO =        -0.00001824
  eigenvalues    EBANDS =     -4009.75414712
  atomic energy  EATOM  =      9192.15348662
  Solvation  Ediel_sol  =         0.00000000
  ---------------------------------------------------
  free energy    TOTEN  =      -805.67674419 eV

  energy without entropy =     -805.67672595  energy(sigma->0) =     -805.67673507


--------------------------------------------------------------------------------------------------------




--------------------------------------- Iteration      1(  24)  ---------------------------------------


    POTLOK:  cpu time      0.9497: real time      0.9560
    SETDIJ:  cpu time      0.0145: real time      0.0146
     EDDAV:  cpu time     85.0630: real time     85.7902
       DOS:  cpu time      0.0006: real time      0.0006
    CHARGE:  cpu time      6.8569: real time      6.9053
    MIXING:  cpu time      0.0328: real time      0.0330
    --------------------------------------------
      LOOP:  cpu time     92.9175: real time     93.6997

 eigenvalue-minimisations  :  2748
 total energy-change (2. order) :-0.6143902E-05  (-0.7176664E-08)
 number of electron     395.9999994 magnetization 
 augmentation part       -1.4708917 magnetization 

 DIPCOR: dipole corrections for dipol
 direction  3 min pos   275,
 dipolmoment           0.000000      0.000000     -0.001033 electrons x Angstroem
 Tr[quadrupol]    -21761.878921

 energy correction for charged system         0.000000 eV
 dipol+quadrupol energy correction           -0.000000 eV
 added-field ion interaction          0.000475 eV  (added to PSCEN)


 Broyden mixing:
  rms(total) = 0.83935E-05    rms(broyden)= 0.83934E-05
  rms(prec ) = 0.10469E-04
  weight for this iteration     100.00

 eigenvalues of (default mixing * dielectric matrix)
  average eigenvalue GAMMA=   2.4570
  9.1452  6.9987  4.8175  3.4223  2.7679  2.6499  2.3912  1.7718  1.4963  1.4963
  1.2926  1.2926  1.1308  1.1308  1.0492  1.0492  0.9669  0.9669  0.8468

 Free energy of the ion-electron system (eV)
  ---------------------------------------------------
  alpha Z        PSCENC =       138.36030475
  Ewald energy   TEWEN  =     69624.22114912
  -Hartree energ DENC   =    -76800.40197250
  -exchange      EXHF   =         0.00000000
  -V(xc)+E(xc)   XCENC  =       952.43210746
  PAW double counting   =     33517.12088112   -33419.81006801
  entropy T*S    EENTRO =        -0.00001824
  eigenvalues    EBANDS =     -4009.75262065
  atomic energy  EATOM  =      9192.15348662
  Solvation  Ediel_sol  =         0.00000000
  ---------------------------------------------------
  free energy    TOTEN  =      -805.67675034 eV

  energy without entropy =     -805.67673209  energy(sigma->0) =     -805.67674121


--------------------------------------------------------------------------------------------------------




--------------------------------------- Iteration      1(  25)  ---------------------------------------


    POTLOK:  cpu time      0.9432: real time      0.9514
    SETDIJ:  cpu time      0.0073: real time      0.0073
     EDDAV:  cpu time     80.5429: real time     81.2781
       DOS:  cpu time      0.0018: real time      0.0018
    CHARGE:  cpu time      7.0293: real time      7.0895
    MIXING:  cpu time      0.0370: real time      0.0374
    --------------------------------------------
      LOOP:  cpu time     88.5614: real time     89.3655

 eigenvalue-minimisations  :  2532
 total energy-change (2. order) :-0.1161687E-05  (-0.3219041E-11)
 number of electron     395.9999994 magnetization 
 augmentation part       -1.4708914 magnetization 

 DIPCOR: dipole corrections for dipol
 direction  3 min pos   275,
 dipolmoment           0.000000      0.000000     -0.001042 electrons x Angstroem
 Tr[quadrupol]    -21761.877994

 energy correction for charged system         0.000000 eV
 dipol+quadrupol energy correction           -0.000000 eV
 added-field ion interaction          0.000479 eV  (added to PSCEN)


 Broyden mixing:
  rms(total) = 0.37546E-05    rms(broyden)= 0.37545E-05
  rms(prec ) = 0.54239E-05
  weight for this iteration     100.00

 eigenvalues of (default mixing * dielectric matrix)
  average eigenvalue GAMMA=   2.4536
  9.1394  7.0190  4.8971  3.5479  3.1044  2.4902  2.4021  2.4021  1.7542  1.5455
  1.2693  1.2693  1.1280  1.1280  1.0835  1.0835  1.0327  0.9615  0.9615  0.8528

 Free energy of the ion-electron system (eV)
  ---------------------------------------------------
  alpha Z        PSCENC =       138.36030910
  Ewald energy   TEWEN  =     69624.22114912
  -Hartree energ DENC   =    -76800.40078272
  -exchange      EXHF   =         0.00000000
  -V(xc)+E(xc)   XCENC  =       952.43211715
  PAW double counting   =     33517.13413648   -33419.82333457
  entropy T*S    EENTRO =        -0.00001824
  eigenvalues    EBANDS =     -4009.75381443
  atomic energy  EATOM  =      9192.15348662
  Solvation  Ediel_sol  =         0.00000000
  ---------------------------------------------------
  free energy    TOTEN  =      -805.67675150 eV

  energy without entropy =     -805.67673325  energy(sigma->0) =     -805.67674238


--------------------------------------------------------------------------------------------------------




--------------------------------------- Iteration      1(  26)  ---------------------------------------


    POTLOK:  cpu time      0.9555: real time      0.9665
    SETDIJ:  cpu time      0.0046: real time      0.0046
     EDDAV:  cpu time     78.2503: real time     78.9244
       DOS:  cpu time      0.0005: real time      0.0005
    --------------------------------------------
      LOOP:  cpu time     79.2112: real time     79.8963

 eigenvalue-minimisations  :  2472
 total energy-change (2. order) :-0.2514025E-06  ( 0.9949763E-09)
 number of electron     395.9999994 magnetization 
 augmentation part       -1.4708914 magnetization 

 DIPCOR: dipole corrections for dipol
 direction  3 min pos   275,
 dipolmoment           0.000000      0.000000     -0.001049 electrons x Angstroem
 Tr[quadrupol]    -21761.877086

 energy correction for charged system         0.000000 eV
 dipol+quadrupol energy correction           -0.000000 eV
 added-field ion interaction          0.000482 eV  (added to PSCEN)


 Free energy of the ion-electron system (eV)
  ---------------------------------------------------
  alpha Z        PSCENC =       138.36031224
  Ewald energy   TEWEN  =     69624.22114912
  -Hartree energ DENC   =    -76800.39900679
  -exchange      EXHF   =         0.00000000
  -V(xc)+E(xc)   XCENC  =       952.43213730
  PAW double counting   =     33517.13926082   -33419.82845682
  entropy T*S    EENTRO =        -0.00001824
  eigenvalues    EBANDS =     -4009.75561599
  atomic energy  EATOM  =      9192.15348662
  Solvation  Ediel_sol  =         0.00000000
  ---------------------------------------------------
  free energy    TOTEN  =      -805.67675175 eV

  energy without entropy =     -805.67673351  energy(sigma->0) =     -805.67674263


--------------------------------------------------------------------------------------------------------




 average (electrostatic) potential at core
  the test charge radii are     0.7672  0.5201
  (the norm of the test charge is              1.0000)
       1 -36.7502       2 -36.7532       3 -36.7542       4 -36.7536       5 -36.7535
       6 -36.7537       7 -36.7541       8 -36.7538       9 -36.7542      10 -36.7550
      11 -36.7531      12 -36.7541      13 -36.7535      14 -36.7533      15 -36.7537
      16 -36.7541      17 -36.7539      18 -36.7541      19 -36.7695      20 -36.7718
      21 -36.7727      22 -36.7718      23 -36.7718      24 -36.7719      25 -36.7723
      26 -36.7721      27 -36.7725      28 -36.7735      29 -36.7706      30 -36.7721
      31 -36.7718      32 -36.7716      33 -36.7719      34 -36.7723      35 -36.7722
      36 -36.7722      37 -35.5181      38 -35.5199      39 -35.5207      40 -35.5202
      41 -35.5202      42 -35.5203      43 -35.5210      44 -35.5202      45 -35.5208
      46 -35.5221      47 -35.5196      48 -35.5206      49 -35.5197      50 -35.5198
      51 -35.5203      52 -35.5205      53 -35.5203      54 -35.5205      55 -35.5956
      56 -35.5984      57 -35.5991      58 -35.5987      59 -35.5986      60 -35.5988
      61 -35.5990      62 -35.5989      63 -35.5996      64 -35.6008      65 -35.5983
      66 -35.5990      67 -35.5986      68 -35.5979      69 -35.5987      70 -35.5990
      71 -35.5988      72 -35.5990      73 -36.6695      74 -36.6708      75 -36.6718
      76 -36.6711      77 -36.6710      78 -36.6713      79 -36.6716      80 -36.6713
      81 -36.6717      82 -36.6764      83 -36.6706      84 -36.6717      85 -36.6710
      86 -36.6708      87 -36.6713      88 -36.6716      89 -36.6714      90 -36.6716
      91 -36.6671      92 -36.6709      93 -36.6719      94 -36.6711      95 -36.6710
      96 -36.6712      97 -36.6717      98 -36.6713      99 -36.6718     100 -36.6779
     101 -36.6705     102 -36.6716     103 -36.6710     104 -36.6708     105 -36.6713
     106 -36.6716     107 -36.6714     108 -36.6716     109 -36.2755     110 -36.2724
     111 -36.2736     112 -36.2731     113 -36.2730     114 -36.2733     115 -36.2737
     116 -36.2735     117 -36.2737     118 -36.2685     119 -36.2730     120 -36.2741
     121 -36.2731     122 -36.2732     123 -36.2733     124 -36.2737     125 -36.2735
     126 -36.2738     127 -41.7925     128 -41.8097     129 -41.8108     130 -41.8100
     131 -41.8098     132 -41.8102     133 -41.8106     134 -41.8103     135 -41.8107
     136 -41.8168     137 -41.8097     138 -41.8107     139 -41.8100     140 -41.8098
     141 -41.8102     142 -41.8106     143 -41.8103     144 -41.8106
 
 
 
 E-fermi :  -3.2020     XC(G=0):  -1.9760     alpha+bet : -1.7250

 val. band max:       -3.4680462085   @ k =  -0.1250   0.3333   0.0000
 cond. band min:      -2.9312656832   @ k =   0.1250   0.0000   0.0000
 fundamental gap:      0.5367805253
 Fermi energy:        -3.2020463808

 k-point     1 :       0.1250    0.0000    0.0000
  band No.  band energies     occupation 
      1     -20.0330      2.00000
      2     -19.9810      2.00000
      3     -19.9797      2.00000
      4     -19.8857      2.00000
      5     -19.8483      2.00000
      6     -19.8415      2.00000
      7     -19.8015      2.00000
      8     -19.7731      2.00000
      9     -19.7657      2.00000
     10     -19.3681      2.00000
     11     -19.3573      2.00000
     12     -19.3475      2.00000
     13     -19.2833      2.00000
     14     -19.2718      2.00000
     15     -19.2408      2.00000
     16     -19.1191      2.00000
     17     -19.1168      2.00000
     18     -19.0308      2.00000
     19     -15.7200      2.00000
     20     -15.7122      2.00000
     21     -15.6379      2.00000
     22     -15.6330      2.00000
     23     -15.6013      2.00000
     24     -15.5718      2.00000
     25     -15.5463      2.00000
     26     -15.5331      2.00000
     27     -15.4899      2.00000
     28     -15.4525      2.00000
     29     -15.3674      2.00000
     30     -15.3416      2.00000
     31     -15.2693      2.00000
     32     -15.2547      2.00000
     33     -15.2535      2.00000
     34     -15.2462      2.00000
     35     -15.1003      2.00000
     36     -15.0631      2.00000
     37     -13.6228      2.00000
     38     -13.5529      2.00000
     39     -13.2724      2.00000
     40     -13.2551      2.00000
     41     -13.1751      2.00000
     42     -13.0367      2.00000
     43     -12.9786      2.00000
     44     -12.9682      2.00000
     45     -12.9564      2.00000
     46     -12.8487      2.00000
     47     -12.8238      2.00000
     48     -12.7499      2.00000
     49     -12.7360      2.00000
     50     -12.5953      2.00000
     51     -12.5328      2.00000
     52     -12.4554      2.00000
     53     -12.3887      2.00000
     54     -12.3859      2.00000
     55     -12.3626      2.00000
     56     -12.2984      2.00000
     57     -12.2468      2.00000
     58     -12.2355      2.00000
     59     -12.2270      2.00000
     60     -12.1974      2.00000
     61     -12.1812      2.00000
     62     -12.1713      2.00000
     63     -12.1470      2.00000
     64     -11.4375      2.00000
     65     -11.3581      2.00000
     66     -11.3382      2.00000
     67     -11.2723      2.00000
     68     -11.2373      2.00000
     69     -11.2011      2.00000
     70     -11.1357      2.00000
     71     -10.7703      2.00000
     72     -10.7250      2.00000
     73     -10.6227      2.00000
     74     -10.5351      2.00000
     75     -10.5031      2.00000
     76     -10.4686      2.00000
     77     -10.4316      2.00000
     78     -10.3334      2.00000
     79     -10.3294      2.00000
     80     -10.3235      2.00000
     81     -10.2658      2.00000
     82     -10.2503      2.00000
     83     -10.1648      2.00000
     84     -10.1516      2.00000
     85     -10.1312      2.00000
     86     -10.0991      2.00000
     87     -10.0502      2.00000
     88      -9.9083      2.00000
     89      -9.7484      2.00000
     90      -9.7082      2.00000
     91      -9.7050      2.00000
     92      -9.6920      2.00000
     93      -9.6684      2.00000
     94      -9.6083      2.00000
     95      -9.5379      2.00000
     96      -9.3958      2.00000
     97      -9.3732      2.00000
     98      -9.3266      2.00000
     99      -9.1792      2.00000
    100      -9.0730      2.00000
    101      -8.7450      2.00000
    102      -8.7194      2.00000
    103      -8.7107      2.00000
    104      -8.7088      2.00000
    105      -8.6235      2.00000
    106      -8.5915      2.00000
    107      -8.5631      2.00000
    108      -8.5136      2.00000
    109      -8.4997      2.00000
    110      -8.3925      2.00000
    111      -8.3336      2.00000
    112      -8.3117      2.00000
    113      -8.2878      2.00000
    114      -8.2779      2.00000
    115      -8.1862      2.00000
    116      -8.1573      2.00000
    117      -8.1123      2.00000
    118      -8.0784      2.00000
    119      -7.9898      2.00000
    120      -7.7883      2.00000
    121      -7.7757      2.00000
    122      -7.7232      2.00000
    123      -7.7015      2.00000
    124      -7.6559      2.00000
    125      -7.6334      2.00000
    126      -7.5984      2.00000
    127      -7.5839      2.00000
    128      -7.5511      2.00000
    129      -7.5425      2.00000
    130      -7.5339      2.00000
    131      -7.5121      2.00000
    132      -7.5069      2.00000
    133      -7.4919      2.00000
    134      -7.4813      2.00000
    135      -7.4362      2.00000
    136      -7.3868      2.00000
    137      -7.3147      2.00000
    138      -7.2254      2.00000
    139      -7.2238      2.00000
    140      -7.2048      2.00000
    141      -7.2046      2.00000
    142      -7.0346      2.00000
    143      -7.0326      2.00000
    144      -6.9587      2.00000
    145      -6.8290      2.00000
    146      -6.7931      2.00000
    147      -6.7276      2.00000
    148      -6.5764      2.00000
    149      -6.5732      2.00000
    150      -6.3305      2.00000
    151      -6.2720      2.00000
    152      -6.2524      2.00000
    153      -6.2428      2.00000
    154      -6.2423      2.00000
    155      -6.2381      2.00000
    156      -6.2097      2.00000
    157      -6.2066      2.00000
    158      -6.2036      2.00000
    159      -6.1912      2.00000
    160      -6.1717      2.00000
    161      -6.1665      2.00000
    162      -6.1580      2.00000
    163      -6.1548      2.00000
    164      -6.1467      2.00000
    165      -6.1437      2.00000
    166      -6.1369      2.00000
    167      -6.1245      2.00000
    168      -6.1136      2.00000
    169      -6.0812      2.00000
    170      -6.0729      2.00000
    171      -6.0684      2.00000
    172      -6.0151      2.00000
    173      -5.9198      2.00000
    174      -5.9132      2.00000
    175      -5.8897      2.00000
    176      -5.8364      2.00000
    177      -5.7106      2.00000
    178      -5.7036      2.00000
    179      -5.6889      2.00000
    180      -5.6665      2.00000
    181      -5.5840      2.00000
    182      -5.5631      2.00000
    183      -5.4911      2.00000
    184      -5.4524      2.00000
    185      -5.3275      2.00000
    186      -5.2950      2.00000
    187      -5.1530      2.00000
    188      -4.5706      2.00000
    189      -4.5401      2.00000
    190      -4.5233      2.00000
    191      -4.5184      2.00000
    192      -4.5170      2.00000
    193      -4.5041      2.00000
    194      -4.4590      2.00000
    195      -4.4187      2.00000
    196      -4.4117      2.00000
    197      -3.7647      2.00000
    198      -3.6961      2.00000
    199      -2.9313      0.00013
    200      -2.6200      0.00000
    201      -2.5692      0.00000
    202      -2.4952      0.00000
    203      -2.4811      0.00000
    204      -2.4399      0.00000
    205      -2.4139      0.00000
    206      -2.3368      0.00000
    207      -2.3108      0.00000
    208      -2.2817      0.00000
    209      -2.2309      0.00000
    210      -2.1188      0.00000
    211      -2.1013      0.00000
    212      -2.0622      0.00000
    213      -2.0215      0.00000
    214      -2.0011      0.00000
    215      -1.9687      0.00000
    216      -1.9451      0.00000
    217      -1.9424      0.00000
    218      -1.9281      0.00000
    219      -1.9266      0.00000
    220      -1.7065      0.00000
    221      -1.6328      0.00000
    222      -1.5144      0.00000
    223      -1.4221      0.00000
    224      -1.3916      0.00000
    225      -1.3120      0.00000
    226      -1.3009      0.00000
    227      -1.2667      0.00000
    228      -1.2641      0.00000
    229      -1.2115      0.00000
    230      -1.1674      0.00000
    231      -1.0970      0.00000
    232      -1.0806      0.00000
    233      -1.0692      0.00000
    234      -1.0213      0.00000
    235      -0.9982      0.00000
    236      -0.9629      0.00000
    237      -0.8512      0.00000
    238      -0.8363      0.00000
    239      -0.8353      0.00000
    240      -0.8235      0.00000
    241      -0.8175      0.00000
    242      -0.7457      0.00000
    243      -0.7210      0.00000
    244      -0.7204      0.00000
    245      -0.7172      0.00000
    246      -0.5561      0.00000
    247      -0.4734      0.00000
    248      -0.4616      0.00000
    249      -0.4604      0.00000
    250      -0.4570      0.00000
    251      -0.2852      0.00000
    252      -0.2321      0.00000
    253      -0.2266      0.00000
    254      -0.2177      0.00000
    255      -0.1404      0.00000
    256      -0.0460      0.00000
    257      -0.0345      0.00000
    258       0.0592      0.00000
    259       0.0913      0.00000
    260       0.1521      0.00000
    261       0.2164      0.00000
    262       0.2989      0.00000
    263       0.3972      0.00000
    264       0.4283      0.00000
    265       0.4601      0.00000
    266       0.5031      0.00000
    267       0.6485      0.00000
    268       0.7335      0.00000
    269       0.7528      0.00000
    270       0.8304      0.00000
    271       0.9206      0.00000
    272       0.9894      0.00000
    273       1.0231      0.00000
    274       1.1151      0.00000
    275       1.1774      0.00000
    276       1.2012      0.00000

 k-point     2 :       0.3750    0.0000    0.0000
  band No.  band energies     occupation 
      1     -20.0071      2.00000
      2     -19.9580      2.00000
      3     -19.9569      2.00000
      4     -19.9547      2.00000
      5     -19.9125      2.00000
      6     -19.9074      2.00000
      7     -19.7278      2.00000
      8     -19.7078      2.00000
      9     -19.7034      2.00000
     10     -19.4351      2.00000
     11     -19.4340      2.00000
     12     -19.4296      2.00000
     13     -19.2069      2.00000
     14     -19.1970      2.00000
     15     -19.1501      2.00000
     16     -19.1436      2.00000
     17     -19.1432      2.00000
     18     -19.0700      2.00000
     19     -15.6888      2.00000
     20     -15.6668      2.00000
     21     -15.6308      2.00000
     22     -15.6147      2.00000
     23     -15.6103      2.00000
     24     -15.5909      2.00000
     25     -15.5689      2.00000
     26     -15.5675      2.00000
     27     -15.5291      2.00000
     28     -15.4755      2.00000
     29     -15.4543      2.00000
     30     -15.2876      2.00000
     31     -15.2515      2.00000
     32     -15.2499      2.00000
     33     -15.2385      2.00000
     34     -15.1585      2.00000
     35     -15.1377      2.00000
     36     -15.0707      2.00000
     37     -13.5850      2.00000
     38     -13.4499      2.00000
     39     -13.3947      2.00000
     40     -13.3221      2.00000
     41     -13.1827      2.00000
     42     -13.0613      2.00000
     43     -13.0405      2.00000
     44     -12.9924      2.00000
     45     -12.8197      2.00000
     46     -12.8159      2.00000
     47     -12.7278      2.00000
     48     -12.7037      2.00000
     49     -12.6365      2.00000
     50     -12.6032      2.00000
     51     -12.5281      2.00000
     52     -12.5060      2.00000
     53     -12.4256      2.00000
     54     -12.4012      2.00000
     55     -12.3703      2.00000
     56     -12.3625      2.00000
     57     -12.3559      2.00000
     58     -12.3123      2.00000
     59     -12.3025      2.00000
     60     -12.2963      2.00000
     61     -12.1809      2.00000
     62     -12.1371      2.00000
     63     -12.1326      2.00000
     64     -11.4157      2.00000
     65     -11.3531      2.00000
     66     -11.1901      2.00000
     67     -11.0790      2.00000
     68     -11.0680      2.00000
     69     -10.9889      2.00000
     70     -10.9511      2.00000
     71     -10.9255      2.00000
     72     -10.7973      2.00000
     73     -10.6818      2.00000
     74     -10.6065      2.00000
     75     -10.6000      2.00000
     76     -10.5875      2.00000
     77     -10.5641      2.00000
     78     -10.4974      2.00000
     79     -10.3121      2.00000
     80     -10.2982      2.00000
     81     -10.2059      2.00000
     82     -10.2042      2.00000
     83     -10.1909      2.00000
     84     -10.1211      2.00000
     85     -10.1056      2.00000
     86     -10.1037      2.00000
     87     -10.0395      2.00000
     88     -10.0013      2.00000
     89      -9.8930      2.00000
     90      -9.8630      2.00000
     91      -9.7652      2.00000
     92      -9.7564      2.00000
     93      -9.5859      2.00000
     94      -9.5362      2.00000
     95      -9.4823      2.00000
     96      -9.3999      2.00000
     97      -9.2749      2.00000
     98      -9.0764      2.00000
     99      -9.0602      2.00000
    100      -8.9846      2.00000
    101      -8.8188      2.00000
    102      -8.7760      2.00000
    103      -8.7625      2.00000
    104      -8.7177      2.00000
    105      -8.6431      2.00000
    106      -8.6062      2.00000
    107      -8.5789      2.00000
    108      -8.4907      2.00000
    109      -8.4836      2.00000
    110      -8.4467      2.00000
    111      -8.3338      2.00000
    112      -8.3263      2.00000
    113      -8.3241      2.00000
    114      -8.3174      2.00000
    115      -8.0809      2.00000
    116      -8.0620      2.00000
    117      -8.0465      2.00000
    118      -8.0463      2.00000
    119      -8.0099      2.00000
    120      -7.9179      2.00000
    121      -7.8915      2.00000
    122      -7.8779      2.00000
    123      -7.8481      2.00000
    124      -7.7078      2.00000
    125      -7.6291      2.00000
    126      -7.5952      2.00000
    127      -7.5890      2.00000
    128      -7.5768      2.00000
    129      -7.5717      2.00000
    130      -7.5646      2.00000
    131      -7.5252      2.00000
    132      -7.4366      2.00000
    133      -7.4200      2.00000
    134      -7.3937      2.00000
    135      -7.3621      2.00000
    136      -7.3280      2.00000
    137      -7.2404      2.00000
    138      -7.1953      2.00000
    139      -7.1716      2.00000
    140      -7.0558      2.00000
    141      -7.0480      2.00000
    142      -7.0257      2.00000
    143      -7.0100      2.00000
    144      -6.9270      2.00000
    145      -6.7654      2.00000
    146      -6.7490      2.00000
    147      -6.6134      2.00000
    148      -6.6086      2.00000
    149      -6.4461      2.00000
    150      -6.4128      2.00000
    151      -6.3741      2.00000
    152      -6.3553      2.00000
    153      -6.3380      2.00000
    154      -6.3268      2.00000
    155      -6.3134      2.00000
    156      -6.2952      2.00000
    157      -6.2590      2.00000
    158      -6.2252      2.00000
    159      -6.2159      2.00000
    160      -6.2148      2.00000
    161      -6.2104      2.00000
    162      -6.2024      2.00000
    163      -6.1980      2.00000
    164      -6.1818      2.00000
    165      -6.1814      2.00000
    166      -6.1685      2.00000
    167      -6.1238      2.00000
    168      -6.1160      2.00000
    169      -6.0626      2.00000
    170      -6.0566      2.00000
    171      -6.0387      2.00000
    172      -6.0314      2.00000
    173      -5.9690      2.00000
    174      -5.8811      2.00000
    175      -5.8404      2.00000
    176      -5.8309      2.00000
    177      -5.7929      2.00000
    178      -5.7680      2.00000
    179      -5.7304      2.00000
    180      -5.7283      2.00000
    181      -5.6320      2.00000
    182      -5.5758      2.00000
    183      -5.5145      2.00000
    184      -5.4500      2.00000
    185      -5.3684      2.00000
    186      -4.7500      2.00000
    187      -4.5903      2.00000
    188      -4.5704      2.00000
    189      -4.5444      2.00000
    190      -4.5274      2.00000
    191      -4.5164      2.00000
    192      -4.5158      2.00000
    193      -4.4767      2.00000
    194      -4.4513      2.00000
    195      -4.4423      2.00000
    196      -4.4059      2.00000
    197      -4.1543      2.00000
    198      -4.0379      2.00000
    199      -2.9001      0.00002
    200      -2.7986      0.00000
    201      -2.5897      0.00000
    202      -2.5556      0.00000
    203      -2.4107      0.00000
    204      -2.3842      0.00000
    205      -2.3575      0.00000
    206      -2.2756      0.00000
    207      -2.2703      0.00000
    208      -2.2108      0.00000
    209      -2.1419      0.00000
    210      -2.0781      0.00000
    211      -2.0700      0.00000
    212      -2.0498      0.00000
    213      -2.0433      0.00000
    214      -2.0101      0.00000
    215      -2.0051      0.00000
    216      -1.9009      0.00000
    217      -1.8308      0.00000
    218      -1.8225      0.00000
    219      -1.8090      0.00000
    220      -1.6465      0.00000
    221      -1.6333      0.00000
    222      -1.6212      0.00000
    223      -1.6085      0.00000
    224      -1.4703      0.00000
    225      -1.3964      0.00000
    226      -1.3816      0.00000
    227      -1.3219      0.00000
    228      -1.2508      0.00000
    229      -1.1629      0.00000
    230      -1.1473      0.00000
    231      -1.1259      0.00000
    232      -1.1102      0.00000
    233      -1.0663      0.00000
    234      -1.0486      0.00000
    235      -1.0423      0.00000
    236      -1.0142      0.00000
    237      -0.9644      0.00000
    238      -0.9201      0.00000
    239      -0.8657      0.00000
    240      -0.7027      0.00000
    241      -0.6673      0.00000
    242      -0.6626      0.00000
    243      -0.6198      0.00000
    244      -0.6153      0.00000
    245      -0.5907      0.00000
    246      -0.5511      0.00000
    247      -0.5021      0.00000
    248      -0.4386      0.00000
    249      -0.4101      0.00000
    250      -0.3215      0.00000
    251      -0.2975      0.00000
    252      -0.2398      0.00000
    253      -0.2394      0.00000
    254      -0.2271      0.00000
    255      -0.2032      0.00000
    256      -0.0399      0.00000
    257       0.0486      0.00000
    258       0.1335      0.00000
    259       0.1894      0.00000
    260       0.2289      0.00000
    261       0.2651      0.00000
    262       0.3156      0.00000
    263       0.3434      0.00000
    264       0.4441      0.00000
    265       0.4483      0.00000
    266       0.4671      0.00000
    267       0.4760      0.00000
    268       0.5019      0.00000
    269       0.6375      0.00000
    270       0.7525      0.00000
    271       0.8837      0.00000
    272       0.9273      0.00000
    273       0.9610      0.00000
    274       1.0651      0.00000
    275       1.0843      0.00000
    276       1.1573      0.00000

 k-point     3 :       0.1250    0.3333    0.0000
  band No.  band energies     occupation 
      1     -20.0250      2.00000
      2     -20.0056      2.00000
      3     -19.9628      2.00000
      4     -19.8819      2.00000
      5     -19.8604      2.00000
      6     -19.8332      2.00000
      7     -19.7943      2.00000
      8     -19.7882      2.00000
      9     -19.7578      2.00000
     10     -19.3702      2.00000
     11     -19.3533      2.00000
     12     -19.3496      2.00000
     13     -19.2873      2.00000
     14     -19.2665      2.00000
     15     -19.2422      2.00000
     16     -19.1456      2.00000
     17     -19.0765      2.00000
     18     -19.0447      2.00000
     19     -15.7223      2.00000
     20     -15.6998      2.00000
     21     -15.6503      2.00000
     22     -15.6053      2.00000
     23     -15.5939      2.00000
     24     -15.5838      2.00000
     25     -15.5715      2.00000
     26     -15.5411      2.00000
     27     -15.4795      2.00000
     28     -15.4710      2.00000
     29     -15.3375      2.00000
     30     -15.3231      2.00000
     31     -15.3079      2.00000
     32     -15.2861      2.00000
     33     -15.2436      2.00000
     34     -15.2006      2.00000
     35     -15.1457      2.00000
     36     -15.0249      2.00000
     37     -13.7255      2.00000
     38     -13.3933      2.00000
     39     -13.3407      2.00000
     40     -13.2486      2.00000
     41     -13.1004      2.00000
     42     -13.0615      2.00000
     43     -13.0569      2.00000
     44     -13.0508      2.00000
     45     -12.9964      2.00000
     46     -12.8918      2.00000
     47     -12.6657      2.00000
     48     -12.5725      2.00000
     49     -12.5660      2.00000
     50     -12.5613      2.00000
     51     -12.5058      2.00000
     52     -12.4447      2.00000
     53     -12.4350      2.00000
     54     -12.4261      2.00000
     55     -12.4201      2.00000
     56     -12.3896      2.00000
     57     -12.3650      2.00000
     58     -12.2935      2.00000
     59     -12.2615      2.00000
     60     -12.2256      2.00000
     61     -12.2163      2.00000
     62     -12.2047      2.00000
     63     -12.1585      2.00000
     64     -11.4232      2.00000
     65     -11.3755      2.00000
     66     -11.2724      2.00000
     67     -11.1514      2.00000
     68     -11.0386      2.00000
     69     -11.0079      2.00000
     70     -10.9571      2.00000
     71     -10.9434      2.00000
     72     -10.9400      2.00000
     73     -10.7559      2.00000
     74     -10.5243      2.00000
     75     -10.5185      2.00000
     76     -10.4800      2.00000
     77     -10.4645      2.00000
     78     -10.4400      2.00000
     79     -10.4071      2.00000
     80     -10.3874      2.00000
     81     -10.2947      2.00000
     82     -10.2501      2.00000
     83     -10.2089      2.00000
     84     -10.1851      2.00000
     85     -10.1563      2.00000
     86     -10.0228      2.00000
     87      -9.9437      2.00000
     88      -9.8430      2.00000
     89      -9.8371      2.00000
     90      -9.8349      2.00000
     91      -9.7567      2.00000
     92      -9.6050      2.00000
     93      -9.5636      2.00000
     94      -9.4457      2.00000
     95      -9.3919      2.00000
     96      -9.3788      2.00000
     97      -9.2916      2.00000
     98      -9.2651      2.00000
     99      -9.1918      2.00000
    100      -8.9146      2.00000
    101      -8.8481      2.00000
    102      -8.7849      2.00000
    103      -8.6576      2.00000
    104      -8.6400      2.00000
    105      -8.6341      2.00000
    106      -8.6157      2.00000
    107      -8.6094      2.00000
    108      -8.5982      2.00000
    109      -8.5390      2.00000
    110      -8.5349      2.00000
    111      -8.5096      2.00000
    112      -8.4712      2.00000
    113      -8.3682      2.00000
    114      -8.3163      2.00000
    115      -8.1925      2.00000
    116      -8.1384      2.00000
    117      -8.0357      2.00000
    118      -7.9781      2.00000
    119      -7.9420      2.00000
    120      -7.8023      2.00000
    121      -7.7765      2.00000
    122      -7.7759      2.00000
    123      -7.7377      2.00000
    124      -7.6639      2.00000
    125      -7.6444      2.00000
    126      -7.6123      2.00000
    127      -7.5884      2.00000
    128      -7.5770      2.00000
    129      -7.5674      2.00000
    130      -7.5436      2.00000
    131      -7.5246      2.00000
    132      -7.4888      2.00000
    133      -7.4760      2.00000
    134      -7.4184      2.00000
    135      -7.3784      2.00000
    136      -7.3699      2.00000
    137      -7.2880      2.00000
    138      -7.1713      2.00000
    139      -7.0670      2.00000
    140      -7.0206      2.00000
    141      -6.9987      2.00000
    142      -6.9775      2.00000
    143      -6.9730      2.00000
    144      -6.9486      2.00000
    145      -6.7720      2.00000
    146      -6.7336      2.00000
    147      -6.7073      2.00000
    148      -6.5095      2.00000
    149      -6.4981      2.00000
    150      -6.4467      2.00000
    151      -6.4398      2.00000
    152      -6.4023      2.00000
    153      -6.3987      2.00000
    154      -6.3667      2.00000
    155      -6.3613      2.00000
    156      -6.2830      2.00000
    157      -6.2758      2.00000
    158      -6.2747      2.00000
    159      -6.2481      2.00000
    160      -6.2428      2.00000
    161      -6.2369      2.00000
    162      -6.1886      2.00000
    163      -6.1694      2.00000
    164      -6.1665      2.00000
    165      -6.1529      2.00000
    166      -6.1466      2.00000
    167      -6.1424      2.00000
    168      -6.1382      2.00000
    169      -6.1299      2.00000
    170      -6.1083      2.00000
    171      -5.9905      2.00000
    172      -5.9416      2.00000
    173      -5.8956      2.00000
    174      -5.8555      2.00000
    175      -5.8337      2.00000
    176      -5.7634      2.00000
    177      -5.7602      2.00000
    178      -5.7117      2.00000
    179      -5.6511      2.00000
    180      -5.6287      2.00000
    181      -5.5949      2.00000
    182      -5.5548      2.00000
    183      -5.5370      2.00000
    184      -5.2941      2.00000
    185      -5.2870      2.00000
    186      -5.2865      2.00000
    187      -4.8428      2.00000
    188      -4.5575      2.00000
    189      -4.5315      2.00000
    190      -4.5233      2.00000
    191      -4.5131      2.00000
    192      -4.4990      2.00000
    193      -4.4887      2.00000
    194      -4.4770      2.00000
    195      -4.4636      2.00000
    196      -4.4000      2.00000
    197      -4.1709      2.00000
    198      -3.5042      1.99998
    199      -2.8219      0.00000
    200      -2.7017      0.00000
    201      -2.6799      0.00000
    202      -2.4960      0.00000
    203      -2.4267      0.00000
    204      -2.4066      0.00000
    205      -2.3626      0.00000
    206      -2.3560      0.00000
    207      -2.3199      0.00000
    208      -2.3018      0.00000
    209      -2.1602      0.00000
    210      -2.0877      0.00000
    211      -2.0745      0.00000
    212      -2.0714      0.00000
    213      -2.0578      0.00000
    214      -2.0531      0.00000
    215      -1.9581      0.00000
    216      -1.9572      0.00000
    217      -1.9482      0.00000
    218      -1.9291      0.00000
    219      -1.9156      0.00000
    220      -1.6760      0.00000
    221      -1.5894      0.00000
    222      -1.4361      0.00000
    223      -1.4220      0.00000
    224      -1.3964      0.00000
    225      -1.3933      0.00000
    226      -1.3024      0.00000
    227      -1.2655      0.00000
    228      -1.2605      0.00000
    229      -1.2535      0.00000
    230      -1.2530      0.00000
    231      -1.2007      0.00000
    232      -1.1155      0.00000
    233      -1.0183      0.00000
    234      -1.0095      0.00000
    235      -1.0075      0.00000
    236      -0.9799      0.00000
    237      -0.9779      0.00000
    238      -0.8712      0.00000
    239      -0.8137      0.00000
    240      -0.7961      0.00000
    241      -0.7918      0.00000
    242      -0.7845      0.00000
    243      -0.7759      0.00000
    244      -0.7474      0.00000
    245      -0.6316      0.00000
    246      -0.5871      0.00000
    247      -0.5253      0.00000
    248      -0.3892      0.00000
    249      -0.3514      0.00000
    250      -0.3106      0.00000
    251      -0.3074      0.00000
    252      -0.2845      0.00000
    253      -0.2793      0.00000
    254      -0.0945      0.00000
    255       0.0340      0.00000
    256       0.0802      0.00000
    257       0.0956      0.00000
    258       0.0963      0.00000
    259       0.1659      0.00000
    260       0.1998      0.00000
    261       0.2771      0.00000
    262       0.3022      0.00000
    263       0.3406      0.00000
    264       0.3582      0.00000
    265       0.3679      0.00000
    266       0.4050      0.00000
    267       0.4316      0.00000
    268       0.5261      0.00000
    269       0.8378      0.00000
    270       0.8486      0.00000
    271       0.8556      0.00000
    272       0.9686      0.00000
    273       1.0311      0.00000
    274       1.0569      0.00000
    275       1.1371      0.00000
    276       1.1377      0.00000

 k-point     4 :       0.3750    0.3333    0.0000
  band No.  band energies     occupation 
      1     -19.9987      2.00000
      2     -19.9818      2.00000
      3     -19.9516      2.00000
      4     -19.9390      2.00000
      5     -19.9292      2.00000
      6     -19.8957      2.00000
      7     -19.7230      2.00000
      8     -19.7180      2.00000
      9     -19.6979      2.00000
     10     -19.4356      2.00000
     11     -19.4331      2.00000
     12     -19.4300      2.00000
     13     -19.2187      2.00000
     14     -19.1800      2.00000
     15     -19.1724      2.00000
     16     -19.1485      2.00000
     17     -19.1076      2.00000
     18     -19.0838      2.00000
     19     -15.6793      2.00000
     20     -15.6761      2.00000
     21     -15.6384      2.00000
     22     -15.6251      2.00000
     23     -15.5934      2.00000
     24     -15.5842      2.00000
     25     -15.5717      2.00000
     26     -15.5652      2.00000
     27     -15.5646      2.00000
     28     -15.4646      2.00000
     29     -15.3803      2.00000
     30     -15.3490      2.00000
     31     -15.2640      2.00000
     32     -15.2629      2.00000
     33     -15.1843      2.00000
     34     -15.1738      2.00000
     35     -15.1211      2.00000
     36     -15.0993      2.00000
     37     -13.5419      2.00000
     38     -13.4443      2.00000
     39     -13.3619      2.00000
     40     -13.2943      2.00000
     41     -13.1900      2.00000
     42     -13.1168      2.00000
     43     -13.0964      2.00000
     44     -13.0010      2.00000
     45     -12.9690      2.00000
     46     -12.8454      2.00000
     47     -12.6885      2.00000
     48     -12.6749      2.00000
     49     -12.6315      2.00000
     50     -12.6063      2.00000
     51     -12.4536      2.00000
     52     -12.4220      2.00000
     53     -12.4154      2.00000
     54     -12.4137      2.00000
     55     -12.3934      2.00000
     56     -12.3640      2.00000
     57     -12.3369      2.00000
     58     -12.3311      2.00000
     59     -12.2895      2.00000
     60     -12.1908      2.00000
     61     -12.1727      2.00000
     62     -12.1580      2.00000
     63     -12.1199      2.00000
     64     -11.4680      2.00000
     65     -11.4421      2.00000
     66     -11.3460      2.00000
     67     -11.2508      2.00000
     68     -11.1342      2.00000
     69     -10.8857      2.00000
     70     -10.7851      2.00000
     71     -10.7251      2.00000
     72     -10.6211      2.00000
     73     -10.6156      2.00000
     74     -10.6091      2.00000
     75     -10.5820      2.00000
     76     -10.5775      2.00000
     77     -10.5767      2.00000
     78     -10.5726      2.00000
     79     -10.4845      2.00000
     80     -10.3056      2.00000
     81     -10.2889      2.00000
     82     -10.2535      2.00000
     83     -10.2508      2.00000
     84     -10.1468      2.00000
     85     -10.0805      2.00000
     86     -10.0102      2.00000
     87      -9.9867      2.00000
     88      -9.9811      2.00000
     89      -9.8582      2.00000
     90      -9.8161      2.00000
     91      -9.7939      2.00000
     92      -9.7133      2.00000
     93      -9.7026      2.00000
     94      -9.5328      2.00000
     95      -9.4493      2.00000
     96      -9.4430      2.00000
     97      -9.2240      2.00000
     98      -9.2014      2.00000
     99      -8.9898      2.00000
    100      -8.9548      2.00000
    101      -8.9000      2.00000
    102      -8.7331      2.00000
    103      -8.7182      2.00000
    104      -8.6987      2.00000
    105      -8.6432      2.00000
    106      -8.6093      2.00000
    107      -8.5895      2.00000
    108      -8.4416      2.00000
    109      -8.4316      2.00000
    110      -8.4033      2.00000
    111      -8.3704      2.00000
    112      -8.3605      2.00000
    113      -8.3162      2.00000
    114      -8.2952      2.00000
    115      -8.2488      2.00000
    116      -8.2206      2.00000
    117      -8.1194      2.00000
    118      -8.0862      2.00000
    119      -8.0845      2.00000
    120      -7.9946      2.00000
    121      -7.7842      2.00000
    122      -7.7204      2.00000
    123      -7.6980      2.00000
    124      -7.6875      2.00000
    125      -7.6832      2.00000
    126      -7.6698      2.00000
    127      -7.6660      2.00000
    128      -7.6607      2.00000
    129      -7.6595      2.00000
    130      -7.5131      2.00000
    131      -7.4741      2.00000
    132      -7.3718      2.00000
    133      -7.3508      2.00000
    134      -7.2612      2.00000
    135      -7.2499      2.00000
    136      -7.2179      2.00000
    137      -7.1885      2.00000
    138      -7.1635      2.00000
    139      -7.1546      2.00000
    140      -7.1129      2.00000
    141      -7.0428      2.00000
    142      -6.9515      2.00000
    143      -6.8873      2.00000
    144      -6.8754      2.00000
    145      -6.8497      2.00000
    146      -6.8338      2.00000
    147      -6.5299      2.00000
    148      -6.5281      2.00000
    149      -6.4865      2.00000
    150      -6.4801      2.00000
    151      -6.4746      2.00000
    152      -6.4291      2.00000
    153      -6.3875      2.00000
    154      -6.3804      2.00000
    155      -6.3597      2.00000
    156      -6.3085      2.00000
    157      -6.2933      2.00000
    158      -6.2362      2.00000
    159      -6.2297      2.00000
    160      -6.2186      2.00000
    161      -6.2153      2.00000
    162      -6.1822      2.00000
    163      -6.1774      2.00000
    164      -6.1768      2.00000
    165      -6.1743      2.00000
    166      -6.1502      2.00000
    167      -6.1499      2.00000
    168      -6.1431      2.00000
    169      -6.1045      2.00000
    170      -6.0775      2.00000
    171      -6.0549      2.00000
    172      -6.0537      2.00000
    173      -6.0003      2.00000
    174      -5.9651      2.00000
    175      -5.9610      2.00000
    176      -5.9586      2.00000
    177      -5.8499      2.00000
    178      -5.8070      2.00000
    179      -5.7575      2.00000
    180      -5.6816      2.00000
    181      -5.6668      2.00000
    182      -5.4916      2.00000
    183      -5.4718      2.00000
    184      -5.0702      2.00000
    185      -4.9632      2.00000
    186      -4.8697      2.00000
    187      -4.6678      2.00000
    188      -4.5666      2.00000
    189      -4.5491      2.00000
    190      -4.5254      2.00000
    191      -4.5186      2.00000
    192      -4.5026      2.00000
    193      -4.4908      2.00000
    194      -4.4533      2.00000
    195      -4.4350      2.00000
    196      -4.4087      2.00000
    197      -4.3345      2.00000
    198      -4.0071      2.00000
    199      -2.8465      0.00000
    200      -2.7697      0.00000
    201      -2.7633      0.00000
    202      -2.5206      0.00000
    203      -2.3989      0.00000
    204      -2.3258      0.00000
    205      -2.3210      0.00000
    206      -2.3191      0.00000
    207      -2.2578      0.00000
    208      -2.1720      0.00000
    209      -2.1096      0.00000
    210      -2.0971      0.00000
    211      -2.0860      0.00000
    212      -2.0846      0.00000
    213      -2.0218      0.00000
    214      -2.0170      0.00000
    215      -1.9800      0.00000
    216      -1.9191      0.00000
    217      -1.8490      0.00000
    218      -1.8230      0.00000
    219      -1.8047      0.00000
    220      -1.6460      0.00000
    221      -1.6386      0.00000
    222      -1.5896      0.00000
    223      -1.5835      0.00000
    224      -1.4722      0.00000
    225      -1.3843      0.00000
    226      -1.3753      0.00000
    227      -1.2871      0.00000
    228      -1.2775      0.00000
    229      -1.2422      0.00000
    230      -1.1951      0.00000
    231      -1.1413      0.00000
    232      -1.1334      0.00000
    233      -1.0724      0.00000
    234      -1.0677      0.00000
    235      -1.0170      0.00000
    236      -1.0159      0.00000
    237      -0.9820      0.00000
    238      -0.9355      0.00000
    239      -0.9198      0.00000
    240      -0.6733      0.00000
    241      -0.6711      0.00000
    242      -0.6494      0.00000
    243      -0.6250      0.00000
    244      -0.5953      0.00000
    245      -0.5917      0.00000
    246      -0.5371      0.00000
    247      -0.4858      0.00000
    248      -0.4081      0.00000
    249      -0.4065      0.00000
    250      -0.3895      0.00000
    251      -0.3825      0.00000
    252      -0.3574      0.00000
    253      -0.2145      0.00000
    254      -0.0227      0.00000
    255       0.0935      0.00000
    256       0.1164      0.00000
    257       0.1242      0.00000
    258       0.1357      0.00000
    259       0.1768      0.00000
    260       0.2288      0.00000
    261       0.2317      0.00000
    262       0.2727      0.00000
    263       0.2994      0.00000
    264       0.3124      0.00000
    265       0.3535      0.00000
    266       0.4207      0.00000
    267       0.4372      0.00000
    268       0.5934      0.00000
    269       0.7312      0.00000
    270       0.7848      0.00000
    271       0.8894      0.00000
    272       0.8919      0.00000
    273       0.9750      0.00000
    274       0.9911      0.00000
    275       1.0272      0.00000
    276       1.0395      0.00000

 k-point     5 :      -0.3750    0.3333    0.0000
  band No.  band energies     occupation 
      1     -20.0007      2.00000
      2     -19.9785      2.00000
      3     -19.9484      2.00000
      4     -19.9403      2.00000
      5     -19.9346      2.00000
      6     -19.8935      2.00000
      7     -19.7259      2.00000
      8     -19.7134      2.00000
      9     -19.6997      2.00000
     10     -19.4360      2.00000
     11     -19.4318      2.00000
     12     -19.4309      2.00000
     13     -19.2228      2.00000
     14     -19.1697      2.00000
     15     -19.1692      2.00000
     16     -19.1554      2.00000
     17     -19.1150      2.00000
     18     -19.0792      2.00000
     19     -15.6990      2.00000
     20     -15.6719      2.00000
     21     -15.6463      2.00000
     22     -15.6230      2.00000
     23     -15.6080      2.00000
     24     -15.5600      2.00000
     25     -15.5457      2.00000
     26     -15.5448      2.00000
     27     -15.5306      2.00000
     28     -15.5081      2.00000
     29     -15.4464      2.00000
     30     -15.3017      2.00000
     31     -15.2803      2.00000
     32     -15.2229      2.00000
     33     -15.2123      2.00000
     34     -15.1929      2.00000
     35     -15.1369      2.00000
     36     -15.0643      2.00000
     37     -13.6143      2.00000
     38     -13.4349      2.00000
     39     -13.2859      2.00000
     40     -13.2450      2.00000
     41     -13.2216      2.00000
     42     -13.1889      2.00000
     43     -12.9610      2.00000
     44     -12.9349      2.00000
     45     -12.9043      2.00000
     46     -12.8101      2.00000
     47     -12.8020      2.00000
     48     -12.7691      2.00000
     49     -12.7415      2.00000
     50     -12.7280      2.00000
     51     -12.5512      2.00000
     52     -12.4179      2.00000
     53     -12.3868      2.00000
     54     -12.3578      2.00000
     55     -12.3569      2.00000
     56     -12.3419      2.00000
     57     -12.3390      2.00000
     58     -12.2855      2.00000
     59     -12.2796      2.00000
     60     -12.1753      2.00000
     61     -12.1538      2.00000
     62     -12.1215      2.00000
     63     -12.0612      2.00000
     64     -11.4636      2.00000
     65     -11.3330      2.00000
     66     -11.3303      2.00000
     67     -11.2915      2.00000
     68     -11.1936      2.00000
     69     -10.9762      2.00000
     70     -10.9458      2.00000
     71     -10.8641      2.00000
     72     -10.7782      2.00000
     73     -10.6015      2.00000
     74     -10.5938      2.00000
     75     -10.5629      2.00000
     76     -10.5444      2.00000
     77     -10.4036      2.00000
     78     -10.3922      2.00000
     79     -10.3321      2.00000
     80     -10.3294      2.00000
     81     -10.3251      2.00000
     82     -10.2232      2.00000
     83     -10.1722      2.00000
     84     -10.1183      2.00000
     85     -10.1021      2.00000
     86     -10.0865      2.00000
     87     -10.0247      2.00000
     88      -9.9667      2.00000
     89      -9.8906      2.00000
     90      -9.7601      2.00000
     91      -9.7597      2.00000
     92      -9.7493      2.00000
     93      -9.6566      2.00000
     94      -9.5506      2.00000
     95      -9.5415      2.00000
     96      -9.4958      2.00000
     97      -9.2798      2.00000
     98      -9.1490      2.00000
     99      -8.9880      2.00000
    100      -8.9646      2.00000
    101      -8.8746      2.00000
    102      -8.7429      2.00000
    103      -8.7404      2.00000
    104      -8.7299      2.00000
    105      -8.6912      2.00000
    106      -8.6227      2.00000
    107      -8.5671      2.00000
    108      -8.5172      2.00000
    109      -8.5065      2.00000
    110      -8.4645      2.00000
    111      -8.3452      2.00000
    112      -8.3306      2.00000
    113      -8.2501      2.00000
    114      -8.2072      2.00000
    115      -8.1950      2.00000
    116      -8.0930      2.00000
    117      -8.0663      2.00000
    118      -8.0554      2.00000
    119      -8.0086      2.00000
    120      -7.8682      2.00000
    121      -7.8664      2.00000
    122      -7.8541      2.00000
    123      -7.8441      2.00000
    124      -7.8318      2.00000
    125      -7.7224      2.00000
    126      -7.5844      2.00000
    127      -7.5515      2.00000
    128      -7.5324      2.00000
    129      -7.5271      2.00000
    130      -7.5213      2.00000
    131      -7.4852      2.00000
    132      -7.4803      2.00000
    133      -7.4693      2.00000
    134      -7.3976      2.00000
    135      -7.2615      2.00000
    136      -7.2315      2.00000
    137      -7.1981      2.00000
    138      -7.1643      2.00000
    139      -7.1240      2.00000
    140      -7.0789      2.00000
    141      -7.0735      2.00000
    142      -7.0454      2.00000
    143      -6.9765      2.00000
    144      -6.7589      2.00000
    145      -6.7188      2.00000
    146      -6.6285      2.00000
    147      -6.5994      2.00000
    148      -6.5565      2.00000
    149      -6.4852      2.00000
    150      -6.4850      2.00000
    151      -6.4733      2.00000
    152      -6.4449      2.00000
    153      -6.4056      2.00000
    154      -6.3894      2.00000
    155      -6.3412      2.00000
    156      -6.2667      2.00000
    157      -6.2350      2.00000
    158      -6.2302      2.00000
    159      -6.2200      2.00000
    160      -6.2117      2.00000
    161      -6.2094      2.00000
    162      -6.2050      2.00000
    163      -6.1934      2.00000
    164      -6.1787      2.00000
    165      -6.1649      2.00000
    166      -6.1572      2.00000
    167      -6.1473      2.00000
    168      -6.1290      2.00000
    169      -6.1229      2.00000
    170      -6.1143      2.00000
    171      -6.0851      2.00000
    172      -6.0492      2.00000
    173      -6.0354      2.00000
    174      -6.0186      2.00000
    175      -5.9973      2.00000
    176      -5.9602      2.00000
    177      -5.8923      2.00000
    178      -5.7994      2.00000
    179      -5.7955      2.00000
    180      -5.6500      2.00000
    181      -5.5692      2.00000
    182      -5.5308      2.00000
    183      -5.4064      2.00000
    184      -5.1744      2.00000
    185      -4.9147      2.00000
    186      -4.7207      2.00000
    187      -4.6962      2.00000
    188      -4.5796      2.00000
    189      -4.5335      2.00000
    190      -4.5295      2.00000
    191      -4.5147      2.00000
    192      -4.5045      2.00000
    193      -4.4993      2.00000
    194      -4.4931      2.00000
    195      -4.4366      2.00000
    196      -4.4286      2.00000
    197      -4.3868      2.00000
    198      -3.9605      2.00000
    199      -2.9090      0.00003
    200      -2.7720      0.00000
    201      -2.6730      0.00000
    202      -2.5776      0.00000
    203      -2.3760      0.00000
    204      -2.3627      0.00000
    205      -2.3204      0.00000
    206      -2.2928      0.00000
    207      -2.2562      0.00000
    208      -2.1645      0.00000
    209      -2.1540      0.00000
    210      -2.1065      0.00000
    211      -2.0964      0.00000
    212      -2.0372      0.00000
    213      -2.0299      0.00000
    214      -1.9813      0.00000
    215      -1.9739      0.00000
    216      -1.9513      0.00000
    217      -1.8340      0.00000
    218      -1.8200      0.00000
    219      -1.8128      0.00000
    220      -1.6497      0.00000
    221      -1.6224      0.00000
    222      -1.6037      0.00000
    223      -1.5727      0.00000
    224      -1.5270      0.00000
    225      -1.4555      0.00000
    226      -1.3473      0.00000
    227      -1.3298      0.00000
    228      -1.2833      0.00000
    229      -1.2723      0.00000
    230      -1.2443      0.00000
    231      -1.1790      0.00000
    232      -1.1018      0.00000
    233      -0.9846      0.00000
    234      -0.9398      0.00000
    235      -0.9124      0.00000
    236      -0.9090      0.00000
    237      -0.8976      0.00000
    238      -0.8467      0.00000
    239      -0.8315      0.00000
    240      -0.7740      0.00000
    241      -0.7310      0.00000
    242      -0.7111      0.00000
    243      -0.6956      0.00000
    244      -0.6194      0.00000
    245      -0.5913      0.00000
    246      -0.5782      0.00000
    247      -0.5085      0.00000
    248      -0.4845      0.00000
    249      -0.4835      0.00000
    250      -0.4536      0.00000
    251      -0.3015      0.00000
    252      -0.2321      0.00000
    253      -0.1989      0.00000
    254      -0.0922      0.00000
    255      -0.0723      0.00000
    256       0.0152      0.00000
    257       0.0336      0.00000
    258       0.1876      0.00000
    259       0.2442      0.00000
    260       0.2607      0.00000
    261       0.3023      0.00000
    262       0.3171      0.00000
    263       0.3614      0.00000
    264       0.3764      0.00000
    265       0.3798      0.00000
    266       0.3858      0.00000
    267       0.4666      0.00000
    268       0.4986      0.00000
    269       0.5743      0.00000
    270       0.7640      0.00000
    271       0.8373      0.00000
    272       0.9028      0.00000
    273       1.0328      0.00000
    274       1.0414      0.00000
    275       1.0924      0.00000
    276       1.1199      0.00000

 k-point     6 :      -0.1250    0.3333    0.0000
  band No.  band energies     occupation 
      1     -20.0257      2.00000
      2     -20.0045      2.00000
      3     -19.9632      2.00000
      4     -19.8775      2.00000
      5     -19.8675      2.00000
      6     -19.8304      2.00000
      7     -19.7991      2.00000
      8     -19.7803      2.00000
      9     -19.7608      2.00000
     10     -19.3657      2.00000
     11     -19.3613      2.00000
     12     -19.3460      2.00000
     13     -19.2920      2.00000
     14     -19.2541      2.00000
     15     -19.2500      2.00000
     16     -19.1447      2.00000
     17     -19.0791      2.00000
     18     -19.0431      2.00000
     19     -15.7296      2.00000
     20     -15.6911      2.00000
     21     -15.6778      2.00000
     22     -15.6057      2.00000
     23     -15.5638      2.00000
     24     -15.5623      2.00000
     25     -15.5508      2.00000
     26     -15.5465      2.00000
     27     -15.5174      2.00000
     28     -15.4397      2.00000
     29     -15.4007      2.00000
     30     -15.3434      2.00000
     31     -15.3038      2.00000
     32     -15.2431      2.00000
     33     -15.2170      2.00000
     34     -15.1972      2.00000
     35     -15.1864      2.00000
     36     -15.0093      2.00000
     37     -13.7515      2.00000
     38     -13.3662      2.00000
     39     -13.3402      2.00000
     40     -13.2959      2.00000
     41     -13.1397      2.00000
     42     -13.0378      2.00000
     43     -12.9659      2.00000
     44     -12.8995      2.00000
     45     -12.8885      2.00000
     46     -12.8669      2.00000
     47     -12.7745      2.00000
     48     -12.7522      2.00000
     49     -12.7503      2.00000
     50     -12.6819      2.00000
     51     -12.5997      2.00000
     52     -12.4460      2.00000
     53     -12.4178      2.00000
     54     -12.3871      2.00000
     55     -12.3659      2.00000
     56     -12.2861      2.00000
     57     -12.2795      2.00000
     58     -12.2735      2.00000
     59     -12.2232      2.00000
     60     -12.2205      2.00000
     61     -12.1944      2.00000
     62     -12.1625      2.00000
     63     -12.1584      2.00000
     64     -11.2992      2.00000
     65     -11.2845      2.00000
     66     -11.2459      2.00000
     67     -11.2249      2.00000
     68     -11.1783      2.00000
     69     -11.1309      2.00000
     70     -11.1043      2.00000
     71     -11.0886      2.00000
     72     -10.7919      2.00000
     73     -10.5859      2.00000
     74     -10.5785      2.00000
     75     -10.5364      2.00000
     76     -10.4914      2.00000
     77     -10.4795      2.00000
     78     -10.4261      2.00000
     79     -10.4035      2.00000
     80     -10.3661      2.00000
     81     -10.2960      2.00000
     82     -10.2480      2.00000
     83     -10.1977      2.00000
     84     -10.0749      2.00000
     85     -10.0165      2.00000
     86     -10.0128      2.00000
     87      -9.9905      2.00000
     88      -9.9887      2.00000
     89      -9.7955      2.00000
     90      -9.7689      2.00000
     91      -9.7139      2.00000
     92      -9.6049      2.00000
     93      -9.4933      2.00000
     94      -9.4802      2.00000
     95      -9.4536      2.00000
     96      -9.4358      2.00000
     97      -9.3754      2.00000
     98      -9.2961      2.00000
     99      -9.1999      2.00000
    100      -8.9915      2.00000
    101      -8.8894      2.00000
    102      -8.7251      2.00000
    103      -8.7049      2.00000
    104      -8.6656      2.00000
    105      -8.6118      2.00000
    106      -8.6116      2.00000
    107      -8.6021      2.00000
    108      -8.5984      2.00000
    109      -8.4932      2.00000
    110      -8.4898      2.00000
    111      -8.4799      2.00000
    112      -8.4164      2.00000
    113      -8.4134      2.00000
    114      -8.3576      2.00000
    115      -8.1034      2.00000
    116      -8.0850      2.00000
    117      -8.0653      2.00000
    118      -7.9178      2.00000
    119      -7.8835      2.00000
    120      -7.8095      2.00000
    121      -7.7625      2.00000
    122      -7.7493      2.00000
    123      -7.7476      2.00000
    124      -7.7429      2.00000
    125      -7.7079      2.00000
    126      -7.6627      2.00000
    127      -7.5998      2.00000
    128      -7.5666      2.00000
    129      -7.5295      2.00000
    130      -7.5293      2.00000
    131      -7.5005      2.00000
    132      -7.4885      2.00000
    133      -7.4517      2.00000
    134      -7.4456      2.00000
    135      -7.4083      2.00000
    136      -7.3567      2.00000
    137      -7.2578      2.00000
    138      -7.2346      2.00000
    139      -7.1980      2.00000
    140      -7.1607      2.00000
    141      -7.1048      2.00000
    142      -6.9600      2.00000
    143      -6.7940      2.00000
    144      -6.7522      2.00000
    145      -6.7237      2.00000
    146      -6.7220      2.00000
    147      -6.6466      2.00000
    148      -6.6261      2.00000
    149      -6.5946      2.00000
    150      -6.4561      2.00000
    151      -6.4178      2.00000
    152      -6.3946      2.00000
    153      -6.3683      2.00000
    154      -6.3217      2.00000
    155      -6.2960      2.00000
    156      -6.2730      2.00000
    157      -6.2564      2.00000
    158      -6.2515      2.00000
    159      -6.2440      2.00000
    160      -6.2417      2.00000
    161      -6.2326      2.00000
    162      -6.2193      2.00000
    163      -6.1834      2.00000
    164      -6.1753      2.00000
    165      -6.1727      2.00000
    166      -6.1671      2.00000
    167      -6.1521      2.00000
    168      -6.1463      2.00000
    169      -6.1282      2.00000
    170      -6.1001      2.00000
    171      -6.0375      2.00000
    172      -5.9521      2.00000
    173      -5.9000      2.00000
    174      -5.8911      2.00000
    175      -5.8893      2.00000
    176      -5.7519      2.00000
    177      -5.7239      2.00000
    178      -5.7131      2.00000
    179      -5.6795      2.00000
    180      -5.6713      2.00000
    181      -5.5519      2.00000
    182      -5.5400      2.00000
    183      -5.4503      2.00000
    184      -5.4362      2.00000
    185      -5.3358      2.00000
    186      -5.1109      2.00000
    187      -4.8329      2.00000
    188      -4.5543      2.00000
    189      -4.5485      2.00000
    190      -4.5358      2.00000
    191      -4.5038      2.00000
    192      -4.5008      2.00000
    193      -4.4873      2.00000
    194      -4.4653      2.00000
    195      -4.4458      2.00000
    196      -4.4019      2.00000
    197      -4.2293      2.00000
    198      -3.4680      1.99983
    199      -2.8806      0.00001
    200      -2.6733      0.00000
    201      -2.6277      0.00000
    202      -2.5281      0.00000
    203      -2.4629      0.00000
    204      -2.3983      0.00000
    205      -2.3960      0.00000
    206      -2.3423      0.00000
    207      -2.3147      0.00000
    208      -2.3090      0.00000
    209      -2.1188      0.00000
    210      -2.1028      0.00000
    211      -2.1012      0.00000
    212      -2.0863      0.00000
    213      -2.0468      0.00000
    214      -2.0030      0.00000
    215      -1.9585      0.00000
    216      -1.9482      0.00000
    217      -1.9426      0.00000
    218      -1.9387      0.00000
    219      -1.9369      0.00000
    220      -1.7034      0.00000
    221      -1.4915      0.00000
    222      -1.4867      0.00000
    223      -1.4440      0.00000
    224      -1.4190      0.00000
    225      -1.4042      0.00000
    226      -1.3612      0.00000
    227      -1.3165      0.00000
    228      -1.2965      0.00000
    229      -1.2793      0.00000
    230      -1.1720      0.00000
    231      -1.1531      0.00000
    232      -1.1308      0.00000
    233      -1.1170      0.00000
    234      -0.9215      0.00000
    235      -0.8888      0.00000
    236      -0.8640      0.00000
    237      -0.8534      0.00000
    238      -0.8425      0.00000
    239      -0.8395      0.00000
    240      -0.8088      0.00000
    241      -0.8086      0.00000
    242      -0.7796      0.00000
    243      -0.7408      0.00000
    244      -0.6885      0.00000
    245      -0.6220      0.00000
    246      -0.6127      0.00000
    247      -0.4865      0.00000
    248      -0.4790      0.00000
    249      -0.4558      0.00000
    250      -0.4113      0.00000
    251      -0.3825      0.00000
    252      -0.3203      0.00000
    253      -0.2495      0.00000
    254      -0.1997      0.00000
    255      -0.0078      0.00000
    256       0.0229      0.00000
    257       0.0273      0.00000
    258       0.1965      0.00000
    259       0.2484      0.00000
    260       0.2726      0.00000
    261       0.2768      0.00000
    262       0.2856      0.00000
    263       0.3466      0.00000
    264       0.3473      0.00000
    265       0.3527      0.00000
    266       0.4080      0.00000
    267       0.5458      0.00000
    268       0.6402      0.00000
    269       0.6418      0.00000
    270       0.7207      0.00000
    271       0.7470      0.00000
    272       1.0585      0.00000
    273       1.1352      0.00000
    274       1.1583      0.00000
    275       1.2098      0.00000
    276       1.2140      0.00000


--------------------------------------------------------------------------------------------------------


 soft charge-density along one line, spin component           1
         0         1         2         3         4         5         6         7         8         9
 total charge-density along one line
 
 pseudopotential strength for first ion, spin component:           1
  6.868  10.488  -0.007   0.000   0.011  -0.011   0.000   0.017
 10.488  16.015  -0.011   0.000   0.016  -0.017   0.000   0.026
 -0.007  -0.011  -2.384   0.000  -0.000  -4.107   0.000  -0.002
  0.000   0.000   0.000  -2.383  -0.000   0.000  -4.104  -0.000
  0.011   0.016  -0.000  -0.000  -2.384  -0.002  -0.000  -4.109
 -0.011  -0.017  -4.107   0.000  -0.002  -6.880   0.000  -0.005
  0.000   0.000   0.000  -4.104  -0.000   0.000  -6.873  -0.000
  0.017   0.026  -0.002  -0.000  -4.109  -0.005  -0.000  -6.884
 total augmentation occupancy for first ion, spin component:           1
  3.589  -0.933   0.031   0.001   0.494   0.016  -0.001  -0.231
 -0.933   0.280   0.052  -0.001  -0.284  -0.021   0.000   0.105
  0.031   0.052   3.257  -0.000   0.734  -0.887   0.000  -0.212
  0.001  -0.001  -0.000   2.316  -0.000   0.000  -0.593  -0.000
  0.494  -0.284   0.734  -0.000   3.754  -0.213  -0.000  -1.031
  0.016  -0.021  -0.887   0.000  -0.213   0.254  -0.000   0.064
 -0.001   0.000   0.000  -0.593  -0.000  -0.000   0.157   0.000
 -0.231   0.105  -0.212  -0.000  -1.031   0.064   0.000   0.295


------------------------ aborting loop because EDIFF is reached ----------------------------------------





 total charge

# of ion       s       p       d       tot
------------------------------------------
    1        0.735   1.308   0.000   2.043
    2        0.735   1.308   0.000   2.043
    3        0.735   1.308   0.000   2.043
    4        0.735   1.308   0.000   2.043
    5        0.735   1.308   0.000   2.043
    6        0.735   1.308   0.000   2.043
    7        0.735   1.308   0.000   2.043
    8        0.735   1.308   0.000   2.043
    9        0.735   1.308   0.000   2.043
   10        0.735   1.308   0.000   2.043
   11        0.735   1.308   0.000   2.043
   12        0.735   1.308   0.000   2.043
   13        0.735   1.308   0.000   2.043
   14        0.735   1.308   0.000   2.043
   15        0.735   1.308   0.000   2.043
   16        0.735   1.308   0.000   2.043
   17        0.735   1.308   0.000   2.043
   18        0.735   1.308   0.000   2.043
   19        0.695   1.333   0.000   2.027
   20        0.695   1.333   0.000   2.027
   21        0.695   1.333   0.000   2.027
   22        0.695   1.333   0.000   2.027
   23        0.695   1.333   0.000   2.027
   24        0.695   1.333   0.000   2.027
   25        0.695   1.333   0.000   2.027
   26        0.695   1.333   0.000   2.027
   27        0.695   1.333   0.000   2.027
   28        0.695   1.333   0.000   2.027
   29        0.695   1.332   0.000   2.027
   30        0.695   1.333   0.000   2.027
   31        0.695   1.333   0.000   2.027
   32        0.695   1.333   0.000   2.027
   33        0.695   1.333   0.000   2.027
   34        0.695   1.333   0.000   2.027
   35        0.695   1.333   0.000   2.027
   36        0.695   1.333   0.000   2.027
   37        0.713   1.355   0.000   2.067
   38        0.713   1.355   0.000   2.067
   39        0.713   1.355   0.000   2.067
   40        0.713   1.355   0.000   2.067
   41        0.713   1.355   0.000   2.067
   42        0.713   1.355   0.000   2.067
   43        0.713   1.355   0.000   2.067
   44        0.713   1.355   0.000   2.067
   45        0.713   1.354   0.000   2.067
   46        0.713   1.355   0.000   2.067
   47        0.713   1.355   0.000   2.067
   48        0.713   1.355   0.000   2.067
   49        0.713   1.354   0.000   2.067
   50        0.713   1.355   0.000   2.067
   51        0.713   1.355   0.000   2.067
   52        0.713   1.355   0.000   2.067
   53        0.713   1.355   0.000   2.067
   54        0.713   1.355   0.000   2.067
   55        0.702   1.311   0.000   2.013
   56        0.702   1.311   0.000   2.013
   57        0.702   1.311   0.000   2.013
   58        0.702   1.311   0.000   2.013
   59        0.702   1.311   0.000   2.013
   60        0.702   1.311   0.000   2.013
   61        0.702   1.311   0.000   2.013
   62        0.702   1.311   0.000   2.013
   63        0.702   1.311   0.000   2.013
   64        0.702   1.311   0.000   2.013
   65        0.702   1.311   0.000   2.013
   66        0.702   1.311   0.000   2.013
   67        0.702   1.311   0.000   2.013
   68        0.702   1.311   0.000   2.013
   69        0.702   1.311   0.000   2.013
   70        0.702   1.311   0.000   2.013
   71        0.702   1.311   0.000   2.013
   72        0.702   1.311   0.000   2.013
   73        0.699   1.202   0.000   1.901
   74        0.699   1.202   0.000   1.901
   75        0.699   1.202   0.000   1.901
   76        0.699   1.202   0.000   1.901
   77        0.699   1.202   0.000   1.901
   78        0.699   1.202   0.000   1.901
   79        0.699   1.202   0.000   1.901
   80        0.699   1.202   0.000   1.901
   81        0.699   1.202   0.000   1.901
   82        0.699   1.202   0.000   1.901
   83        0.699   1.202   0.000   1.901
   84        0.699   1.202   0.000   1.901
   85        0.699   1.202   0.000   1.901
   86        0.699   1.202   0.000   1.901
   87        0.699   1.202   0.000   1.901
   88        0.699   1.202   0.000   1.901
   89        0.699   1.202   0.000   1.901
   90        0.699   1.202   0.000   1.901
   91        0.699   1.201   0.000   1.901
   92        0.699   1.202   0.000   1.901
   93        0.699   1.202   0.000   1.901
   94        0.699   1.202   0.000   1.901
   95        0.699   1.202   0.000   1.901
   96        0.699   1.202   0.000   1.901
   97        0.699   1.202   0.000   1.901
   98        0.699   1.202   0.000   1.901
   99        0.699   1.202   0.000   1.901
  100        0.699   1.201   0.000   1.901
  101        0.699   1.202   0.000   1.901
  102        0.699   1.202   0.000   1.901
  103        0.699   1.202   0.000   1.901
  104        0.699   1.202   0.000   1.901
  105        0.699   1.202   0.000   1.901
  106        0.699   1.202   0.000   1.901
  107        0.699   1.202   0.000   1.901
  108        0.699   1.202   0.000   1.901
  109        0.719   1.421   0.000   2.139
  110        0.719   1.421   0.000   2.139
  111        0.719   1.421   0.000   2.140
  112        0.719   1.421   0.000   2.139
  113        0.719   1.421   0.000   2.139
  114        0.719   1.421   0.000   2.140
  115        0.719   1.421   0.000   2.140
  116        0.719   1.421   0.000   2.139
  117        0.719   1.421   0.000   2.140
  118        0.719   1.421   0.000   2.140
  119        0.719   1.421   0.000   2.139
  120        0.719   1.421   0.000   2.140
  121        0.719   1.421   0.000   2.140
  122        0.719   1.421   0.000   2.139
  123        0.719   1.421   0.000   2.139
  124        0.719   1.421   0.000   2.140
  125        0.719   1.421   0.000   2.139
  126        0.719   1.421   0.000   2.139
  127        0.362   0.015   0.000   0.377
  128        0.363   0.016   0.000   0.378
  129        0.363   0.016   0.000   0.378
  130        0.363   0.016   0.000   0.378
  131        0.363   0.016   0.000   0.378
  132        0.363   0.016   0.000   0.378
  133        0.363   0.016   0.000   0.378
  134        0.363   0.016   0.000   0.378
  135        0.363   0.016   0.000   0.378
  136        0.362   0.016   0.000   0.378
  137        0.363   0.016   0.000   0.378
  138        0.363   0.016   0.000   0.378
  139        0.363   0.016   0.000   0.378
  140        0.363   0.016   0.000   0.378
  141        0.363   0.016   0.000   0.378
  142        0.363   0.016   0.000   0.378
  143        0.363   0.016   0.000   0.378
  144        0.363   0.016   0.000   0.378
--------------------------------------------------
tot         95.839 164.623   0.000 260.462
 
    CHARGE:  cpu time      7.1050: real time      7.1691
    FORLOC:  cpu time      0.4949: real time      0.5002
    FORNL :  cpu time     28.9000: real time     29.1557
    STRESS:  cpu time     86.3329: real time     87.2062
    FORCOR:  cpu time      1.2667: real time      1.2754
    FORHAR:  cpu time      0.7133: real time      0.7177
    MIXING:  cpu time      0.0341: real time      0.0343
    OFIELD:  cpu time      0.0001: real time      0.0001

 ---------------------------------------------------------------------------------------------

         DFTD3 V3.0 Rev 1        
 DF pbe       
 parameters
 k1-k3        =   16.0000    1.3333   -4.0000
 Edisp (eV)  -12.67661

 E6    (eV) :    -8.3211
 E8    (eV) :    -4.3555
 % E8        : 34.36
    FORVDW:  cpu time      0.5803: real time      0.5838

  FORCE on cell =-STRESS in cart. coord.  units (eV):
  Direction    XX          YY          ZZ          XY          YZ          ZX
  --------------------------------------------------------------------------------------
  Alpha Z   138.35983   138.35983   138.35983
  Ewald   76911.17959 76238.31099-83525.31196   431.68691    -0.06569    -0.01009
  Hartree 75689.41402 75330.02227-74219.04465   179.86944    -0.02111     0.00592
  E(xc)   -1253.30225 -1252.94433 -1270.18507     2.12781    -0.00058    -0.00024
  Local  ************************154616.60303  -589.72641     0.07279    -0.00217
  n-local  -106.17408  -119.25834  -109.01215    -0.74258    -0.00946    -0.00510
  augment    13.99847    14.09173    15.95686    -0.17760    -0.00017    -0.00012
  Kinetic  4169.16866  4209.62601  4353.23736   -22.95903     0.06367     0.04243
  Fock        0.00000     0.00000     0.00000     0.00000     0.00000     0.00000
  vdW       -13.40823   -12.87242    -1.51509    -0.05184    -0.00004    -0.00003
  -------------------------------------------------------------------------------------
  Total      -0.04837    -0.07347    -0.91185     0.02669     0.03940     0.03058
  in kB      -0.00923    -0.01402    -0.17402     0.00509     0.00752     0.00584
  external pressure =       -0.07 kB  Pullay stress =        0.00 kB


 VOLUME and BASIS-vectors are now :
 -----------------------------------------------------------------------------
  energy-cutoff  :      600.00
  volume of cell :     8395.25
      direct lattice vectors                 reciprocal lattice vectors
    17.098825320 -0.107897923  0.000000000     0.058486047  0.000395803  0.000000000
    -0.127586183 18.852855476  0.000000000     0.000334725  0.053044628  0.000000000
     0.000000000  0.000000000 26.044057846     0.000000000  0.000000000  0.038396474

  length of vectors
    17.099165748 18.853287189 26.044057846     0.058487387  0.053045684  0.038396474


 FORCES acting on ions
    electron-ion (+dipol)            ewald-force                    non-local-force                 convergence-correction
 -----------------------------------------------------------------------------------------------
   0.531E+02 -.307E+02 0.463E-01   -.572E+02 0.335E+02 -.632E-01   0.417E+01 -.284E+01 0.107E-01   0.224E-05 0.396E-06 -.301E-05
   0.531E+02 -.307E+02 -.724E-03   -.573E+02 0.336E+02 0.680E-03   0.417E+01 -.285E+01 -.186E-02   0.197E-05 0.113E-06 -.317E-05
   0.531E+02 -.307E+02 -.214E-02   -.573E+02 0.336E+02 0.220E-02   0.417E+01 -.285E+01 0.215E-02   0.198E-05 0.316E-06 -.308E-05
   0.531E+02 -.307E+02 -.876E-03   -.573E+02 0.336E+02 0.899E-03   0.417E+01 -.285E+01 0.845E-03   0.211E-05 0.372E-06 -.303E-05
   0.531E+02 -.307E+02 -.525E-03   -.573E+02 0.336E+02 0.497E-03   0.417E+01 -.285E+01 0.649E-03   0.211E-05 0.336E-06 -.306E-05
   0.531E+02 -.307E+02 -.619E-03   -.573E+02 0.336E+02 0.631E-03   0.417E+01 -.284E+01 -.217E-03   0.224E-05 0.240E-06 -.302E-05
   0.531E+02 -.307E+02 -.163E-02   -.573E+02 0.336E+02 0.166E-02   0.417E+01 -.285E+01 -.233E-03   0.223E-05 0.308E-06 -.315E-05
   0.531E+02 -.307E+02 -.624E-03   -.573E+02 0.336E+02 0.596E-03   0.417E+01 -.285E+01 -.883E-03   0.182E-05 0.357E-06 -.312E-05
   0.531E+02 -.307E+02 -.872E-03   -.573E+02 0.336E+02 0.950E-03   0.417E+01 -.284E+01 0.211E-03   0.214E-05 0.404E-06 -.299E-05
   -.531E+02 0.307E+02 0.538E-01   0.573E+02 -.335E+02 -.653E-01   -.418E+01 0.284E+01 0.214E-01   -.211E-05 -.388E-06 -.308E-05
   -.531E+02 0.307E+02 -.657E-03   0.573E+02 -.336E+02 0.683E-03   -.417E+01 0.285E+01 -.825E-03   -.204E-05 -.356E-06 -.317E-05
   -.531E+02 0.307E+02 -.224E-02   0.573E+02 -.336E+02 0.224E-02   -.417E+01 0.285E+01 -.194E-03   -.219E-05 -.299E-06 -.309E-05
   -.531E+02 0.307E+02 -.160E-02   0.573E+02 -.336E+02 0.169E-02   -.417E+01 0.284E+01 -.258E-03   -.203E-05 -.319E-06 -.304E-05
   -.531E+02 0.307E+02 -.622E-03   0.573E+02 -.336E+02 0.603E-03   -.417E+01 0.285E+01 0.683E-03   -.221E-05 -.308E-06 -.299E-05
   -.531E+02 0.307E+02 -.913E-03   0.573E+02 -.336E+02 0.928E-03   -.417E+01 0.285E+01 0.854E-03   -.212E-05 -.326E-06 -.303E-05
   -.531E+02 0.307E+02 -.882E-03   0.573E+02 -.336E+02 0.891E-03   -.417E+01 0.285E+01 0.224E-02   -.192E-05 -.383E-06 -.319E-05
   -.531E+02 0.307E+02 -.515E-03   0.573E+02 -.336E+02 0.493E-03   -.417E+01 0.285E+01 -.189E-02   -.199E-05 -.289E-06 -.311E-05
   -.531E+02 0.307E+02 -.670E-03   0.573E+02 -.336E+02 0.643E-03   -.417E+01 0.285E+01 0.250E-03   -.191E-05 -.289E-06 -.304E-05
   -.542E+02 -.243E+02 0.304E-02   0.569E+02 0.276E+02 -.501E-02   -.276E+01 -.335E+01 0.108E-02   -.242E-05 -.137E-05 -.327E-05
   -.542E+02 -.243E+02 -.887E-03   0.569E+02 0.276E+02 0.858E-03   -.276E+01 -.334E+01 -.918E-03   -.204E-05 -.136E-05 -.327E-05
   -.542E+02 -.243E+02 -.998E-02   0.569E+02 0.276E+02 0.979E-02   -.276E+01 -.334E+01 0.911E-03   -.218E-05 -.118E-05 -.328E-05
   -.542E+02 -.243E+02 -.664E-03   0.569E+02 0.276E+02 0.698E-03   -.276E+01 -.334E+01 0.133E-02   -.225E-05 -.133E-05 -.322E-05
   -.542E+02 -.243E+02 -.421E-03   0.569E+02 0.276E+02 0.481E-03   -.276E+01 -.334E+01 -.816E-03   -.220E-05 -.129E-05 -.328E-05
   -.542E+02 -.243E+02 -.904E-03   0.569E+02 0.276E+02 0.875E-03   -.276E+01 -.334E+01 0.248E-03   -.232E-05 -.125E-05 -.324E-05
   -.542E+02 -.243E+02 -.910E-03   0.569E+02 0.276E+02 0.945E-03   -.276E+01 -.334E+01 0.122E-02   -.227E-05 -.141E-05 -.322E-05
   -.542E+02 -.243E+02 -.592E-03   0.569E+02 0.276E+02 0.583E-03   -.276E+01 -.334E+01 0.196E-02   -.200E-05 -.122E-05 -.327E-05
   -.542E+02 -.243E+02 -.156E-02   0.569E+02 0.276E+02 0.155E-02   -.276E+01 -.334E+01 -.177E-02   -.227E-05 -.135E-05 -.326E-05
   0.542E+02 0.243E+02 -.120E-01   -.569E+02 -.276E+02 0.112E-01   0.276E+01 0.334E+01 0.421E-03   0.234E-05 0.120E-05 -.337E-05
   0.542E+02 0.243E+02 0.399E-02   -.569E+02 -.276E+02 -.323E-02   0.276E+01 0.334E+01 0.186E-02   0.203E-05 0.147E-05 -.326E-05
   0.542E+02 0.243E+02 -.911E-03   -.569E+02 -.276E+02 0.899E-03   0.276E+01 0.334E+01 0.125E-02   0.227E-05 0.144E-05 -.329E-05
   0.542E+02 0.243E+02 -.158E-02   -.569E+02 -.276E+02 0.157E-02   0.276E+01 0.334E+01 0.243E-03   0.208E-05 0.124E-05 -.327E-05
   0.542E+02 0.243E+02 -.823E-03   -.569E+02 -.276E+02 0.927E-03   0.276E+01 0.334E+01 -.888E-03   0.225E-05 0.142E-05 -.321E-05
   0.542E+02 0.243E+02 -.571E-03   -.569E+02 -.276E+02 0.588E-03   0.276E+01 0.334E+01 0.133E-02   0.242E-05 0.117E-05 -.320E-05
   0.542E+02 0.243E+02 -.934E-03   -.569E+02 -.276E+02 0.900E-03   0.276E+01 0.334E+01 0.880E-03   0.213E-05 0.117E-05 -.323E-05
   0.542E+02 0.243E+02 -.704E-03   -.569E+02 -.276E+02 0.666E-03   0.276E+01 0.334E+01 -.936E-03   0.193E-05 0.150E-05 -.320E-05
   0.542E+02 0.243E+02 -.518E-03   -.569E+02 -.276E+02 0.491E-03   0.276E+01 0.334E+01 0.607E-04   0.221E-05 0.122E-05 -.328E-05
   0.222E+02 -.579E+02 -.353E-03   -.244E+02 0.627E+02 0.168E-03   0.214E+01 -.479E+01 0.108E-02   -.147E-06 -.224E-05 -.340E-05
   0.222E+02 -.579E+02 -.741E-03   -.244E+02 0.627E+02 0.692E-03   0.214E+01 -.479E+01 -.126E-02   -.593E-07 -.206E-05 -.335E-05
   0.222E+02 -.579E+02 -.221E-02   -.244E+02 0.627E+02 0.218E-02   0.214E+01 -.479E+01 -.136E-02   0.877E-08 -.208E-05 -.340E-05
   0.222E+02 -.579E+02 -.705E-03   -.244E+02 0.627E+02 0.678E-03   0.214E+01 -.479E+01 -.527E-03   -.239E-07 -.220E-05 -.339E-05
   0.222E+02 -.579E+02 -.459E-03   -.244E+02 0.627E+02 0.440E-03   0.214E+01 -.479E+01 -.101E-02   0.299E-07 -.233E-05 -.343E-05
   0.222E+02 -.579E+02 -.577E-03   -.244E+02 0.627E+02 0.571E-03   0.214E+01 -.479E+01 0.347E-03   0.176E-06 -.233E-05 -.329E-05
   0.222E+02 -.580E+02 -.220E-02   -.244E+02 0.627E+02 0.230E-02   0.214E+01 -.479E+01 0.857E-03   -.198E-06 -.216E-05 -.337E-05
   0.222E+02 -.579E+02 -.707E-03   -.244E+02 0.627E+02 0.651E-03   0.214E+01 -.479E+01 -.915E-03   -.195E-06 -.206E-05 -.342E-05
   0.222E+02 -.579E+02 -.163E-02   -.244E+02 0.627E+02 0.166E-02   0.214E+01 -.479E+01 0.210E-03   -.151E-06 -.224E-05 -.334E-05
   -.222E+02 0.579E+02 -.654E-02   0.244E+02 -.627E+02 0.480E-02   -.215E+01 0.480E+01 0.571E-03   -.107E-06 0.237E-05 -.346E-05
   -.222E+02 0.579E+02 -.772E-03   0.244E+02 -.627E+02 0.718E-03   -.214E+01 0.479E+01 -.952E-03   0.159E-06 0.229E-05 -.338E-05
   -.222E+02 0.579E+02 -.145E-02   0.244E+02 -.627E+02 0.143E-02   -.214E+01 0.479E+01 0.788E-03   -.135E-07 0.229E-05 -.340E-05
   -.222E+02 0.579E+02 -.325E-02   0.244E+02 -.627E+02 0.355E-02   -.214E+01 0.479E+01 0.328E-03   -.253E-08 0.196E-05 -.339E-05
   -.222E+02 0.579E+02 -.805E-03   0.244E+02 -.627E+02 0.728E-03   -.214E+01 0.479E+01 -.933E-03   0.249E-07 0.244E-05 -.335E-05
   -.222E+02 0.579E+02 -.113E-02   0.244E+02 -.627E+02 0.113E-02   -.214E+01 0.479E+01 -.523E-03   0.525E-07 0.230E-05 -.329E-05
   -.222E+02 0.579E+02 -.665E-03   0.244E+02 -.627E+02 0.706E-03   -.214E+01 0.479E+01 -.139E-02   0.110E-06 0.209E-05 -.340E-05
   -.222E+02 0.579E+02 -.473E-03   0.244E+02 -.627E+02 0.469E-03   -.214E+01 0.479E+01 -.125E-02   0.219E-06 0.195E-05 -.337E-05
   -.222E+02 0.579E+02 -.520E-03   0.244E+02 -.627E+02 0.516E-03   -.215E+01 0.479E+01 -.105E-03   0.226E-06 0.207E-05 -.337E-05
   -.340E+02 -.498E+02 -.102E-02   0.366E+02 0.546E+02 -.277E-03   -.263E+01 -.479E+01 0.235E-02   -.280E-05 -.413E-05 -.347E-05
   -.340E+02 -.498E+02 -.792E-03   0.366E+02 0.546E+02 0.734E-03   -.263E+01 -.479E+01 0.360E-02   -.221E-05 -.399E-05 -.342E-05
   -.340E+02 -.498E+02 -.458E-02   0.366E+02 0.546E+02 0.443E-02   -.263E+01 -.479E+01 0.690E-03   -.242E-05 -.381E-05 -.349E-05
   -.340E+02 -.498E+02 -.612E-03   0.366E+02 0.546E+02 0.603E-03   -.263E+01 -.479E+01 0.293E-03   -.273E-05 -.404E-05 -.346E-05
   -.340E+02 -.498E+02 -.380E-03   0.366E+02 0.546E+02 0.434E-03   -.263E+01 -.479E+01 0.934E-04   -.270E-05 -.406E-05 -.351E-05
   -.340E+02 -.498E+02 -.648E-03   0.366E+02 0.546E+02 0.656E-03   -.263E+01 -.479E+01 0.607E-03   -.264E-05 -.407E-05 -.340E-05
   -.340E+02 -.498E+02 -.126E-02   0.366E+02 0.546E+02 0.120E-02   -.263E+01 -.479E+01 -.787E-03   -.254E-05 -.410E-05 -.342E-05
   -.340E+02 -.498E+02 -.649E-03   0.366E+02 0.546E+02 0.667E-03   -.263E+01 -.479E+01 -.118E-03   -.238E-05 -.384E-05 -.350E-05
   -.340E+02 -.498E+02 -.222E-02   0.366E+02 0.546E+02 0.273E-02   -.263E+01 -.479E+01 -.994E-03   -.248E-05 -.392E-05 -.347E-05
   0.340E+02 0.498E+02 -.862E-02   -.366E+02 -.546E+02 0.672E-02   0.263E+01 0.479E+01 -.371E-02   0.279E-05 0.415E-05 -.356E-05
   0.340E+02 0.498E+02 -.578E-03   -.366E+02 -.546E+02 0.529E-03   0.263E+01 0.479E+01 -.133E-03   0.250E-05 0.398E-05 -.343E-05
   0.340E+02 0.498E+02 -.944E-03   -.366E+02 -.546E+02 0.895E-03   0.263E+01 0.479E+01 -.811E-03   0.268E-05 0.408E-05 -.350E-05
   0.340E+02 0.498E+02 -.351E-02   -.366E+02 -.546E+02 0.348E-02   0.263E+01 0.479E+01 0.610E-03   0.248E-05 0.379E-05 -.347E-05
   0.340E+02 0.498E+02 -.138E-02   -.366E+02 -.546E+02 0.943E-03   0.263E+01 0.479E+01 0.311E-03   0.254E-05 0.413E-05 -.345E-05
   0.340E+02 0.498E+02 -.775E-03   -.366E+02 -.546E+02 0.765E-03   0.263E+01 0.479E+01 0.298E-03   0.267E-05 0.405E-05 -.338E-05
   0.340E+02 0.498E+02 -.733E-03   -.366E+02 -.546E+02 0.698E-03   0.263E+01 0.479E+01 0.665E-03   0.250E-05 0.392E-05 -.342E-05
   0.340E+02 0.498E+02 -.578E-03   -.366E+02 -.546E+02 0.541E-03   0.263E+01 0.479E+01 0.360E-02   0.227E-05 0.383E-05 -.340E-05
   0.340E+02 0.498E+02 -.496E-03   -.366E+02 -.546E+02 0.455E-03   0.263E+01 0.479E+01 -.259E-02   0.246E-05 0.394E-05 -.348E-05
   -.915E+01 -.198E+02 -.235E+03   0.916E+01 0.203E+02 0.240E+03   -.902E-02 -.472E+00 -.468E+01   -.400E-07 -.123E-05 -.660E-05
   -.916E+01 -.199E+02 -.235E+03   0.916E+01 0.203E+02 0.240E+03   -.220E-02 -.467E+00 -.470E+01   0.319E-06 -.125E-05 -.640E-05
   -.916E+01 -.199E+02 -.235E+03   0.917E+01 0.203E+02 0.240E+03   -.925E-02 -.470E+00 -.470E+01   0.749E-07 -.106E-05 -.656E-05
   -.916E+01 -.199E+02 -.235E+03   0.916E+01 0.203E+02 0.240E+03   -.705E-02 -.471E+00 -.470E+01   0.836E-08 -.114E-05 -.671E-05
   -.916E+01 -.199E+02 -.235E+03   0.916E+01 0.203E+02 0.240E+03   -.695E-02 -.468E+00 -.470E+01   -.226E-07 -.110E-05 -.658E-05
   -.916E+01 -.199E+02 -.235E+03   0.916E+01 0.203E+02 0.240E+03   -.732E-02 -.466E+00 -.470E+01   0.755E-07 -.112E-05 -.662E-05
   -.916E+01 -.199E+02 -.235E+03   0.916E+01 0.203E+02 0.240E+03   -.253E-02 -.465E+00 -.470E+01   0.115E-06 -.131E-05 -.638E-05
   -.916E+01 -.199E+02 -.235E+03   0.916E+01 0.203E+02 0.240E+03   -.830E-02 -.470E+00 -.470E+01   0.229E-07 -.112E-05 -.619E-05
   -.916E+01 -.199E+02 -.235E+03   0.916E+01 0.203E+02 0.240E+03   -.540E-02 -.469E+00 -.470E+01   -.469E-07 -.126E-05 -.631E-05
   0.914E+01 0.199E+02 0.235E+03   -.915E+01 -.203E+02 -.240E+03   0.127E-01 0.485E+00 0.468E+01   -.259E-06 0.619E-06 -.129E-05
   0.917E+01 0.199E+02 0.235E+03   -.917E+01 -.203E+02 -.240E+03   0.972E-02 0.469E+00 0.469E+01   -.182E-06 0.886E-06 -.154E-05
   0.916E+01 0.199E+02 0.235E+03   -.917E+01 -.203E+02 -.240E+03   0.447E-02 0.468E+00 0.470E+01   -.256E-06 0.805E-06 -.139E-05
   0.916E+01 0.199E+02 0.235E+03   -.916E+01 -.203E+02 -.240E+03   0.676E-02 0.469E+00 0.470E+01   -.362E-06 0.641E-06 -.130E-05
   0.916E+01 0.199E+02 0.235E+03   -.917E+01 -.203E+02 -.240E+03   0.744E-02 0.469E+00 0.470E+01   -.260E-06 0.837E-06 -.129E-05
   0.916E+01 0.199E+02 0.235E+03   -.917E+01 -.203E+02 -.240E+03   0.661E-02 0.471E+00 0.470E+01   -.222E-06 0.770E-06 -.113E-05
   0.916E+01 0.199E+02 0.235E+03   -.916E+01 -.203E+02 -.240E+03   0.989E-02 0.468E+00 0.470E+01   -.250E-06 0.723E-06 -.154E-05
   0.916E+01 0.199E+02 0.235E+03   -.916E+01 -.203E+02 -.240E+03   0.434E-02 0.468E+00 0.469E+01   -.344E-06 0.887E-06 -.168E-05
   0.916E+01 0.199E+02 0.235E+03   -.916E+01 -.203E+02 -.240E+03   0.587E-02 0.469E+00 0.470E+01   -.283E-06 0.764E-06 -.165E-05
   -.913E+01 -.198E+02 0.235E+03   0.913E+01 0.203E+02 -.240E+03   0.632E-02 -.450E+00 0.470E+01   0.221E-06 -.766E-06 -.131E-05
   -.916E+01 -.199E+02 0.235E+03   0.916E+01 0.203E+02 -.240E+03   -.400E-02 -.468E+00 0.469E+01   0.502E-06 -.967E-06 -.155E-05
   -.916E+01 -.199E+02 0.235E+03   0.916E+01 0.203E+02 -.240E+03   -.909E-02 -.468E+00 0.470E+01   0.302E-06 -.630E-06 -.138E-05
   -.916E+01 -.199E+02 0.235E+03   0.916E+01 0.203E+02 -.240E+03   -.651E-02 -.471E+00 0.470E+01   0.248E-06 -.685E-06 -.120E-05
   -.916E+01 -.199E+02 0.235E+03   0.916E+01 0.203E+02 -.240E+03   -.654E-02 -.467E+00 0.470E+01   0.224E-06 -.645E-06 -.130E-05
   -.916E+01 -.199E+02 0.235E+03   0.916E+01 0.203E+02 -.240E+03   -.711E-02 -.468E+00 0.470E+01   0.349E-06 -.795E-06 -.116E-05
   -.916E+01 -.199E+02 0.235E+03   0.917E+01 0.203E+02 -.240E+03   -.448E-02 -.468E+00 0.470E+01   0.268E-06 -.963E-06 -.155E-05
   -.916E+01 -.199E+02 0.235E+03   0.916E+01 0.203E+02 -.240E+03   -.881E-02 -.470E+00 0.469E+01   0.235E-06 -.715E-06 -.175E-05
   -.916E+01 -.199E+02 0.235E+03   0.916E+01 0.203E+02 -.240E+03   -.596E-02 -.469E+00 0.470E+01   0.245E-06 -.830E-06 -.154E-05
   0.915E+01 0.199E+02 -.235E+03   -.915E+01 -.203E+02 0.240E+03   -.123E-02 0.460E+00 -.469E+01   0.539E-07 0.103E-05 -.672E-05
   0.917E+01 0.199E+02 -.235E+03   -.917E+01 -.203E+02 0.240E+03   0.945E-02 0.470E+00 -.470E+01   -.211E-07 0.119E-05 -.643E-05
   0.916E+01 0.199E+02 -.235E+03   -.917E+01 -.203E+02 0.240E+03   0.255E-02 0.465E+00 -.470E+01   -.316E-07 0.122E-05 -.657E-05
   0.916E+01 0.199E+02 -.235E+03   -.916E+01 -.203E+02 0.240E+03   0.689E-02 0.467E+00 -.470E+01   -.112E-06 0.106E-05 -.658E-05
   0.916E+01 0.199E+02 -.235E+03   -.917E+01 -.203E+02 0.240E+03   0.774E-02 0.469E+00 -.470E+01   -.648E-09 0.129E-05 -.656E-05
   0.916E+01 0.199E+02 -.235E+03   -.916E+01 -.203E+02 0.240E+03   0.718E-02 0.472E+00 -.470E+01   0.614E-08 0.111E-05 -.660E-05
   0.916E+01 0.199E+02 -.235E+03   -.916E+01 -.203E+02 0.240E+03   0.996E-02 0.470E+00 -.470E+01   -.143E-06 0.103E-05 -.639E-05
   0.916E+01 0.199E+02 -.235E+03   -.916E+01 -.203E+02 0.240E+03   0.252E-02 0.468E+00 -.470E+01   -.207E-06 0.126E-05 -.616E-05
   0.916E+01 0.199E+02 -.235E+03   -.916E+01 -.203E+02 0.240E+03   0.705E-02 0.470E+00 -.470E+01   -.192E-07 0.117E-05 -.620E-05
   0.122E+02 -.582E+02 -.131E-01   -.118E+02 0.627E+02 0.116E-01   -.428E+00 -.452E+01 0.754E-02   -.843E-06 -.278E-05 -.317E-05
   0.123E+02 -.582E+02 0.381E-03   -.119E+02 0.627E+02 0.966E-04   -.419E+00 -.451E+01 -.546E-03   -.930E-06 -.271E-05 -.320E-05
   0.123E+02 -.582E+02 -.132E-02   -.119E+02 0.627E+02 0.131E-02   -.425E+00 -.451E+01 -.179E-02   -.935E-06 -.266E-05 -.312E-05
   0.123E+02 -.582E+02 -.118E-02   -.119E+02 0.627E+02 0.119E-02   -.427E+00 -.451E+01 0.478E-03   -.894E-06 -.257E-05 -.309E-05
   0.123E+02 -.582E+02 -.640E-03   -.119E+02 0.627E+02 0.632E-03   -.420E+00 -.451E+01 0.869E-03   -.941E-06 -.278E-05 -.303E-05
   0.123E+02 -.582E+02 -.619E-03   -.119E+02 0.627E+02 0.598E-03   -.420E+00 -.451E+01 0.941E-03   -.736E-06 -.286E-05 -.308E-05
   0.123E+02 -.582E+02 -.126E-02   -.119E+02 0.627E+02 0.130E-02   -.425E+00 -.451E+01 0.279E-03   -.877E-06 -.271E-05 -.321E-05
   0.123E+02 -.582E+02 -.606E-03   -.119E+02 0.627E+02 0.641E-03   -.424E+00 -.451E+01 -.163E-02   -.105E-05 -.244E-05 -.309E-05
   0.123E+02 -.582E+02 -.622E-03   -.119E+02 0.627E+02 0.632E-03   -.420E+00 -.451E+01 -.131E-02   -.798E-06 -.253E-05 -.310E-05
   -.122E+02 0.582E+02 0.398E-01   0.118E+02 -.627E+02 -.608E-01   0.424E+00 0.451E+01 0.120E-01   0.829E-06 0.274E-05 -.307E-05
   -.123E+02 0.582E+02 -.692E-03   0.119E+02 -.627E+02 0.741E-03   0.424E+00 0.451E+01 -.164E-02   0.102E-05 0.259E-05 -.320E-05
   -.123E+02 0.582E+02 -.458E-02   0.119E+02 -.627E+02 0.489E-02   0.425E+00 0.451E+01 0.378E-04   0.868E-06 0.265E-05 -.311E-05
   -.123E+02 0.582E+02 -.105E-02   0.119E+02 -.627E+02 0.105E-02   0.420E+00 0.451E+01 0.942E-03   0.886E-06 0.276E-05 -.305E-05
   -.123E+02 0.582E+02 -.530E-03   0.119E+02 -.627E+02 0.513E-03   0.420E+00 0.451E+01 0.905E-03   0.797E-06 0.267E-05 -.309E-05
   -.123E+02 0.582E+02 -.101E-02   0.119E+02 -.627E+02 0.971E-03   0.427E+00 0.451E+01 0.512E-03   0.852E-06 0.272E-05 -.311E-05
   -.123E+02 0.582E+02 -.956E-03   0.119E+02 -.627E+02 0.958E-03   0.425E+00 0.451E+01 -.182E-02   0.912E-06 0.273E-05 -.313E-05
   -.123E+02 0.582E+02 -.506E-03   0.119E+02 -.627E+02 0.501E-03   0.421E+00 0.451E+01 -.502E-03   0.848E-06 0.255E-05 -.316E-05
   -.123E+02 0.582E+02 -.900E-03   0.119E+02 -.627E+02 0.928E-03   0.423E+00 0.451E+01 0.981E-03   0.933E-06 0.268E-05 -.304E-05
   -.396E-01 -.998E-01 0.927E+02   0.313E-01 0.878E-01 -.933E+02   -.819E-02 -.936E-02 0.683E+00   0.161E-07 -.204E-07 -.903E-06
   0.746E-03 -.158E-03 0.926E+02   -.989E-03 0.667E-05 -.933E+02   -.416E-04 0.456E-05 0.691E+00   -.481E-08 -.409E-07 -.918E-06
   0.729E-03 -.195E-03 0.926E+02   -.989E-03 0.667E-05 -.933E+02   -.370E-04 -.514E-06 0.691E+00   -.302E-07 -.101E-07 -.903E-06
   -.288E-03 -.721E-04 0.926E+02   0.278E-03 0.105E-04 -.933E+02   0.471E-04 0.194E-04 0.691E+00   -.877E-08 0.214E-07 -.872E-06
   -.848E-04 -.698E-04 0.926E+02   -.123E-03 -.141E-03 -.933E+02   -.546E-04 -.558E-04 0.691E+00   -.978E-08 -.878E-08 -.877E-06
   0.110E-03 -.142E-03 0.926E+02   -.124E-03 0.134E-03 -.933E+02   -.612E-04 -.238E-04 0.691E+00   0.255E-07 -.193E-07 -.839E-06
   -.325E-03 -.101E-03 0.926E+02   0.278E-03 0.131E-04 -.933E+02   -.126E-04 -.611E-04 0.691E+00   0.308E-07 0.228E-08 -.940E-06
   0.136E-03 -.110E-03 0.926E+02   -.125E-03 0.134E-03 -.933E+02   0.149E-04 -.512E-04 0.691E+00   -.211E-07 0.292E-07 -.956E-06
   -.831E-04 -.668E-04 0.926E+02   -.123E-03 -.141E-03 -.933E+02   -.380E-04 -.101E-03 0.691E+00   0.207E-07 0.200E-07 -.956E-06
   0.285E-02 0.458E-02 -.926E+02   0.241E-02 -.144E-04 0.933E+02   0.111E-02 0.864E-03 -.693E+00   0.450E-07 0.446E-08 -.252E-05
   0.735E-03 -.212E-03 -.926E+02   -.979E-03 0.657E-05 0.933E+02   -.374E-04 -.456E-04 -.691E+00   -.410E-08 -.367E-07 -.251E-05
   -.214E-03 -.144E-03 -.926E+02   0.191E-04 0.371E-06 0.933E+02   -.732E-06 -.850E-06 -.691E+00   -.246E-07 -.652E-08 -.254E-05
   -.220E-03 0.281E-03 -.926E+02   0.191E-03 -.373E-03 0.933E+02   0.695E-05 0.327E-04 -.691E+00   -.435E-08 0.223E-07 -.256E-05
   -.167E-04 0.167E-04 -.926E+02   -.172E-03 -.199E-03 0.933E+02   -.492E-04 -.480E-04 -.691E+00   -.249E-07 -.224E-07 -.254E-05
   -.351E-05 0.182E-05 -.926E+02   -.840E-05 -.946E-05 0.933E+02   -.261E-04 -.421E-04 -.691E+00   0.976E-08 -.145E-07 -.254E-05
   -.190E-03 -.474E-03 -.926E+02   0.186E-03 0.387E-03 0.933E+02   -.208E-04 -.470E-04 -.691E+00   0.466E-07 0.111E-07 -.248E-05
   0.180E-03 -.175E-03 -.926E+02   -.169E-03 0.189E-03 0.933E+02   0.134E-04 -.170E-04 -.691E+00   -.336E-07 0.221E-07 -.244E-05
   -.170E-03 -.172E-03 -.926E+02   -.120E-05 0.107E-04 0.933E+02   -.254E-04 -.812E-04 -.691E+00   0.384E-07 0.280E-07 -.245E-05
 -----------------------------------------------------------------------------------------------
   -.130E-01 -.184E-01 -.502E-01   -.591E-12 -.408E-13 -.101E-11   0.131E-01 0.184E-01 0.446E-01   0.362E-06 -.364E-06 -.466E-03
 
 
 POSITION                                       TOTAL-FORCE (eV/Angst)
 -----------------------------------------------------------------------------------
      2.81373      4.11310      4.02203         0.006599      0.001263     -0.006306
      8.51333      4.07713      4.02203        -0.002450      0.006648     -0.001869
     14.21294      4.04117      4.02203        -0.004049      0.005257      0.002245
      2.77120     10.39738      4.02203         0.000670      0.007738      0.000907
      8.47081     10.36142      4.02203         0.001248      0.006546      0.000661
     14.17041     10.32545      4.02203         0.001570      0.010485     -0.000166
      2.72867     16.68167      4.02203         0.003003      0.006090     -0.000156
      8.42828     16.64570      4.02203        -0.001928      0.006213     -0.000871
     14.12789     16.60974      4.02203         0.001112      0.008278      0.000329
      2.84335      2.13522      4.02203         0.006462     -0.002575      0.009784
      8.54296      2.09926      4.02203         0.001538     -0.006467     -0.000760
     14.24257      2.06329      4.02203        -0.003149     -0.006380     -0.000151
      2.80082      8.41951      4.02203        -0.001425     -0.010525     -0.000134
      8.50043      8.38354      4.02203        -0.001262     -0.006505      0.000702
     14.20004      8.34758      4.02203        -0.000603     -0.007830      0.000908
      2.75830     14.70379      4.02203         0.003809     -0.005468      0.002285
      8.45790     14.66783      4.02203         0.002062     -0.006689     -0.001870
     14.15751     14.63186      4.02203        -0.001185     -0.006804      0.000262
      5.56126      3.99467      4.02203        -0.007194      0.000643     -0.000860
     11.26087      3.95870      4.02203        -0.006013      0.001230     -0.000909
     16.96048      3.92274      4.02203        -0.004050      0.002326      0.000749
      5.51873     10.27895      4.02203        -0.008608      0.005212      0.001405
     11.21834     10.24299      4.02203        -0.004919      0.002188     -0.000717
     16.91795     10.20702      4.02203        -0.006309      0.002450      0.000259
      5.47620     16.56324      4.02203        -0.005804      0.000507      0.001292
     11.17581     16.52727      4.02203        -0.005058      0.004119      0.001990
     16.87542     16.49131      4.02203        -0.004601      0.002239     -0.001737
      0.09582      2.25365      4.02203         0.002291     -0.003433     -0.000368
      5.79543      2.21769      4.02203         0.003082     -0.002809      0.002664
     11.49504      2.18172      4.02203         0.005440     -0.000287      0.001276
      0.05329      8.53794      4.02203         0.006675     -0.002521      0.000269
      5.75290      8.50197      4.02203         0.004906     -0.002187     -0.000745
     11.45251      8.46600      4.02203         0.008570     -0.005327      0.001383
      0.01076     14.82222      4.02203         0.003809     -0.001859      0.000886
      5.71037     14.78626      4.02203         0.005782     -0.001041     -0.000935
     11.40998     14.75029      4.02203         0.005643     -0.000615      0.000073
      3.40404      5.68636      4.02203         0.003761     -0.000847      0.000925
      9.10365      5.65039      4.02203         0.001329      0.003341     -0.001269
     14.80326      5.61443      4.02203        -0.000519      0.002966     -0.001356
      3.36152     11.97065      4.02203         0.000878      0.003586     -0.000515
      9.06112     11.93468      4.02203        -0.000072      0.004822     -0.000991
     14.76073     11.89871      4.02203        -0.001409      0.002471      0.000380
      3.31899     18.25493      4.02203         0.002144      0.001507      0.000993
      9.01859     18.21896      4.02203         0.000297      0.002991     -0.000932
     14.71820     18.18300      4.02203         0.001019     -0.000550      0.000276
      2.25304      0.56196      4.02203        -0.000026      0.000590     -0.001140
      7.95264      0.52599      4.02203        -0.000157     -0.002761     -0.000968
     13.65225      0.49003      4.02203        -0.001934     -0.001924      0.000807
      2.21051      6.84624      4.02203         0.001664     -0.002939      0.000669
      7.91012      6.81028      4.02203         0.000114     -0.004821     -0.000971
     13.60972      6.77431      4.02203        -0.000943     -0.003509     -0.000482
      2.16798     13.13053      4.02203         0.000772     -0.002893     -0.001310
      7.86759     13.09456      4.02203        -0.001113     -0.003320     -0.001219
     13.56720     13.05860      4.02203        -0.003264      0.000287     -0.000071
      5.08639      5.63227      4.02203         0.006531      0.001211      0.001094
     10.78600      5.59630      4.02203         0.004134     -0.000606      0.003581
     16.48561      5.56033      4.02203         0.011782      0.001772      0.000571
      5.04386     11.91655      4.02203         0.007810      0.001948      0.000323
     10.74347     11.88059      4.02203         0.007315      0.004080      0.000186
     16.44308     11.84462      4.02203         0.008438      0.002009      0.000653
      5.00133     18.20084      4.02203         0.005861      0.002706     -0.000805
     10.70094     18.16487      4.02203         0.007581      0.002758     -0.000062
     16.40055     18.12890      4.02203         0.008956      0.001311     -0.000443
      0.57069      0.61605      4.02203        -0.011246     -0.002260     -0.005574
      6.27030      0.58009      4.02203        -0.007193     -0.002771     -0.000140
     11.96991      0.54412      4.02203        -0.005633     -0.002497     -0.000821
      0.52816      6.90034      4.02203        -0.008467     -0.001794      0.000614
      6.22777      6.86437      4.02203        -0.007908     -0.004785     -0.000085
     11.92738      6.82841      4.02203        -0.007879     -0.002068      0.000327
      0.48563     13.18462      4.02203        -0.011775     -0.001458      0.000669
      6.18524     13.14866      4.02203        -0.004194      0.000481      0.003606
     11.88485     13.11269      4.02203        -0.007424     -0.002433     -0.002590
      4.16227      4.46452      5.02709        -0.001594      0.002101      0.005487
      9.86188      4.42855      5.02709        -0.000234     -0.001599      0.002184
     15.56149      4.39258      5.02709        -0.007572     -0.003638     -0.001103
      4.11974     10.74880      5.02709        -0.004781     -0.005726      0.001030
      9.81935     10.71283      5.02709        -0.004914     -0.002883      0.000297
     15.51896     10.67687      5.02709        -0.005216     -0.000735      0.001348
      4.07721     17.03309      5.02709        -0.000050      0.001003      0.001857
      9.77682     16.99712      5.02709        -0.006270     -0.004472      0.000407
     15.47643     16.96115      5.02709        -0.003492     -0.003186      0.001574
      1.49481      1.78380      3.01696         0.009005      0.011598     -0.011312
      7.19442      1.74784      3.01696         0.007014      0.003944     -0.003526
     12.89402      1.71187      3.01696         0.002090      0.002589     -0.000431
      1.45228      8.06809      3.01696         0.004915      0.002654     -0.000621
      7.15189      8.03212      3.01696         0.004952      0.002253     -0.000817
     12.85150      7.99616      3.01696         0.004289      0.004976      0.000781
      1.40975     14.35237      3.01696         0.007780      0.001864      0.000217
      7.10936     14.31641      3.01696         0.002187      0.001952     -0.003675
     12.80897     14.28044      3.01696         0.003580      0.003015      0.000262
      4.16227      4.46452      3.01696        -0.002726     -0.003377      0.001031
      9.86188      4.42855      3.01696        -0.002060     -0.001853     -0.003687
     15.56149      4.39258      3.01696        -0.007311     -0.001811      0.000335
      4.11974     10.74880      3.01696        -0.004252     -0.004915      0.000745
      9.81935     10.71283      3.01696        -0.004572     -0.001875     -0.000856
     15.51896     10.67687      3.01696        -0.004992     -0.002561     -0.000693
      4.07721     17.03309      3.01696        -0.001988     -0.002336     -0.000473
      9.77682     16.99712      3.01696        -0.006769     -0.004134     -0.003627
     15.47643     16.96115      3.01696        -0.004127     -0.004076     -0.001458
      1.49481      1.78380      5.02709        -0.000039      0.000843     -0.008089
      7.19442      1.74784      5.02709         0.006757      0.004373      0.000431
     12.89402      1.71187      5.02709         0.000168     -0.000913      0.001733
      1.45228      8.06809      5.02709         0.005135      0.000964      0.001287
      7.15189      8.03212      5.02709         0.005226      0.003230      0.000180
     12.85150      7.99616      5.02709         0.004833      0.005774      0.001009
      1.40975     14.35237      5.02709         0.007896      0.003515     -0.001038
      7.10936     14.31641      5.02709         0.000371      0.001688      0.002187
     12.80897     14.28044      5.02709         0.004780      0.004432      0.001610
      1.41192      3.26096      4.02203         0.002785      0.003400      0.006086
      7.11153      3.22499      4.02203         0.004797      0.004704     -0.000026
     12.81114      3.18903      4.02203         0.000295      0.001612     -0.001757
      1.36939      9.54524      4.02203        -0.002352     -0.000317      0.000525
      7.06900      9.50928      4.02203         0.005729     -0.002029      0.000901
     12.76861      9.47331      4.02203         0.004766      0.003873      0.000960
      1.32686     15.82953      4.02203         0.000428      0.005147      0.000356
      7.02647     15.79356      4.02203         0.001460      0.002574     -0.001556
     12.72608     15.75760      4.02203         0.005343      0.001311     -0.001261
      4.24516      2.98736      4.02203        -0.008174      0.002551     -0.009022
      9.94477      2.95140      4.02203        -0.001059     -0.002517     -0.001552
     15.64438      2.91543      4.02203        -0.000504     -0.005465      0.000378
      4.20263      9.27165      4.02203        -0.004751     -0.003788      0.000973
      9.90224      9.23568      4.02203        -0.005424      0.002452      0.000927
     15.60185      9.19971      4.02203         0.001851      0.000574      0.000515
      4.16010     15.55593      4.02203        -0.000277     -0.001535     -0.001778
      9.85971     15.51997      4.02203        -0.003823     -0.004697     -0.000468
     15.55932     15.48400      4.02203        -0.001760      0.000923      0.001049
      2.82305      3.12419      2.43114        -0.016472     -0.021318      0.027444
      8.52815      3.08819      2.43950        -0.000285     -0.000147      0.002417
     14.22776      3.05223      2.43950        -0.000296     -0.000189      0.002370
      2.78601      9.40844      2.43950         0.000037     -0.000042      0.002317
      8.48562      9.37248      2.43950        -0.000263     -0.000267      0.002374
     14.18523      9.33651      2.43950        -0.000075     -0.000032      0.002321
      2.74348     15.69273      2.43950        -0.000060     -0.000149      0.002346
      8.44309     15.65676      2.43950         0.000026     -0.000027      0.002374
     14.14270     15.62080      2.43950        -0.000244     -0.000309      0.002328
      2.82854      3.12416      5.60455         0.006357      0.005432     -0.013384
      8.52815      3.08819      5.60455        -0.000281     -0.000251     -0.002373
     14.22776      3.05223      5.60455        -0.000196     -0.000144     -0.002312
      2.78601      9.40844      5.60455        -0.000022     -0.000060     -0.002279
      8.48562      9.37248      5.60455        -0.000238     -0.000230     -0.002299
     14.18523      9.33651      5.60455        -0.000038     -0.000050     -0.002278
      2.74348     15.69273      5.60455        -0.000025     -0.000135     -0.002294
      8.44309     15.65676      5.60455         0.000024     -0.000003     -0.002305
     14.14270     15.62080      5.60455        -0.000197     -0.000242     -0.002302
 -----------------------------------------------------------------------------------
    total drift:                                0.000047      0.000006     -0.006104


--------------------------------------------------------------------------------------------------------



  FREE ENERGIE OF THE ION-ELECTRON SYSTEM (eV)
  ---------------------------------------------------
  free  energy   TOTEN  =      -818.35336569 eV

  energy  without entropy=     -818.35334745  energy(sigma->0) =     -818.35335657
 


--------------------------------------------------------------------------------------------------------


    POTLOK:  cpu time      0.9758: real time      0.9826


--------------------------------------------------------------------------------------------------------


     LOOP+:  cpu time   3041.3873: real time   3069.8065
 vacuum level on the upper side and lower side of the slab         1.251         1.252
    4ORBIT:  cpu time      0.0000: real time      0.0000



 total charge

# of ion       s       p       d       tot
------------------------------------------
    1        0.735   1.308   0.000   2.043
    2        0.735   1.308   0.000   2.043
    3        0.735   1.308   0.000   2.043
    4        0.735   1.308   0.000   2.043
    5        0.735   1.308   0.000   2.043
    6        0.735   1.308   0.000   2.043
    7        0.735   1.308   0.000   2.043
    8        0.735   1.308   0.000   2.043
    9        0.735   1.308   0.000   2.043
   10        0.735   1.308   0.000   2.043
   11        0.735   1.308   0.000   2.043
   12        0.735   1.308   0.000   2.043
   13        0.735   1.308   0.000   2.043
   14        0.735   1.308   0.000   2.043
   15        0.735   1.308   0.000   2.043
   16        0.735   1.308   0.000   2.043
   17        0.735   1.308   0.000   2.043
   18        0.735   1.308   0.000   2.043
   19        0.695   1.333   0.000   2.027
   20        0.695   1.333   0.000   2.027
   21        0.695   1.333   0.000   2.027
   22        0.695   1.333   0.000   2.027
   23        0.695   1.333   0.000   2.027
   24        0.695   1.333   0.000   2.027
   25        0.695   1.333   0.000   2.027
   26        0.695   1.333   0.000   2.027
   27        0.695   1.333   0.000   2.027
   28        0.695   1.333   0.000   2.027
   29        0.695   1.332   0.000   2.027
   30        0.695   1.333   0.000   2.027
   31        0.695   1.333   0.000   2.027
   32        0.695   1.333   0.000   2.027
   33        0.695   1.333   0.000   2.027
   34        0.695   1.333   0.000   2.027
   35        0.695   1.333   0.000   2.027
   36        0.695   1.333   0.000   2.027
   37        0.713   1.355   0.000   2.067
   38        0.713   1.355   0.000   2.067
   39        0.713   1.355   0.000   2.067
   40        0.713   1.355   0.000   2.067
   41        0.713   1.355   0.000   2.067
   42        0.713   1.355   0.000   2.067
   43        0.713   1.355   0.000   2.067
   44        0.713   1.355   0.000   2.067
   45        0.713   1.354   0.000   2.067
   46        0.713   1.355   0.000   2.067
   47        0.713   1.355   0.000   2.067
   48        0.713   1.355   0.000   2.067
   49        0.713   1.354   0.000   2.067
   50        0.713   1.355   0.000   2.067
   51        0.713   1.355   0.000   2.067
   52        0.713   1.355   0.000   2.067
   53        0.713   1.355   0.000   2.067
   54        0.713   1.355   0.000   2.067
   55        0.702   1.311   0.000   2.013
   56        0.702   1.311   0.000   2.013
   57        0.702   1.311   0.000   2.013
   58        0.702   1.311   0.000   2.013
   59        0.702   1.311   0.000   2.013
   60        0.702   1.311   0.000   2.013
   61        0.702   1.311   0.000   2.013
   62        0.702   1.311   0.000   2.013
   63        0.702   1.311   0.000   2.013
   64        0.702   1.311   0.000   2.013
   65        0.702   1.311   0.000   2.013
   66        0.702   1.311   0.000   2.013
   67        0.702   1.311   0.000   2.013
   68        0.702   1.311   0.000   2.013
   69        0.702   1.311   0.000   2.013
   70        0.702   1.311   0.000   2.013
   71        0.702   1.311   0.000   2.013
   72        0.702   1.311   0.000   2.013
   73        0.699   1.202   0.000   1.901
   74        0.699   1.202   0.000   1.901
   75        0.699   1.202   0.000   1.901
   76        0.699   1.202   0.000   1.901
   77        0.699   1.202   0.000   1.901
   78        0.699   1.202   0.000   1.901
   79        0.699   1.202   0.000   1.901
   80        0.699   1.202   0.000   1.901
   81        0.699   1.202   0.000   1.901
   82        0.699   1.202   0.000   1.901
   83        0.699   1.202   0.000   1.901
   84        0.699   1.202   0.000   1.901
   85        0.699   1.202   0.000   1.901
   86        0.699   1.202   0.000   1.901
   87        0.699   1.202   0.000   1.901
   88        0.699   1.202   0.000   1.901
   89        0.699   1.202   0.000   1.901
   90        0.699   1.202   0.000   1.901
   91        0.699   1.201   0.000   1.901
   92        0.699   1.202   0.000   1.901
   93        0.699   1.202   0.000   1.901
   94        0.699   1.202   0.000   1.901
   95        0.699   1.202   0.000   1.901
   96        0.699   1.202   0.000   1.901
   97        0.699   1.202   0.000   1.901
   98        0.699   1.202   0.000   1.901
   99        0.699   1.202   0.000   1.901
  100        0.699   1.201   0.000   1.901
  101        0.699   1.202   0.000   1.901
  102        0.699   1.202   0.000   1.901
  103        0.699   1.202   0.000   1.901
  104        0.699   1.202   0.000   1.901
  105        0.699   1.202   0.000   1.901
  106        0.699   1.202   0.000   1.901
  107        0.699   1.202   0.000   1.901
  108        0.699   1.202   0.000   1.901
  109        0.719   1.421   0.000   2.139
  110        0.719   1.421   0.000   2.139
  111        0.719   1.421   0.000   2.140
  112        0.719   1.421   0.000   2.139
  113        0.719   1.421   0.000   2.139
  114        0.719   1.421   0.000   2.140
  115        0.719   1.421   0.000   2.140
  116        0.719   1.421   0.000   2.139
  117        0.719   1.421   0.000   2.140
  118        0.719   1.421   0.000   2.140
  119        0.719   1.421   0.000   2.139
  120        0.719   1.421   0.000   2.140
  121        0.719   1.421   0.000   2.140
  122        0.719   1.421   0.000   2.139
  123        0.719   1.421   0.000   2.139
  124        0.719   1.421   0.000   2.140
  125        0.719   1.421   0.000   2.139
  126        0.719   1.421   0.000   2.139
  127        0.362   0.015   0.000   0.377
  128        0.363   0.016   0.000   0.378
  129        0.363   0.016   0.000   0.378
  130        0.363   0.016   0.000   0.378
  131        0.363   0.016   0.000   0.378
  132        0.363   0.016   0.000   0.378
  133        0.363   0.016   0.000   0.378
  134        0.363   0.016   0.000   0.378
  135        0.363   0.016   0.000   0.378
  136        0.362   0.016   0.000   0.378
  137        0.363   0.016   0.000   0.378
  138        0.363   0.016   0.000   0.378
  139        0.363   0.016   0.000   0.378
  140        0.363   0.016   0.000   0.378
  141        0.363   0.016   0.000   0.378
  142        0.363   0.016   0.000   0.378
  143        0.363   0.016   0.000   0.378
  144        0.363   0.016   0.000   0.378
--------------------------------------------------
tot         95.839 164.623   0.000 260.462
 

 total amount of memory used by VASP MPI-rank0   350913. kBytes
=======================================================================

   base                                    :      30000. kBytes
   nonlr-proj                              :      12165. kBytes
   fftplans                                :      51260. kBytes
   grid                                    :      79795. kBytes
   one-center                              :         64. kBytes
   wavefun                                 :     177629. kBytes
 
  
  
 General timing and accounting informations for this job:
 ========================================================
  
                  Total CPU time used (sec):     3069.481
                            User time (sec):     2872.634
                          System time (sec):      196.847
                         Elapsed time (sec):     3098.502
  
                   Maximum memory used (kb):      792656.
                   Average memory used (kb):          N/A
  
                          Minor page faults:       123919
                          Major page faults:          172
                 Voluntary context switches:         1446
