 running   42 mpi-ranks, on    1 nodes
 distrk:  each k-point on   42 cores,    1 groups
 distr:  one band on    7 cores,    6 groups
 vasp.6.5.0 16Dec24 (build Jan 08 2025 16:17:04) complex                        
  
 POSCAR found type information on POSCAR B H 
 POSCAR found :  2 types and     144 ions
 Reading from existing POTCAR
 scaLAPACK will be used
 Reading from existing POTCAR
 LDA part: xc-table for (Slater+PW92), standard interpolation
 POSCAR, INCAR and KPOINTS ok, starting setup
 FFT: planning ... GRIDC
 FFT: planning ... GRID_SOFT
 FFT: planning ... GRID
 WAVECAR not read
 entering main loop
       N       E                     dE             d eps       ncg     rms          rms(c)
DAV:   1     0.328978233536E+04    0.32898E+04   -0.13064E+05  3564   0.109E+03
DAV:   2    -0.267138864812E+03   -0.35569E+04   -0.34110E+04  4896   0.228E+02
DAV:   3    -0.867401850449E+03   -0.60026E+03   -0.59471E+03  3912   0.101E+02
DAV:   4    -0.891656349662E+03   -0.24254E+02   -0.23923E+02  4140   0.218E+01
DAV:   5    -0.892444826896E+03   -0.78848E+00   -0.78326E+00  4596   0.347E+00    0.386E+01
DAV:   6    -0.823912439918E+03    0.68532E+02   -0.91113E+01  3876   0.135E+01    0.202E+01
DAV:   7    -0.807062858724E+03    0.16850E+02   -0.69895E+01  3924   0.112E+01    0.625E+00
DAV:   8    -0.806121990236E+03    0.94087E+00   -0.62148E+00  4116   0.436E+00    0.181E+00
DAV:   9    -0.805748545479E+03    0.37344E+00   -0.70570E-01  3936   0.130E+00    0.828E-01
DAV:  10    -0.805674997372E+03    0.73548E-01   -0.10198E-01  4212   0.475E-01    0.458E-01
DAV:  11    -0.805595936311E+03    0.79061E-01   -0.12872E-01  3924   0.390E-01    0.279E-01
DAV:  12    -0.805604548251E+03   -0.86119E-02   -0.33133E-02  4092   0.232E-01    0.203E-01
DAV:  13    -0.805623827342E+03   -0.19279E-01   -0.90248E-03  3612   0.152E-01    0.108E-01
DAV:  14    -0.805639920773E+03   -0.16093E-01   -0.57208E-03  3960   0.831E-02    0.639E-02
DAV:  15    -0.805653754927E+03   -0.13834E-01   -0.12212E-03  3888   0.388E-02    0.377E-02
DAV:  16    -0.805666831391E+03   -0.13076E-01   -0.15291E-03  3876   0.328E-02    0.190E-02
DAV:  17    -0.805671345716E+03   -0.45143E-02   -0.32277E-04  4032   0.155E-02    0.122E-02
DAV:  18    -0.805675049139E+03   -0.37034E-02   -0.37450E-04  3888   0.122E-02    0.614E-03
DAV:  19    -0.805676032785E+03   -0.98365E-03   -0.52408E-05  3828   0.488E-03    0.310E-03
DAV:  20    -0.805676506028E+03   -0.47324E-03   -0.15578E-05  3096   0.291E-03    0.181E-03
DAV:  21    -0.805676653843E+03   -0.14781E-03   -0.28087E-06  3096   0.142E-03    0.992E-04
DAV:  22    -0.805676724443E+03   -0.70600E-04   -0.13179E-06  3024   0.960E-04    0.394E-04
DAV:  23    -0.805676744191E+03   -0.19748E-04   -0.20400E-07  2832   0.458E-04    0.217E-04
DAV:  24    -0.805676750335E+03   -0.61439E-05   -0.71767E-08  2748   0.239E-04    0.839E-05
DAV:  25    -0.805676751497E+03   -0.11617E-05   -0.32190E-11  2532   0.130E-04    0.375E-05
DAV:  26    -0.805676751748E+03   -0.25140E-06    0.99498E-09  2472   0.768E-05
   1 F= -.81835337E+03 E0= -.81835336E+03  d E =-.182430E-04
