       N       E                     dE             d eps       ncg     rms          rms(c)
DAV:   1     0.383328619066E+03    0.38333E+03   -0.29386E+04 15120   0.822E+02
DAV:   2    -0.133275325526E+03   -0.51660E+03   -0.46377E+03 26796   0.140E+02
DAV:   3    -0.177085235404E+03   -0.43810E+02   -0.43065E+02 22176   0.472E+01
DAV:   4    -0.177692329034E+03   -0.60709E+00   -0.60660E+00 20496   0.652E+00
DAV:   5    -0.177704906349E+03   -0.12577E-01   -0.12572E-01 21966   0.907E-01
DAV:   6    -0.177705363996E+03   -0.45765E-03   -0.45762E-03 22260   0.168E-01
DAV:   7    -0.177705377462E+03   -0.13466E-04   -0.13465E-04 23646   0.217E-02
DAV:   8    -0.177705377689E+03   -0.22691E-06   -0.22661E-06 21378   0.195E-03
   1 F= -.17770538E+03 E0= -.17770367E+03  d E =-.341929E-02
