       N       E                     dE             d eps       ncg     rms          rms(c)
DAV:   1     0.205231575166E+03    0.20523E+03   -0.14424E+04 13440   0.757E+02
DAV:   2    -0.677564230938E+02   -0.27299E+03   -0.27167E+03 20328   0.983E+01
DAV:   3    -0.853810358081E+02   -0.17625E+02   -0.17571E+02 23562   0.432E+01
DAV:   4    -0.854223934221E+02   -0.41358E-01   -0.41329E-01 20244   0.223E+00
DAV:   5    -0.854224825529E+02   -0.89131E-04   -0.89129E-04 23478   0.895E-02
DAV:   6    -0.854224826338E+02   -0.80891E-07   -0.80068E-07 20118   0.239E-03
   1 F= -.86612394E+02 E0= -.86579416E+02  d E =-.659572E-01
