       N       E                     dE             d eps       ncg     rms          ort
DAV:   1     0.237500393537E+03    0.23750E+03   -0.16629E+04  3780   0.842E+02
DAV:   2    -0.913824848706E+02   -0.32888E+03   -0.32861E+03  3780   0.123E+02
DAV:   3    -0.109473599616E+03   -0.18091E+02   -0.18070E+02  3780   0.456E+01
DAV:   4    -0.109495888946E+03   -0.22289E-01   -0.22286E-01  3780   0.193E+00
DAV:   5    -0.109495965644E+03   -0.76698E-04   -0.76696E-04  3780   0.846E-02
SDA:   6    -0.850238431664E+02    0.24472E+02   -0.76696E-04  3780   0.287E+02 0.000E+00
CGA:   7    -0.921021155158E+02   -0.70783E+01   -0.70448E+01  3780   0.310E+01 0.368E+00
CGA:   8    -0.933825969197E+02   -0.12805E+01   -0.13482E+01  3780   0.156E+01-0.365E+00
CGA:   9    -0.937352676614E+02   -0.35267E+00   -0.35545E+00  3780   0.509E+00-0.439E-01
CGA:  10    -0.938752294440E+02   -0.13996E+00   -0.14018E+00  3780   0.154E+00-0.244E-02
CGA:  11    -0.939181490717E+02   -0.42920E-01   -0.42916E-01  3780   0.413E-01-0.364E-04
CGA:  12    -0.939301658225E+02   -0.12017E-01   -0.12024E-01  3780   0.110E-01-0.834E-04
CGA:  13    -0.939334622662E+02   -0.32964E-02   -0.32969E-02  3780   0.310E-02-0.199E-05
CGA:  14    -0.939344693200E+02   -0.10071E-02   -0.10069E-02  3780   0.939E-03 0.271E-05
CGA:  15    -0.939347952870E+02   -0.32597E-03   -0.32568E-03  3780   0.300E-03 0.278E-05
CGA:  16    -0.939348989706E+02   -0.10368E-03   -0.10334E-03  3780   0.862E-04 0.347E-05
CGA:  17    -0.939349287455E+02   -0.29775E-04   -0.29673E-04  3780   0.224E-04 0.114E-05
CGA:  18    -0.939349367528E+02   -0.80074E-05   -0.80364E-05  3780   0.597E-05-0.252E-06
CGA:  19    -0.939349389890E+02   -0.22362E-05   -0.22702E-05  3780   0.182E-05-0.253E-06
CGA:  20    -0.939349397069E+02   -0.71788E-06   -0.74504E-06  3780   0.614E-06-0.157E-06
   1 F= -.93934940E+02 E0= -.93906247E+02  d E =-.573859E-01
       N       E                     dE             ncg
DAV:   1    -0.135718225896E+05   -0.70990E+05     7560
DAV:   2    -0.388972947171E+05   -0.25325E+05    11466
DAV:   3    -0.403331246734E+05   -0.14358E+04    13020
DAV:   4    -0.403371245222E+05   -0.39998E+01    11172
DAV:   5    -0.403371313408E+05   -0.68186E-02    12936
DAV:   6    -0.403371313486E+05   -0.77435E-05    11130
DAV:   7    -0.403371313486E+05   -0.28631E-07    13104
       N       E                     dE             ncg
DAV:   1     0.100066745788E+05   -0.52871E+05     5880
DAV:   2    -0.970701412785E+04   -0.19714E+05     8820
DAV:   3    -0.109275438465E+05   -0.12205E+04    10500
DAV:   4    -0.109293830994E+05   -0.18393E+01     8232
DAV:   5    -0.109293903472E+05   -0.72477E-02    10752
DAV:   6    -0.109293903499E+05   -0.27126E-05     8190
DAV:   7    -0.109293903499E+05   -0.25480E-07    10668
