  28  28   0   0
  0.6180874E+02  0.1139952E-08  0.6314134E-09  0.2404406E-08  0.5000000E-15
  1.000000000000000E-004
  CAR 
 SCF                                     
      5.02791488    -21.14113748  301     -4.35253151      1.00000000
    -21.141  0.0000E+00  0.0000E+00
    -21.054  0.0000E+00  0.0000E+00
    -20.967  0.0000E+00  0.0000E+00
    -20.879  0.0000E+00  0.0000E+00
    -20.792  0.0000E+00  0.0000E+00
    -20.705  0.0000E+00  0.0000E+00
    -20.618  0.0000E+00  0.0000E+00
    -20.531  0.1414E-15  0.1234E-16
    -20.443  0.2607E-11  0.2274E-12
    -20.356  0.9269E-08  0.8087E-09
    -20.269  0.7785E-05  0.6799E-06
    -20.182  0.1601E-02  0.1403E-03
    -20.094  0.8538E-01  0.7588E-02
    -20.007  0.1288E+01  0.1200E+00
    -19.920  0.6213E+01  0.6619E+00
    -19.833  0.1138E+02  0.1655E+01
    -19.745  0.1074E+02  0.2592E+01
    -19.658  0.8469E+01  0.3330E+01
    -19.571  0.7475E+01  0.3982E+01
    -19.484  0.7319E+01  0.4621E+01
    -19.397  0.7892E+01  0.5309E+01
    -19.309  0.9590E+01  0.6146E+01
    -19.222  0.1082E+02  0.7090E+01
    -19.135  0.7614E+01  0.7754E+01
    -19.048  0.2500E+01  0.7972E+01
    -18.960  0.3072E+00  0.7999E+01
    -18.873  0.1172E-01  0.8000E+01
    -18.786  0.1219E-03  0.8000E+01
    -18.699  0.3191E-06  0.8000E+01
    -18.611  0.2006E-09  0.8000E+01
    -18.524  0.2939E-13  0.8000E+01
    -18.437  0.0000E+00  0.8000E+01
    -18.350  0.0000E+00  0.8000E+01
    -18.263  0.0000E+00  0.8000E+01
    -18.175  0.0000E+00  0.8000E+01
    -18.088  0.0000E+00  0.8000E+01
    -18.001  0.0000E+00  0.8000E+01
    -17.914  0.0000E+00  0.8000E+01
    -17.826  0.0000E+00  0.8000E+01
    -17.739  0.0000E+00  0.8000E+01
    -17.652  0.0000E+00  0.8000E+01
    -17.565  0.0000E+00  0.8000E+01
    -17.477  0.0000E+00  0.8000E+01
    -17.390  0.0000E+00  0.8000E+01
    -17.303  0.0000E+00  0.8000E+01
    -17.216  0.0000E+00  0.8000E+01
    -17.129  0.0000E+00  0.8000E+01
    -17.041  0.0000E+00  0.8000E+01
    -16.954  0.0000E+00  0.8000E+01
    -16.867  0.0000E+00  0.8000E+01
    -16.780  0.0000E+00  0.8000E+01
    -16.692  0.0000E+00  0.8000E+01
    -16.605  0.0000E+00  0.8000E+01
    -16.518  0.0000E+00  0.8000E+01
    -16.431  0.0000E+00  0.8000E+01
    -16.343  0.0000E+00  0.8000E+01
    -16.256  0.0000E+00  0.8000E+01
    -16.169  0.0000E+00  0.8000E+01
    -16.082  0.1024E-13  0.8000E+01
    -15.995  0.8576E-10  0.8000E+01
    -15.907  0.1663E-06  0.8000E+01
    -15.820  0.7686E-04  0.8000E+01
    -15.733  0.8822E-02  0.8001E+01
    -15.646  0.2691E+00  0.8024E+01
    -15.558  0.2446E+01  0.8238E+01
    -15.471  0.8159E+01  0.8949E+01
    -15.384  0.1448E+02  0.1021E+02
    -15.297  0.1939E+02  0.1190E+02
    -15.209  0.1978E+02  0.1363E+02
    -15.122  0.1495E+02  0.1493E+02
    -15.035  0.8285E+01  0.1566E+02
    -14.948  0.3211E+01  0.1594E+02
    -14.861  0.6776E+00  0.1600E+02
    -14.773  0.5517E-01  0.1600E+02
    -14.686  0.1372E-02  0.1600E+02
    -14.599  0.9142E-05  0.1600E+02
    -14.512  0.1517E-07  0.1600E+02
    -14.424  0.6004E-11  0.1600E+02
    -14.337  0.6929E-15  0.1600E+02
    -14.250  0.1901E-11  0.1600E+02
    -14.163  0.4918E-08  0.1600E+02
    -14.075  0.2992E-05  0.1600E+02
    -13.988  0.4453E-03  0.1600E+02
    -13.901  0.1730E-01  0.1600E+02
    -13.814  0.1943E+00  0.1602E+02
    -13.727  0.7497E+00  0.1608E+02
    -13.639  0.1348E+01  0.1620E+02
    -13.552  0.1724E+01  0.1635E+02
    -13.465  0.2132E+01  0.1654E+02
    -13.378  0.2954E+01  0.1680E+02
    -13.290  0.5166E+01  0.1725E+02
    -13.203  0.8239E+01  0.1796E+02
    -13.116  0.8328E+01  0.1869E+02
    -13.029  0.6946E+01  0.1930E+02
    -12.942  0.6747E+01  0.1989E+02
    -12.854  0.6791E+01  0.2048E+02
    -12.767  0.6718E+01  0.2106E+02
    -12.680  0.7251E+01  0.2170E+02
    -12.593  0.8270E+01  0.2242E+02
    -12.505  0.7893E+01  0.2311E+02
    -12.418  0.5688E+01  0.2360E+02
    -12.331  0.3264E+01  0.2389E+02
    -12.244  0.1128E+01  0.2399E+02
    -12.156  0.1554E+00  0.2400E+02
    -12.069  0.6628E-02  0.2400E+02
    -11.982  0.7668E-04  0.2400E+02
    -11.895  0.2235E-06  0.2400E+02
    -11.808  0.6712E-06  0.2400E+02
    -11.720  0.2257E-03  0.2400E+02
    -11.633  0.1899E-01  0.2400E+02
    -11.546  0.4257E+00  0.2404E+02
    -11.459  0.2833E+01  0.2429E+02
    -11.371  0.6905E+01  0.2489E+02
    -11.284  0.9356E+01  0.2570E+02
    -11.197  0.1088E+02  0.2665E+02
    -11.110  0.1187E+02  0.2769E+02
    -11.022  0.1198E+02  0.2873E+02
    -10.935  0.1067E+02  0.2966E+02
    -10.848  0.9319E+01  0.3048E+02
    -10.761  0.8565E+01  0.3122E+02
    -10.674  0.8132E+01  0.3193E+02
    -10.586  0.7856E+01  0.3262E+02
    -10.499  0.7272E+01  0.3325E+02
    -10.412  0.6909E+01  0.3386E+02
    -10.325  0.7311E+01  0.3449E+02
    -10.237  0.8393E+01  0.3523E+02
    -10.150  0.1021E+02  0.3612E+02
    -10.063  0.1134E+02  0.3711E+02
     -9.976  0.1057E+02  0.3803E+02
     -9.888  0.9904E+01  0.3889E+02
     -9.801  0.9129E+01  0.3969E+02
     -9.714  0.7500E+01  0.4034E+02
     -9.627  0.6653E+01  0.4092E+02
     -9.540  0.7433E+01  0.4157E+02
     -9.452  0.8015E+01  0.4227E+02
     -9.365  0.6095E+01  0.4280E+02
     -9.278  0.4063E+01  0.4316E+02
     -9.191  0.3172E+01  0.4343E+02
     -9.103  0.3070E+01  0.4370E+02
     -9.016  0.3342E+01  0.4399E+02
     -8.929  0.3433E+01  0.4429E+02
     -8.842  0.3566E+01  0.4460E+02
     -8.754  0.4108E+01  0.4496E+02
     -8.667  0.5536E+01  0.4544E+02
     -8.580  0.7364E+01  0.4609E+02
     -8.493  0.7144E+01  0.4671E+02
     -8.406  0.5306E+01  0.4717E+02
     -8.318  0.3682E+01  0.4749E+02
     -8.231  0.3077E+01  0.4776E+02
     -8.144  0.3006E+01  0.4802E+02
     -8.057  0.3475E+01  0.4833E+02
     -7.969  0.4987E+01  0.4876E+02
     -7.882  0.8750E+01  0.4953E+02
     -7.795  0.1316E+02  0.5067E+02
     -7.708  0.1599E+02  0.5207E+02
     -7.620  0.1781E+02  0.5362E+02
     -7.533  0.1875E+02  0.5526E+02
     -7.446  0.1768E+02  0.5680E+02
     -7.359  0.1597E+02  0.5819E+02
     -7.272  0.1586E+02  0.5958E+02
     -7.184  0.1690E+02  0.6105E+02
     -7.097  0.1509E+02  0.6237E+02
     -7.010  0.1117E+02  0.6334E+02
     -6.923  0.9172E+01  0.6414E+02
     -6.835  0.7694E+01  0.6481E+02
     -6.748  0.5876E+01  0.6533E+02
     -6.661  0.5302E+01  0.6579E+02
     -6.574  0.5274E+01  0.6625E+02
     -6.486  0.4373E+01  0.6663E+02
     -6.399  0.4867E+01  0.6705E+02
     -6.312  0.7231E+01  0.6769E+02
     -6.225  0.9751E+01  0.6854E+02
     -6.138  0.1179E+02  0.6956E+02
     -6.050  0.1089E+02  0.7051E+02
     -5.963  0.9217E+01  0.7132E+02
     -5.876  0.8804E+01  0.7209E+02
     -5.789  0.9127E+01  0.7288E+02
     -5.701  0.1009E+02  0.7376E+02
     -5.614  0.1088E+02  0.7471E+02
     -5.527  0.1005E+02  0.7559E+02
     -5.440  0.8682E+01  0.7635E+02
     -5.352  0.7351E+01  0.7699E+02
     -5.265  0.5058E+01  0.7743E+02
     -5.178  0.2582E+01  0.7765E+02
     -5.091  0.1774E+01  0.7781E+02
     -5.004  0.1831E+01  0.7797E+02
     -4.916  0.2039E+01  0.7815E+02
     -4.829  0.2153E+01  0.7833E+02
     -4.742  0.2110E+01  0.7852E+02
     -4.655  0.3774E+01  0.7885E+02
     -4.567  0.9853E+01  0.7971E+02
     -4.480  0.1703E+02  0.8119E+02
     -4.393  0.2117E+02  0.8304E+02
     -4.306  0.2343E+02  0.8508E+02
     -4.218  0.1606E+02  0.8648E+02
     -4.131  0.6102E+01  0.8701E+02
     -4.044  0.2225E+01  0.8721E+02
     -3.957  0.1301E+01  0.8732E+02
     -3.870  0.9731E+00  0.8741E+02
     -3.782  0.9381E+00  0.8749E+02
     -3.695  0.9234E+00  0.8757E+02
     -3.608  0.7344E+00  0.8763E+02
     -3.521  0.7182E+00  0.8770E+02
     -3.433  0.7067E+00  0.8776E+02
     -3.346  0.6130E+00  0.8781E+02
     -3.259  0.5656E+00  0.8786E+02
     -3.172  0.5428E+00  0.8791E+02
     -3.084  0.4672E+00  0.8795E+02
     -2.997  0.3724E+00  0.8798E+02
     -2.910  0.1746E+00  0.8800E+02
     -2.823  0.3433E-01  0.8800E+02
     -2.736  0.2165E-02  0.8800E+02
     -2.648  0.3621E-04  0.8800E+02
     -2.561  0.1461E-06  0.8800E+02
     -2.474  0.1364E-09  0.8800E+02
     -2.387  0.1724E-12  0.8800E+02
     -2.299  0.5254E-09  0.8800E+02
     -2.212  0.4403E-06  0.8800E+02
     -2.125  0.8716E-04  0.8800E+02
     -2.038  0.4319E-02  0.8800E+02
     -1.950  0.5957E-01  0.8801E+02
     -1.863  0.2721E+00  0.8803E+02
     -1.776  0.5411E+00  0.8808E+02
     -1.689  0.7505E+00  0.8814E+02
     -1.602  0.1526E+01  0.8828E+02
     -1.514  0.4147E+01  0.8864E+02
     -1.427  0.7960E+01  0.8933E+02
     -1.340  0.1118E+02  0.9031E+02
     -1.253  0.1294E+02  0.9144E+02
     -1.165  0.1452E+02  0.9270E+02
     -1.078  0.1486E+02  0.9400E+02
     -0.991  0.1377E+02  0.9520E+02
     -0.904  0.1162E+02  0.9621E+02
     -0.817  0.1052E+02  0.9713E+02
     -0.729  0.1042E+02  0.9804E+02
     -0.642  0.9524E+01  0.9887E+02
     -0.555  0.9697E+01  0.9972E+02
     -0.468  0.1162E+02  0.1007E+03
     -0.380  0.1093E+02  0.1017E+03
     -0.293  0.9473E+01  0.1025E+03
     -0.206  0.1057E+02  0.1034E+03
     -0.119  0.1096E+02  0.1044E+03
     -0.031  0.9705E+01  0.1052E+03
      0.056  0.8980E+01  0.1060E+03
      0.143  0.1073E+02  0.1070E+03
      0.230  0.1244E+02  0.1080E+03
      0.317  0.1174E+02  0.1091E+03
      0.405  0.9332E+01  0.1099E+03
      0.492  0.6799E+01  0.1105E+03
      0.579  0.5166E+01  0.1109E+03
      0.666  0.4619E+01  0.1113E+03
      0.754  0.4875E+01  0.1117E+03
      0.841  0.5930E+01  0.1123E+03
      0.928  0.6948E+01  0.1129E+03
      1.015  0.7811E+01  0.1136E+03
      1.103  0.1088E+02  0.1145E+03
      1.190  0.1590E+02  0.1159E+03
      1.277  0.1809E+02  0.1175E+03
      1.364  0.1736E+02  0.1190E+03
      1.451  0.1672E+02  0.1204E+03
      1.539  0.1674E+02  0.1219E+03
      1.626  0.1604E+02  0.1233E+03
      1.713  0.1466E+02  0.1246E+03
      1.800  0.1483E+02  0.1259E+03
      1.888  0.1590E+02  0.1273E+03
      1.975  0.1804E+02  0.1288E+03
      2.062  0.2004E+02  0.1306E+03
      2.149  0.2085E+02  0.1324E+03
      2.237  0.2220E+02  0.1343E+03
      2.324  0.2219E+02  0.1363E+03
      2.411  0.2030E+02  0.1380E+03
      2.498  0.1947E+02  0.1397E+03
      2.585  0.1981E+02  0.1415E+03
      2.673  0.2097E+02  0.1433E+03
      2.760  0.2186E+02  0.1452E+03
      2.847  0.2261E+02  0.1472E+03
      2.934  0.2362E+02  0.1492E+03
      3.022  0.2623E+02  0.1515E+03
      3.109  0.2909E+02  0.1541E+03
      3.196  0.3055E+02  0.1567E+03
      3.283  0.2922E+02  0.1593E+03
      3.371  0.2972E+02  0.1619E+03
      3.458  0.2811E+02  0.1643E+03
      3.545  0.1988E+02  0.1661E+03
      3.632  0.1143E+02  0.1671E+03
      3.719  0.6515E+01  0.1676E+03
      3.807  0.3177E+01  0.1679E+03
      3.894  0.9907E+00  0.1680E+03
      3.981  0.1679E+00  0.1680E+03
      4.068  0.1167E-01  0.1680E+03
      4.156  0.2497E-03  0.1680E+03
      4.243  0.1397E-05  0.1680E+03
      4.330  0.1889E-08  0.1680E+03
      4.417  0.5938E-12  0.1680E+03
      4.505  0.2828E-16  0.1680E+03
      4.592  0.0000E+00  0.1680E+03
      4.679  0.0000E+00  0.1680E+03
      4.766  0.0000E+00  0.1680E+03
      4.853  0.0000E+00  0.1680E+03
      4.941  0.0000E+00  0.1680E+03
      5.028  0.0000E+00  0.1680E+03
