 running   42 mpi-ranks, on    1 nodes
 distrk:  each k-point on   42 cores,    1 groups
 distr:  one band on    1 cores,   42 groups
 vasp.6.5.0 16Dec24 (build Jan 08 2025 16:17:04) complex                        
  
 POSCAR found type information on POSCAR B 
 POSCAR found :  1 types and      28 ions
 Reading from existing POTCAR
 scaLAPACK will be used
 -----------------------------------------------------------------------------
|                                                                             |
|           W    W    AA    RRRRR   N    N  II  N    N   GGGG   !!!           |
|           W    W   A  A   R    R  NN   N  II  NN   N  G    G  !!!           |
|           W    W  A    A  R    R  N N  N  II  N N  N  G       !!!           |
|           W WW W  AAAAAA  RRRRR   N  N N  II  N  N N  G  GGG   !            |
|           WW  WW  A    A  R   R   N   NN  II  N   NN  G    G                |
|           W    W  A    A  R    R  N    N  II  N    N   GGGG   !!!           |
|                                                                             |
|     The value NCORE = 8 specified in the INCAR file was overwritten,        |
|     because it was not compatible with the 42 processes available:          |
|     NCORE = 1                                                               |
|     was used instead, please check that this makes sense for your           |
|     machine.                                                                |
|                                                                             |
 -----------------------------------------------------------------------------

 -----------------------------------------------------------------------------
|                                                                             |
|           W    W    AA    RRRRR   N    N  II  N    N   GGGG   !!!           |
|           W    W   A  A   R    R  NN   N  II  NN   N  G    G  !!!           |
|           W    W  A    A  R    R  N N  N  II  N N  N  G       !!!           |
|           W WW W  AAAAAA  RRRRR   N  N N  II  N  N N  G  GGG   !            |
|           WW  WW  A    A  R   R   N   NN  II  N   NN  G    G                |
|           W    W  A    A  R    R  N    N  II  N    N   GGGG   !!!           |
|                                                                             |
|     For optimal performance we recommend to set                             |
|       NCORE = 2 up to number-of-cores-per-socket                            |
|     NCORE specifies how many cores store one orbital (NPAR=cpu/NCORE).      |
|     This setting can greatly improve the performance of VASP for DFT.       |
|     The default, NCORE=1 might be grossly inefficient on modern             |
|     multi-core architectures or massively parallel machines. Do your        |
|     own testing! More info at https://www.vasp.at/wiki/index.php/NCORE      |
|     Unfortunately you need to use the default for GW and RPA                |
|     calculations (for HF NCORE is supported but not extensively tested      |
|     yet).                                                                   |
|                                                                             |
 -----------------------------------------------------------------------------

 Reading from existing POTCAR
 -----------------------------------------------------------------------------
|                                                                             |
|               ----> ADVICE to this user running VASP <----                  |
|                                                                             |
|     You have a (more or less) 'large supercell' and for larger cells it     |
|     might be more efficient to use real-space projection operators.         |
|     Therefore, try LREAL= Auto in the INCAR file.                           |
|     Mind: For very accurate calculation, you might also keep the            |
|     reciprocal projection scheme (i.e. LREAL=.FALSE.).                      |
|                                                                             |
 -----------------------------------------------------------------------------

 LDA part: xc-table for (Slater+PW92), standard interpolation
 POSCAR, INCAR and KPOINTS ok, starting setup
 FFT: planning ... GRIDC
 FFT: planning ... GRID_SOFT
 FFT: planning ... GRID
 WAVECAR not read
 entering main loop
       N       E                     dE             d eps       ncg     rms          rms(c)
DAV:   1     0.589403787938E+03    0.58940E+03   -0.27546E+04 15120   0.761E+02
DAV:   2    -0.124834893588E+03   -0.71424E+03   -0.67781E+03 26754   0.158E+02
DAV:   3    -0.189660310036E+03   -0.64825E+02   -0.63553E+02 22512   0.572E+01
DAV:   4    -0.190799714434E+03   -0.11394E+01   -0.11345E+01 22386   0.901E+00
DAV:   5    -0.190826617945E+03   -0.26904E-01   -0.26890E-01 21630   0.135E+00    0.184E+01
DAV:   6    -0.174986692076E+03    0.15840E+02   -0.14823E+01 22638   0.918E+00    0.970E+00
DAV:   7    -0.170990527209E+03    0.39962E+01   -0.14084E+01 22680   0.786E+00    0.326E+00
DAV:   8    -0.170885510320E+03    0.10502E+00   -0.22070E+00 21924   0.324E+00    0.155E+00
DAV:   9    -0.170719740590E+03    0.16577E+00   -0.19533E-01 21756   0.936E-01    0.647E-01
DAV:  10    -0.170672856959E+03    0.46884E-01   -0.10915E-01 21378   0.661E-01    0.365E-01
DAV:  11    -0.170653315973E+03    0.19541E-01   -0.17334E-02 21924   0.292E-01    0.166E-01
DAV:  12    -0.170655033821E+03   -0.17178E-02   -0.79267E-03 22218   0.185E-01    0.145E-01
DAV:  13    -0.170658612049E+03   -0.35782E-02   -0.78112E-03 21924   0.181E-01    0.843E-02
DAV:  14    -0.170662013298E+03   -0.34012E-02   -0.17217E-03 18480   0.879E-02    0.354E-02
DAV:  15    -0.170666866516E+03   -0.48532E-02   -0.69952E-04 18606   0.490E-02    0.359E-02
DAV:  16    -0.170669583526E+03   -0.27170E-02   -0.35968E-04 19110   0.329E-02    0.124E-02
DAV:  17    -0.170671387772E+03   -0.18042E-02   -0.15030E-04 20286   0.160E-02    0.612E-03
DAV:  18    -0.170672176839E+03   -0.78907E-03   -0.61935E-05 20496   0.788E-03    0.371E-03
DAV:  19    -0.170672365221E+03   -0.18838E-03   -0.91367E-06 20706   0.434E-03    0.137E-03
DAV:  20    -0.170672441041E+03   -0.75820E-04   -0.34110E-06 20076   0.218E-03    0.678E-04
DAV:  21    -0.170672458771E+03   -0.17730E-04   -0.47991E-07 20916   0.763E-04    0.525E-04
DAV:  22    -0.170672464213E+03   -0.54413E-05   -0.12673E-07 17178   0.622E-04    0.177E-04
DAV:  23    -0.170672466053E+03   -0.18407E-05   -0.49153E-08 16170   0.306E-04    0.929E-05
DAV:  24    -0.170672466231E+03   -0.17726E-06    0.21101E-09 15750   0.143E-04
   1 F= -.17305229E+03 E0= -.17299224E+03  d E =-.120095E+00
 writing wavefunctions
