SCF                                     
           1
    11.399516    0.000000    0.000000
     0.000000    6.314134    0.000000
     0.000000    0.000000   24.044058
   B 
    28
Direct configuration=     1
   0.25691115  0.64076397  0.08409683
   0.75691115  0.64076397  0.08409683
   0.24308885  0.35923603  0.08409683
   0.74308885  0.35923603  0.08409683
   0.49308885  0.64076397  0.08409683
   0.99308885  0.64076397  0.08409683
   0.00691115  0.35923603  0.08409683
   0.50691115  0.35923603  0.08409683
   0.29804543  0.90122213  0.08409683
   0.79804543  0.90122213  0.08409683
   0.20195457  0.09877786  0.08409683
   0.70195457  0.09877786  0.08409683
   0.45195457  0.90122213  0.08409683
   0.95195457  0.90122213  0.08409683
   0.04804543  0.09877786  0.08409683
   0.54804543  0.09877786  0.08409683
   0.37500000  0.72378395  0.12541800
   0.87500000  0.72378395  0.12541800
   0.12500000  0.27621605  0.04277567
   0.62500000  0.27621605  0.04277567
   0.37500000  0.72378395  0.04277567
   0.87500000  0.72378395  0.04277567
   0.12500000  0.27621605  0.12541800
   0.62500000  0.27621605  0.12541800
   0.12500000  0.51648766  0.08409683
   0.62500000  0.51648766  0.08409683
   0.37500000  0.48351231  0.08409683
   0.87500000  0.48351231  0.08409683
