 running   42 mpi-ranks, on    1 nodes
 distrk:  each k-point on   42 cores,    1 groups
 distr:  one band on    7 cores,    6 groups
 vasp.6.5.0 16Dec24 (build Jan 08 2025 16:17:04) complex                        
  
 POSCAR found type information on POSCAR B H 
 POSCAR found :  2 types and     270 ions
 Reading from existing POTCAR
 scaLAPACK will be used
 Reading from existing POTCAR
 LDA part: xc-table for (Slater+PW92), standard interpolation
 POSCAR, INCAR and KPOINTS ok, starting setup
 FFT: planning ... GRIDC
 FFT: planning ... GRID_SOFT
 FFT: planning ... GRID
 WAVECAR not read
 entering main loop
       N       E                     dE             d eps       ncg     rms          rms(c)
DAV:   1     0.607493588765E+04    0.60749E+04   -0.29267E+05  6576   0.122E+03
DAV:   2    -0.893108856883E+03   -0.69680E+04   -0.67241E+04  9072   0.263E+02
DAV:   3    -0.176221839202E+04   -0.86911E+03   -0.85630E+03  7200   0.981E+01
DAV:   4    -0.179176746609E+04   -0.29549E+02   -0.29316E+02  8556   0.186E+01
DAV:   5    -0.179277355928E+04   -0.10061E+01   -0.10039E+01  8376   0.301E+00    0.547E+01
DAV:   6    -0.166556000099E+04    0.12721E+03   -0.17795E+02  7308   0.143E+01    0.291E+01
DAV:   7    -0.163529547074E+04    0.30265E+02   -0.11351E+02  7680   0.110E+01    0.883E+00
DAV:   8    -0.163433347888E+04    0.96199E+00   -0.93926E+00  7776   0.379E+00    0.326E+00
DAV:   9    -0.163391459639E+04    0.41888E+00   -0.12462E+00  7656   0.131E+00    0.115E+00
DAV:  10    -0.163386140691E+04    0.53189E-01   -0.17363E-01  8172   0.460E-01    0.649E-01
DAV:  11    -0.163380533580E+04    0.56071E-01   -0.93157E-02  7476   0.300E-01    0.299E-01
DAV:  12    -0.163380233486E+04    0.30009E-02   -0.37825E-02  7668   0.194E-01    0.213E-01
DAV:  13    -0.163382493054E+04   -0.22596E-01   -0.22176E-02  7176   0.143E-01    0.118E-01
DAV:  14    -0.163383975313E+04   -0.14823E-01   -0.52316E-03  7200   0.967E-02    0.693E-02
DAV:  15    -0.163384971844E+04   -0.99653E-02   -0.21152E-03  7368   0.543E-02    0.487E-02
DAV:  16    -0.163386000367E+04   -0.10285E-01   -0.10866E-03  7548   0.324E-02    0.241E-02
DAV:  17    -0.163386513703E+04   -0.51334E-02   -0.28097E-04  7440   0.167E-02    0.162E-02
DAV:  18    -0.163386912349E+04   -0.39865E-02   -0.25287E-04  7512   0.125E-02    0.103E-02
DAV:  19    -0.163387140735E+04   -0.22839E-02   -0.13161E-04  7692   0.811E-03BRMIX: very serious problems
 the old and the new charge density differ
 old charge density:   774.00000 new  774.00854
    0.233E-02
DAV:  20    -0.164734465445E+04   -0.13473E+02    0.25923E-01  7188   0.553E-02BRMIX: very serious problems
 the old and the new charge density differ
 old charge density:   774.00854 new  775.70228
    0.529E-01
DAV:  21    -0.172608474946E+04   -0.78740E+02   -0.95229E+01  7836   0.831E-01BRMIX: very serious problems
 the old and the new charge density differ
 old charge density:   775.70228 new  777.33564
    0.234E+00
DAV:  22    -0.382600573784E+04   -0.20999E+04    0.93041E+01  8076   0.811E+00BRMIX: very serious problems
 the old and the new charge density differ
 old charge density:   777.33564 new  776.86178
    0.205E+00
DAV:  23    -0.507348488743E+04   -0.12475E+04   -0.16757E+02  7452   0.716E+00BRMIX: very serious problems
 the old and the new charge density differ
 old charge density:   776.86178 new  780.64030
    0.274E+00
DAV:  24    -0.944390824288E+04   -0.43704E+04   -0.15632E+02  7776   0.115E+01BRMIX: very serious problems
 the old and the new charge density differ
 old charge density:   780.64030 new  782.38307
    0.356E+00
DAV:  25    -0.824979086950E+04    0.11941E+04   -0.18681E+02  7824   0.173E+01BRMIX: very serious problems
 the old and the new charge density differ
 old charge density:   782.38307 new  782.47953
    0.434E+00
DAV:  26    -0.110048019145E+05   -0.27550E+04   -0.50244E+02  8244   0.220E+01BRMIX: very serious problems
 the old and the new charge density differ
 old charge density:   782.47953 new  783.35926
    0.591E+00
DAV:  27    -0.150985135194E+05   -0.40937E+04   -0.80746E+02  7632   0.302E+01BRMIX: very serious problems
 the old and the new charge density differ
 old charge density:   783.35926 new  780.04593
    0.875E+00
DAV:  28    -0.182165314951E+05   -0.31180E+04   -0.14227E+03  7536   0.432E+01BRMIX: very serious problems
 the old and the new charge density differ
 old charge density:   780.04593 new  787.60105
    0.151E+01
DAV:  29    -0.520895097158E+05   -0.33873E+05    0.14098E+02  7908   0.777E+01BRMIX: very serious problems
 the old and the new charge density differ
 old charge density:   787.60105 new  788.67165
    0.201E+01
DAV:  30    -0.881721652426E+05   -0.36083E+05   -0.10653E+02  8568   0.886E+01BRMIX: very serious problems
 the old and the new charge density differ
 old charge density:   788.67165 new  801.63609
    0.305E+01
DAV:  31    -0.764042761779E+05    0.11768E+05    0.32735E+03  7920   0.117E+02BRMIX: very serious problems
 the old and the new charge density differ
 old charge density:   801.63609 new  801.11785
    0.338E+01
DAV:  32    -0.275728931795E+05    0.48831E+05    0.34102E+03  7536   0.141E+02BRMIX: very serious problems
 the old and the new charge density differ
 old charge density:   801.11785 new  794.41200
    0.300E+01
DAV:  33    -0.633247750562E+05   -0.35752E+05    0.12439E+03  7572   0.122E+02BRMIX: very serious problems
 the old and the new charge density differ
 old charge density:   794.41200 new  811.63453
    0.367E+01
DAV:  34    -0.270170825423E+05    0.36308E+05    0.51233E+03  7440   0.166E+02BRMIX: very serious problems
 the old and the new charge density differ
 old charge density:   811.63453 new  796.20254
    0.302E+01
DAV:  35    -0.119599204269E+06   -0.92582E+05    0.23843E+03  7344   0.138E+02BRMIX: very serious problems
 the old and the new charge density differ
 old charge density:   796.20254 new  786.59184
    0.309E+01
DAV:  36    -0.840107844609E+05    0.35588E+05    0.38811E+02  7644   0.146E+02BRMIX: very serious problems
 the old and the new charge density differ
 old charge density:   786.59184 new  794.65275
    0.429E+01
DAV:  37    -0.816666919012E+05    0.23441E+04    0.21504E+03  7524   0.215E+02BRMIX: very serious problems
 the old and the new charge density differ
 old charge density:   794.65275 new  778.78193
    0.446E+01
DAV:  38    -0.377552332958E+06   -0.29589E+06   -0.84321E+02  7728   0.219E+02BRMIX: very serious problems
 the old and the new charge density differ
 old charge density:   778.78193 new  771.07095
    0.527E+01
DAV:  39    -0.101603465854E+06    0.27595E+06   -0.15827E+03  7440   0.257E+02BRMIX: very serious problems
 the old and the new charge density differ
 old charge density:   771.07095 new  770.62493
    0.586E+01
DAV:  40    -0.429169523488E+05    0.58687E+05   -0.39702E+03  7800   0.250E+02BRMIX: very serious problems
 the old and the new charge density differ
 old charge density:   770.62493 new  741.80508
    0.549E+01
DAV:  41    -0.354185830086E+05    0.74984E+04   -0.73640E+03  7392   0.219E+02BRMIX: very serious problems
 the old and the new charge density differ
 old charge density:   741.80508 new  738.33239
    0.515E+01
DAV:  42    -0.315372470228E+05    0.38813E+04   -0.36257E+04  7944   0.219E+02BRMIX: very serious problems
 the old and the new charge density differ
 old charge density:   738.33239 new  732.12161
    0.572E+01
DAV:  43    -0.147658153100E+08   -0.14734E+08   -0.10059E+04  7476   0.213E+02BRMIX: very serious problems
 the old and the new charge density differ
 old charge density:   732.12161 new  744.70519
    0.615E+01
DAV:  44    -0.108591111649E+06    0.14657E+08   -0.55712E+03  7188   0.234E+02BRMIX: very serious problems
 the old and the new charge density differ
 old charge density:   744.70519 new  772.12464
    0.665E+01
DAV:  45    -0.883254170485E+05    0.20266E+05   -0.15888E+03  7584   0.267E+02BRMIX: very serious problems
 the old and the new charge density differ
 old charge density:   772.12464 new  768.33821
    0.623E+01
DAV:  46    -0.236737218733E+07   -0.22790E+07   -0.49209E+04  7500   0.283E+02BRMIX: very serious problems
 the old and the new charge density differ
 old charge density:   768.33821 new  761.20442
    0.628E+01
DAV:  47    -0.443554034903E+05    0.23230E+07   -0.46370E+03  7452   0.274E+02BRMIX: very serious problems
 the old and the new charge density differ
 old charge density:   761.20442 new  755.20118
    0.567E+01
DAV:  48    -0.548620223741E+05   -0.10507E+05   -0.37792E+03  7680   0.250E+02BRMIX: very serious problems
 the old and the new charge density differ
 old charge density:   755.20118 new  742.18819
    0.528E+01
DAV:  49    -0.425372418431E+05    0.12325E+05   -0.58723E+03  7392   0.233E+02BRMIX: very serious problems
 the old and the new charge density differ
 old charge density:   742.18819 new  739.94849
    0.525E+01
DAV:  50    -0.404953279758E+05    0.20419E+04   -0.62541E+03  8136   0.231E+02BRMIX: very serious problems
 the old and the new charge density differ
 old charge density:   739.94849 new  738.59156
    0.516E+01
DAV:  51    -0.512402706737E+05   -0.10745E+05   -0.10349E+05  7680   0.228E+02BRMIX: very serious problems
 the old and the new charge density differ
 old charge density:   738.59156 new  739.86610
    0.620E+01
DAV:  52    -0.618424791315E+07   -0.61330E+07   -0.91289E+03  7416   0.238E+02BRMIX: very serious problems
 the old and the new charge density differ
 old charge density:   739.86610 new  746.48868
    0.584E+01
DAV:  53    -0.530388888519E+05    0.61312E+07   -0.55328E+03  7140   0.240E+02BRMIX: very serious problems
 the old and the new charge density differ
 old charge density:   746.48868 new  747.40073
    0.546E+01
DAV:  54    -0.435337365919E+05    0.95052E+04   -0.54548E+03  8220   0.228E+02BRMIX: very serious problems
 the old and the new charge density differ
 old charge density:   747.40073 new  740.42422
    0.523E+01
DAV:  55    -0.438944885433E+05   -0.36075E+03   -0.61862E+03  7392   0.241E+02BRMIX: very serious problems
 the old and the new charge density differ
 old charge density:   740.42422 new  740.67932
    0.522E+01
DAV:  56    -0.455748035404E+05   -0.16803E+04   -0.61030E+03  7572   0.239E+02BRMIX: very serious problems
 the old and the new charge density differ
 old charge density:   740.67932 new  735.17846
    0.504E+01
DAV:  57    -0.472022515320E+05   -0.16274E+04   -0.70607E+03  7428   0.231E+02BRMIX: very serious problems
 the old and the new charge density differ
 old charge density:   735.17846 new  738.89375
    0.514E+01
DAV:  58    -0.447833200618E+05    0.24189E+04   -0.63834E+03  7416   0.239E+02BRMIX: very serious problems
 the old and the new charge density differ
 old charge density:   738.89375 new  736.72849
    0.509E+01
DAV:  59    -0.391291512563E+05    0.56542E+04   -0.67795E+03  7404   0.233E+02BRMIX: very serious problems
 the old and the new charge density differ
 old charge density:   736.72849 new  738.30537
    0.510E+01
DAV:  60    -0.412662590149E+05   -0.21371E+04   -0.64927E+03  7440   0.235E+02BRMIX: very serious problems
 the old and the new charge density differ
 old charge density:   738.30537 new  734.11971
    0.499E+01
DAV:  61    -0.423793562241E+05   -0.11131E+04   -0.72516E+03  7452   0.230E+02BRMIX: very serious problems
 the old and the new charge density differ
 old charge density:   734.11971 new  735.24159
    0.502E+01
DAV:  62    -0.385188794811E+05    0.38605E+04   -0.70419E+03  7440   0.233E+02BRMIX: very serious problems
 the old and the new charge density differ
 old charge density:   735.24159 new  729.32893
    0.486E+01
DAV:  63    -0.461643713463E+05   -0.76455E+04   -0.81185E+03  7464   0.220E+02BRMIX: very serious problems
 the old and the new charge density differ
 old charge density:   729.32893 new  730.67042
    0.492E+01
DAV:  64    -0.456814878695E+05    0.48288E+03   -0.78675E+03  7476   0.226E+02BRMIX: very serious problems
 the old and the new charge density differ
 old charge density:   730.67042 new  727.25598
    0.483E+01
DAV:  65    -0.437140833102E+05    0.19674E+04   -0.84997E+03  7476   0.217E+02BRMIX: very serious problems
 the old and the new charge density differ
 old charge density:   727.25598 new  721.81084
    0.469E+01
DAV:  66    -0.397042921992E+05    0.40098E+04   -0.94857E+03  7824   0.209E+02BRMIX: very serious problems
 the old and the new charge density differ
 old charge density:   721.81084 new  724.31653
    0.478E+01
DAV:  67    -0.100521906894E+08   -0.10012E+08   -0.90360E+03  7968   0.215E+02BRMIX: very serious problems
 the old and the new charge density differ
 old charge density:   724.31653 new  738.09386
    0.662E+01
DAV:  68    -0.148293596165E+06    0.99039E+07   -0.10570E+06  7200   0.223E+02BRMIX: very serious problems
 the old and the new charge density differ
 old charge density:   738.09386 new  751.94340
    0.102E+02
DAV:  69    -0.642334116217E+05    0.84060E+05   -0.86153E+03  7656   0.237E+02BRMIX: very serious problems
 the old and the new charge density differ
 old charge density:   751.94340 new  733.84942
    0.558E+01
DAV:  70    -0.645400213816E+05   -0.30661E+03   -0.80755E+03  7260   0.207E+02BRMIX: very serious problems
 the old and the new charge density differ
 old charge density:   733.84942 new  731.68032
    0.517E+01
DAV:  71    -0.169837419301E+06   -0.10530E+06   -0.12262E+06  7716   0.219E+02BRMIX: very serious problems
 the old and the new charge density differ
 old charge density:   731.68032 new  731.28756
    0.911E+01
DAV:  72    -0.414894840863E+05    0.12835E+06   -0.12630E+04  7644   0.224E+02BRMIX: very serious problems
 the old and the new charge density differ
 old charge density:   731.28756 new  727.03474
    0.494E+01
DAV:  73    -0.121788611742E+08   -0.12137E+08   -0.21740E+05  8088   0.218E+02BRMIX: very serious problems
 the old and the new charge density differ
 old charge density:   727.03474 new  746.61622
    0.107E+02
DAV:  74    -0.538731400441E+05    0.12125E+08   -0.95131E+03  7668   0.229E+02BRMIX: very serious problems
 the old and the new charge density differ
 old charge density:   746.61622 new  765.72289
    0.688E+01
DAV:  75    -0.772294567933E+05   -0.23356E+05   -0.36501E+03  7980   0.232E+02BRMIX: very serious problems
 the old and the new charge density differ
 old charge density:   765.72289 new  745.83858
    0.559E+01
DAV:  76    -0.720714252120E+05    0.51580E+04   -0.24032E+05  7848   0.244E+02BRMIX: very serious problems
 the old and the new charge density differ
 old charge density:   745.83858 new  750.07742
    0.725E+01
DAV:  77    -0.614599060644E+05    0.10612E+05   -0.98523E+03  7632   0.253E+02BRMIX: very serious problems
 the old and the new charge density differ
 old charge density:   750.07742 new  749.51250
    0.530E+01
DAV:  78    -0.709355799629E+05   -0.94757E+04   -0.58003E+03  7920   0.251E+02BRMIX: very serious problems
 the old and the new charge density differ
 old charge density:   749.51250 new  753.70430
    0.564E+01
DAV:  79    -0.616915390522E+05    0.92440E+04   -0.52025E+03  7692   0.273E+02BRMIX: very serious problems
 the old and the new charge density differ
 old charge density:   753.70430 new  746.56122
    0.602E+01
DAV:  80    -0.144758701717E+06   -0.83067E+05   -0.54681E+05  7620   0.288E+02BRMIX: very serious problems
 the old and the new charge density differ
 old charge density:   746.56122 new  725.12398
    0.830E+01
DAV:  81    -0.756482188206E+05    0.69110E+05   -0.16851E+04  7284   0.333E+02BRMIX: very serious problems
 the old and the new charge density differ
 old charge density:   725.12398 new  766.99395
    0.639E+01
DAV:  82    -0.157904511025E+06   -0.82256E+05   -0.31670E+03  7584   0.349E+02BRMIX: very serious problems
 the old and the new charge density differ
 old charge density:   766.99395 new  790.21865
    0.758E+01
DAV:  83    -0.190050751864E+06   -0.32146E+05   -0.10255E+06  7740   0.394E+02BRMIX: very serious problems
 the old and the new charge density differ
 old charge density:   790.21865 new  773.62122
    0.132E+02
DAV:  84    -0.850152216085E+05    0.10504E+06   -0.89279E+03  7188   0.377E+02BRMIX: very serious problems
 the old and the new charge density differ
 old charge density:   773.62122 new  764.25840
    0.825E+01
DAV:  85    -0.975438618669E+05   -0.12529E+05   -0.23284E+03  7920   0.364E+02BRMIX: very serious problems
 the old and the new charge density differ
 old charge density:   764.25840 new  777.49512
    0.938E+01
DAV:  86    -0.950565098581E+06   -0.85302E+06   -0.88945E+06  7872   0.419E+02BRMIX: very serious problems
 the old and the new charge density differ
 old charge density:   777.49512 new  772.31803
    0.124E+02
DAV:  87    -0.636582490371E+05    0.88691E+06   -0.67537E+03  7548   0.409E+02BRMIX: very serious problems
 the old and the new charge density differ
 old charge density:   772.31803 new  770.93793
    0.998E+01
DAV:  88    -0.798955658038E+05   -0.16237E+05   -0.33127E+04  8040   0.408E+02BRMIX: very serious problems
 the old and the new charge density differ
 old charge density:   770.93793 new  765.96377
    0.104E+02
DAV:  89    -0.682774663238E+05    0.11618E+05   -0.41567E+03  7848   0.404E+02BRMIX: very serious problems
 the old and the new charge density differ
 old charge density:   765.96377 new  762.98719
    0.104E+02
DAV:  90    -0.724682255423E+07   -0.71785E+07   -0.44298E+06  8064   0.400E+02BRMIX: very serious problems
 the old and the new charge density differ
 old charge density:   762.98719 new  771.78626
    0.176E+02
DAV:  91    -0.532138160974E+06    0.67147E+07   -0.45127E+06  7836   0.421E+02BRMIX: very serious problems
 the old and the new charge density differ
 old charge density:   771.78626 new  774.91062
    0.136E+02
DAV:  92    -0.100567531649E+06    0.43157E+06   -0.65559E+03  7788   0.394E+02BRMIX: very serious problems
 the old and the new charge density differ
 old charge density:   774.91062 new  769.09568
    0.109E+02
DAV:  93    -0.283373037339E+07   -0.27332E+07   -0.27353E+07  8496   0.396E+02BRMIX: very serious problems
 the old and the new charge density differ
 old charge density:   769.09568 new  771.91306
    0.154E+02
DAV:  94    -0.895947839203E+07   -0.61257E+07   -0.74949E+03  7716   0.418E+02BRMIX: very serious problems
 the old and the new charge density differ
 old charge density:   771.91306 new  756.77110
    0.124E+02
DAV:  95    -0.199491399885E+08   -0.10990E+08   -0.31420E+06  7464   0.368E+02BRMIX: very serious problems
 the old and the new charge density differ
 old charge density:   756.77110 new  762.81169
    0.146E+02
DAV:  96    -0.108802688806E+06    0.19840E+08   -0.74278E+03  7944   0.371E+02BRMIX: very serious problems
 the old and the new charge density differ
 old charge density:   762.81169 new  769.42466
    0.108E+02
DAV:  97    -0.682094485320E+07   -0.67121E+07   -0.35456E+03  8004   0.349E+02BRMIX: very serious problems
 the old and the new charge density differ
 old charge density:   769.42466 new  768.67926
    0.116E+02
DAV:  98    -0.896212617187E+05    0.67313E+07   -0.34628E+03  7392   0.362E+02BRMIX: very serious problems
 the old and the new charge density differ
 old charge density:   768.67926 new  781.13230
    0.113E+02
DAV:  99    -0.933710668354E+05   -0.37498E+04    0.24480E+01  7440   0.403E+02BRMIX: very serious problems
 the old and the new charge density differ
 old charge density:   781.13230 new  767.91772
    0.112E+02
DAV: 100    -0.786798905029E+05    0.14691E+05   -0.19599E+03  7368   0.391E+02BRMIX: very serious problems
 the old and the new charge density differ
 old charge density:   767.91772 new  772.98504
    0.118E+02
DAV: 101    -0.241488936149E+06   -0.16281E+06   -0.13980E+06  8148   0.423E+02BRMIX: very serious problems
 the old and the new charge density differ
 old charge density:   772.98504 new  772.80157
    0.128E+02
DAV: 102    -0.824169041640E+07   -0.80002E+07   -0.51626E+03  7596   0.412E+02BRMIX: very serious problems
 the old and the new charge density differ
 old charge density:   772.80157 new  764.76813
    0.121E+02
DAV: 103    -0.178089206323E+06    0.80636E+07   -0.30185E+05  7680   0.369E+02BRMIX: very serious problems
 the old and the new charge density differ
 old charge density:   764.76813 new  783.93098
    0.139E+02
DAV: 104    -0.586659555325E+07   -0.56885E+07   -0.31805E+03  7500   0.399E+02BRMIX: very serious problems
 the old and the new charge density differ
 old charge density:   783.93098 new  770.25512
    0.111E+02
DAV: 105    -0.699804183538E+06    0.51668E+07   -0.60811E+06  7644   0.386E+02BRMIX: very serious problems
 the old and the new charge density differ
 old charge density:   770.25512 new  775.54272
    0.134E+02
DAV: 106    -0.901466259760E+05    0.60966E+06   -0.59540E+03  7992   0.388E+02BRMIX: very serious problems
 the old and the new charge density differ
 old charge density:   775.54272 new  763.54241
    0.109E+02
DAV: 107    -0.138969960029E+06   -0.48823E+05   -0.50125E+05  7800   0.391E+02BRMIX: very serious problems
 the old and the new charge density differ
 old charge density:   763.54241 new  764.85577
    0.130E+02
DAV: 108    -0.181699244821E+07   -0.16780E+07   -0.17502E+07  7920   0.397E+02BRMIX: very serious problems
 the old and the new charge density differ
 old charge density:   764.85577 new  760.59236
    0.128E+02
DAV: 109    -0.139894244039E+08   -0.12172E+08   -0.87333E+03  7752   0.393E+02BRMIX: very serious problems
 the old and the new charge density differ
 old charge density:   760.59236 new  745.66641
    0.114E+02
DAV: 110    -0.103215316408E+08    0.36679E+07   -0.73410E+05  7632   0.342E+02BRMIX: very serious problems
 the old and the new charge density differ
 old charge density:   745.66641 new  771.86744
    0.141E+02
DAV: 111    -0.762243740245E+05    0.10245E+08   -0.58737E+03  7692   0.387E+02BRMIX: very serious problems
 the old and the new charge density differ
 old charge density:   771.86744 new  780.06888
    0.112E+02
DAV: 112    -0.103760336695E+06   -0.27536E+05   -0.35061E+02  7668   0.392E+02BRMIX: very serious problems
 the old and the new charge density differ
 old charge density:   780.06888 new  764.74062
    0.109E+02
DAV: 113    -0.109729190560E+08   -0.10869E+08   -0.27465E+05  7620   0.386E+02BRMIX: very serious problems
 the old and the new charge density differ
 old charge density:   764.74062 new  754.15005
    0.166E+02
DAV: 114    -0.881950885457E+07    0.21534E+07   -0.10284E+04  7416   0.350E+02BRMIX: very serious problems
 the old and the new charge density differ
 old charge density:   754.15005 new  761.58301
    0.121E+02
DAV: 115    -0.191874488668E+08   -0.10368E+08   -0.50945E+03  7740   0.339E+02BRMIX: very serious problems
 the old and the new charge density differ
 old charge density:   761.58301 new  786.60165
    0.127E+02
DAV: 116    -0.689536425131E+05    0.19118E+08    0.13140E+03  7452   0.384E+02BRMIX: very serious problems
 the old and the new charge density differ
 old charge density:   786.60165 new  809.06081
    0.118E+02
DAV: 117    -0.456228887480E+06   -0.38728E+06   -0.91516E+05  7740   0.395E+02BRMIX: very serious problems
 the old and the new charge density differ
 old charge density:   809.06081 new  773.95097
    0.144E+02
DAV: 118    -0.102906977503E+06    0.35332E+06   -0.92157E+03  7212   0.367E+02BRMIX: very serious problems
 the old and the new charge density differ
 old charge density:   773.95097 new  764.13741
    0.107E+02
DAV: 119    -0.626153634897E+06   -0.52325E+06   -0.52474E+06  7656   0.374E+02BRMIX: very serious problems
 the old and the new charge density differ
 old charge density:   764.13741 new  782.16483
    0.131E+02
DAV: 120    -0.108008012103E+08   -0.10175E+08   -0.50361E+03  7380   0.405E+02BRMIX: very serious problems
 the old and the new charge density differ
 old charge density:   782.16483 new  788.77061
    0.128E+02
DAV: 121    -0.159269097413E+08   -0.51261E+07   -0.33509E+07  8064   0.410E+02BRMIX: very serious problems
 the old and the new charge density differ
 old charge density:   788.77061 new  803.44020
    0.208E+02
DAV: 122    -0.132070444986E+06    0.15795E+08   -0.89143E+03  7260   0.411E+02BRMIX: very serious problems
 the old and the new charge density differ
 old charge density:   803.44020 new  802.19692
    0.111E+02
DAV: 123    -0.370986741019E+07   -0.35778E+07   -0.36164E+05  7908   0.395E+02BRMIX: very serious problems
 the old and the new charge density differ
 old charge density:   802.19692 new  782.11284
    0.118E+02
DAV: 124    -0.108301106048E+06    0.36016E+07   -0.28296E+03  7224   0.386E+02BRMIX: very serious problems
 the old and the new charge density differ
 old charge density:   782.11284 new  793.94977
    0.115E+02
DAV: 125    -0.224111886135E+06   -0.11581E+06   -0.12186E+06  7740   0.421E+02BRMIX: very serious problems
 the old and the new charge density differ
 old charge density:   793.94977 new  780.92648
    0.120E+02
DAV: 126    -0.293769144830E+07   -0.27136E+07   -0.28352E+07  7644   0.418E+02BRMIX: very serious problems
 the old and the new charge density differ
 old charge density:   780.92648 new  776.93861
    0.119E+02
DAV: 127    -0.819790568226E+07   -0.52602E+07   -0.47448E+03  7692   0.388E+02BRMIX: very serious problems
 the old and the new charge density differ
 old charge density:   776.93861 new  776.14054
    0.106E+02
DAV: 128    -0.137673269696E+07    0.68212E+07   -0.12208E+07  7620   0.380E+02BRMIX: very serious problems
 the old and the new charge density differ
 old charge density:   776.14054 new  787.35822
    0.169E+02
DAV: 129    -0.201384904438E+08   -0.18762E+08   -0.87383E+03  7668   0.392E+02BRMIX: very serious problems
 the old and the new charge density differ
 old charge density:   787.35822 new  759.90815
    0.107E+02
DAV: 130    -0.117468230031E+08    0.83917E+07   -0.63718E+03  7188   0.325E+02BRMIX: very serious problems
 the old and the new charge density differ
 old charge density:   759.90815 new  805.51863
    0.918E+01
DAV: 131    -0.519277176693E+06    0.11228E+08   -0.40147E+06  7764   0.404E+02BRMIX: very serious problems
 the old and the new charge density differ
 old charge density:   805.51863 new  805.06610
    0.998E+01
DAV: 132    -0.453078133477E+06    0.66199E+05   -0.31313E+05  7776   0.409E+02BRMIX: very serious problems
 the old and the new charge density differ
 old charge density:   805.06610 new  799.93326
    0.713E+01
DAV: 133    -0.699502748701E+07   -0.65419E+07    0.36488E+03  7536   0.415E+02BRMIX: very serious problems
 the old and the new charge density differ
 old charge density:   799.93326 new  777.40459
    0.698E+01
DAV: 134    -0.139836537628E+06    0.68552E+07   -0.14971E+03  7536   0.372E+02BRMIX: very serious problems
 the old and the new charge density differ
 old charge density:   777.40459 new  794.24028
    0.611E+01
DAV: 135    -0.973731586989E+07   -0.95975E+07   -0.33698E+06  7812   0.402E+02BRMIX: very serious problems
 the old and the new charge density differ
 old charge density:   794.24028 new  770.78594
    0.963E+01
DAV: 136    -0.208852416733E+08   -0.11148E+08   -0.71370E+03  7476   0.366E+02BRMIX: very serious problems
 the old and the new charge density differ
 old charge density:   770.78594 new  781.42219
    0.756E+01
DAV: 137    -0.120444217026E+08    0.88408E+07   -0.13225E+03  7344   0.338E+02BRMIX: very serious problems
 the old and the new charge density differ
 old charge density:   781.42219 new  798.97432
    0.651E+01
DAV: 138    -0.196312878414E+08   -0.75869E+07    0.19283E+03  7536   0.344E+02BRMIX: very serious problems
 the old and the new charge density differ
 old charge density:   798.97432 new  780.17255
    0.805E+01
DAV: 139    -0.757827024323E+07    0.12053E+08   -0.27302E+03  7236   0.328E+02BRMIX: very serious problems
 the old and the new charge density differ
 old charge density:   780.17255 new  803.72248
    0.683E+01
DAV: 140    -0.514002692140E+07    0.24382E+07    0.32423E+03  7260   0.385E+02BRMIX: very serious problems
 the old and the new charge density differ
 old charge density:   803.72248 new  804.38723
    0.624E+01
DAV: 141    -0.700330328987E+07   -0.18633E+07   -0.10141E+07  8112   0.391E+02BRMIX: very serious problems
 the old and the new charge density differ
 old charge density:   804.38723 new  802.14699
    0.119E+02
DAV: 142    -0.114023555970E+07    0.58631E+07   -0.33665E+06  7536   0.352E+02BRMIX: very serious problems
 the old and the new charge density differ
 old charge density:   802.14699 new  800.84496
    0.557E+01
DAV: 143    -0.632111952425E+06    0.50812E+06   -0.18672E+06  7476   0.337E+02BRMIX: very serious problems
 the old and the new charge density differ
 old charge density:   800.84496 new  797.89886
    0.736E+01
DAV: 144    -0.401043741822E+07   -0.33783E+07   -0.14679E+03  7428   0.369E+02BRMIX: very serious problems
 the old and the new charge density differ
 old charge density:   797.89886 new  782.18714
    0.484E+01
DAV: 145    -0.786156373821E+07   -0.38511E+07   -0.28290E+02  7416   0.358E+02BRMIX: very serious problems
 the old and the new charge density differ
 old charge density:   782.18714 new  798.93649
    0.454E+01
DAV: 146    -0.731934544783E+07    0.54222E+06   -0.10443E+07  7500   0.368E+02BRMIX: very serious problems
 the old and the new charge density differ
 old charge density:   798.93649 new  789.76220
    0.103E+02
DAV: 147    -0.103521963533E+07    0.62841E+07   -0.91136E+06  7416   0.318E+02BRMIX: very serious problems
 the old and the new charge density differ
 old charge density:   789.76220 new  798.34837
    0.109E+02
DAV: 148    -0.181687792594E+08   -0.17134E+08   -0.99524E+05  7584   0.358E+02BRMIX: very serious problems
 the old and the new charge density differ
 old charge density:   798.34837 new  759.16791
    0.908E+01
DAV: 149    -0.265162235417E+08   -0.83474E+07   -0.11647E+05  6768   0.279E+02BRMIX: very serious problems
 the old and the new charge density differ
 old charge density:   759.16791 new  801.03080
    0.649E+01
DAV: 150    -0.100705941446E+08    0.16446E+08   -0.55800E+05  6984   0.310E+02
 -----------------------------------------------------------------------------
|                                                                             |
|           W    W    AA    RRRRR   N    N  II  N    N   GGGG   !!!           |
|           W    W   A  A   R    R  NN   N  II  NN   N  G    G  !!!           |
|           W    W  A    A  R    R  N N  N  II  N N  N  G       !!!           |
|           W WW W  AAAAAA  RRRRR   N  N N  II  N  N N  G  GGG   !            |
|           WW  WW  A    A  R   R   N   NN  II  N   NN  G    G                |
|           W    W  A    A  R    R  N    N  II  N    N   GGGG   !!!           |
|                                                                             |
|     The electronic self-consistency was not achieved in the given           |
|     number of steps (NELM). The forces and other quantities evaluated       |
|     might not be reliable so examine the results carefully. If you find     |
|     spurious results, we suggest increasing NELM, if you were close to      |
|     convergence or switching to a different ALGO or adjusting the           |
|     density mixing parameters otherwise.                                    |
|                                                                             |
 -----------------------------------------------------------------------------

 -----------------------------------------------------------------------------
|                                                                             |
|           W    W    AA    RRRRR   N    N  II  N    N   GGGG   !!!           |
|           W    W   A  A   R    R  NN   N  II  NN   N  G    G  !!!           |
|           W    W  A    A  R    R  N N  N  II  N N  N  G       !!!           |
|           W WW W  AAAAAA  RRRRR   N  N N  II  N  N N  G  GGG   !            |
|           WW  WW  A    A  R   R   N   NN  II  N   NN  G    G                |
|           W    W  A    A  R    R  N    N  II  N    N   GGGG   !!!           |
|                                                                             |
|     Your highest band is occupied at some k-points! Unless you are          |
|     performing a calculation for an insulator or semiconductor, without     |
|     unoccupied bands, you have included TOO FEW BANDS!! Please increase     |
|     the parameter NBANDS in file INCAR to ensure that the highest band      |
|     is unoccupied at all k-points. It is always recommended to include      |
|     a few unoccupied bands to accelerate the convergence of                 |
|     molecular-dynamics runs (even for insulators or semiconductors),        |
|     since the presence of unoccupied bands improves wavefunction            |
|     prediction and helps to suppress 'band-crossings'.                      |
|                                                                             |
 -----------------------------------------------------------------------------

BRMIX: very serious problems
 the old and the new charge density differ
 old charge density:   801.03080 new  809.69862
   1 F= -.10070626E+08 E0= -.10070625E+08  d E =-.294696E+01
 -----------------------------------------------------------------------------
|                                                                             |
|           W    W    AA    RRRRR   N    N  II  N    N   GGGG   !!!           |
|           W    W   A  A   R    R  NN   N  II  NN   N  G    G  !!!           |
|           W    W  A    A  R    R  N N  N  II  N N  N  G       !!!           |
|           W WW W  AAAAAA  RRRRR   N  N N  II  N  N N  G  GGG   !            |
|           WW  WW  A    A  R   R   N   NN  II  N   NN  G    G                |
|           W    W  A    A  R    R  N    N  II  N    N   GGGG   !!!           |
|                                                                             |
|     The minimum charge density times volume of the cell along the axis      |
|     of the dipole correction is larger 1E-1, which could mean that your     |
|     workfunction is not accurate as there is no field free region in        |
|     your cell. Please consider either increasing the size of your cell      |
|     along the dipole correction (vacuum dimension) or perhaps               |
|     increasing the precision of your calculation.                           |
|                                                                             |
 -----------------------------------------------------------------------------

