k-points
0
Monkhorst-pack
28  39  26
0   0   0