       N       E                     dE             d eps       ncg     rms          rms(c)
DAV:   1     0.382904987877E+03    0.38290E+03   -0.29396E+04 30240   0.823E+02
DAV:   2    -0.133289497500E+03   -0.51619E+03   -0.46337E+03 53676   0.140E+02
DAV:   3    -0.177085943130E+03   -0.43796E+02   -0.43051E+02 44100   0.472E+01
DAV:   4    -0.177692319407E+03   -0.60638E+00   -0.60586E+00 41160   0.652E+00
DAV:   5    -0.177704905838E+03   -0.12586E-01   -0.12581E-01 43932   0.908E-01
DAV:   6    -0.177705364406E+03   -0.45857E-03   -0.45855E-03 44604   0.168E-01
DAV:   7    -0.177705377417E+03   -0.13011E-04   -0.13010E-04 47208   0.212E-02
DAV:   8    -0.177705377668E+03   -0.25015E-06   -0.24975E-06 42420   0.201E-03
   1 F= -.17770538E+03 E0= -.17770367E+03  d E =-.341929E-02  mag=     0.0000
