 running   42 mpi-ranks, on    1 nodes
 distrk:  each k-point on   42 cores,    1 groups
 distr:  one band on    7 cores,    6 groups
 vasp.6.5.0 16Dec24 (build Jan 08 2025 16:17:04) complex                        
  
 POSCAR found type information on POSCAR B H 
 POSCAR found :  2 types and     162 ions
 Reading from existing POTCAR
 scaLAPACK will be used
 Reading from existing POTCAR
 LDA part: xc-table for (Slater+PW92), standard interpolation
 POSCAR, INCAR and KPOINTS ok, starting setup
 FFT: planning ... GRIDC
 FFT: planning ... GRID_SOFT
 FFT: planning ... GRID
 WAVECAR not read
 entering main loop
       N       E                     dE             d eps       ncg     rms          rms(c)
DAV:   1     0.331823346189E+04    0.33182E+04   -0.13791E+05  2496   0.108E+03
DAV:   2    -0.409570960411E+03   -0.37278E+04   -0.36050E+04  3516   0.229E+02
DAV:   3    -0.100419303535E+04   -0.59462E+03   -0.58929E+03  2916   0.985E+01
DAV:   4    -0.102327575103E+04   -0.19083E+02   -0.18949E+02  2928   0.197E+01
DAV:   5    -0.102380423174E+04   -0.52848E+00   -0.52708E+00  3144   0.293E+00    0.423E+01
DAV:   6    -0.963720555828E+03    0.60084E+02   -0.60101E+01  2652   0.107E+01    0.237E+01
DAV:   7    -0.940423449824E+03    0.23297E+02   -0.71205E+01  2784   0.108E+01    0.486E+00
DAV:   8    -0.940187024556E+03    0.23643E+00   -0.54335E+00  2952   0.357E+00    0.236E+00
DAV:   9    -0.940014461909E+03    0.17256E+00   -0.12229E+00  3000   0.184E+00    0.150E+00
DAV:  10    -0.939794704820E+03    0.21976E+00   -0.39573E-01  2952   0.122E+00    0.783E-01
DAV:  11    -0.939765127530E+03    0.29577E-01   -0.15235E-01  2964   0.683E-01    0.552E-01
DAV:  12    -0.939744681057E+03    0.20446E-01   -0.48998E-02  2880   0.412E-01    0.341E-01
DAV:  13    -0.939729191416E+03    0.15490E-01   -0.53959E-02  2880   0.374E-01    0.240E-01
DAV:  14    -0.939730432084E+03   -0.12407E-02   -0.26941E-02  2760   0.271E-01    0.164E-01
DAV:  15    -0.939740248755E+03   -0.98167E-02   -0.86695E-03  2688   0.172E-01    0.133E-01
DAV:  16    -0.939748458799E+03   -0.82100E-02   -0.43784E-03  2634   0.132E-01    0.771E-02
DAV:  17    -0.939758485612E+03   -0.10027E-01   -0.29161E-03  2712   0.729E-02    0.508E-02
DAV:  18    -0.939769211050E+03   -0.10725E-01   -0.84055E-04  2712   0.412E-02    0.296E-02
DAV:  19    -0.939777040755E+03   -0.78297E-02   -0.51126E-04  2616   0.287E-02    0.184E-02
DAV:  20    -0.939781610354E+03   -0.45696E-02   -0.25455E-04  2736   0.180E-02    0.127E-02
DAV:  21    -0.939784263728E+03   -0.26534E-02   -0.12901E-04  2688   0.124E-02    0.799E-03
DAV:  22    -0.939786068430E+03   -0.18047E-02   -0.91182E-05  2760   0.916E-03    0.435E-03
DAV:  23    -0.939786630827E+03   -0.56240E-03   -0.14233E-05  2736   0.406E-03    0.248E-03
DAV:  24    -0.939786919302E+03   -0.28848E-03   -0.62107E-06  2328   0.258E-03    0.125E-03
DAV:  25    -0.939787046606E+03   -0.12730E-03   -0.24299E-06  2280   0.147E-03    0.588E-04
DAV:  26    -0.939787095936E+03   -0.49330E-04   -0.81045E-07  2076   0.820E-04    0.277E-04
DAV:  27    -0.939787107836E+03   -0.11900E-04   -0.11474E-07  1860   0.351E-04    0.106E-04
DAV:  28    -0.939787111773E+03   -0.39371E-05   -0.41150E-08  1836   0.198E-04    0.474E-05
DAV:  29    -0.939787112571E+03   -0.79803E-06    0.11239E-09  1788   0.114E-04
   1 F= -.95251575E+03 E0= -.95242060E+03  d E =-.190299E+00
