  14  14   0   0
  0.6662895E+02  0.5699722E-09  0.6284429E-09  0.2604406E-08  0.5000000E-15
  1.000000000000000E-004
  CAR 
 Parameters                              
      3.77730232    -21.20842452  301     -4.45005431      1.00000000
    -21.208  0.0000E+00  0.0000E+00
    -21.125  0.0000E+00  0.0000E+00
    -21.042  0.0000E+00  0.0000E+00
    -20.959  0.0000E+00  0.0000E+00
    -20.875  0.0000E+00  0.0000E+00
    -20.792  0.0000E+00  0.0000E+00
    -20.709  0.0000E+00  0.0000E+00
    -20.625  0.0000E+00  0.0000E+00
    -20.542  0.0000E+00  0.0000E+00
    -20.459  0.0000E+00  0.0000E+00
    -20.376  0.0000E+00  0.0000E+00
    -20.292  0.6802E-12  0.5665E-13
    -20.209  0.1867E-06  0.1555E-07
    -20.126  0.3297E-03  0.2747E-04
    -20.042  0.9667E-02  0.8326E-03
    -19.959  0.2383E-01  0.2817E-02
    -19.876  0.1775E-01  0.4296E-02
    -19.793  0.1337E-01  0.5409E-02
    -19.709  0.1315E-01  0.6505E-02
    -19.626  0.1151E-01  0.7463E-02
    -19.543  0.1149E-01  0.8420E-02
    -19.459  0.1467E-01  0.9642E-02
    -19.376  0.1956E-01  0.1127E-01
    -19.293  0.1837E-01  0.1280E-01
    -19.210  0.6191E-02  0.1332E-01
    -19.126  0.1948E-03  0.1333E-01
    -19.043  0.9172E-07  0.1333E-01
    -18.960  0.2670E-12  0.1333E-01
    -18.876  0.0000E+00  0.1333E-01
    -18.793  0.0000E+00  0.1333E-01
    -18.710  0.0000E+00  0.1333E-01
    -18.627  0.0000E+00  0.1333E-01
    -18.543  0.0000E+00  0.1333E-01
    -18.460  0.0000E+00  0.1333E-01
    -18.377  0.0000E+00  0.1333E-01
    -18.293  0.0000E+00  0.1333E-01
    -18.210  0.0000E+00  0.1333E-01
    -18.127  0.0000E+00  0.1333E-01
    -18.044  0.0000E+00  0.1333E-01
    -17.960  0.0000E+00  0.1333E-01
    -17.877  0.0000E+00  0.1333E-01
    -17.794  0.0000E+00  0.1333E-01
    -17.710  0.0000E+00  0.1333E-01
    -17.627  0.0000E+00  0.1333E-01
    -17.544  0.0000E+00  0.1333E-01
    -17.461  0.0000E+00  0.1333E-01
    -17.377  0.0000E+00  0.1333E-01
    -17.294  0.0000E+00  0.1333E-01
    -17.211  0.0000E+00  0.1333E-01
    -17.127  0.0000E+00  0.1333E-01
    -17.044  0.0000E+00  0.1333E-01
    -16.961  0.0000E+00  0.1333E-01
    -16.878  0.0000E+00  0.1333E-01
    -16.794  0.0000E+00  0.1333E-01
    -16.711  0.0000E+00  0.1333E-01
    -16.628  0.0000E+00  0.1333E-01
    -16.544  0.0000E+00  0.1333E-01
    -16.461  0.0000E+00  0.1333E-01
    -16.378  0.0000E+00  0.1333E-01
    -16.295  0.0000E+00  0.1333E-01
    -16.211  0.0000E+00  0.1333E-01
    -16.128  0.0000E+00  0.1333E-01
    -16.045  0.0000E+00  0.1333E-01
    -15.961  0.0000E+00  0.1333E-01
    -15.878  0.2023E-12  0.1333E-01
    -15.795  0.9291E-07  0.1333E-01
    -15.712  0.2387E-03  0.1335E-01
    -15.628  0.7637E-02  0.1399E-01
    -15.545  0.2050E-01  0.1570E-01
    -15.462  0.2872E-01  0.1809E-01
    -15.378  0.3620E-01  0.2110E-01
    -15.295  0.3082E-01  0.2367E-01
    -15.212  0.2185E-01  0.2549E-01
    -15.129  0.1086E-01  0.2639E-01
    -15.045  0.3147E-02  0.2666E-01
    -14.962  0.1212E-03  0.2667E-01
    -14.879  0.5124E-07  0.2667E-01
    -14.795  0.1109E-12  0.2667E-01
    -14.712  0.0000E+00  0.2667E-01
    -14.629  0.0000E+00  0.2667E-01
    -14.546  0.0000E+00  0.2667E-01
    -14.462  0.0000E+00  0.2667E-01
    -14.379  0.0000E+00  0.2667E-01
    -14.296  0.0000E+00  0.2667E-01
    -14.212  0.0000E+00  0.2667E-01
    -14.129  0.6912E-18  0.2667E-01
    -14.046  0.1249E-10  0.2667E-01
    -13.963  0.1053E-05  0.2667E-01
    -13.879  0.4971E-03  0.2671E-01
    -13.796  0.2706E-02  0.2693E-01
    -13.713  0.1386E-02  0.2705E-01
    -13.629  0.3645E-02  0.2735E-01
    -13.546  0.4943E-02  0.2776E-01
    -13.463  0.3722E-02  0.2807E-01
    -13.380  0.1030E-01  0.2893E-01
    -13.296  0.1590E-01  0.3026E-01
    -13.213  0.1365E-01  0.3139E-01
    -13.130  0.1140E-01  0.3234E-01
    -13.046  0.1126E-01  0.3328E-01
    -12.963  0.9608E-02  0.3408E-01
    -12.880  0.1073E-01  0.3498E-01
    -12.797  0.1449E-01  0.3618E-01
    -12.713  0.1145E-01  0.3714E-01
    -12.630  0.1325E-01  0.3824E-01
    -12.547  0.1208E-01  0.3925E-01
    -12.463  0.5972E-02  0.3974E-01
    -12.380  0.2488E-02  0.3995E-01
    -12.297  0.5967E-03  0.4000E-01
    -12.214  0.4610E-05  0.4000E-01
    -12.130  0.2303E-09  0.4000E-01
    -12.047  0.5391E-16  0.4000E-01
    -11.964  0.0000E+00  0.4000E-01
    -11.880  0.9874E-19  0.4000E-01
    -11.797  0.2899E-11  0.4000E-01
    -11.714  0.4189E-06  0.4000E-01
    -11.631  0.3996E-03  0.4003E-01
    -11.547  0.6684E-02  0.4059E-01
    -11.464  0.1366E-01  0.4173E-01
    -11.381  0.1977E-01  0.4337E-01
    -11.297  0.1567E-01  0.4468E-01
    -11.214  0.1834E-01  0.4621E-01
    -11.131  0.2503E-01  0.4829E-01
    -11.048  0.1649E-01  0.4966E-01
    -10.964  0.1263E-01  0.5072E-01
    -10.881  0.1485E-01  0.5195E-01
    -10.798  0.1501E-01  0.5320E-01
    -10.714  0.1303E-01  0.5429E-01
    -10.631  0.7951E-02  0.5495E-01
    -10.548  0.1630E-01  0.5631E-01
    -10.465  0.1053E-01  0.5719E-01
    -10.381  0.1022E-01  0.5804E-01
    -10.298  0.1996E-01  0.5970E-01
    -10.215  0.1749E-01  0.6116E-01
    -10.131  0.1578E-01  0.6247E-01
    -10.048  0.1824E-01  0.6399E-01
     -9.965  0.1581E-01  0.6531E-01
     -9.882  0.1304E-01  0.6639E-01
     -9.798  0.1351E-01  0.6752E-01
     -9.715  0.9960E-02  0.6835E-01
     -9.632  0.1297E-01  0.6943E-01
     -9.548  0.1066E-01  0.7031E-01
     -9.465  0.1152E-01  0.7127E-01
     -9.382  0.8099E-02  0.7195E-01
     -9.299  0.3407E-02  0.7223E-01
     -9.215  0.6226E-02  0.7275E-01
     -9.132  0.4983E-02  0.7317E-01
     -9.049  0.7987E-02  0.7383E-01
     -8.965  0.5180E-02  0.7426E-01
     -8.882  0.5305E-02  0.7470E-01
     -8.799  0.7678E-02  0.7534E-01
     -8.716  0.1295E-01  0.7642E-01
     -8.632  0.1448E-01  0.7763E-01
     -8.549  0.8160E-02  0.7831E-01
     -8.466  0.1095E-01  0.7922E-01
     -8.382  0.2275E-02  0.7941E-01
     -8.299  0.2404E-02  0.7961E-01
     -8.216  0.6206E-02  0.8013E-01
     -8.133  0.9010E-02  0.8088E-01
     -8.049  0.9525E-02  0.8167E-01
     -7.966  0.1564E-01  0.8297E-01
     -7.883  0.2303E-01  0.8489E-01
     -7.799  0.2705E-01  0.8715E-01
     -7.716  0.3191E-01  0.8980E-01
     -7.633  0.3550E-01  0.9276E-01
     -7.550  0.2870E-01  0.9515E-01
     -7.466  0.2253E-01  0.9703E-01
     -7.383  0.2279E-01  0.9892E-01
     -7.300  0.2798E-01  0.1013E+00
     -7.216  0.2552E-01  0.1034E+00
     -7.133  0.2270E-01  0.1053E+00
     -7.050  0.1781E-01  0.1068E+00
     -6.967  0.1411E-01  0.1079E+00
     -6.883  0.7674E-02  0.1086E+00
     -6.800  0.9109E-02  0.1093E+00
     -6.717  0.6620E-02  0.1099E+00
     -6.633  0.4049E-02  0.1102E+00
     -6.550  0.1290E-01  0.1113E+00
     -6.467  0.1215E-01  0.1123E+00
     -6.384  0.1165E-01  0.1133E+00
     -6.300  0.1572E-01  0.1146E+00
     -6.217  0.2321E-01  0.1165E+00
     -6.134  0.1833E-01  0.1180E+00
     -6.050  0.1277E-01  0.1191E+00
     -5.967  0.1211E-01  0.1201E+00
     -5.884  0.1783E-01  0.1216E+00
     -5.801  0.1505E-01  0.1229E+00
     -5.717  0.1688E-01  0.1243E+00
     -5.634  0.1937E-01  0.1259E+00
     -5.551  0.1533E-01  0.1271E+00
     -5.467  0.1485E-01  0.1284E+00
     -5.384  0.9871E-02  0.1292E+00
     -5.301  0.2253E-02  0.1294E+00
     -5.218  0.1098E-02  0.1295E+00
     -5.134  0.1568E-02  0.1296E+00
     -5.051  0.3205E-02  0.1299E+00
     -4.968  0.3060E-02  0.1301E+00
     -4.884  0.6855E-02  0.1307E+00
     -4.801  0.5420E-02  0.1312E+00
     -4.718  0.5430E-02  0.1316E+00
     -4.635  0.2397E-01  0.1336E+00
     -4.551  0.3253E-01  0.1363E+00
     -4.468  0.3362E-01  0.1391E+00
     -4.385  0.4739E-01  0.1431E+00
     -4.301  0.2018E-01  0.1447E+00
     -4.218  0.5036E-02  0.1452E+00
     -4.135  0.2547E-03  0.1452E+00
     -4.052  0.1230E-02  0.1453E+00
     -3.968  0.5147E-02  0.1457E+00
     -3.885  0.3806E-02  0.1460E+00
     -3.802  0.4735E-03  0.1461E+00
     -3.718  0.1192E-05  0.1461E+00
     -3.635  0.7897E-06  0.1461E+00
     -3.552  0.3589E-03  0.1461E+00
     -3.469  0.2554E-02  0.1463E+00
     -3.385  0.6411E-03  0.1464E+00
     -3.302  0.1807E-03  0.1464E+00
     -3.219  0.2480E-02  0.1466E+00
     -3.135  0.8942E-03  0.1467E+00
     -3.052  0.5146E-05  0.1467E+00
     -2.969  0.2050E-09  0.1467E+00
     -2.886  0.4108E-16  0.1467E+00
     -2.802  0.0000E+00  0.1467E+00
     -2.719  0.0000E+00  0.1467E+00
     -2.636  0.0000E+00  0.1467E+00
     -2.552  0.0000E+00  0.1467E+00
     -2.469  0.0000E+00  0.1467E+00
     -2.386  0.0000E+00  0.1467E+00
     -2.303  0.0000E+00  0.1467E+00
     -2.219  0.0000E+00  0.1467E+00
     -2.136  0.9874E-19  0.1467E+00
     -2.053  0.2961E-11  0.1467E+00
     -1.969  0.3808E-06  0.1467E+00
     -1.886  0.2950E-03  0.1467E+00
     -1.803  0.2640E-02  0.1469E+00
     -1.720  0.1620E-02  0.1470E+00
     -1.636  0.5227E-02  0.1475E+00
     -1.553  0.1004E-01  0.1483E+00
     -1.470  0.1736E-01  0.1498E+00
     -1.386  0.1941E-01  0.1514E+00
     -1.303  0.2461E-01  0.1534E+00
     -1.220  0.2621E-01  0.1556E+00
     -1.137  0.2682E-01  0.1578E+00
     -1.053  0.1762E-01  0.1593E+00
     -0.970  0.2272E-01  0.1612E+00
     -0.887  0.1220E-01  0.1622E+00
     -0.803  0.1362E-01  0.1634E+00
     -0.720  0.1800E-01  0.1649E+00
     -0.637  0.1682E-01  0.1663E+00
     -0.554  0.2360E-01  0.1682E+00
     -0.470  0.1884E-01  0.1698E+00
     -0.387  0.1499E-01  0.1710E+00
     -0.304  0.1711E-01  0.1725E+00
     -0.220  0.1287E-01  0.1735E+00
     -0.137  0.1479E-01  0.1748E+00
     -0.054  0.2028E-01  0.1765E+00
      0.029  0.1916E-01  0.1781E+00
      0.113  0.1374E-01  0.1792E+00
      0.196  0.2854E-01  0.1816E+00
      0.279  0.1244E-01  0.1826E+00
      0.363  0.1263E-01  0.1837E+00
      0.446  0.1017E-01  0.1845E+00
      0.529  0.6066E-02  0.1850E+00
      0.612  0.7194E-02  0.1856E+00
      0.696  0.9976E-02  0.1864E+00
      0.779  0.1181E-01  0.1874E+00
      0.862  0.1023E-01  0.1883E+00
      0.946  0.1356E-01  0.1894E+00
      1.029  0.1590E-01  0.1907E+00
      1.112  0.3069E-01  0.1933E+00
      1.195  0.3195E-01  0.1960E+00
      1.279  0.2499E-01  0.1980E+00
      1.362  0.3369E-01  0.2008E+00
      1.445  0.3163E-01  0.2035E+00
      1.529  0.2571E-01  0.2056E+00
      1.612  0.3041E-01  0.2081E+00
      1.695  0.2002E-01  0.2098E+00
      1.778  0.2567E-01  0.2120E+00
      1.862  0.2871E-01  0.2143E+00
      1.945  0.2776E-01  0.2167E+00
      2.028  0.3771E-01  0.2198E+00
      2.112  0.4262E-01  0.2233E+00
      2.195  0.3783E-01  0.2265E+00
      2.278  0.2066E-01  0.2282E+00
      2.361  0.2300E-01  0.2301E+00
      2.445  0.2013E-01  0.2318E+00
      2.528  0.1288E-01  0.2329E+00
      2.611  0.3756E-02  0.2332E+00
      2.695  0.1521E-02  0.2333E+00
      2.778  0.1191E-03  0.2333E+00
      2.861  0.1030E-06  0.2333E+00
      2.944  0.4700E-12  0.2333E+00
      3.028  0.0000E+00  0.2333E+00
      3.111  0.0000E+00  0.2333E+00
      3.194  0.0000E+00  0.2333E+00
      3.278  0.0000E+00  0.2333E+00
      3.361  0.0000E+00  0.2333E+00
      3.444  0.0000E+00  0.2333E+00
      3.527  0.0000E+00  0.2333E+00
      3.611  0.0000E+00  0.2333E+00
      3.694  0.0000E+00  0.2333E+00
      3.777  0.0000E+00  0.2333E+00
