       N       E                     dE             d eps       ncg     rms          rms(c)
DAV:   1     0.343742510887E+03    0.34374E+03   -0.13782E+04  3150   0.900E+02
DAV:   2    -0.410434215747E+02   -0.38479E+03   -0.37571E+03  4774   0.188E+02
DAV:   3    -0.936115588783E+02   -0.52568E+02   -0.52213E+02  3990   0.823E+01
DAV:   4    -0.947810271096E+02   -0.11695E+01   -0.11608E+01  4326   0.145E+01
DAV:   5    -0.948054220622E+02   -0.24395E-01   -0.24361E-01  4627   0.200E+00    0.130E+01
DAV:   6    -0.870065662699E+02    0.77989E+01   -0.10316E+01  3843   0.110E+01    0.691E+00
DAV:   7    -0.849808550362E+02    0.20257E+01   -0.99593E+00  4256   0.933E+00    0.243E+00
DAV:   8    -0.848914445905E+02    0.89410E-01   -0.13233E+00  4123   0.384E+00    0.118E+00
DAV:   9    -0.848107091912E+02    0.80735E-01   -0.12007E-01  4158   0.114E+00    0.410E-01
DAV:  10    -0.847924680738E+02    0.18241E-01   -0.48038E-02  4417   0.583E-01    0.234E-01
DAV:  11    -0.847827564810E+02    0.97116E-02   -0.91296E-03  4263   0.309E-01    0.108E-01
DAV:  12    -0.847839252949E+02   -0.11688E-02   -0.26228E-03  4235   0.168E-01    0.691E-02
DAV:  13    -0.847859013823E+02   -0.19761E-02   -0.21814E-03  3962   0.130E-01    0.430E-02
DAV:  14    -0.847877465735E+02   -0.18452E-02   -0.66646E-04  4277   0.658E-02    0.236E-02
DAV:  15    -0.847894905277E+02   -0.17440E-02   -0.17685E-04  4186   0.356E-02    0.129E-02
DAV:  16    -0.847907773552E+02   -0.12868E-02   -0.13753E-04  3976   0.236E-02    0.660E-03
DAV:  17    -0.847915194963E+02   -0.74214E-03   -0.57324E-05  4123   0.142E-02    0.408E-03
DAV:  18    -0.847918705519E+02   -0.35106E-03   -0.26735E-05  4263   0.945E-03    0.242E-03
DAV:  19    -0.847920273645E+02   -0.15681E-03   -0.92970E-06  3584   0.530E-03    0.108E-03
DAV:  20    -0.847920687794E+02   -0.41415E-04   -0.12880E-06  3752   0.204E-03    0.551E-04
DAV:  21    -0.847920881884E+02   -0.19409E-04   -0.60986E-07  3675   0.134E-03    0.337E-04
DAV:  22    -0.847920928181E+02   -0.46297E-05   -0.10501E-07  3654   0.738E-04    0.166E-04
DAV:  23    -0.847920944246E+02   -0.16065E-05   -0.32797E-08  3598   0.372E-04    0.548E-05
DAV:  24    -0.847920948859E+02   -0.46139E-06   -0.69574E-09  3556   0.166E-04
   1 F= -.85988897E+02 E0= -.85980238E+02  d E =-.859889E+02
       N       E                     dE             d eps       ncg     rms          rms(c)
DAV:   1    -0.851182364321E+02   -0.32614E+00   -0.21295E+01  3178   0.218E+01    0.122E+00
DAV:   2    -0.851084094349E+02    0.98270E-02   -0.36318E-01  4718   0.278E+00    0.647E-01
DAV:   3    -0.850966135975E+02    0.11796E-01   -0.41707E-02  4200   0.870E-01    0.162E-01
DAV:   4    -0.850965998353E+02    0.13762E-04   -0.51053E-03  4438   0.306E-01    0.637E-02
DAV:   5    -0.850965927314E+02    0.71038E-05   -0.26500E-04  4774   0.727E-02    0.249E-02
DAV:   6    -0.850965993099E+02   -0.65784E-05   -0.41375E-05  4074   0.277E-02    0.681E-03
DAV:   7    -0.850966166417E+02   -0.17332E-04   -0.65336E-06  4263   0.107E-02    0.265E-03
DAV:   8    -0.850966324960E+02   -0.15854E-04   -0.11238E-06  3682   0.359E-03    0.139E-03
DAV:   9    -0.850966514778E+02   -0.18982E-04   -0.16516E-06  3626   0.281E-03    0.818E-04
DAV:  10    -0.850966703282E+02   -0.18850E-04   -0.24945E-06  3626   0.252E-03    0.456E-04
DAV:  11    -0.850966764441E+02   -0.61159E-05   -0.48855E-07  3689   0.111E-03    0.291E-04
DAV:  12    -0.850966802115E+02   -0.37674E-05   -0.29881E-07  3570   0.782E-04    0.147E-04
DAV:  13    -0.850966816844E+02   -0.14729E-05   -0.80848E-08  3682   0.435E-04    0.872E-05
DAV:  14    -0.850966823264E+02   -0.64200E-06   -0.19620E-08  3521   0.233E-04
   2 F= -.86293654E+02 E0= -.86284285E+02  d E =-.304758E+00
       N       E                     dE             d eps       ncg     rms          rms(c)
DAV:   1    -0.851069262166E+02   -0.10245E-01   -0.86230E-01  3318   0.440E+00    0.250E-01
DAV:   2    -0.851064496589E+02    0.47656E-03   -0.14767E-02  4732   0.558E-01    0.135E-01
DAV:   3    -0.851059129251E+02    0.53673E-03   -0.18746E-03  4067   0.186E-01    0.305E-02
DAV:   4    -0.851059149687E+02   -0.20436E-05   -0.22224E-04  4361   0.641E-02    0.130E-02
DAV:   5    -0.851059138471E+02    0.11216E-05   -0.11823E-05  4935   0.151E-02    0.502E-03
DAV:   6    -0.851059135451E+02    0.30201E-06   -0.16238E-06  3374   0.561E-03
   3 F= -.86302941E+02 E0= -.86293532E+02  d E =-.314044E+00
       N       E                     dE             d eps       ncg     rms          rms(c)
DAV:   1    -0.852476620917E+02   -0.14175E+00   -0.14551E+01  3192   0.183E+01    0.108E+00
DAV:   2    -0.852273848857E+02    0.20277E-01   -0.21601E-01  4585   0.224E+00    0.575E-01
DAV:   3    -0.852200486287E+02    0.73363E-02   -0.39737E-02  4193   0.827E-01    0.138E-01
DAV:   4    -0.852197093164E+02    0.33931E-03   -0.52052E-03  4361   0.325E-01    0.660E-02
DAV:   5    -0.852197338876E+02   -0.24571E-04   -0.43993E-04  4375   0.892E-02    0.212E-02
DAV:   6    -0.852197241124E+02    0.97752E-05   -0.53271E-05  4410   0.308E-02    0.838E-03
DAV:   7    -0.852197263588E+02   -0.22464E-05   -0.74779E-06  4354   0.114E-02    0.212E-03
DAV:   8    -0.852197275414E+02   -0.11827E-05   -0.63011E-07  3332   0.343E-03    0.905E-04
DAV:   9    -0.852197287566E+02   -0.12152E-05   -0.15065E-07  3276   0.156E-03    0.404E-04
DAV:  10    -0.852197298082E+02   -0.10516E-05   -0.67210E-08  3304   0.857E-04    0.197E-04
DAV:  11    -0.852197307472E+02   -0.93901E-06   -0.57179E-08  3143   0.530E-04
   4 F= -.86415734E+02 E0= -.86405929E+02  d E =-.112793E+00
       N       E                     dE             d eps       ncg     rms          rms(c)
DAV:   1    -0.852241452142E+02   -0.44154E-02   -0.35121E-01  3234   0.284E+00    0.166E-01
DAV:   2    -0.852236279925E+02    0.51722E-03   -0.50226E-03  4536   0.341E-01    0.885E-02
DAV:   3    -0.852234550330E+02    0.17296E-03   -0.95783E-04  4067   0.129E-01    0.212E-02
DAV:   4    -0.852234470220E+02    0.80110E-05   -0.13382E-04  4249   0.520E-02    0.100E-02
DAV:   5    -0.852234476708E+02   -0.64881E-06   -0.11095E-05  4242   0.143E-02    0.328E-03
DAV:   6    -0.852234475501E+02    0.12076E-06   -0.12026E-06  3339   0.485E-03
   5 F= -.86419608E+02 E0= -.86409813E+02  d E =-.116668E+00
       N       E                     dE             d eps       ncg     rms          rms(c)
DAV:   1    -0.852745682499E+02   -0.51121E-01   -0.25415E+00  3178   0.743E+00    0.491E-01
DAV:   2    -0.852690254853E+02    0.55428E-02   -0.51583E-02  4424   0.108E+00    0.251E-01
DAV:   3    -0.852672689337E+02    0.17566E-02   -0.10043E-02  4137   0.404E-01    0.622E-02
DAV:   4    -0.852672417433E+02    0.27190E-04   -0.11204E-03  4305   0.146E-01    0.309E-02
DAV:   5    -0.852672495419E+02   -0.77986E-05   -0.67938E-05  4200   0.364E-02    0.940E-03
DAV:   6    -0.852672518693E+02   -0.23274E-05   -0.13543E-05  4109   0.155E-02    0.309E-03
DAV:   7    -0.852672562748E+02   -0.44054E-05   -0.16925E-06  4242   0.525E-03    0.102E-03
DAV:   8    -0.852672598997E+02   -0.36249E-05   -0.22492E-07  3626   0.166E-03    0.553E-04
DAV:   9    -0.852672644687E+02   -0.45690E-05   -0.23306E-07  3584   0.114E-03    0.336E-04
DAV:  10    -0.852672692972E+02   -0.48285E-05   -0.36965E-07  3584   0.103E-03    0.237E-04
DAV:  11    -0.852672711963E+02   -0.18992E-05   -0.11561E-07  3654   0.609E-04    0.109E-04
DAV:  12    -0.852672721190E+02   -0.92268E-06   -0.42909E-08  3577   0.338E-04
   6 F= -.86463399E+02 E0= -.86453600E+02  d E =-.437907E-01
       N       E                     dE             d eps       ncg     rms          rms(c)
DAV:   1    -0.852698590362E+02   -0.25878E-02   -0.18542E-01  3206   0.200E+00    0.133E-01
DAV:   2    -0.852694629329E+02    0.39610E-03   -0.37506E-03  4214   0.292E-01    0.681E-02
DAV:   3    -0.852693344000E+02    0.12853E-03   -0.72540E-04  3990   0.109E-01    0.167E-02
DAV:   4    -0.852693321507E+02    0.22492E-05   -0.81225E-05  4277   0.393E-02    0.826E-03
DAV:   5    -0.852693321303E+02    0.20435E-07   -0.49340E-06  4298   0.975E-03
   7 F= -.86465450E+02 E0= -.86455697E+02  d E =-.458412E-01
       N       E                     dE             d eps       ncg     rms          rms(c)
DAV:   1    -0.852808276501E+02   -0.11495E-01   -0.78939E-01  3178   0.429E+00    0.242E-01
DAV:   2    -0.852805790074E+02    0.24864E-03   -0.14196E-02  4550   0.568E-01    0.135E-01
DAV:   3    -0.852800449648E+02    0.53404E-03   -0.20516E-03  4088   0.201E-01    0.258E-02
DAV:   4    -0.852800505297E+02   -0.55649E-05   -0.25469E-04  4417   0.688E-02    0.137E-02
DAV:   5    -0.852800493795E+02    0.11503E-05   -0.10790E-05  4984   0.141E-02    0.531E-03
DAV:   6    -0.852800486111E+02    0.76834E-06   -0.24529E-06  3955   0.685E-03
   8 F= -.86475772E+02 E0= -.86466114E+02  d E =-.103228E-01
       N       E                     dE             d eps       ncg     rms          rms(c)
DAV:   1    -0.852800547254E+02   -0.53460E-05   -0.10774E-04  3542   0.500E-02    0.276E-03
DAV:   2    -0.852800548688E+02   -0.14334E-06   -0.21971E-06  4445   0.705E-03
   9 F= -.86475774E+02 E0= -.86466118E+02  d E =-.103245E-01
       N       E                     dE             d eps       ncg     rms          rms(c)
DAV:   1    -0.852859837071E+02   -0.59290E-02   -0.40963E-01  3283   0.311E+00    0.171E-01
DAV:   2    -0.852856851238E+02    0.29858E-03   -0.67153E-03  4711   0.402E-01    0.941E-02
DAV:   3    -0.852854701658E+02    0.21496E-03   -0.10161E-03  4214   0.140E-01    0.219E-02
DAV:   4    -0.852854665733E+02    0.35926E-05   -0.13905E-04  4375   0.533E-02    0.102E-02
DAV:   5    -0.852854675503E+02   -0.97705E-06   -0.82662E-06  4200   0.126E-02
  10 F= -.86481092E+02 E0= -.86471392E+02  d E =-.531816E-02
       N       E                     dE             d eps       ncg     rms          rms(c)
DAV:   1    -0.852856116237E+02   -0.14505E-03   -0.10871E-02  3409   0.506E-01    0.280E-02
DAV:   2    -0.852856053046E+02    0.63191E-05   -0.18165E-04  4753   0.661E-02    0.155E-02
DAV:   3    -0.852855998900E+02    0.54146E-05   -0.26869E-05  4165   0.228E-02    0.362E-03
DAV:   4    -0.852855998900E+02    0.16826E-10   -0.36740E-06  4039   0.869E-03
  11 F= -.86481210E+02 E0= -.86471504E+02  d E =-.543553E-02
       N       E                     dE             d eps       ncg     rms          rms(c)
DAV:   1    -0.852863442179E+02   -0.74433E-03   -0.58421E-02  3276   0.117E+00    0.655E-02
DAV:   2    -0.852863052879E+02    0.38930E-04   -0.81367E-04  4627   0.137E-01    0.371E-02
DAV:   3    -0.852862718437E+02    0.33444E-04   -0.14793E-04  3990   0.541E-02    0.678E-03
DAV:   4    -0.852862716322E+02    0.21150E-06   -0.18213E-05  4039   0.189E-02    0.370E-03
DAV:   5    -0.852862716570E+02   -0.24796E-07   -0.10969E-06  2702   0.461E-03
  12 F= -.86482076E+02 E0= -.86472377E+02  d E =-.866277E-03
       N       E                     dE             d eps       ncg     rms          rms(c)
DAV:   1    -0.852862687142E+02    0.29180E-05   -0.18156E-05  3598   0.205E-02    0.127E-03
DAV:   2    -0.852862687523E+02   -0.38171E-07   -0.31578E-07  2513   0.280E-03
  13 F= -.86482076E+02 E0= -.86472378E+02  d E =-.866671E-03
       N       E                     dE             d eps       ncg     rms          rms(c)
DAV:   1    -0.852864132514E+02   -0.14454E-03   -0.18973E-02  3283   0.670E-01    0.352E-02
DAV:   2    -0.852863973441E+02    0.15907E-04   -0.38164E-04  4438   0.935E-02    0.184E-02
DAV:   3    -0.852863910383E+02    0.63058E-05   -0.49872E-05  4137   0.307E-02    0.611E-03
DAV:   4    -0.852863906845E+02    0.35375E-06   -0.71865E-06  4235   0.120E-02
  14 F= -.86482297E+02 E0= -.86472588E+02  d E =-.221062E-03
       N       E                     dE             d eps       ncg     rms          rms(c)
DAV:   1    -0.852864031285E+02   -0.12090E-04   -0.17565E-04  3528   0.641E-02    0.366E-03
DAV:   2    -0.852864027628E+02    0.36578E-06   -0.40972E-06  4410   0.966E-03
  15 F= -.86482300E+02 E0= -.86472592E+02  d E =-.223801E-03
       N       E                     dE             d eps       ncg     rms          rms(c)
DAV:   1    -0.852864553483E+02   -0.52220E-04   -0.19295E-03  3234   0.215E-01    0.102E-02
DAV:   2    -0.852864547246E+02    0.62375E-06   -0.26202E-05  4193   0.247E-02    0.560E-03
DAV:   3    -0.852864540059E+02    0.71869E-06   -0.43418E-06  4025   0.898E-03
  16 F= -.86482338E+02 E0= -.86472629E+02  d E =-.382237E-04
       N       E                     dE             d eps       ncg     rms          rms(c)
DAV:   1    -0.852864609233E+02   -0.61987E-05   -0.20413E-04  3689   0.701E-02    0.366E-03
DAV:   2    -0.852864609662E+02   -0.42903E-07   -0.28116E-06  4340   0.810E-03
  17 F= -.86482341E+02 E0= -.86472631E+02  d E =-.409949E-04
       N       E                     dE             d eps       ncg     rms          rms(c)
DAV:   1    -0.852864905042E+02   -0.29581E-04   -0.14830E-03  3269   0.189E-01    0.885E-03
DAV:   2    -0.852864900383E+02    0.46590E-06   -0.24577E-05  4452   0.247E-02    0.483E-03
DAV:   3    -0.852864895619E+02    0.47641E-06   -0.33867E-06  3920   0.824E-03
  18 F= -.86482356E+02 E0= -.86472657E+02  d E =-.152619E-04
