o-B14 monolayer with hydrogen termination bridge    
   1.00000000000000     
     5.6996084400258251   -0.0359659741932407    0.0000000000000000
    -0.0425287277402584    6.2842851587428976    0.0000000000000000
     0.0000000000000000    0.0000000000000000   26.0440578460999994
  B          
    14
Direct
     0.4985751357286405    0.6573585885626892    0.1544317381249485
     0.5014248644818935    0.3426414114214726    0.1544317381249485
     0.9805119094064396    0.6412714718402218    0.1544317381249485
     0.0194880906286466    0.3587285281439401    0.1544317381249485
     0.6040192381427023    0.9083108060564818    0.1544317381249485
     0.3959807618923841    0.0916891864840629    0.1544317381249485
     0.8991362569290472    0.9013920373515673    0.1544317381249485
     0.1008637431060393    0.0986079551889774    0.1544317381249485
     0.7356057267385505    0.7146352700462917    0.1930227145010129
     0.2643942731210961    0.2853647299378633    0.1158407640910745
     0.7356057267385505    0.7146352700462917    0.1158407640910745
     0.2643942731210961    0.2853647299378633    0.1930227145010129
     0.2516049875576482    0.5203466598891141    0.1544317381249485
     0.7483950123019986    0.4796533103205790    0.1544317381249485
