 running   42 mpi-ranks, on    1 nodes
 distrk:  each k-point on   42 cores,    1 groups
 distr:  one band on    7 cores,    6 groups
 vasp.6.5.0 16Dec24 (build Jan 08 2025 16:17:04) complex                        
  
 POSCAR found type information on POSCAR B H 
 POSCAR found :  2 types and     270 ions
 Reading from existing POTCAR
 scaLAPACK will be used
 Reading from existing POTCAR
 LDA part: xc-table for (Slater+PW92), standard interpolation
 POSCAR, INCAR and KPOINTS ok, starting setup
 FFT: planning ... GRIDC
 FFT: planning ... GRID_SOFT
 FFT: planning ... GRID
 WAVECAR not read
 entering main loop
       N       E                     dE             d eps       ncg     rms          rms(c)
DAV:   1     0.607488403151E+04    0.60749E+04   -0.29267E+05  6576   0.122E+03
DAV:   2    -0.893103977279E+03   -0.69680E+04   -0.67240E+04  9072   0.263E+02
DAV:   3    -0.176220856688E+04   -0.86910E+03   -0.85629E+03  7200   0.981E+01
DAV:   4    -0.179175790512E+04   -0.29549E+02   -0.29316E+02  8556   0.186E+01
DAV:   5    -0.179276584457E+04   -0.10079E+01   -0.10058E+01  8412   0.301E+00    0.547E+01
DAV:   6    -0.166556249881E+04    0.12720E+03   -0.17791E+02  7308   0.143E+01    0.291E+01
DAV:   7    -0.163529628159E+04    0.30266E+02   -0.11352E+02  7680   0.110E+01    0.883E+00
DAV:   8    -0.163433481552E+04    0.96147E+00   -0.93920E+00  7764   0.379E+00    0.326E+00
DAV:   9    -0.163391608374E+04    0.41873E+00   -0.12456E+00  7656   0.131E+00    0.115E+00
DAV:  10    -0.163386293060E+04    0.53153E-01   -0.17345E-01  8160   0.459E-01    0.648E-01
DAV:  11    -0.163380672032E+04    0.56210E-01   -0.93342E-02  7476   0.299E-01    0.298E-01
DAV:  12    -0.163380392917E+04    0.27911E-02   -0.37439E-02  7644   0.191E-01    0.212E-01
DAV:  13    -0.163382711578E+04   -0.23187E-01   -0.22933E-02  7272   0.138E-01    0.114E-01
DAV:  14    -0.163384375599E+04   -0.16640E-01   -0.46988E-03  7224   0.838E-02    0.663E-02
DAV:  15    -0.163385199620E+04   -0.82402E-02   -0.15716E-03  7476   0.514E-02    0.468E-02
DAV:  16    -0.163386156809E+04   -0.95719E-02   -0.10036E-03  7548   0.323E-02    0.239E-02
DAV:  17    -0.163386744731E+04   -0.58792E-02   -0.37227E-04  7392   0.174E-02    0.150E-02
DAV:  18    -0.163387072649E+04   -0.32792E-02   -0.18253E-04  7668   0.111E-02BRMIX: very serious problems
 the old and the new charge density differ
 old charge density:   774.00000 new  774.01018
    0.266E-02
DAV:  19    -0.166175215637E+04   -0.27881E+02   -0.78034E+00  7980   0.789E-02BRMIX: very serious problems
 the old and the new charge density differ
 old charge density:   774.01018 new  777.04717
    0.100E+00
DAV:  20    -0.185221365957E+04   -0.19046E+03    0.18277E+02  8112   0.184E+00BRMIX: very serious problems
 the old and the new charge density differ
 old charge density:   777.04717 new  783.13139
    0.259E+00
DAV:  21    -0.285611690842E+04   -0.10039E+04   -0.35201E+01  8196   0.518E+00BRMIX: very serious problems
 the old and the new charge density differ
 old charge density:   783.13139 new  774.71080
    0.327E+00
DAV:  22    -0.784942310054E+04   -0.49933E+04   -0.42002E+02  7680   0.134E+01BRMIX: very serious problems
 the old and the new charge density differ
 old charge density:   774.71080 new  777.51268
    0.368E+00
DAV:  23    -0.151843921167E+05   -0.73350E+04   -0.74020E+02  7536   0.171E+01BRMIX: very serious problems
 the old and the new charge density differ
 old charge density:   777.51268 new  788.01709
    0.663E+00
DAV:  24    -0.159961645322E+05   -0.81177E+03   -0.58464E+02  7908   0.271E+01BRMIX: very serious problems
 the old and the new charge density differ
 old charge density:   788.01709 new  784.75330
    0.992E+00
DAV:  25    -0.244100817291E+05   -0.84139E+04   -0.10241E+03  7608   0.474E+01BRMIX: very serious problems
 the old and the new charge density differ
 old charge density:   784.75330 new  779.59368
    0.142E+01
DAV:  26    -0.725061192329E+05   -0.48096E+05   -0.11681E+03  7788   0.658E+01BRMIX: very serious problems
 the old and the new charge density differ
 old charge density:   779.59368 new  785.88267
    0.225E+01
DAV:  27    -0.287230292363E+05    0.43783E+05    0.45506E+02  7728   0.914E+01BRMIX: very serious problems
 the old and the new charge density differ
 old charge density:   785.88267 new  788.52137
    0.272E+01
DAV:  28    -0.302538701156E+05   -0.15308E+04    0.14742E+03  7824   0.100E+02BRMIX: very serious problems
 the old and the new charge density differ
 old charge density:   788.52137 new  788.77446
    0.315E+01
DAV:  29    -0.249350382690E+05    0.53188E+04    0.20602E+03  8196   0.109E+02BRMIX: very serious problems
 the old and the new charge density differ
 old charge density:   788.77446 new  786.92170
    0.293E+01
DAV:  30    -0.233598353464E+05    0.15752E+04    0.19557E+03  7512   0.108E+02BRMIX: very serious problems
 the old and the new charge density differ
 old charge density:   786.92170 new  788.02695
    0.278E+01
DAV:  31    -0.199007458518E+05    0.34591E+04    0.23009E+03  7524   0.104E+02BRMIX: very serious problems
 the old and the new charge density differ
 old charge density:   788.02695 new  792.94790
    0.287E+01
DAV:  32    -0.216758987200E+05   -0.17752E+04    0.32781E+03  7752   0.115E+02BRMIX: very serious problems
 the old and the new charge density differ
 old charge density:   792.94790 new  794.99233
    0.281E+01
DAV:  33    -0.200874027552E+05    0.15885E+04    0.36832E+03  7860   0.112E+02BRMIX: very serious problems
 the old and the new charge density differ
 old charge density:   794.99233 new  800.68947
    0.290E+01
DAV:  34    -0.533704305557E+05   -0.33283E+05    0.47072E+03  7944   0.118E+02BRMIX: very serious problems
 the old and the new charge density differ
 old charge density:   800.68947 new  820.03299
    0.338E+01
DAV:  35    -0.230356100710E+05    0.30335E+05    0.80093E+03  8124   0.154E+02BRMIX: very serious problems
 the old and the new charge density differ
 old charge density:   820.03299 new  819.62429
    0.293E+01
DAV:  36    -0.491950090409E+05   -0.26159E+05    0.71855E+03  7500   0.122E+02BRMIX: very serious problems
 the old and the new charge density differ
 old charge density:   819.62429 new  830.68690
    0.351E+01
DAV:  37    -0.334962739249E+05    0.15699E+05    0.91306E+03  7704   0.167E+02BRMIX: very serious problems
 the old and the new charge density differ
 old charge density:   830.68690 new  824.74403
    0.298E+01
DAV:  38    -0.414491398176E+05   -0.79529E+04    0.71069E+03  7452   0.131E+02BRMIX: very serious problems
 the old and the new charge density differ
 old charge density:   824.74403 new  815.54078
    0.299E+01
DAV:  39    -0.330828135767E+05    0.83663E+04    0.39493E+03  7536   0.129E+02BRMIX: very serious problems
 the old and the new charge density differ
 old charge density:   815.54078 new  793.37885
    0.337E+01
DAV:  40    -0.113437958365E+08   -0.11311E+08    0.59903E+02  7524   0.156E+02BRMIX: very serious problems
 the old and the new charge density differ
 old charge density:   793.37885 new  784.36389
    0.530E+01
DAV:  41    -0.430313598240E+05    0.11301E+08   -0.99985E+01  7536   0.218E+02BRMIX: very serious problems
 the old and the new charge density differ
 old charge density:   784.36389 new  764.69175
    0.489E+01
DAV:  42    -0.161084259942E+06   -0.11805E+06   -0.49606E+03  7656   0.195E+02BRMIX: very serious problems
 the old and the new charge density differ
 old charge density:   764.69175 new  762.98305
    0.519E+01
DAV:  43    -0.530837705799E+05    0.10800E+06   -0.37763E+03  7476   0.234E+02BRMIX: very serious problems
 the old and the new charge density differ
 old charge density:   762.98305 new  754.28059
    0.541E+01
DAV:  44    -0.371060304340E+05    0.15978E+05   -0.41610E+03  7764   0.226E+02BRMIX: very serious problems
 the old and the new charge density differ
 old charge density:   754.28059 new  749.74483
    0.547E+01
DAV:  45    -0.407568602805E+05   -0.36508E+04   -0.43606E+04  7848   0.240E+02BRMIX: very serious problems
 the old and the new charge density differ
 old charge density:   749.74483 new  742.82083
    0.656E+01
DAV:  46    -0.367701523670E+05    0.39867E+04   -0.35395E+04  7512   0.228E+02BRMIX: very serious problems
 the old and the new charge density differ
 old charge density:   742.82083 new  745.22673
    0.551E+01
DAV:  47    -0.503999132861E+05   -0.13630E+05   -0.68442E+04  7596   0.238E+02BRMIX: very serious problems
 the old and the new charge density differ
 old charge density:   745.22673 new  738.35999
    0.674E+01
DAV:  48    -0.539104667851E+05   -0.35106E+04   -0.92708E+03  7428   0.222E+02BRMIX: very serious problems
 the old and the new charge density differ
 old charge density:   738.35999 new  738.68197
    0.514E+01
DAV:  49    -0.525477660830E+05    0.13627E+04   -0.64466E+03  7680   0.230E+02BRMIX: very serious problems
 the old and the new charge density differ
 old charge density:   738.68197 new  733.82368
    0.498E+01
DAV:  50    -0.514186137082E+05    0.11292E+04   -0.37710E+04  7476   0.217E+02BRMIX: very serious problems
 the old and the new charge density differ
 old charge density:   733.82368 new  731.16493
    0.549E+01
DAV:  51    -0.416780529975E+05    0.97406E+04   -0.10061E+04  7764   0.215E+02BRMIX: very serious problems
 the old and the new charge density differ
 old charge density:   731.16493 new  735.49273
    0.500E+01
DAV:  52    -0.489012619537E+05   -0.72232E+04   -0.70158E+03  7440   0.226E+02BRMIX: very serious problems
 the old and the new charge density differ
 old charge density:   735.49273 new  736.96712
    0.503E+01
DAV:  53    -0.477337045850E+05    0.11676E+04   -0.67380E+03  7824   0.234E+02BRMIX: very serious problems
 the old and the new charge density differ
 old charge density:   736.96712 new  740.42324
    0.511E+01
DAV:  54    -0.418688897212E+05    0.58648E+04   -0.61187E+03  7464   0.240E+02BRMIX: very serious problems
 the old and the new charge density differ
 old charge density:   740.42324 new  735.78040
    0.499E+01
DAV:  55    -0.434607883216E+05   -0.15919E+04   -0.69557E+03  7428   0.231E+02BRMIX: very serious problems
 the old and the new charge density differ
 old charge density:   735.78040 new  733.72765
    0.494E+01
DAV:  56    -0.405134247834E+05    0.29474E+04   -0.73375E+03  7764   0.228E+02BRMIX: very serious problems
 the old and the new charge density differ
 old charge density:   733.72765 new  731.40649
    0.488E+01
DAV:  57    -0.426437258067E+05   -0.21303E+04   -0.77589E+03  7608   0.223E+02BRMIX: very serious problems
 the old and the new charge density differ
 old charge density:   731.40649 new  729.24063
    0.482E+01
DAV:  58    -0.459483276785E+05   -0.33046E+04   -0.81457E+03  7680   0.218E+02BRMIX: very serious problems
 the old and the new charge density differ
 old charge density:   729.24063 new  725.87551
    0.474E+01
DAV:  59    -0.426094835448E+05    0.33388E+04   -0.87530E+03  7560   0.210E+02BRMIX: very serious problems
 the old and the new charge density differ
 old charge density:   725.87551 new  729.16768
    0.483E+01
DAV:  60    -0.455995628992E+05   -0.29901E+04   -0.81575E+03  7452   0.217E+02BRMIX: very serious problems
 the old and the new charge density differ
 old charge density:   729.16768 new  725.61400
    0.473E+01
DAV:  61    -0.448490034655E+05    0.75056E+03   -0.87978E+03  8136   0.212E+02BRMIX: very serious problems
 the old and the new charge density differ
 old charge density:   725.61400 new  726.77656
    0.478E+01
DAV:  62    -0.460910995888E+05   -0.12421E+04   -0.85919E+03  7992   0.214E+02BRMIX: very serious problems
 the old and the new charge density differ
 old charge density:   726.77656 new  725.22054
    0.474E+01
DAV:  63    -0.427582210141E+05    0.33329E+04   -0.88756E+03  7956   0.208E+02BRMIX: very serious problems
 the old and the new charge density differ
 old charge density:   725.22054 new  723.49302
    0.471E+01
DAV:  64    -0.427873127959E+05   -0.29092E+02   -0.92205E+03  8088   0.209E+02BRMIX: very serious problems
 the old and the new charge density differ
 old charge density:   723.49302 new  722.02928
    0.462E+01
DAV:  65    -0.448094102250E+05   -0.20221E+04   -0.10632E+04  8064   0.201E+02BRMIX: very serious problems
 the old and the new charge density differ
 old charge density:   722.02928 new  718.86676
    0.489E+01
DAV:  66    -0.132369463253E+08   -0.13192E+08   -0.11387E+06  7992   0.221E+02BRMIX: very serious problems
 the old and the new charge density differ
 old charge density:   718.86676 new  744.73457
    0.110E+02
DAV:  67    -0.615916286763E+05    0.13175E+08   -0.11560E+04  7212   0.251E+02BRMIX: very serious problems
 the old and the new charge density differ
 old charge density:   744.73457 new  751.45916
    0.631E+01
DAV:  68    -0.786107174811E+05   -0.17019E+05   -0.77368E+03  7836   0.244E+02BRMIX: very serious problems
 the old and the new charge density differ
 old charge density:   751.45916 new  739.12811
    0.588E+01
DAV:  69    -0.731549861656E+05    0.54557E+04   -0.93488E+03  7680   0.253E+02BRMIX: very serious problems
 the old and the new charge density differ
 old charge density:   739.12811 new  720.62780
    0.608E+01
DAV:  70    -0.718269837190E+05    0.13280E+04   -0.12199E+04  7524   0.277E+02BRMIX: very serious problems
 the old and the new charge density differ
 old charge density:   720.62780 new  701.86827
    0.652E+01
DAV:  71    -0.339785301029E+06   -0.26796E+06   -0.22302E+06  7632   0.295E+02BRMIX: very serious problems
 the old and the new charge density differ
 old charge density:   701.86827 new  699.32273
    0.103E+02
DAV:  72    -0.796828624120E+05    0.26010E+06   -0.19019E+04  7848   0.343E+02BRMIX: very serious problems
 the old and the new charge density differ
 old charge density:   699.32273 new  675.71725
    0.731E+01
DAV:  73    -0.700230740154E+05    0.96598E+04   -0.18244E+04  7812   0.317E+02BRMIX: very serious problems
 the old and the new charge density differ
 old charge density:   675.71725 new  682.19697
    0.771E+01
DAV:  74    -0.391576717130E+06   -0.32155E+06   -0.33019E+06  7812   0.345E+02BRMIX: very serious problems
 the old and the new charge density differ
 old charge density:   682.19697 new  677.34664
    0.109E+02
DAV:  75    -0.129978638202E+06    0.26160E+06   -0.77043E+05  7812   0.344E+02BRMIX: very serious problems
 the old and the new charge density differ
 old charge density:   677.34664 new  671.60554
    0.102E+02
DAV:  76    -0.684460030010E+05    0.61533E+05   -0.33143E+04  7944   0.340E+02BRMIX: very serious problems
 the old and the new charge density differ
 old charge density:   671.60554 new  670.50586
    0.793E+01
DAV:  77    -0.653857282289E+05    0.30603E+04   -0.20665E+04  7800   0.330E+02BRMIX: very serious problems
 the old and the new charge density differ
 old charge density:   670.50586 new  672.87149
    0.798E+01
DAV:  78    -0.336478601991E+06   -0.27109E+06   -0.27765E+06  7932   0.340E+02BRMIX: very serious problems
 the old and the new charge density differ
 old charge density:   672.87149 new  666.63746
    0.113E+02
DAV:  79    -0.627809609779E+05    0.27370E+06   -0.26489E+04  7740   0.336E+02BRMIX: very serious problems
 the old and the new charge density differ
 old charge density:   666.63746 new  660.96263
    0.757E+01
DAV:  80    -0.605448365586E+06   -0.54267E+06   -0.54303E+06  8484   0.312E+02BRMIX: very serious problems
 the old and the new charge density differ
 old charge density:   660.96263 new  667.89417
    0.128E+02
DAV:  81    -0.124804208714E+08   -0.11875E+08   -0.47993E+06  7752   0.346E+02BRMIX: very serious problems
 the old and the new charge density differ
 old charge density:   667.89417 new  686.95479
    0.135E+02
DAV:  82    -0.912704119910E+05    0.12389E+08   -0.22187E+04  7524   0.353E+02BRMIX: very serious problems
 the old and the new charge density differ
 old charge density:   686.95479 new  696.52248
    0.861E+01
DAV:  83    -0.233932259760E+07   -0.22481E+07   -0.14044E+05  7884   0.360E+02BRMIX: very serious problems
 the old and the new charge density differ
 old charge density:   696.52248 new  693.73400
    0.100E+02
DAV:  84    -0.958531335686E+06    0.13808E+07   -0.90762E+06  7536   0.378E+02BRMIX: very serious problems
 the old and the new charge density differ
 old charge density:   693.73400 new  691.62909
    0.114E+02
DAV:  85    -0.146507383146E+08   -0.13692E+08   -0.17728E+06  7944   0.351E+02BRMIX: very serious problems
 the old and the new charge density differ
 old charge density:   691.62909 new  683.38110
    0.131E+02
DAV:  86    -0.104228345279E+06    0.14547E+08   -0.22754E+04  7476   0.344E+02BRMIX: very serious problems
 the old and the new charge density differ
 old charge density:   683.38110 new  702.95077
    0.836E+01
DAV:  87    -0.436256398622E+07   -0.42583E+07   -0.13808E+05  8016   0.354E+02BRMIX: very serious problems
 the old and the new charge density differ
 old charge density:   702.95077 new  698.80230
    0.112E+02
DAV:  88    -0.975015553630E+05    0.42651E+07   -0.18562E+04  7380   0.338E+02BRMIX: very serious problems
 the old and the new charge density differ
 old charge density:   698.80230 new  695.58456
    0.789E+01
DAV:  89    -0.833260604807E+05    0.14175E+05   -0.16037E+04  7860   0.327E+02BRMIX: very serious problems
 the old and the new charge density differ
 old charge density:   695.58456 new  699.82708
    0.815E+01
DAV:  90    -0.315949206973E+06   -0.23262E+06   -0.24021E+06  7848   0.366E+02BRMIX: very serious problems
 the old and the new charge density differ
 old charge density:   699.82708 new  691.81766
    0.137E+02
DAV:  91    -0.685726462097E+05    0.24738E+06   -0.25127E+04  7728   0.367E+02BRMIX: very serious problems
 the old and the new charge density differ
 old charge density:   691.81766 new  699.03550
    0.806E+01
DAV:  92    -0.371121299859E+06   -0.30255E+06   -0.27481E+06  7980   0.362E+02BRMIX: very serious problems
 the old and the new charge density differ
 old charge density:   699.03550 new  704.20600
    0.101E+02
DAV:  93    -0.982828832224E+05    0.27284E+06   -0.18808E+04  7884   0.388E+02BRMIX: very serious problems
 the old and the new charge density differ
 old charge density:   704.20600 new  698.71356
    0.835E+01
DAV:  94    -0.144362147924E+06   -0.46079E+05   -0.53342E+05  7728   0.396E+02BRMIX: very serious problems
 the old and the new charge density differ
 old charge density:   698.71356 new  692.64522
    0.101E+02
DAV:  95    -0.161106337472E+07   -0.14667E+07   -0.15245E+07  7836   0.434E+02BRMIX: very serious problems
 the old and the new charge density differ
 old charge density:   692.64522 new  668.77461
    0.159E+02
DAV:  96    -0.141595868052E+08   -0.12549E+08   -0.32574E+04  8076   0.425E+02BRMIX: very serious problems
 the old and the new charge density differ
 old charge density:   668.77461 new  650.65461
    0.109E+02
DAV:  97    -0.280429014858E+06    0.13879E+08   -0.25612E+04  7896   0.421E+02BRMIX: very serious problems
 the old and the new charge density differ
 old charge density:   650.65461 new  680.26833
    0.104E+02
DAV:  98    -0.325577473709E+07   -0.29753E+07   -0.53383E+06  8076   0.500E+02BRMIX: very serious problems
 the old and the new charge density differ
 old charge density:   680.26833 new  656.32375
    0.131E+02
DAV:  99    -0.102203639339E+06    0.31536E+07   -0.29233E+04  7560   0.491E+02BRMIX: very serious problems
 the old and the new charge density differ
 old charge density:   656.32375 new  647.48320
    0.109E+02
DAV: 100    -0.169066034729E+06   -0.66862E+05   -0.43416E+05  7668   0.498E+02BRMIX: very serious problems
 the old and the new charge density differ
 old charge density:   647.48320 new  630.03900
    0.122E+02
DAV: 101    -0.749440972192E+07   -0.73253E+07   -0.60108E+06  7740   0.511E+02BRMIX: very serious problems
 the old and the new charge density differ
 old charge density:   630.03900 new  608.07824
    0.153E+02
DAV: 102    -0.200440492892E+06    0.72940E+07   -0.38576E+04  7356   0.508E+02BRMIX: very serious problems
 the old and the new charge density differ
 old charge density:   608.07824 new  633.94427
    0.139E+02
DAV: 103    -0.208523104488E+06   -0.80826E+04   -0.28059E+04  7812   0.605E+02BRMIX: very serious problems
 the old and the new charge density differ
 old charge density:   633.94427 new  596.28248
    0.138E+02
DAV: 104    -0.127213979550E+06    0.81309E+05   -0.40000E+04  7800   0.584E+02BRMIX: very serious problems
 the old and the new charge density differ
 old charge density:   596.28248 new  574.57112
    0.143E+02
DAV: 105    -0.145481133289E+08   -0.14421E+08   -0.38197E+04  7848   0.579E+02BRMIX: very serious problems
 the old and the new charge density differ
 old charge density:   574.57112 new  563.50166
    0.158E+02
DAV: 106    -0.171530145775E+07    0.12833E+08   -0.15587E+07  7332   0.544E+02BRMIX: very serious problems
 the old and the new charge density differ
 old charge density:   563.50166 new  598.11712
    0.180E+02
DAV: 107    -0.394960780144E+07   -0.22343E+07   -0.38747E+04  8040   0.599E+02BRMIX: very serious problems
 the old and the new charge density differ
 old charge density:   598.11712 new  599.18294
    0.165E+02
DAV: 108    -0.672619803215E+07   -0.27766E+07   -0.32485E+04  7644   0.644E+02BRMIX: very serious problems
 the old and the new charge density differ
 old charge density:   599.18294 new  593.12213
    0.167E+02
DAV: 109    -0.907279930797E+07   -0.23466E+07   -0.34870E+04  7596   0.592E+02BRMIX: very serious problems
 the old and the new charge density differ
 old charge density:   593.12213 new  584.48854
    0.152E+02
DAV: 110    -0.669313204812E+06    0.84035E+07   -0.47083E+06  7764   0.580E+02BRMIX: very serious problems
 the old and the new charge density differ
 old charge density:   584.48854 new  619.79091
    0.174E+02
DAV: 111    -0.289934026852E+06    0.37938E+06   -0.17837E+06  7488   0.693E+02BRMIX: very serious problems
 the old and the new charge density differ
 old charge density:   619.79091 new  591.40594
    0.182E+02
DAV: 112    -0.142896353836E+06    0.14704E+06   -0.42854E+04  7680   0.610E+02BRMIX: very serious problems
 the old and the new charge density differ
 old charge density:   591.40594 new  581.12004
    0.175E+02
DAV: 113    -0.663130041021E+07   -0.64884E+07   -0.13067E+07  7728   0.601E+02BRMIX: very serious problems
 the old and the new charge density differ
 old charge density:   581.12004 new  603.20684
    0.215E+02
DAV: 114    -0.132183418198E+08   -0.65870E+07   -0.22475E+06  7824   0.661E+02BRMIX: very serious problems
 the old and the new charge density differ
 old charge density:   603.20684 new  566.63396
    0.200E+02
DAV: 115    -0.293419187045E+06    0.12925E+08   -0.46360E+04  7464   0.556E+02BRMIX: very serious problems
 the old and the new charge density differ
 old charge density:   566.63396 new  600.54250
    0.174E+02
DAV: 116    -0.253404204806E+06    0.40015E+05   -0.48833E+05  7512   0.607E+02BRMIX: very serious problems
 the old and the new charge density differ
 old charge density:   600.54250 new  611.38445
    0.181E+02
DAV: 117    -0.794354080710E+07   -0.76901E+07   -0.13688E+07  7992   0.670E+02BRMIX: very serious problems
 the old and the new charge density differ
 old charge density:   611.38445 new  576.53777
    0.181E+02
DAV: 118    -0.233331952644E+06    0.77102E+07   -0.64251E+05  7416   0.598E+02BRMIX: very serious problems
 the old and the new charge density differ
 old charge density:   576.53777 new  612.07861
    0.188E+02
DAV: 119    -0.158835291066E+06    0.74497E+05   -0.35598E+04  7716   0.663E+02BRMIX: very serious problems
 the old and the new charge density differ
 old charge density:   612.07861 new  580.48266
    0.173E+02
DAV: 120    -0.169578445713E+08   -0.16799E+08   -0.18714E+07  8004   0.611E+02BRMIX: very serious problems
 the old and the new charge density differ
 old charge density:   580.48266 new  571.25302
    0.210E+02
DAV: 121    -0.312133979970E+06    0.16646E+08   -0.10691E+06  7392   0.587E+02BRMIX: very serious problems
 the old and the new charge density differ
 old charge density:   571.25302 new  625.26550
    0.179E+02
DAV: 122    -0.100535472315E+08   -0.97414E+07   -0.14122E+07  8052   0.658E+02BRMIX: very serious problems
 the old and the new charge density differ
 old charge density:   625.26550 new  577.38974
    0.171E+02
DAV: 123    -0.698755671469E+07    0.30660E+07   -0.11647E+06  7632   0.580E+02BRMIX: very serious problems
 the old and the new charge density differ
 old charge density:   577.38974 new  603.54069
    0.168E+02
DAV: 124    -0.313372969445E+07    0.38538E+07   -0.14921E+06  7752   0.623E+02BRMIX: very serious problems
 the old and the new charge density differ
 old charge density:   603.54069 new  603.67257
    0.162E+02
DAV: 125    -0.918321973727E+07   -0.60495E+07   -0.32289E+06  7848   0.621E+02BRMIX: very serious problems
 the old and the new charge density differ
 old charge density:   603.67257 new  597.47548
    0.186E+02
DAV: 126    -0.270012625922E+06    0.89132E+07   -0.11082E+06  7488   0.598E+02BRMIX: very serious problems
 the old and the new charge density differ
 old charge density:   597.47548 new  612.28473
    0.152E+02
DAV: 127    -0.444584710032E+07   -0.41758E+07   -0.32362E+07  8136   0.607E+02BRMIX: very serious problems
 the old and the new charge density differ
 old charge density:   612.28473 new  607.65567
    0.147E+02
DAV: 128    -0.172832549780E+08   -0.12837E+08   -0.31257E+07  8244   0.602E+02BRMIX: very serious problems
 the old and the new charge density differ
 old charge density:   607.65567 new  601.73763
    0.225E+02
DAV: 129    -0.234321610254E+08   -0.61489E+07   -0.73752E+07  7740   0.556E+02BRMIX: very serious problems
 the old and the new charge density differ
 old charge density:   601.73763 new  608.40220
    0.150E+02
DAV: 130    -0.412189727906E+06    0.23020E+08   -0.89392E+05  7752   0.549E+02BRMIX: very serious problems
 the old and the new charge density differ
 old charge density:   608.40220 new  593.90684
    0.148E+02
DAV: 131    -0.396280513550E+08   -0.39216E+08   -0.65101E+07  7968   0.579E+02BRMIX: very serious problems
 the old and the new charge density differ
 old charge density:   593.90684 new  601.84081
    0.181E+02
DAV: 132    -0.407309885369E+08   -0.11029E+07   -0.42489E+07  7980   0.585E+02BRMIX: very serious problems
 the old and the new charge density differ
 old charge density:   601.84081 new  587.75232
    0.172E+02
DAV: 133    -0.292024276199E+08    0.11529E+08   -0.28351E+07  7752   0.557E+02BRMIX: very serious problems
 the old and the new charge density differ
 old charge density:   587.75232 new  588.74198
    0.153E+02
DAV: 134    -0.794490488151E+07    0.21258E+08   -0.62280E+06  7944   0.553E+02BRMIX: very serious problems
 the old and the new charge density differ
 old charge density:   588.74198 new  572.97503
    0.167E+02
DAV: 135    -0.212951703685E+08   -0.13350E+08   -0.43458E+06  7860   0.563E+02BRMIX: very serious problems
 the old and the new charge density differ
 old charge density:   572.97503 new  577.32351
    0.199E+02
DAV: 136    -0.734685117956E+07    0.13948E+08   -0.33358E+06  6972   0.548E+02BRMIX: very serious problems
 the old and the new charge density differ
 old charge density:   577.32351 new  642.92602
    0.170E+02
DAV: 137    -0.482760795475E+08   -0.40929E+08   -0.15327E+08  8220   0.602E+02BRMIX: very serious problems
 the old and the new charge density differ
 old charge density:   642.92602 new  649.25445
    0.185E+02
DAV: 138    -0.547818298899E+07    0.42798E+08   -0.16993E+07  7776   0.625E+02BRMIX: very serious problems
 the old and the new charge density differ
 old charge density:   649.25445 new  605.20997
    0.177E+02
DAV: 139    -0.197357720290E+08   -0.14258E+08   -0.58366E+07  7728   0.561E+02BRMIX: very serious problems
 the old and the new charge density differ
 old charge density:   605.20997 new  619.58686
    0.181E+02
DAV: 140    -0.387539610953E+08   -0.19018E+08   -0.78384E+07  8088   0.593E+02BRMIX: very serious problems
 the old and the new charge density differ
 old charge density:   619.58686 new  620.80213
    0.190E+02
DAV: 141    -0.382365032618E+07    0.34930E+08   -0.13604E+07  7500   0.660E+02BRMIX: very serious problems
 the old and the new charge density differ
 old charge density:   620.80213 new  620.52440
    0.210E+02
DAV: 142    -0.159935270823E+08   -0.12170E+08   -0.50181E+06  7500   0.705E+02BRMIX: very serious problems
 the old and the new charge density differ
 old charge density:   620.52440 new  591.36365
    0.176E+02
DAV: 143    -0.166897569118E+08   -0.69623E+06   -0.96360E+06  7416   0.640E+02BRMIX: very serious problems
 the old and the new charge density differ
 old charge density:   591.36365 new  613.14101
    0.172E+02
DAV: 144    -0.407017162779E+07    0.12620E+08   -0.20825E+07  7992   0.659E+02BRMIX: very serious problems
 the old and the new charge density differ
 old charge density:   613.14101 new  649.97418
    0.174E+02
DAV: 145    -0.808871667252E+07   -0.40185E+07   -0.40724E+07  8244   0.711E+02BRMIX: very serious problems
 the old and the new charge density differ
 old charge density:   649.97418 new  623.31224
    0.185E+02
DAV: 146    -0.589447171814E+07    0.21942E+07   -0.13809E+06  7128   0.678E+02BRMIX: very serious problems
 the old and the new charge density differ
 old charge density:   623.31224 new  653.62505
    0.148E+02
DAV: 147    -0.546904617779E+07    0.42543E+06   -0.20049E+07  7896   0.792E+02BRMIX: very serious problems
 the old and the new charge density differ
 old charge density:   653.62505 new  630.91439
    0.166E+02
DAV: 148    -0.182568712502E+08   -0.12788E+08   -0.81305E+06  7848   0.846E+02BRMIX: very serious problems
 the old and the new charge density differ
 old charge density:   630.91439 new  604.97978
    0.139E+02
DAV: 149    -0.245208528298E+08   -0.62640E+07   -0.40665E+06  7740   0.796E+02BRMIX: very serious problems
 the old and the new charge density differ
 old charge density:   604.97978 new  607.64349
    0.165E+02
DAV: 150    -0.422898315422E+07    0.20292E+08   -0.34489E+06  7608   0.817E+02
 -----------------------------------------------------------------------------
|                                                                             |
|           W    W    AA    RRRRR   N    N  II  N    N   GGGG   !!!           |
|           W    W   A  A   R    R  NN   N  II  NN   N  G    G  !!!           |
|           W    W  A    A  R    R  N N  N  II  N N  N  G       !!!           |
|           W WW W  AAAAAA  RRRRR   N  N N  II  N  N N  G  GGG   !            |
|           WW  WW  A    A  R   R   N   NN  II  N   NN  G    G                |
|           W    W  A    A  R    R  N    N  II  N    N   GGGG   !!!           |
|                                                                             |
|     The electronic self-consistency was not achieved in the given           |
|     number of steps (NELM). The forces and other quantities evaluated       |
|     might not be reliable so examine the results carefully. If you find     |
|     spurious results, we suggest increasing NELM, if you were close to      |
|     convergence or switching to a different ALGO or adjusting the           |
|     density mixing parameters otherwise.                                    |
|                                                                             |
 -----------------------------------------------------------------------------

 -----------------------------------------------------------------------------
|                                                                             |
|           W    W    AA    RRRRR   N    N  II  N    N   GGGG   !!!           |
|           W    W   A  A   R    R  NN   N  II  NN   N  G    G  !!!           |
|           W    W  A    A  R    R  N N  N  II  N N  N  G       !!!           |
|           W WW W  AAAAAA  RRRRR   N  N N  II  N  N N  G  GGG   !            |
|           WW  WW  A    A  R   R   N   NN  II  N   NN  G    G                |
|           W    W  A    A  R    R  N    N  II  N    N   GGGG   !!!           |
|                                                                             |
|     Your highest band is occupied at some k-points! Unless you are          |
|     performing a calculation for an insulator or semiconductor, without     |
|     unoccupied bands, you have included TOO FEW BANDS!! Please increase     |
|     the parameter NBANDS in file INCAR to ensure that the highest band      |
|     is unoccupied at all k-points. It is always recommended to include      |
|     a few unoccupied bands to accelerate the convergence of                 |
|     molecular-dynamics runs (even for insulators or semiconductors),        |
|     since the presence of unoccupied bands improves wavefunction            |
|     prediction and helps to suppress 'band-crossings'.                      |
|                                                                             |
 -----------------------------------------------------------------------------

BRMIX: very serious problems
 the old and the new charge density differ
 old charge density:   607.64349 new  632.27453
   1 F= -.42290151E+07 E0= -.42290128E+07  d E =-.464372E+01
 -----------------------------------------------------------------------------
|                                                                             |
|           W    W    AA    RRRRR   N    N  II  N    N   GGGG   !!!           |
|           W    W   A  A   R    R  NN   N  II  NN   N  G    G  !!!           |
|           W    W  A    A  R    R  N N  N  II  N N  N  G       !!!           |
|           W WW W  AAAAAA  RRRRR   N  N N  II  N  N N  G  GGG   !            |
|           WW  WW  A    A  R   R   N   NN  II  N   NN  G    G                |
|           W    W  A    A  R    R  N    N  II  N    N   GGGG   !!!           |
|                                                                             |
|     The minimum charge density times volume of the cell along the axis      |
|     of the dipole correction is larger 1E-1, which could mean that your     |
|     workfunction is not accurate as there is no field free region in        |
|     your cell. Please consider either increasing the size of your cell      |
|     along the dipole correction (vacuum dimension) or perhaps               |
|     increasing the precision of your calculation.                           |
|                                                                             |
 -----------------------------------------------------------------------------

