o-B14 bilayer with hydrogen termination
   1.00000000000000
     5.6799960512011207    0.0000000000000000    0.0000000000000000
     0.0000000000000000    6.1471111863193357    0.0000000000000000
     0.0000000000000000    0.0000000000000000   30.0881166459999996
  B   H
  28  4
Direct
     0.5225445936347271    0.6377229505262960    0.1335763429763972
     0.5225445936347271    0.6377229505262960    0.2681808287077558
     0.4774554064178957    0.3622770494737040    0.1335763429763972
     0.4774554064178957    0.3622770494737040    0.2681808287077558
     0.9774554064442071    0.6377229505262960    0.1335763429763972
     0.9774554064442071    0.6377229505262960    0.2681808287077558
     0.0225445936084157    0.3622770494737040    0.1335763429763972
     0.0225445936084157    0.3622770494737040    0.2681808287077558
     0.5980034538849424    0.9001190925455518    0.1329445808484948
     0.5980034538849424    0.9001190925455518    0.2688125908356582
     0.4019965461676804    0.0998809000373342    0.1329445808484948
     0.4019965461676804    0.0998809000373342    0.2688125908356582
     0.9019965461939918    0.9001190925455518    0.1329445808484948
     0.9019965461939918    0.9001190925455518    0.2688125908356582
     0.0980034538586310    0.0998809000373342    0.1329445808484948
     0.0980034538586310    0.0998809000373342    0.2688125908356582
     0.7499999999517613    0.7333561634756549    0.1735378551670479
     0.7499999999517613    0.7287936437793689    0.3077674953598617
     0.2499999999254499    0.2712063562206311    0.0939896783516758
     0.2499999999254499    0.2666438365243451    0.2282193185444896
     0.7499999999517613    0.7287936437793689    0.0939896783516758
     0.7499999999517613    0.7333561634756549    0.2282193185444896
     0.2499999999254499    0.2666438365243451    0.1735378551670479
     0.2499999999254499    0.2712063562206311    0.3077674953598617
     0.2499999999254499    0.5257363755179796    0.1337172153866604
     0.2499999999254499    0.5257363755179796    0.2680399562974927
     0.7499999999517613    0.4742635948135572    0.1337172153866604
     0.7499999999517613    0.4742635948135572    0.2680399562974927
     0.2499999999254499    0.2871270147889220    0.0544982691469187
     0.7499999999517613    0.7128729852110780    0.0544982691469187
     0.2499999999254499    0.2871270147889220    0.3472589045646188
     0.7499999999517613    0.7128729852110780    0.3472589045646188
