 running   42 mpi-ranks, on    1 nodes
 distrk:  each k-point on   42 cores,    1 groups
 distr:  one band on    1 cores,   42 groups
 vasp.6.5.0 16Dec24 (build Jan 08 2025 16:17:04) complex                        
  
 POSCAR found type information on POSCAR B H 
 POSCAR found :  2 types and      32 ions
 Reading from existing POTCAR
 scaLAPACK will be used
 -----------------------------------------------------------------------------
|                                                                             |
|           W    W    AA    RRRRR   N    N  II  N    N   GGGG   !!!           |
|           W    W   A  A   R    R  NN   N  II  NN   N  G    G  !!!           |
|           W    W  A    A  R    R  N N  N  II  N N  N  G       !!!           |
|           W WW W  AAAAAA  RRRRR   N  N N  II  N  N N  G  GGG   !            |
|           WW  WW  A    A  R   R   N   NN  II  N   NN  G    G                |
|           W    W  A    A  R    R  N    N  II  N    N   GGGG   !!!           |
|                                                                             |
|     The value NCORE = 16 specified in the INCAR file was overwritten,       |
|     because it was not compatible with the 42 processes available:          |
|     NCORE = 1                                                               |
|     was used instead, please check that this makes sense for your           |
|     machine.                                                                |
|                                                                             |
 -----------------------------------------------------------------------------

 -----------------------------------------------------------------------------
|                                                                             |
|           W    W    AA    RRRRR   N    N  II  N    N   GGGG   !!!           |
|           W    W   A  A   R    R  NN   N  II  NN   N  G    G  !!!           |
|           W    W  A    A  R    R  N N  N  II  N N  N  G       !!!           |
|           W WW W  AAAAAA  RRRRR   N  N N  II  N  N N  G  GGG   !            |
|           WW  WW  A    A  R   R   N   NN  II  N   NN  G    G                |
|           W    W  A    A  R    R  N    N  II  N    N   GGGG   !!!           |
|                                                                             |
|     For optimal performance we recommend to set                             |
|       NCORE = 2 up to number-of-cores-per-socket                            |
|     NCORE specifies how many cores store one orbital (NPAR=cpu/NCORE).      |
|     This setting can greatly improve the performance of VASP for DFT.       |
|     The default, NCORE=1 might be grossly inefficient on modern             |
|     multi-core architectures or massively parallel machines. Do your        |
|     own testing! More info at https://www.vasp.at/wiki/index.php/NCORE      |
|     Unfortunately you need to use the default for GW and RPA                |
|     calculations (for HF NCORE is supported but not extensively tested      |
|     yet).                                                                   |
|                                                                             |
 -----------------------------------------------------------------------------

 Reading from existing POTCAR
 -----------------------------------------------------------------------------
|                                                                             |
|               ----> ADVICE to this user running VASP <----                  |
|                                                                             |
|     You have a (more or less) 'large supercell' and for larger cells it     |
|     might be more efficient to use real-space projection operators.         |
|     Therefore, try LREAL= Auto in the INCAR file.                           |
|     Mind: For very accurate calculation, you might also keep the            |
|     reciprocal projection scheme (i.e. LREAL=.FALSE.).                      |
|                                                                             |
 -----------------------------------------------------------------------------

 LDA part: xc-table for (Slater+PW92), standard interpolation
 -----------------------------------------------------------------------------
|                                                                             |
|           W    W    AA    RRRRR   N    N  II  N    N   GGGG   !!!           |
|           W    W   A  A   R    R  NN   N  II  NN   N  G    G  !!!           |
|           W    W  A    A  R    R  N N  N  II  N N  N  G       !!!           |
|           W WW W  AAAAAA  RRRRR   N  N N  II  N  N N  G  GGG   !            |
|           WW  WW  A    A  R   R   N   NN  II  N   NN  G    G                |
|           W    W  A    A  R    R  N    N  II  N    N   GGGG   !!!           |
|                                                                             |
|     The number of bands has been changed from the values supplied in        |
|     the INCAR file. This is a result of running the parallel version.       |
|     The orbitals not found in the WAVECAR file will be initialized with     |
|     random numbers, which is usually adequate. For correlated               |
|     calculations, however, you should redo the groundstate calculation.     |
|     I found NBANDS = 128. Now, NBANDS = 168.                                |
|                                                                             |
 -----------------------------------------------------------------------------

 found WAVECAR, reading the header
  number of bands has changed, file:    84 present:   168
  trying to continue reading WAVECAR, but it might fail
 POSCAR, INCAR and KPOINTS ok, starting setup
 FFT: planning ... GRIDC
 FFT: planning ... GRID_SOFT
 FFT: planning ... GRID
 reading WAVECAR
 random initialization beyond band           84
 the WAVECAR file was read successfully
 entering main loop
       N       E                     dE             d eps       ncg     rms          rms(c)
DAV:   1    -0.210692270655E+03   -0.21069E+03   -0.27181E+01 30828   0.751E+00    0.184E+01
DAV:   2    -0.199811608551E+03    0.10881E+02   -0.87290E+00 36162   0.665E+00    0.108E+01
DAV:   3    -0.195081248941E+03    0.47304E+01   -0.10069E+01 40446   0.485E+00    0.225E+00
DAV:   4    -0.195047919087E+03    0.33330E-01   -0.95983E-01 39732   0.136E+00    0.138E+00
DAV:   5    -0.195021064139E+03    0.26855E-01   -0.70268E-02 41244   0.424E-01    0.484E-01
DAV:   6    -0.195018491518E+03    0.25726E-02   -0.11213E-02 39312   0.205E-01    0.181E-01
DAV:   7    -0.195012173694E+03    0.63178E-02   -0.57553E-03 39732   0.158E-01    0.880E-02
DAV:   8    -0.195012994469E+03   -0.82078E-03   -0.11513E-03 37002   0.611E-02    0.562E-02
DAV:   9    -0.195014446540E+03   -0.14521E-02   -0.43301E-04 37800   0.377E-02    0.281E-02
DAV:  10    -0.195015805884E+03   -0.13593E-02   -0.14239E-04 37464   0.187E-02    0.157E-02
DAV:  11    -0.195016606733E+03   -0.80085E-03   -0.40637E-05 36960   0.964E-03    0.924E-03
DAV:  12    -0.195017212486E+03   -0.60575E-03   -0.20371E-05 35994   0.559E-03    0.525E-03
DAV:  13    -0.195017689291E+03   -0.47681E-03   -0.17192E-05 36708   0.457E-03    0.444E-03
DAV:  14    -0.195017798020E+03   -0.10873E-03   -0.15765E-06 36624   0.219E-03    0.183E-03
DAV:  15    -0.195017928530E+03   -0.13051E-03   -0.20344E-06 36624   0.173E-03    0.801E-04
DAV:  16    -0.195017951591E+03   -0.23062E-04   -0.12885E-07 34062   0.484E-04    0.571E-04
DAV:  17    -0.195017971331E+03   -0.19740E-04   -0.21033E-07 35364   0.496E-04    0.159E-04
DAV:  18    -0.195017974219E+03   -0.28871E-05   -0.93368E-09 34104   0.149E-04    0.111E-04
DAV:  19    -0.195017976002E+03   -0.17836E-05   -0.51534E-09 31752   0.121E-04    0.347E-05
DAV:  20    -0.195017976172E+03   -0.17003E-06    0.41076E-09 32970   0.330E-05
   1 F= -.19501798E+03 E0= -.19501776E+03  d E =-.426832E-03
 writing wavefunctions
 optical routines
 imaginary and real dielectric function
 recalculating local potential from charge density
 direction            1
 direction            2
 direction            3
