o-B14 bilayer with Hydrogen             
   1.00000000000000     
     5.6799960512011207   -0.0000000000000000    0.0000000000000000
    -0.0000000000000000    6.1471111863193357    0.0000000000000000
     0.0000000000000000    0.0000000000000000   30.0881166459999996
  B               H             
    28     4
Direct
     0.5225445936347272    0.6377229505262947    0.1335763429763993
     0.5225445936347272    0.6377229505262947    0.2681808287077536
     0.4774554064178960    0.3622770494737051    0.1335763429763993
     0.4774554064178960    0.3622770494737051    0.2681808287077536
     0.9774554064442070    0.6377229505262947    0.1335763429763993
     0.9774554064442070    0.6377229505262947    0.2681808287077536
     0.0225445936084154    0.3622770494737051    0.1335763429763993
     0.0225445936084154    0.3622770494737051    0.2681808287077536
     0.5980034538849396    0.9001190925455514    0.1329445808484967
     0.5980034538849396    0.9001190925455514    0.2688125908356563
     0.4019965461676830    0.0998809000373345    0.1329445808484967
     0.4019965461676830    0.0998809000373345    0.2688125908356563
     0.9019965461939946    0.9001190925455514    0.1329445808484967
     0.9019965461939946    0.9001190925455514    0.2688125908356563
     0.0980034538586283    0.0998809000373345    0.1329445808484967
     0.0980034538586283    0.0998809000373345    0.2688125908356563
     0.7499999999517613    0.7333561634756516    0.1735378551670486
     0.7499999999517613    0.7287936437793666    0.3077674953598644
     0.2499999999254499    0.2712063562206338    0.0939896783516732
     0.2499999999254499    0.2666438365243484    0.2282193185444889
     0.7499999999517613    0.7287936437793666    0.0939896783516732
     0.7499999999517613    0.7333561634756516    0.2282193185444889
     0.2499999999254499    0.2666438365243484    0.1735378551670486
     0.2499999999254499    0.2712063562206338    0.3077674953598644
     0.2499999999254499    0.5257363755179817    0.1337172153866608
     0.2499999999254499    0.5257363755179817    0.2680399562974921
     0.7499999999517613    0.4742635948135551    0.1337172153866608
     0.7499999999517613    0.4742635948135551    0.2680399562974921
     0.2499999999254499    0.2871270147889196    0.0544982691469207
     0.7499999999517613    0.7128729852110803    0.0544982691469207
     0.2499999999254499    0.2871270147889196    0.3472589045646168
     0.7499999999517613    0.7128729852110803    0.3472589045646168
 
  0.00000000E+00  0.00000000E+00  0.00000000E+00
  0.00000000E+00  0.00000000E+00  0.00000000E+00
  0.00000000E+00  0.00000000E+00  0.00000000E+00
  0.00000000E+00  0.00000000E+00  0.00000000E+00
  0.00000000E+00  0.00000000E+00  0.00000000E+00
  0.00000000E+00  0.00000000E+00  0.00000000E+00
  0.00000000E+00  0.00000000E+00  0.00000000E+00
  0.00000000E+00  0.00000000E+00  0.00000000E+00
  0.00000000E+00  0.00000000E+00  0.00000000E+00
  0.00000000E+00  0.00000000E+00  0.00000000E+00
  0.00000000E+00  0.00000000E+00  0.00000000E+00
  0.00000000E+00  0.00000000E+00  0.00000000E+00
  0.00000000E+00  0.00000000E+00  0.00000000E+00
  0.00000000E+00  0.00000000E+00  0.00000000E+00
  0.00000000E+00  0.00000000E+00  0.00000000E+00
  0.00000000E+00  0.00000000E+00  0.00000000E+00
  0.00000000E+00  0.00000000E+00  0.00000000E+00
  0.00000000E+00  0.00000000E+00  0.00000000E+00
  0.00000000E+00  0.00000000E+00  0.00000000E+00
  0.00000000E+00  0.00000000E+00  0.00000000E+00
  0.00000000E+00  0.00000000E+00  0.00000000E+00
  0.00000000E+00  0.00000000E+00  0.00000000E+00
  0.00000000E+00  0.00000000E+00  0.00000000E+00
  0.00000000E+00  0.00000000E+00  0.00000000E+00
  0.00000000E+00  0.00000000E+00  0.00000000E+00
  0.00000000E+00  0.00000000E+00  0.00000000E+00
  0.00000000E+00  0.00000000E+00  0.00000000E+00
  0.00000000E+00  0.00000000E+00  0.00000000E+00
  0.00000000E+00  0.00000000E+00  0.00000000E+00
  0.00000000E+00  0.00000000E+00  0.00000000E+00
  0.00000000E+00  0.00000000E+00  0.00000000E+00
  0.00000000E+00  0.00000000E+00  0.00000000E+00
