  32  32   0   0
  0.3324425E+02  0.5700971E-09  0.6201871E-09  0.3008812E-08  0.5000000E-15
  1.000000000000000E-004
  CAR 
 Parameters                              
      4.19782100    -19.54023441  301     -4.14802011      1.00000000
    -19.540  0.0000E+00  0.0000E+00
    -19.461  0.0000E+00  0.0000E+00
    -19.382  0.0000E+00  0.0000E+00
    -19.303  0.0000E+00  0.0000E+00
    -19.224  0.0000E+00  0.0000E+00
    -19.145  0.0000E+00  0.0000E+00
    -19.065  0.0000E+00  0.0000E+00
    -18.986  0.0000E+00  0.0000E+00
    -18.907  0.0000E+00  0.0000E+00
    -18.828  0.0000E+00  0.0000E+00
    -18.749  0.4157E-18  0.3290E-19
    -18.670  0.4373E-11  0.3460E-12
    -18.591  0.3695E-06  0.2924E-07
    -18.512  0.3295E-03  0.2610E-04
    -18.432  0.7178E-02  0.5941E-03
    -18.353  0.1914E-01  0.2109E-02
    -18.274  0.2867E-01  0.4377E-02
    -18.195  0.3078E-01  0.6813E-02
    -18.116  0.2567E-01  0.8844E-02
    -18.037  0.1855E-01  0.1031E-01
    -17.958  0.1976E-01  0.1188E-01
    -17.879  0.1418E-01  0.1300E-01
    -17.799  0.1949E-01  0.1454E-01
    -17.720  0.1210E-01  0.1550E-01
    -17.641  0.2043E-01  0.1711E-01
    -17.562  0.1358E-01  0.1819E-01
    -17.483  0.2273E-01  0.1999E-01
    -17.404  0.2218E-01  0.2174E-01
    -17.325  0.2559E-01  0.2377E-01
    -17.246  0.2025E-01  0.2537E-01
    -17.166  0.1171E-01  0.2630E-01
    -17.087  0.4401E-02  0.2664E-01
    -17.008  0.2744E-03  0.2667E-01
    -16.929  0.3840E-06  0.2667E-01
    -16.850  0.5881E-11  0.2667E-01
    -16.771  0.8315E-18  0.2667E-01
    -16.692  0.0000E+00  0.2667E-01
    -16.613  0.0000E+00  0.2667E-01
    -16.533  0.0000E+00  0.2667E-01
    -16.454  0.0000E+00  0.2667E-01
    -16.375  0.0000E+00  0.2667E-01
    -16.296  0.0000E+00  0.2667E-01
    -16.217  0.0000E+00  0.2667E-01
    -16.138  0.0000E+00  0.2667E-01
    -16.059  0.0000E+00  0.2667E-01
    -15.980  0.0000E+00  0.2667E-01
    -15.900  0.0000E+00  0.2667E-01
    -15.821  0.0000E+00  0.2667E-01
    -15.742  0.0000E+00  0.2667E-01
    -15.663  0.0000E+00  0.2667E-01
    -15.584  0.0000E+00  0.2667E-01
    -15.505  0.0000E+00  0.2667E-01
    -15.426  0.0000E+00  0.2667E-01
    -15.347  0.0000E+00  0.2667E-01
    -15.267  0.0000E+00  0.2667E-01
    -15.188  0.0000E+00  0.2667E-01
    -15.109  0.0000E+00  0.2667E-01
    -15.030  0.0000E+00  0.2667E-01
    -14.951  0.0000E+00  0.2667E-01
    -14.872  0.2742E-13  0.2667E-01
    -14.793  0.1268E-07  0.2667E-01
    -14.713  0.5358E-04  0.2667E-01
    -14.634  0.3689E-02  0.2696E-01
    -14.555  0.1686E-01  0.2830E-01
    -14.476  0.3925E-01  0.3140E-01
    -14.397  0.5213E-01  0.3553E-01
    -14.318  0.4167E-01  0.3882E-01
    -14.239  0.2637E-01  0.4091E-01
    -14.160  0.2284E-01  0.4272E-01
    -14.080  0.3450E-01  0.4545E-01
    -14.001  0.3437E-01  0.4817E-01
    -13.922  0.3025E-01  0.5056E-01
    -13.843  0.1762E-01  0.5195E-01
    -13.764  0.1136E-01  0.5285E-01
    -13.685  0.4678E-02  0.5322E-01
    -13.606  0.1369E-02  0.5333E-01
    -13.527  0.1860E-04  0.5333E-01
    -13.447  0.2739E-08  0.5333E-01
    -13.368  0.3249E-14  0.5333E-01
    -13.289  0.0000E+00  0.5333E-01
    -13.210  0.0000E+00  0.5333E-01
    -13.131  0.0000E+00  0.5333E-01
    -13.052  0.0000E+00  0.5333E-01
    -12.973  0.8315E-18  0.5333E-01
    -12.894  0.7593E-11  0.5333E-01
    -12.814  0.5028E-06  0.5333E-01
    -12.735  0.2986E-03  0.5336E-01
    -12.656  0.2687E-02  0.5357E-01
    -12.577  0.1107E-02  0.5366E-01
    -12.498  0.4773E-02  0.5403E-01
    -12.419  0.4605E-02  0.5440E-01
    -12.340  0.5631E-02  0.5484E-01
    -12.261  0.6243E-02  0.5534E-01
    -12.181  0.6765E-02  0.5587E-01
    -12.102  0.6012E-02  0.5635E-01
    -12.023  0.8974E-02  0.5706E-01
    -11.944  0.1241E-01  0.5804E-01
    -11.865  0.2609E-01  0.6011E-01
    -11.786  0.2882E-01  0.6239E-01
    -11.707  0.3285E-01  0.6499E-01
    -11.628  0.3646E-01  0.6787E-01
    -11.548  0.2260E-01  0.6966E-01
    -11.469  0.2652E-01  0.7176E-01
    -11.390  0.2485E-01  0.7372E-01
    -11.311  0.2285E-01  0.7553E-01
    -11.232  0.2653E-01  0.7763E-01
    -11.153  0.3021E-01  0.8002E-01
    -11.074  0.2749E-01  0.8220E-01
    -10.995  0.3641E-01  0.8508E-01
    -10.915  0.3316E-01  0.8770E-01
    -10.836  0.2172E-01  0.8942E-01
    -10.757  0.3084E-01  0.9186E-01
    -10.678  0.2272E-01  0.9366E-01
    -10.599  0.2939E-01  0.9598E-01
    -10.520  0.3084E-01  0.9842E-01
    -10.441  0.2908E-01  0.1007E+00
    -10.362  0.2431E-01  0.1026E+00
    -10.282  0.2195E-01  0.1044E+00
    -10.203  0.2194E-01  0.1061E+00
    -10.124  0.2013E-01  0.1077E+00
    -10.045  0.2100E-01  0.1094E+00
     -9.966  0.2035E-01  0.1110E+00
     -9.887  0.2872E-01  0.1133E+00
     -9.808  0.2876E-01  0.1155E+00
     -9.729  0.2395E-01  0.1174E+00
     -9.649  0.2010E-01  0.1190E+00
     -9.570  0.1684E-01  0.1204E+00
     -9.491  0.1709E-01  0.1217E+00
     -9.412  0.9017E-02  0.1224E+00
     -9.333  0.1873E-01  0.1239E+00
     -9.254  0.1261E-01  0.1249E+00
     -9.175  0.1434E-01  0.1260E+00
     -9.095  0.1570E-01  0.1273E+00
     -9.016  0.1520E-01  0.1285E+00
     -8.937  0.1174E-01  0.1294E+00
     -8.858  0.1507E-01  0.1306E+00
     -8.779  0.1671E-01  0.1319E+00
     -8.700  0.2069E-01  0.1336E+00
     -8.621  0.1440E-01  0.1347E+00
     -8.542  0.1198E-01  0.1356E+00
     -8.462  0.8351E-02  0.1363E+00
     -8.383  0.1499E-01  0.1375E+00
     -8.304  0.2344E-01  0.1393E+00
     -8.225  0.3353E-01  0.1420E+00
     -8.146  0.6751E-01  0.1473E+00
     -8.067  0.7961E-01  0.1536E+00
     -7.988  0.3927E-01  0.1567E+00
     -7.909  0.1932E-01  0.1583E+00
     -7.829  0.1333E-01  0.1593E+00
     -7.750  0.1172E-01  0.1603E+00
     -7.671  0.2164E-01  0.1620E+00
     -7.592  0.2695E-01  0.1641E+00
     -7.513  0.3334E-01  0.1667E+00
     -7.434  0.3433E-01  0.1695E+00
     -7.355  0.4316E-01  0.1729E+00
     -7.276  0.4596E-01  0.1765E+00
     -7.196  0.3808E-01  0.1795E+00
     -7.117  0.3722E-01  0.1825E+00
     -7.038  0.7061E-01  0.1881E+00
     -6.959  0.6757E-01  0.1934E+00
     -6.880  0.3764E-01  0.1964E+00
     -6.801  0.2479E-01  0.1983E+00
     -6.722  0.2276E-01  0.2001E+00
     -6.643  0.2410E-01  0.2021E+00
     -6.563  0.2598E-01  0.2041E+00
     -6.484  0.2936E-01  0.2064E+00
     -6.405  0.3933E-01  0.2095E+00
     -6.326  0.4818E-01  0.2134E+00
     -6.247  0.4185E-01  0.2167E+00
     -6.168  0.4024E-01  0.2199E+00
     -6.089  0.3733E-01  0.2228E+00
     -6.010  0.3683E-01  0.2257E+00
     -5.930  0.4597E-01  0.2294E+00
     -5.851  0.5134E-01  0.2334E+00
     -5.772  0.4590E-01  0.2370E+00
     -5.693  0.3465E-01  0.2398E+00
     -5.614  0.4627E-01  0.2435E+00
     -5.535  0.6303E-01  0.2484E+00
     -5.456  0.4656E-01  0.2521E+00
     -5.377  0.3801E-01  0.2551E+00
     -5.297  0.4772E-01  0.2589E+00
     -5.218  0.2966E-01  0.2613E+00
     -5.139  0.3049E-01  0.2637E+00
     -5.060  0.2740E-01  0.2658E+00
     -4.981  0.2904E-01  0.2681E+00
     -4.902  0.2404E-01  0.2700E+00
     -4.823  0.3498E-01  0.2728E+00
     -4.744  0.3405E-01  0.2755E+00
     -4.664  0.3004E-01  0.2779E+00
     -4.585  0.3417E-01  0.2806E+00
     -4.506  0.4187E-01  0.2839E+00
     -4.427  0.3877E-01  0.2870E+00
     -4.348  0.2459E-01  0.2889E+00
     -4.269  0.2116E-01  0.2906E+00
     -4.190  0.2118E-01  0.2923E+00
     -4.110  0.2604E-01  0.2943E+00
     -4.031  0.1752E-01  0.2957E+00
     -3.952  0.1262E-01  0.2967E+00
     -3.873  0.8238E-02  0.2974E+00
     -3.794  0.1184E-01  0.2983E+00
     -3.715  0.9691E-02  0.2991E+00
     -3.636  0.4843E-02  0.2994E+00
     -3.557  0.5989E-02  0.2999E+00
     -3.477  0.1059E-01  0.3008E+00
     -3.398  0.1011E-01  0.3016E+00
     -3.319  0.7330E-02  0.3021E+00
     -3.240  0.3756E-02  0.3024E+00
     -3.161  0.2913E-02  0.3027E+00
     -3.082  0.2378E-02  0.3028E+00
     -3.003  0.3970E-02  0.3032E+00
     -2.924  0.3553E-02  0.3034E+00
     -2.844  0.2908E-02  0.3037E+00
     -2.765  0.1313E-02  0.3038E+00
     -2.686  0.3655E-02  0.3041E+00
     -2.607  0.8083E-02  0.3047E+00
     -2.528  0.5932E-02  0.3052E+00
     -2.449  0.3738E-02  0.3055E+00
     -2.370  0.1556E-03  0.3055E+00
     -2.291  0.2572E-06  0.3055E+00
     -2.211  0.1639E-03  0.3055E+00
     -2.132  0.2538E-02  0.3057E+00
     -2.053  0.3169E-02  0.3059E+00
     -1.974  0.1644E-02  0.3061E+00
     -1.895  0.1983E-02  0.3062E+00
     -1.816  0.3552E-02  0.3065E+00
     -1.737  0.1880E-02  0.3067E+00
     -1.658  0.4851E-04  0.3067E+00
     -1.578  0.1495E-07  0.3067E+00
     -1.499  0.3807E-13  0.3067E+00
     -1.420  0.5111E-12  0.3067E+00
     -1.341  0.6840E-07  0.3067E+00
     -1.262  0.8386E-04  0.3067E+00
     -1.183  0.2100E-02  0.3068E+00
     -1.104  0.4587E-02  0.3072E+00
     -1.025  0.6532E-02  0.3077E+00
     -0.945  0.5704E-02  0.3082E+00
     -0.866  0.7545E-02  0.3088E+00
     -0.787  0.7604E-02  0.3094E+00
     -0.708  0.7307E-02  0.3099E+00
     -0.629  0.5271E-02  0.3104E+00
     -0.550  0.8501E-02  0.3110E+00
     -0.471  0.9800E-02  0.3118E+00
     -0.392  0.9818E-02  0.3126E+00
     -0.312  0.9846E-02  0.3134E+00
     -0.233  0.1399E-01  0.3145E+00
     -0.154  0.2626E-01  0.3166E+00
     -0.075  0.2122E-01  0.3182E+00
      0.004  0.2874E-01  0.3205E+00
      0.083  0.2063E-01  0.3221E+00
      0.162  0.2748E-01  0.3243E+00
      0.241  0.3999E-01  0.3275E+00
      0.321  0.3010E-01  0.3299E+00
      0.400  0.3304E-01  0.3325E+00
      0.479  0.3043E-01  0.3349E+00
      0.558  0.3352E-01  0.3375E+00
      0.637  0.3164E-01  0.3400E+00
      0.716  0.2652E-01  0.3421E+00
      0.795  0.2811E-01  0.3444E+00
      0.874  0.2244E-01  0.3461E+00
      0.954  0.1855E-01  0.3476E+00
      1.033  0.1929E-01  0.3491E+00
      1.112  0.2276E-01  0.3509E+00
      1.191  0.4025E-01  0.3541E+00
      1.270  0.3831E-01  0.3571E+00
      1.349  0.2571E-01  0.3592E+00
      1.428  0.2617E-01  0.3613E+00
      1.508  0.4409E-01  0.3647E+00
      1.587  0.4372E-01  0.3682E+00
      1.666  0.3510E-01  0.3710E+00
      1.745  0.3119E-01  0.3734E+00
      1.824  0.2993E-01  0.3758E+00
      1.903  0.4893E-01  0.3797E+00
      1.982  0.4296E-01  0.3831E+00
      2.061  0.2015E-01  0.3847E+00
      2.141  0.1876E-01  0.3862E+00
      2.220  0.2412E-01  0.3881E+00
      2.299  0.3091E-01  0.3905E+00
      2.378  0.4132E-01  0.3938E+00
      2.457  0.3469E-01  0.3965E+00
      2.536  0.5327E-01  0.4007E+00
      2.615  0.5036E-01  0.4047E+00
      2.694  0.4371E-01  0.4082E+00
      2.774  0.5602E-01  0.4126E+00
      2.853  0.4445E-01  0.4161E+00
      2.932  0.3268E-01  0.4187E+00
      3.011  0.1019E-01  0.4195E+00
      3.090  0.2911E-02  0.4198E+00
      3.169  0.2713E-02  0.4200E+00
      3.248  0.2886E-03  0.4200E+00
      3.327  0.4681E-06  0.4200E+00
      3.407  0.6793E-11  0.4200E+00
      3.486  0.8315E-18  0.4200E+00
      3.565  0.0000E+00  0.4200E+00
      3.644  0.0000E+00  0.4200E+00
      3.723  0.0000E+00  0.4200E+00
      3.802  0.0000E+00  0.4200E+00
      3.881  0.0000E+00  0.4200E+00
      3.960  0.0000E+00  0.4200E+00
      4.040  0.0000E+00  0.4200E+00
      4.119  0.0000E+00  0.4200E+00
      4.198  0.0000E+00  0.4200E+00
