   32   32  300    1
  0.3324425E+02  0.5700971E-09  0.6201871E-09  0.3008812E-08  0.5000000E-15
  1.000000000000000E-004
  CAR 
 Parameters                              
     88     25     63
 
  0.5000000E-01  0.1276756E-14  0.1276756E-14  0.2222222E-01
      1        -18.461232   1.000000
      2        -18.326358   1.000000
      3        -17.254728   1.000000
      4        -17.134758   1.000000
      5        -14.484124   1.000000
      6        -14.383952   1.000000
      7        -14.147627   1.000000
      8        -14.019194   1.000000
      9        -11.892146   1.000000
     10        -11.805801   1.000000
     11        -11.659669   1.000000
     12        -10.824678   1.000000
     13        -10.804058   1.000000
     14        -10.668508   1.000000
     15        -10.618110   1.000000
     16        -10.496368   1.000000
     17        -10.358750   1.000000
     18        -10.045926   1.000000
     19         -9.922982   1.000000
     20         -9.545460   1.000000
     21         -9.245710   1.000000
     22         -9.083724   1.000000
     23         -8.224474   1.000000
     24         -8.010490   1.000000
     25         -7.291034   1.000000
     26         -7.208682   1.000000
     27         -7.111185   1.000000
     28         -6.995156   1.000000
     29         -6.970661   1.000000
     30         -6.387629   1.000000
     31         -6.249578   1.000000
     32         -6.155436   1.000000
     33         -5.671813   1.000000
     34         -5.650732   1.000000
     35         -5.596699   1.000000
     36         -5.512998   1.000000
     37         -5.442792   1.000000
     38         -5.201847   1.000000
     39         -5.186512   1.000000
     40         -5.029212   1.000000
     41         -4.844394   1.000000
     42         -4.394108   1.000000
     43         -4.187472   0.867763
     44         -4.161176   0.645087
     45         -3.450516   0.000000
     46         -3.325357   0.000000
     47         -1.200794   0.000000
     48         -0.974704   0.000000
     49         -0.454919   0.000000
     50         -0.259905   0.000000
     51          0.173712   0.000000
     52          0.233330   0.000000
     53          0.691949   0.000000
     54          1.060731   0.000000
     55          1.285954   0.000000
     56          1.487541   0.000000
     57          1.502111   0.000000
     58          2.020850   0.000000
     59          2.221110   0.000000
     60          2.275267   0.000000
     61          2.427526   0.000000
     62          2.538013   0.000000
     63          2.591076   0.000000
 
  0.1500000E+00  0.1276756E-14  0.1276756E-14  0.2222222E-01
      1        -18.416092   1.000000
      2        -18.281804   1.000000
      3        -17.335498   1.000000
      4        -17.214632   1.000000
      5        -14.452348   1.000000
      6        -14.351287   1.000000
      7        -14.136921   1.000000
      8        -14.011016   1.000000
      9        -11.843484   1.000000
     10        -11.721209   1.000000
     11        -11.562204   1.000000
     12        -11.195135   1.000000
     13        -11.016272   1.000000
     14        -10.745252   1.000000
     15        -10.739984   1.000000
     16        -10.639146   1.000000
     17        -10.516392   1.000000
     18         -9.617238   1.000000
     19         -9.566164   1.000000
     20         -9.415631   1.000000
     21         -8.902080   1.000000
     22         -8.736625   1.000000
     23         -8.207931   1.000000
     24         -8.021337   1.000000
     25         -7.302764   1.000000
     26         -7.256551   1.000000
     27         -7.236346   1.000000
     28         -7.195293   1.000000
     29         -7.093496   1.000000
     30         -6.547684   1.000000
     31         -6.203674   1.000000
     32         -6.008561   1.000000
     33         -5.802340   1.000000
     34         -5.644181   1.000000
     35         -5.619870   1.000000
     36         -5.571849   1.000000
     37         -5.533013   1.000000
     38         -5.303714   1.000000
     39         -5.175199   1.000000
     40         -5.048946   1.000000
     41         -4.990325   1.000000
     42         -4.419785   1.000000
     43         -4.265696   0.999563
     44         -4.260017   0.999232
     45         -3.588326   0.000000
     46         -3.478530   0.000000
     47         -1.100001   0.000000
     48         -0.636739   0.000000
     49         -0.367514   0.000000
     50          0.101527   0.000000
     51          0.191387   0.000000
     52          0.262505   0.000000
     53          0.650301   0.000000
     54          1.163713   0.000000
     55          1.425980   0.000000
     56          1.434640   0.000000
     57          1.625633   0.000000
     58          1.913547   0.000000
     59          2.099592   0.000000
     60          2.361258   0.000000
     61          2.515004   0.000000
     62          2.527924   0.000000
     63          2.730564   0.000000
 
  0.2500000E+00  0.1276756E-14  0.1276756E-14  0.2222222E-01
      1        -18.327582   1.000000
      2        -18.194444   1.000000
      3        -17.479576   1.000000
      4        -17.357050   1.000000
      5        -14.391463   1.000000
      6        -14.289139   1.000000
      7        -14.124600   1.000000
      8        -14.003453   1.000000
      9        -11.754021   1.000000
     10        -11.684776   1.000000
     11        -11.526835   1.000000
     12        -11.501332   1.000000
     13        -11.355985   1.000000
     14        -10.870848   1.000000
     15        -10.645976   1.000000
     16        -10.619333   1.000000
     17        -10.523122   1.000000
     18         -9.751030   1.000000
     19         -9.030599   1.000000
     20         -8.860019   1.000000
     21         -8.422104   1.000000
     22         -8.244011   1.000000
     23         -8.175369   1.000000
     24         -8.038701   1.000000
     25         -7.774523   1.000000
     26         -7.728843   1.000000
     27         -7.175225   1.000000
     28         -7.163044   1.000000
     29         -7.058912   1.000000
     30         -6.702536   1.000000
     31         -6.124785   1.000000
     32         -6.044943   1.000000
     33         -5.948580   1.000000
     34         -5.818769   1.000000
     35         -5.779563   1.000000
     36         -5.564111   1.000000
     37         -5.479640   1.000000
     38         -5.447774   1.000000
     39         -5.332187   1.000000
     40         -5.225790   1.000000
     41         -4.931219   1.000000
     42         -4.468680   1.000000
     43         -4.423303   1.000000
     44         -4.397961   1.000000
     45         -3.852139   0.000000
     46         -3.764760   0.000000
     47         -0.767151   0.000000
     48         -0.150766   0.000000
     49         -0.036442   0.000000
     50          0.162176   0.000000
     51          0.365560   0.000000
     52          0.611044   0.000000
     53          0.647604   0.000000
     54          1.188071   0.000000
     55          1.493253   0.000000
     56          1.512905   0.000000
     57          1.658816   0.000000
     58          1.837843   0.000000
     59          2.223076   0.000000
     60          2.466526   0.000000
     61          2.676026   0.000000
     62          2.683918   0.000000
     63          2.829987   0.000000
 
  0.3500000E+00  0.1276756E-14  0.1276756E-14  0.2222222E-01
      1        -18.199511   1.000000
      2        -18.068034   1.000000
      3        -17.660861   1.000000
      4        -17.536167   1.000000
      5        -14.310284   1.000000
      6        -14.206554   1.000000
      7        -14.126961   1.000000
      8        -14.011838   1.000000
      9        -11.790130   1.000000
     10        -11.775862   1.000000
     11        -11.590023   1.000000
     12        -11.589130   1.000000
     13        -11.581321   1.000000
     14        -11.044053   1.000000
     15        -10.502242   1.000000
     16        -10.294120   1.000000
     17        -10.212783   1.000000
     18         -9.928535   1.000000
     19         -8.710170   1.000000
     20         -8.588607   1.000000
     21         -8.266849   1.000000
     22         -8.104915   1.000000
     23         -8.023496   1.000000
     24         -8.016055   1.000000
     25         -7.888886   1.000000
     26         -7.725814   1.000000
     27         -7.108505   1.000000
     28         -7.094585   1.000000
     29         -7.008327   1.000000
     30         -6.837631   1.000000
     31         -6.356528   1.000000
     32         -6.236245   1.000000
     33         -6.068755   1.000000
     34         -5.973069   1.000000
     35         -5.836275   1.000000
     36         -5.759530   1.000000
     37         -5.680712   1.000000
     38         -5.677428   1.000000
     39         -5.184731   1.000000
     40         -5.136935   1.000000
     41         -4.817916   1.000000
     42         -4.588209   1.000000
     43         -4.544730   1.000000
     44         -4.537028   1.000000
     45         -4.200435   0.930898
     46         -4.133356   0.339162
     47         -0.231976   0.000000
     48          0.160417   0.000000
     49          0.395913   0.000000
     50          0.446034   0.000000
     51          0.501043   0.000000
     52          0.735567   0.000000
     53          1.135385   0.000000
     54          1.214018   0.000000
     55          1.357340   0.000000
     56          1.491444   0.000000
     57          1.579127   0.000000
     58          2.067254   0.000000
     59          2.343088   0.000000
     60          2.492095   0.000000
     61          2.619565   0.000000
     62          2.857656   0.000000
     63          2.870658   0.000000
 
  0.4500000E+00  0.1276756E-14  0.1276756E-14  0.2222222E-01
      1        -18.038307   1.000000
      2        -17.908892   1.000000
      3        -17.853881   1.000000
      4        -17.726797   1.000000
      5        -14.225869   1.000000
      6        -14.159836   1.000000
      7        -14.120046   1.000000
      8        -14.050269   1.000000
      9        -11.892534   1.000000
     10        -11.876671   1.000000
     11        -11.696896   1.000000
     12        -11.680595   1.000000
     13        -11.425771   1.000000
     14        -11.236371   1.000000
     15        -10.324667   1.000000
     16        -10.127287   1.000000
     17         -9.775831   1.000000
     18         -9.700455   1.000000
     19         -9.177412   1.000000
     20         -9.104554   1.000000
     21         -8.198717   1.000000
     22         -8.135877   1.000000
     23         -7.731715   1.000000
     24         -7.624254   1.000000
     25         -7.580837   1.000000
     26         -7.388083   1.000000
     27         -7.035206   1.000000
     28         -7.035092   1.000000
     29         -6.946238   1.000000
     30         -6.923275   1.000000
     31         -6.580755   1.000000
     32         -6.478472   1.000000
     33         -6.359618   1.000000
     34         -6.293577   1.000000
     35         -5.919796   1.000000
     36         -5.847597   1.000000
     37         -5.776790   1.000000
     38         -5.738139   1.000000
     39         -4.912433   1.000000
     40         -4.863188   1.000000
     41         -4.712890   1.000000
     42         -4.680467   1.000000
     43         -4.656949   1.000000
     44         -4.624583   1.000000
     45         -4.566985   1.000000
     46         -4.517350   1.000000
     47          0.237629   0.000000
     48          0.334437   0.000000
     49          0.430721   0.000000
     50          0.902145   0.000000
     51          1.016991   0.000000
     52          1.019135   0.000000
     53          1.129234   0.000000
     54          1.184928   0.000000
     55          1.287390   0.000000
     56          1.451691   0.000000
     57          1.866051   0.000000
     58          1.870767   0.000000
     59          1.889144   0.000000
     60          2.422643   0.000000
     61          2.581023   0.000000
     62          2.609695   0.000000
     63          2.746663   0.000000
 
  0.5000000E-01  0.1111111E+00  0.1276756E-14  0.4444444E-01
      1        -18.450169   1.000000
      2        -18.315774   1.000000
      3        -17.275914   1.000000
      4        -17.154846   1.000000
      5        -14.482255   1.000000
      6        -14.382200   1.000000
      7        -14.112731   1.000000
      8        -13.986468   1.000000
      9        -11.944219   1.000000
     10        -11.867289   1.000000
     11        -11.793096   1.000000
     12        -10.989753   1.000000
     13        -10.800112   1.000000
     14        -10.777208   1.000000
     15        -10.704893   1.000000
     16        -10.283753   1.000000
     17        -10.135399   1.000000
     18         -9.921133   1.000000
     19         -9.797086   1.000000
     20         -9.580189   1.000000
     21         -9.116988   1.000000
     22         -8.952515   1.000000
     23         -8.216525   1.000000
     24         -8.016601   1.000000
     25         -7.271756   1.000000
     26         -7.157961   1.000000
     27         -7.106225   1.000000
     28         -7.031902   1.000000
     29         -7.007652   1.000000
     30         -6.410109   1.000000
     31         -6.330828   1.000000
     32         -5.977298   1.000000
     33         -5.890886   1.000000
     34         -5.835623   1.000000
     35         -5.669916   1.000000
     36         -5.580015   1.000000
     37         -5.518198   1.000000
     38         -5.272201   1.000000
     39         -5.228921   1.000000
     40         -5.095764   1.000000
     41         -5.056855   1.000000
     42         -4.401858   1.000000
     43         -4.327414   1.000000
     44         -4.149524   0.516966
     45         -3.158609   0.000000
     46         -3.039790   0.000000
     47         -1.156788   0.000000
     48         -0.840557   0.000000
     49         -0.356049   0.000000
     50         -0.194246   0.000000
     51          0.037194   0.000000
     52          0.202423   0.000000
     53          0.521946   0.000000
     54          1.154817   0.000000
     55          1.276697   0.000000
     56          1.582738   0.000000
     57          1.604854   0.000000
     58          2.022762   0.000000
     59          2.221016   0.000000
     60          2.350170   0.000000
     61          2.435817   0.000000
     62          2.553328   0.000000
     63          2.763145   0.000000
 
  0.1500000E+00  0.1111111E+00  0.1276756E-14  0.4444444E-01
      1        -18.405467   1.000000
      2        -18.271643   1.000000
      3        -17.352088   1.000000
      4        -17.230373   1.000000
      5        -14.475684   1.000000
      6        -14.371709   1.000000
      7        -14.094065   1.000000
      8        -13.972723   1.000000
      9        -11.902759   1.000000
     10        -11.816329   1.000000
     11        -11.734546   1.000000
     12        -11.107537   1.000000
     13        -10.930156   1.000000
     14        -10.769450   1.000000
     15        -10.728738   1.000000
     16        -10.561016   1.000000
     17        -10.428545   1.000000
     18         -9.645685   1.000000
     19         -9.530525   1.000000
     20         -9.386509   1.000000
     21         -8.766664   1.000000
     22         -8.594862   1.000000
     23         -8.199197   1.000000
     24         -8.027245   1.000000
     25         -7.338282   1.000000
     26         -7.320015   1.000000
     27         -7.289914   1.000000
     28         -7.089684   1.000000
     29         -7.056290   1.000000
     30         -6.533075   1.000000
     31         -6.327873   1.000000
     32         -5.910967   1.000000
     33         -5.868182   1.000000
     34         -5.793663   1.000000
     35         -5.768763   1.000000
     36         -5.711320   1.000000
     37         -5.607337   1.000000
     38         -5.330852   1.000000
     39         -5.168007   1.000000
     40         -5.140561   1.000000
     41         -5.097290   1.000000
     42         -4.516978   1.000000
     43         -4.425272   1.000000
     44         -4.088046   0.044913
     45         -3.360970   0.000000
     46         -3.257259   0.000000
     47         -1.039114   0.000000
     48         -0.570829   0.000000
     49         -0.287325   0.000000
     50         -0.016785   0.000000
     51          0.118364   0.000000
     52          0.393093   0.000000
     53          0.523384   0.000000
     54          1.257137   0.000000
     55          1.486226   0.000000
     56          1.525932   0.000000
     57          1.714108   0.000000
     58          1.861661   0.000000
     59          2.158208   0.000000
     60          2.452764   0.000000
     61          2.550298   0.000000
     62          2.670470   0.000000
     63          2.701701   0.000000
 
  0.2500000E+00  0.1111111E+00  0.1276756E-14  0.4444444E-01
      1        -18.317907   1.000000
      2        -18.185195   1.000000
      3        -17.489379   1.000000
      4        -17.366365   1.000000
      5        -14.443735   1.000000
      6        -14.335719   1.000000
      7        -14.086640   1.000000
      8        -13.971021   1.000000
      9        -11.899943   1.000000
     10        -11.723174   1.000000
     11        -11.712641   1.000000
     12        -11.241366   1.000000
     13        -11.059887   1.000000
     14        -10.889280   1.000000
     15        -10.642244   1.000000
     16        -10.629260   1.000000
     17        -10.541397   1.000000
     18         -9.768900   1.000000
     19         -9.051681   1.000000
     20         -8.890596   1.000000
     21         -8.336501   1.000000
     22         -8.163682   1.000000
     23         -8.147568   1.000000
     24         -8.050482   1.000000
     25         -7.766833   1.000000
     26         -7.722881   1.000000
     27         -7.342419   1.000000
     28         -7.056870   1.000000
     29         -6.989260   1.000000
     30         -6.694185   1.000000
     31         -6.265351   1.000000
     32         -6.142520   1.000000
     33         -6.024381   1.000000
     34         -5.901268   1.000000
     35         -5.707635   1.000000
     36         -5.603940   1.000000
     37         -5.540082   1.000000
     38         -5.523350   1.000000
     39         -5.336701   1.000000
     40         -5.305726   1.000000
     41         -4.953326   1.000000
     42         -4.673202   1.000000
     43         -4.471776   1.000000
     44         -4.134130   0.347208
     45         -3.725254   0.000000
     46         -3.640229   0.000000
     47         -0.715359   0.000000
     48         -0.156817   0.000000
     49          0.016582   0.000000
     50          0.022233   0.000000
     51          0.553238   0.000000
     52          0.562619   0.000000
     53          0.596826   0.000000
     54          1.200284   0.000000
     55          1.605985   0.000000
     56          1.654955   0.000000
     57          1.667681   0.000000
     58          1.934816   0.000000
     59          2.270301   0.000000
     60          2.510005   0.000000
     61          2.720795   0.000000
     62          2.745544   0.000000
     63          2.828272   0.000000
 
  0.3500000E+00  0.1111111E+00  0.1276756E-14  0.4444444E-01
      1        -18.191439   1.000000
      2        -18.060324   1.000000
      3        -17.664126   1.000000
      4        -17.539272   1.000000
      5        -14.377252   1.000000
      6        -14.267018   1.000000
      7        -14.116905   1.000000
      8        -14.005012   1.000000
      9        -11.914798   1.000000
     10        -11.721022   1.000000
     11        -11.597652   1.000000
     12        -11.469585   1.000000
     13        -11.294601   1.000000
     14        -11.051164   1.000000
     15        -10.488417   1.000000
     16        -10.334992   1.000000
     17        -10.248373   1.000000
     18         -9.935421   1.000000
     19         -8.750476   1.000000
     20         -8.631047   1.000000
     21         -8.318057   1.000000
     22         -8.134354   1.000000
     23         -8.118060   1.000000
     24         -8.083541   1.000000
     25         -7.722976   1.000000
     26         -7.577590   1.000000
     27         -7.297038   1.000000
     28         -7.009175   1.000000
     29         -6.987944   1.000000
     30         -6.832471   1.000000
     31         -6.432942   1.000000
     32         -6.331571   1.000000
     33         -6.157559   1.000000
     34         -5.957004   1.000000
     35         -5.827091   1.000000
     36         -5.745295   1.000000
     37         -5.616874   1.000000
     38         -5.494761   1.000000
     39         -5.364215   1.000000
     40         -5.307308   1.000000
     41         -4.828428   1.000000
     42         -4.709553   1.000000
     43         -4.538532   1.000000
     44         -4.268948   0.999687
     45         -4.175286   0.779705
     46         -4.105032   0.112015
     47         -0.196934   0.000000
     48          0.124531   0.000000
     49          0.336284   0.000000
     50          0.529714   0.000000
     51          0.607356   0.000000
     52          0.764016   0.000000
     53          1.062942   0.000000
     54          1.107615   0.000000
     55          1.472274   0.000000
     56          1.547711   0.000000
     57          1.732894   0.000000
     58          2.189475   0.000000
     59          2.366758   0.000000
     60          2.504432   0.000000
     61          2.509532   0.000000
     62          2.804740   0.000000
     63          2.902918   0.000000
 
  0.4500000E+00  0.1111111E+00  0.1276756E-14  0.4444444E-01
      1        -18.032721   1.000000
      2        -17.903566   1.000000
      3        -17.851981   1.000000
      4        -17.724990   1.000000
      5        -14.285024   1.000000
      6        -14.189135   1.000000
      7        -14.174282   1.000000
      8        -14.078434   1.000000
      9        -11.860301   1.000000
     10        -11.712254   1.000000
     11        -11.666764   1.000000
     12        -11.519027   1.000000
     13        -11.415225   1.000000
     14        -11.233953   1.000000
     15        -10.315505   1.000000
     16        -10.124919   1.000000
     17         -9.820671   1.000000
     18         -9.739749   1.000000
     19         -9.226043   1.000000
     20         -9.147494   1.000000
     21         -8.203141   1.000000
     22         -8.136477   1.000000
     23         -7.825912   1.000000
     24         -7.726200   1.000000
     25         -7.576730   1.000000
     26         -7.405907   1.000000
     27         -7.195420   1.000000
     28         -7.065637   1.000000
     29         -6.959942   1.000000
     30         -6.902351   1.000000
     31         -6.528359   1.000000
     32         -6.448317   1.000000
     33         -6.234122   1.000000
     34         -6.205907   1.000000
     35         -5.895060   1.000000
     36         -5.852939   1.000000
     37         -5.789392   1.000000
     38         -5.689598   1.000000
     39         -5.040714   1.000000
     40         -4.981369   1.000000
     41         -4.723351   1.000000
     42         -4.635077   1.000000
     43         -4.613634   1.000000
     44         -4.612420   1.000000
     45         -4.571383   1.000000
     46         -4.445008   1.000000
     47          0.280291   0.000000
     48          0.433371   0.000000
     49          0.452223   0.000000
     50          0.784263   0.000000
     51          0.999902   0.000000
     52          1.126620   0.000000
     53          1.172517   0.000000
     54          1.286361   0.000000
     55          1.325780   0.000000
     56          1.512171   0.000000
     57          1.517806   0.000000
     58          1.804160   0.000000
     59          2.154171   0.000000
     60          2.350883   0.000000
     61          2.580757   0.000000
     62          2.650983   0.000000
     63          2.740829   0.000000
 
  0.5000000E-01  0.2222222E+00  0.1276756E-14  0.4444444E-01
      1        -18.420540   1.000000
      2        -18.287486   1.000000
      3        -17.330732   1.000000
      4        -17.206796   1.000000
      5        -14.474482   1.000000
      6        -14.375360   1.000000
      7        -14.019962   1.000000
      8        -13.899121   1.000000
      9        -12.222887   1.000000
     10        -12.072643   1.000000
     11        -11.814555   1.000000
     12        -11.228461   1.000000
     13        -11.031513   1.000000
     14        -10.801196   1.000000
     15        -10.728272   1.000000
     16         -9.913013   1.000000
     17         -9.759528   1.000000
     18         -9.673824   1.000000
     19         -9.628473   1.000000
     20         -9.505031   1.000000
     21         -8.778275   1.000000
     22         -8.601121   1.000000
     23         -8.191449   1.000000
     24         -8.032752   1.000000
     25         -7.202913   1.000000
     26         -7.151471   1.000000
     27         -7.109385   1.000000
     28         -7.092932   1.000000
     29         -7.013858   1.000000
     30         -6.529647   1.000000
     31         -6.466276   1.000000
     32         -6.406570   1.000000
     33         -6.255131   1.000000
     34         -5.835693   1.000000
     35         -5.760863   1.000000
     36         -5.713390   1.000000
     37         -5.591186   1.000000
     38         -5.564177   1.000000
     39         -5.438455   1.000000
     40         -5.412907   1.000000
     41         -4.959126   1.000000
     42         -4.570368   1.000000
     43         -4.425577   1.000000
     44         -4.252766   0.998475
     45         -2.619114   0.000000
     46         -2.512057   0.000000
     47         -1.060870   0.000000
     48         -0.467480   0.000000
     49         -0.283420   0.000000
     50         -0.214852   0.000000
     51          0.120608   0.000000
     52          0.154771   0.000000
     53          0.290989   0.000000
     54          1.237688   0.000000
     55          1.401779   0.000000
     56          1.785954   0.000000
     57          1.793874   0.000000
     58          1.919848   0.000000
     59          2.292415   0.000000
     60          2.474592   0.000000
     61          2.573317   0.000000
     62          2.655963   0.000000
     63          3.118818   0.000000
 
  0.1500000E+00  0.2222222E+00  0.1276756E-14  0.4444444E-01
      1        -18.377052   1.000000
      2        -18.244522   1.000000
      3        -17.395648   1.000000
      4        -17.271660   1.000000
      5        -14.511568   1.000000
      6        -14.404860   1.000000
      7        -14.009695   1.000000
      8        -13.894960   1.000000
      9        -12.153970   1.000000
     10        -11.991161   1.000000
     11        -11.767631   1.000000
     12        -11.162244   1.000000
     13        -10.982849   1.000000
     14        -10.848972   1.000000
     15        -10.679234   1.000000
     16        -10.242110   1.000000
     17        -10.093845   1.000000
     18         -9.722408   1.000000
     19         -9.370998   1.000000
     20         -9.237578   1.000000
     21         -8.483699   1.000000
     22         -8.288525   1.000000
     23         -8.169015   1.000000
     24         -8.044732   1.000000
     25         -7.412310   1.000000
     26         -7.371591   1.000000
     27         -7.355764   1.000000
     28         -7.079261   1.000000
     29         -6.895727   1.000000
     30         -6.533230   1.000000
     31         -6.422648   1.000000
     32         -6.383812   1.000000
     33         -6.317353   1.000000
     34         -6.035173   1.000000
     35         -5.888496   1.000000
     36         -5.855322   1.000000
     37         -5.570834   1.000000
     38         -5.500440   1.000000
     39         -5.319749   1.000000
     40         -5.223253   1.000000
     41         -4.995958   1.000000
     42         -4.760430   1.000000
     43         -4.443843   1.000000
     44         -4.050532   0.002913
     45         -2.985401   0.000000
     46         -2.887703   0.000000
     47         -0.911316   0.000000
     48         -0.337502   0.000000
     49         -0.171506   0.000000
     50         -0.146361   0.000000
     51          0.266098   0.000000
     52          0.397272   0.000000
     53          0.427612   0.000000
     54          1.428440   0.000000
     55          1.512954   0.000000
     56          1.747593   0.000000
     57          1.793242   0.000000
     58          1.919084   0.000000
     59          2.297945   0.000000
     60          2.622756   0.000000
     61          2.715091   0.000000
     62          2.758317   0.000000
     63          3.006953   0.000000
 
  0.2500000E+00  0.2222222E+00  0.1276756E-14  0.4444444E-01
      1        -18.292101   1.000000
      2        -18.160578   1.000000
      3        -17.515769   1.000000
      4        -17.391391   1.000000
      5        -14.528372   1.000000
      6        -14.414695   1.000000
      7        -14.047112   1.000000
      8        -13.935335   1.000000
      9        -12.033533   1.000000
     10        -11.855511   1.000000
     11        -11.677403   1.000000
     12        -10.998018   1.000000
     13        -10.938910   1.000000
     14        -10.821531   1.000000
     15        -10.585772   1.000000
     16        -10.574004   1.000000
     17        -10.444913   1.000000
     18         -9.818773   1.000000
     19         -9.007768   1.000000
     20         -8.862160   1.000000
     21         -8.279894   1.000000
     22         -8.164833   1.000000
     23         -8.127329   1.000000
     24         -8.082085   1.000000
     25         -7.643704   1.000000
     26         -7.580654   1.000000
     27         -7.451976   1.000000
     28         -7.050906   1.000000
     29         -6.919915   1.000000
     30         -6.668237   1.000000
     31         -6.446260   1.000000
     32         -6.322810   1.000000
     33         -6.232368   1.000000
     34         -6.145411   1.000000
     35         -6.007460   1.000000
     36         -5.940852   1.000000
     37         -5.627718   1.000000
     38         -5.500820   1.000000
     39         -5.321124   1.000000
     40         -5.096509   1.000000
     41         -5.010371   1.000000
     42         -4.750257   1.000000
     43         -4.483979   1.000000
     44         -3.951158   0.000000
     45         -3.560785   0.000000
     46         -3.471213   0.000000
     47         -0.589502   0.000000
     48         -0.102093   0.000000
     49         -0.017700   0.000000
     50          0.148867   0.000000
     51          0.502841   0.000000
     52          0.626985   0.000000
     53          0.731166   0.000000
     54          1.195051   0.000000
     55          1.649329   0.000000
     56          1.848052   0.000000
     57          1.951658   0.000000
     58          2.106715   0.000000
     59          2.346599   0.000000
     60          2.709762   0.000000
     61          2.725698   0.000000
     62          2.822155   0.000000
     63          2.886002   0.000000
 
  0.3500000E+00  0.2222222E+00  0.1276756E-14  0.4444444E-01
      1        -18.170037   1.000000
      2        -18.039922   1.000000
      3        -17.673418   1.000000
      4        -17.548086   1.000000
      5        -14.492507   1.000000
      6        -14.375069   1.000000
      7        -14.146329   1.000000
      8        -14.033024   1.000000
      9        -11.868823   1.000000
     10        -11.683574   1.000000
     11        -11.551687   1.000000
     12        -11.099322   1.000000
     13        -11.056773   1.000000
     14        -10.900038   1.000000
     15        -10.459543   1.000000
     16        -10.450377   1.000000
     17        -10.361069   1.000000
     18         -9.955993   1.000000
     19         -8.859312   1.000000
     20         -8.746726   1.000000
     21         -8.413524   1.000000
     22         -8.252371   1.000000
     23         -8.133025   1.000000
     24         -8.099782   1.000000
     25         -7.549486   1.000000
     26         -7.460678   1.000000
     27         -7.406487   1.000000
     28         -7.068947   1.000000
     29         -7.013033   1.000000
     30         -6.808217   1.000000
     31         -6.451637   1.000000
     32         -6.450373   1.000000
     33         -6.266877   1.000000
     34         -5.976231   1.000000
     35         -5.879660   1.000000
     36         -5.813826   1.000000
     37         -5.804176   1.000000
     38         -5.550835   1.000000
     39         -5.391124   1.000000
     40         -5.228355   1.000000
     41         -4.861173   1.000000
     42         -4.564830   1.000000
     43         -4.547044   1.000000
     44         -4.197977   0.921172
     45         -4.114377   0.170661
     46         -3.985155   0.000002
     47         -0.107649   0.000000
     48          0.191052   0.000000
     49          0.213269   0.000000
     50          0.609326   0.000000
     51          0.828269   0.000000
     52          0.883850   0.000000
     53          0.927501   0.000000
     54          1.016788   0.000000
     55          1.519430   0.000000
     56          1.866179   0.000000
     57          1.905844   0.000000
     58          2.256449   0.000000
     59          2.314881   0.000000
     60          2.534780   0.000000
     61          2.549364   0.000000
     62          2.658715   0.000000
     63          2.892649   0.000000
 
  0.4500000E+00  0.2222222E+00  0.1276756E-14  0.4444444E-01
      1        -18.018138   1.000000
      2        -17.889674   1.000000
      3        -17.847428   1.000000
      4        -17.720652   1.000000
      5        -14.403105   1.000000
      6        -14.285042   1.000000
      7        -14.277715   1.000000
      8        -14.161468   1.000000
      9        -11.654621   1.000000
     10        -11.467795   1.000000
     11        -11.428822   1.000000
     12        -11.351554   1.000000
     13        -11.226756   1.000000
     14        -11.201853   1.000000
     15        -10.291048   1.000000
     16        -10.119813   1.000000
     17         -9.965210   1.000000
     18         -9.869062   1.000000
     19         -9.382468   1.000000
     20         -9.288110   1.000000
     21         -8.209074   1.000000
     22         -8.137063   1.000000
     23         -7.936206   1.000000
     24         -7.862576   1.000000
     25         -7.636251   1.000000
     26         -7.503371   1.000000
     27         -7.399430   1.000000
     28         -7.254558   1.000000
     29         -6.968471   1.000000
     30         -6.894664   1.000000
     31         -6.341756   1.000000
     32         -6.326346   1.000000
     33         -6.202613   1.000000
     34         -6.057821   1.000000
     35         -5.995568   1.000000
     36         -5.877456   1.000000
     37         -5.625887   1.000000
     38         -5.417792   1.000000
     39         -5.303982   1.000000
     40         -5.206873   1.000000
     41         -4.818714   1.000000
     42         -4.720758   1.000000
     43         -4.720142   1.000000
     44         -4.630017   1.000000
     45         -4.336329   1.000000
     46         -4.129131   0.296583
     47          0.376833   0.000000
     48          0.443319   0.000000
     49          0.508491   0.000000
     50          0.681647   0.000000
     51          1.124200   0.000000
     52          1.166379   0.000000
     53          1.176268   0.000000
     54          1.273089   0.000000
     55          1.388352   0.000000
     56          1.576446   0.000000
     57          1.625293   0.000000
     58          1.733062   0.000000
     59          2.132285   0.000000
     60          2.371996   0.000000
     61          2.530198   0.000000
     62          2.589348   0.000000
     63          2.823777   0.000000
 
  0.5000000E-01  0.3333333E+00  0.1276756E-14  0.4444444E-01
      1        -18.383460   1.000000
      2        -18.252228   1.000000
      3        -17.395734   1.000000
      4        -17.268339   1.000000
      5        -14.461800   1.000000
      6        -14.364435   1.000000
      7        -13.899320   1.000000
      8        -13.785785   1.000000
      9        -12.503115   1.000000
     10        -12.349000   1.000000
     11        -11.738889   1.000000
     12        -11.418834   1.000000
     13        -11.217422   1.000000
     14        -10.922101   1.000000
     15        -10.654809   1.000000
     16         -9.789849   1.000000
     17         -9.556810   1.000000
     18         -9.396766   1.000000
     19         -9.227878   1.000000
     20         -9.107902   1.000000
     21         -8.377574   1.000000
     22         -8.137440   1.000000
     23         -8.132415   1.000000
     24         -8.034193   1.000000
     25         -7.289593   1.000000
     26         -7.239327   1.000000
     27         -7.128231   1.000000
     28         -7.086597   1.000000
     29         -7.072631   1.000000
     30         -7.056731   1.000000
     31         -6.862452   1.000000
     32         -6.631806   1.000000
     33         -6.220586   1.000000
     34         -6.138042   1.000000
     35         -6.054887   1.000000
     36         -6.008694   1.000000
     37         -5.702547   1.000000
     38         -5.605314   1.000000
     39         -5.531479   1.000000
     40         -5.409133   1.000000
     41         -4.848138   1.000000
     42         -4.813010   1.000000
     43         -4.460659   1.000000
     44         -4.447694   1.000000
     45         -2.151057   0.000000
     46         -2.059502   0.000000
     47         -0.945792   0.000000
     48         -0.487816   0.000000
     49         -0.230318   0.000000
     50         -0.046418   0.000000
     51          0.074524   0.000000
     52          0.203177   0.000000
     53          0.852255   0.000000
     54          1.184319   0.000000
     55          1.599356   0.000000
     56          1.895702   0.000000
     57          1.929535   0.000000
     58          2.047882   0.000000
     59          2.420791   0.000000
     60          2.543663   0.000000
     61          2.791890   0.000000
     62          2.872883   0.000000
     63          2.874524   0.000000
 
  0.1500000E+00  0.3333333E+00  0.1276756E-14  0.4444444E-01
      1        -18.341556   1.000000
      2        -18.210776   1.000000
      3        -17.448412   1.000000
      4        -17.321570   1.000000
      5        -14.530538   1.000000
      6        -14.423897   1.000000
      7        -13.938534   1.000000
      8        -13.827265   1.000000
      9        -12.337552   1.000000
     10        -12.179757   1.000000
     11        -11.695847   1.000000
     12        -11.309643   1.000000
     13        -11.120795   1.000000
     14        -10.951603   1.000000
     15        -10.609359   1.000000
     16         -9.834253   1.000000
     17         -9.820981   1.000000
     18         -9.678294   1.000000
     19         -9.070301   1.000000
     20         -8.943140   1.000000
     21         -8.294285   1.000000
     22         -8.114931   1.000000
     23         -8.077807   1.000000
     24         -8.064039   1.000000
     25         -7.417028   1.000000
     26         -7.375135   1.000000
     27         -7.304970   1.000000
     28         -7.067020   1.000000
     29         -7.004593   1.000000
     30         -6.943757   1.000000
     31         -6.839603   1.000000
     32         -6.616900   1.000000
     33         -6.352446   1.000000
     34         -6.279062   1.000000
     35         -6.114158   1.000000
     36         -6.011980   1.000000
     37         -5.600772   1.000000
     38         -5.539508   1.000000
     39         -5.408570   1.000000
     40         -5.406336   1.000000
     41         -4.865450   1.000000
     42         -4.814406   1.000000
     43         -4.473318   1.000000
     44         -4.155194   0.580393
     45         -2.740475   0.000000
     46         -2.638852   0.000000
     47         -0.789513   0.000000
     48         -0.192925   0.000000
     49         -0.076383   0.000000
     50          0.149555   0.000000
     51          0.357334   0.000000
     52          0.364079   0.000000
     53          0.768328   0.000000
     54          1.433797   0.000000
     55          1.464725   0.000000
     56          1.843582   0.000000
     57          2.027162   0.000000
     58          2.162264   0.000000
     59          2.326400   0.000000
     60          2.669637   0.000000
     61          2.746439   0.000000
     62          2.794967   0.000000
     63          2.964569   0.000000
 
  0.2500000E+00  0.3333333E+00  0.1276756E-14  0.4444444E-01
      1        -18.260018   1.000000
      2        -18.130092   1.000000
      3        -17.548980   1.000000
      4        -17.422763   1.000000
      5        -14.588165   1.000000
      6        -14.472431   1.000000
      7        -14.052227   1.000000
      8        -13.938319   1.000000
      9        -12.040140   1.000000
     10        -11.877068   1.000000
     11        -11.613589   1.000000
     12        -11.088800   1.000000
     13        -11.011711   1.000000
     14        -10.916343   1.000000
     15        -10.522655   1.000000
     16        -10.196670   1.000000
     17        -10.044531   1.000000
     18         -9.886278   1.000000
     19         -8.851158   1.000000
     20         -8.714819   1.000000
     21         -8.441155   1.000000
     22         -8.313317   1.000000
     23         -8.167732   1.000000
     24         -8.093929   1.000000
     25         -7.485965   1.000000
     26         -7.396219   1.000000
     27         -7.323423   1.000000
     28         -7.040856   1.000000
     29         -7.026356   1.000000
     30         -6.758704   1.000000
     31         -6.717173   1.000000
     32         -6.615707   1.000000
     33         -6.561785   1.000000
     34         -6.360285   1.000000
     35         -6.200532   1.000000
     36         -5.833580   1.000000
     37         -5.756827   1.000000
     38         -5.533393   1.000000
     39         -5.360767   1.000000
     40         -5.163336   1.000000
     41         -4.903966   1.000000
     42         -4.562138   1.000000
     43         -4.505281   1.000000
     44         -3.921898   0.000000
     45         -3.509784   0.000000
     46         -3.405666   0.000000
     47         -0.472480   0.000000
     48          0.072649   0.000000
     49          0.169567   0.000000
     50          0.226588   0.000000
     51          0.692673   0.000000
     52          0.717766   0.000000
     53          0.837502   0.000000
     54          1.197742   0.000000
     55          1.725188   0.000000
     56          1.844242   0.000000
     57          1.881195   0.000000
     58          2.270915   0.000000
     59          2.456338   0.000000
     60          2.477968   0.000000
     61          2.741534   0.000000
     62          2.812467   0.000000
     63          2.857250   0.000000
 
  0.3500000E+00  0.3333333E+00  0.1276756E-14  0.4444444E-01
      1        -18.143707   1.000000
      2        -18.014906   1.000000
      3        -17.686113   1.000000
      4        -17.560045   1.000000
      5        -14.585152   1.000000
      6        -14.463732   1.000000
      7        -14.214811   1.000000
      8        -14.096060   1.000000
      9        -11.686909   1.000000
     10        -11.515943   1.000000
     11        -11.499754   1.000000
     12        -11.107751   1.000000
     13        -10.774894   1.000000
     14        -10.595733   1.000000
     15        -10.528162   1.000000
     16        -10.421947   1.000000
     17        -10.387020   1.000000
     18         -9.986812   1.000000
     19         -9.089091   1.000000
     20         -8.970175   1.000000
     21         -8.405085   1.000000
     22         -8.256192   1.000000
     23         -8.136340   1.000000
     24         -8.103514   1.000000
     25         -7.575087   1.000000
     26         -7.456920   1.000000
     27         -7.350846   1.000000
     28         -7.249998   1.000000
     29         -7.018437   1.000000
     30         -6.778929   1.000000
     31         -6.546134   1.000000
     32         -6.400792   1.000000
     33         -6.348308   1.000000
     34         -6.290538   1.000000
     35         -6.148285   1.000000
     36         -5.991042   1.000000
     37         -5.589824   1.000000
     38         -5.518373   1.000000
     39         -5.344385   1.000000
     40         -5.049018   1.000000
     41         -4.901902   1.000000
     42         -4.564199   1.000000
     43         -4.292442   0.999978
     44         -4.280452   0.999910
     45         -4.182692   0.836622
     46         -3.817307   0.000000
     47         -0.044229   0.000000
     48          0.243320   0.000000
     49          0.333567   0.000000
     50          0.626882   0.000000
     51          0.801844   0.000000
     52          0.857097   0.000000
     53          1.115852   0.000000
     54          1.206674   0.000000
     55          1.475401   0.000000
     56          1.725118   0.000000
     57          1.987523   0.000000
     58          2.141444   0.000000
     59          2.344061   0.000000
     60          2.548741   0.000000
     61          2.548974   0.000000
     62          2.704598   0.000000
     63          2.817644   0.000000
 
  0.4500000E+00  0.3333333E+00  0.1276756E-14  0.4444444E-01
      1        -18.000661   1.000000
      2        -17.873071   1.000000
      3        -17.842815   1.000000
      4        -17.716234   1.000000
      5        -14.511796   1.000000
      6        -14.388285   1.000000
      7        -14.380125   1.000000
      8        -14.257712   1.000000
      9        -11.378503   1.000000
     10        -11.333304   1.000000
     11        -11.216967   1.000000
     12        -11.154340   1.000000
     13        -10.969009   1.000000
     14        -10.799596   1.000000
     15        -10.260325   1.000000
     16        -10.214149   1.000000
     17        -10.117582   1.000000
     18        -10.098901   1.000000
     19         -9.655459   1.000000
     20         -9.541886   1.000000
     21         -8.195920   1.000000
     22         -8.137825   1.000000
     23         -7.983001   1.000000
     24         -7.922189   1.000000
     25         -7.695185   1.000000
     26         -7.593776   1.000000
     27         -7.558656   1.000000
     28         -7.447169   1.000000
     29         -6.976890   1.000000
     30         -6.899153   1.000000
     31         -6.425619   1.000000
     32         -6.272084   1.000000
     33         -6.092218   1.000000
     34         -6.041837   1.000000
     35         -5.965533   1.000000
     36         -5.925935   1.000000
     37         -5.475586   1.000000
     38         -5.355144   1.000000
     39         -5.310779   1.000000
     40         -5.165653   1.000000
     41         -5.011377   1.000000
     42         -4.888598   1.000000
     43         -4.763516   1.000000
     44         -4.651330   1.000000
     45         -4.026202   0.000285
     46         -3.861579   0.000000
     47          0.300230   0.000000
     48          0.397290   0.000000
     49          0.537355   0.000000
     50          0.707206   0.000000
     51          0.909149   0.000000
     52          1.018587   0.000000
     53          1.274452   0.000000
     54          1.440466   0.000000
     55          1.553936   0.000000
     56          1.565030   0.000000
     57          1.867861   0.000000
     58          1.899628   0.000000
     59          1.964240   0.000000
     60          2.334228   0.000000
     61          2.383030   0.000000
     62          2.512007   0.000000
     63          2.807964   0.000000
 
  0.5000000E-01  0.4444444E+00  0.1276756E-14  0.4444444E-01
      1        -18.356787   1.000000
      2        -18.226985   1.000000
      3        -17.440234   1.000000
      4        -17.310389   1.000000
      5        -14.451855   1.000000
      6        -14.355908   1.000000
      7        -13.803560   1.000000
      8        -13.696872   1.000000
      9        -12.685622   1.000000
     10        -12.526413   1.000000
     11        -11.676267   1.000000
     12        -11.522518   1.000000
     13        -11.318057   1.000000
     14        -11.013129   1.000000
     15        -10.595548   1.000000
     16         -9.876164   1.000000
     17         -9.333151   1.000000
     18         -9.171265   1.000000
     19         -8.776361   1.000000
     20         -8.653394   1.000000
     21         -8.261497   1.000000
     22         -8.114991   1.000000
     23         -7.925071   1.000000
     24         -7.879631   1.000000
     25         -7.562243   1.000000
     26         -7.485528   1.000000
     27         -7.315898   1.000000
     28         -7.261880   1.000000
     29         -7.061281   1.000000
     30         -6.950232   1.000000
     31         -6.822791   1.000000
     32         -6.795546   1.000000
     33         -6.692989   1.000000
     34         -6.442814   1.000000
     35         -6.143643   1.000000
     36         -6.025827   1.000000
     37         -5.886627   1.000000
     38         -5.617752   1.000000
     39         -5.561574   1.000000
     40         -5.238226   1.000000
     41         -4.890174   1.000000
     42         -4.780066   1.000000
     43         -4.687321   1.000000
     44         -4.491853   1.000000
     45         -1.897099   0.000000
     46         -1.815447   0.000000
     47         -0.862363   0.000000
     48         -0.558280   0.000000
     49         -0.190346   0.000000
     50         -0.147090   0.000000
     51          0.002047   0.000000
     52          0.928523   0.000000
     53          1.142909   0.000000
     54          1.554225   0.000000
     55          1.602021   0.000000
     56          1.709096   0.000000
     57          2.053308   0.000000
     58          2.233488   0.000000
     59          2.333613   0.000000
     60          2.474262   0.000000
     61          2.582587   0.000000
     62          2.688102   0.000000
     63          2.745525   0.000000
 
  0.1500000E+00  0.4444444E+00  0.1276756E-14  0.4444444E-01
      1        -18.316077   1.000000
      2        -18.186665   1.000000
      3        -17.485182   1.000000
      4        -17.356259   1.000000
      5        -14.534718   1.000000
      6        -14.429130   1.000000
      7        -13.903134   1.000000
      8        -13.792286   1.000000
      9        -12.425264   1.000000
     10        -12.272647   1.000000
     11        -11.636606   1.000000
     12        -11.413117   1.000000
     13        -11.216502   1.000000
     14        -11.030639   1.000000
     15        -10.553037   1.000000
     16         -9.895883   1.000000
     17         -9.530912   1.000000
     18         -9.370607   1.000000
     19         -8.700692   1.000000
     20         -8.574188   1.000000
     21         -8.340403   1.000000
     22         -8.142415   1.000000
     23         -8.115185   1.000000
     24         -8.104234   1.000000
     25         -7.521419   1.000000
     26         -7.462505   1.000000
     27         -7.206965   1.000000
     28         -7.170197   1.000000
     29         -7.123425   1.000000
     30         -7.030607   1.000000
     31         -6.921512   1.000000
     32         -6.747809   1.000000
     33         -6.594004   1.000000
     34         -6.382902   1.000000
     35         -6.248297   1.000000
     36         -5.918636   1.000000
     37         -5.673129   1.000000
     38         -5.644790   1.000000
     39         -5.590487   1.000000
     40         -5.456916   1.000000
     41         -4.790206   1.000000
     42         -4.618476   1.000000
     43         -4.500551   1.000000
     44         -4.363662   1.000000
     45         -2.651170   0.000000
     46         -2.540606   0.000000
     47         -0.709278   0.000000
     48         -0.041542   0.000000
     49         -0.026571   0.000000
     50          0.192678   0.000000
     51          0.458488   0.000000
     52          0.772689   0.000000
     53          1.383246   0.000000
     54          1.392367   0.000000
     55          1.393776   0.000000
     56          1.496302   0.000000
     57          1.952765   0.000000
     58          2.147106   0.000000
     59          2.451025   0.000000
     60          2.506659   0.000000
     61          2.734000   0.000000
     62          2.753352   0.000000
     63          2.880009   0.000000
 
  0.2500000E+00  0.4444444E+00  0.1276756E-14  0.4444444E-01
      1        -18.237101   1.000000
      2        -18.108404   1.000000
      3        -17.572902   1.000000
      4        -17.445264   1.000000
      5        -14.614690   1.000000
      6        -14.498863   1.000000
      7        -14.074201   1.000000
      8        -13.956829   1.000000
      9        -11.988305   1.000000
     10        -11.841450   1.000000
     11        -11.561658   1.000000
     12        -11.218188   1.000000
     13        -11.069469   1.000000
     14        -11.032820   1.000000
     15        -10.472530   1.000000
     16         -9.940008   1.000000
     17         -9.834963   1.000000
     18         -9.676659   1.000000
     19         -8.834392   1.000000
     20         -8.696232   1.000000
     21         -8.495502   1.000000
     22         -8.374476   1.000000
     23         -8.166494   1.000000
     24         -8.098767   1.000000
     25         -7.441532   1.000000
     26         -7.293637   1.000000
     27         -7.237083   1.000000
     28         -7.186987   1.000000
     29         -7.091399   1.000000
     30         -7.036770   1.000000
     31         -7.018297   1.000000
     32         -6.683311   1.000000
     33         -6.546536   1.000000
     34         -6.390421   1.000000
     35         -6.201590   1.000000
     36         -5.903721   1.000000
     37         -5.626757   1.000000
     38         -5.592950   1.000000
     39         -5.433148   1.000000
     40         -5.335724   1.000000
     41         -4.813687   1.000000
     42         -4.526544   1.000000
     43         -4.286315   0.999954
     44         -4.048751   0.002494
     45         -3.520153   0.000000
     46         -3.403400   0.000000
     47         -0.409109   0.000000
     48          0.241036   0.000000
     49          0.249023   0.000000
     50          0.542018   0.000000
     51          0.639136   0.000000
     52          1.039974   0.000000
     53          1.173876   0.000000
     54          1.211446   0.000000
     55          1.265420   0.000000
     56          1.706907   0.000000
     57          1.858230   0.000000
     58          1.911178   0.000000
     59          2.485639   0.000000
     60          2.624703   0.000000
     61          2.659288   0.000000
     62          2.877676   0.000000
     63          2.943021   0.000000
 
  0.3500000E+00  0.4444444E+00  0.1276756E-14  0.4444444E-01
      1        -18.125091   1.000000
      2        -17.997290   1.000000
      3        -17.695906   1.000000
      4        -17.569211   1.000000
      5        -14.632925   1.000000
      6        -14.510058   1.000000
      7        -14.268735   1.000000
      8        -14.145767   1.000000
      9        -11.472223   1.000000
     10        -11.455490   1.000000
     11        -11.316141   1.000000
     12        -11.132654   1.000000
     13        -10.950155   1.000000
     14        -10.778042   1.000000
     15        -10.363458   1.000000
     16        -10.174678   1.000000
     17        -10.019905   1.000000
     18        -10.012937   1.000000
     19         -9.400557   1.000000
     20         -9.274162   1.000000
     21         -8.310504   1.000000
     22         -8.178266   1.000000
     23         -8.155880   1.000000
     24         -8.092984   1.000000
     25         -7.592608   1.000000
     26         -7.463565   1.000000
     27         -7.374490   1.000000
     28         -7.349981   1.000000
     29         -7.026325   1.000000
     30         -6.761789   1.000000
     31         -6.706299   1.000000
     32         -6.636376   1.000000
     33         -6.599884   1.000000
     34         -6.161856   1.000000
     35         -6.125735   1.000000
     36         -5.967167   1.000000
     37         -5.528829   1.000000
     38         -5.357718   1.000000
     39         -5.356477   1.000000
     40         -5.100861   1.000000
     41         -4.848823   1.000000
     42         -4.584055   1.000000
     43         -4.374440   1.000000
     44         -4.259653   0.999204
     45         -3.992472   0.000005
     46         -3.821699   0.000000
     47         -0.035610   0.000000
     48          0.379459   0.000000
     49          0.503791   0.000000
     50          0.579498   0.000000
     51          0.754118   0.000000
     52          0.991664   0.000000
     53          1.045421   0.000000
     54          1.316803   0.000000
     55          1.493190   0.000000
     56          1.646493   0.000000
     57          1.833586   0.000000
     58          1.941990   0.000000
     59          2.361656   0.000000
     60          2.398217   0.000000
     61          2.541823   0.000000
     62          2.747032   0.000000
     63          2.893762   0.000000
 
  0.4500000E+00  0.4444444E+00  0.1276756E-14  0.4444444E-01
      1        -17.988637   1.000000
      2        -17.861675   1.000000
      3        -17.840226   1.000000
      4        -17.713732   1.000000
      5        -14.573659   1.000000
      6        -14.447455   1.000000
      7        -14.445309   1.000000
      8        -14.319205   1.000000
      9        -11.347255   1.000000
     10        -11.240623   1.000000
     11        -10.944050   1.000000
     12        -10.793458   1.000000
     13        -10.622134   1.000000
     14        -10.474378   1.000000
     15        -10.424532   1.000000
     16        -10.370445   1.000000
     17        -10.237892   1.000000
     18        -10.115819   1.000000
     19        -10.005455   1.000000
     20         -9.881891   1.000000
     21         -8.166587   1.000000
     22         -8.144934   1.000000
     23         -7.987761   1.000000
     24         -7.922624   1.000000
     25         -7.718350   1.000000
     26         -7.636446   1.000000
     27         -7.633554   1.000000
     28         -7.568916   1.000000
     29         -6.985629   1.000000
     30         -6.903373   1.000000
     31         -6.502149   1.000000
     32         -6.369634   1.000000
     33         -6.158269   1.000000
     34         -6.082793   1.000000
     35         -5.934322   1.000000
     36         -5.819253   1.000000
     37         -5.488923   1.000000
     38         -5.304154   1.000000
     39         -5.159428   1.000000
     40         -5.123104   1.000000
     41         -5.025996   1.000000
     42         -4.984507   1.000000
     43         -4.809426   1.000000
     44         -4.681478   1.000000
     45         -3.800090   0.000000
     46         -3.736480   0.000000
     47          0.223173   0.000000
     48          0.349926   0.000000
     49          0.568563   0.000000
     50          0.684277   0.000000
     51          0.782594   0.000000
     52          0.897102   0.000000
     53          1.278112   0.000000
     54          1.493780   0.000000
     55          1.651819   0.000000
     56          1.755243   0.000000
     57          1.875348   0.000000
     58          1.921459   0.000000
     59          1.954108   0.000000
     60          2.234442   0.000000
     61          2.267130   0.000000
     62          2.552214   0.000000
     63          2.655518   0.000000
