Parameters                              
           1
     5.700971    0.000000    0.000000
     0.000000    6.201871    0.000000
     0.000000    0.000000   30.088117
   B    H 
    28     4
Direct configuration=     1
   0.52128989  0.63795769  0.13367501
   0.52128989  0.63795769  0.26808217
   0.47871011  0.36204231  0.13367501
   0.47871011  0.36204231  0.26808217
   0.97871011  0.63795769  0.13367501
   0.97871011  0.63795769  0.26808217
   0.02128989  0.36204231  0.13367501
   0.02128989  0.36204231  0.26808217
   0.59744966  0.89986831  0.13367501
   0.59744966  0.89986831  0.26808217
   0.40255034  0.10013168  0.13367501
   0.40255034  0.10013168  0.26808217
   0.90255034  0.89986831  0.13367501
   0.90255034  0.89986831  0.26808217
   0.09744966  0.10013168  0.13367501
   0.09744966  0.10013168  0.26808217
   0.75000000  0.72957939  0.17286342
   0.75000000  0.72957939  0.30727058
   0.25000000  0.27042061  0.09448659
   0.25000000  0.27042061  0.22889375
   0.75000000  0.72957939  0.09448659
   0.75000000  0.72957939  0.22889375
   0.25000000  0.27042061  0.17286342
   0.25000000  0.27042061  0.30727058
   0.25000000  0.52399302  0.13367501
   0.25000000  0.52399302  0.26808217
   0.75000000  0.47600695  0.13367501
   0.75000000  0.47600695  0.26808217
   0.25000000  0.27042061  0.05886016
   0.75000000  0.72957939  0.05886016
   0.25000000  0.27042061  0.34289701
   0.75000000  0.72957939  0.34289701
Parameters                              
           1
     5.656709    0.000000    0.000000
     0.000000    6.143185    0.000000
     0.000000    0.000000   30.088117
   B    H 
    28     4
Direct configuration=     2
   0.52240003  0.63774713  0.13353279
   0.52240003  0.63774713  0.26822438
   0.47759997  0.36225287  0.13353279
   0.47759997  0.36225287  0.26822438
   0.97759997  0.63774713  0.13353279
   0.97759997  0.63774713  0.26822438
   0.02240003  0.36225287  0.13353279
   0.02240003  0.36225287  0.26822438
   0.59789156  0.89925504  0.13360364
   0.59789156  0.89925504  0.26815353
   0.40210844  0.10074495  0.13360364
   0.40210844  0.10074495  0.26815353
   0.90210844  0.89925504  0.13360364
   0.90210844  0.89925504  0.26815353
   0.09789156  0.10074495  0.13360364
   0.09789156  0.10074495  0.26815353
   0.75000000  0.72981245  0.17482412
   0.75000000  0.73139799  0.30145676
   0.25000000  0.26860201  0.10030041
   0.25000000  0.27018755  0.22693305
   0.75000000  0.73139799  0.10030041
   0.75000000  0.72981245  0.22693305
   0.25000000  0.27018755  0.17482412
   0.25000000  0.26860201  0.30145676
   0.25000000  0.52334147  0.13356448
   0.25000000  0.52334147  0.26819269
   0.75000000  0.47665850  0.13356448
   0.75000000  0.47665850  0.26819269
   0.25000000  0.27194605  0.05265042
   0.75000000  0.72805395  0.05265042
   0.25000000  0.27194605  0.34910675
   0.75000000  0.72805395  0.34910675
Parameters                              
           1
     5.687682    0.000000    0.000000
     0.000000    6.184252    0.000000
     0.000000    0.000000   30.088117
   B    H 
    28     4
Direct configuration=     3
   0.52161710  0.63789588  0.13363231
   0.52161710  0.63789588  0.26812486
   0.47838290  0.36210412  0.13363231
   0.47838290  0.36210412  0.26812486
   0.97838290  0.63789588  0.13363231
   0.97838290  0.63789588  0.26812486
   0.02161710  0.36210412  0.13363231
   0.02161710  0.36210412  0.26812486
   0.59757991  0.89968829  0.13365358
   0.59757991  0.89968829  0.26810359
   0.40242009  0.10031170  0.13365358
   0.40242009  0.10031170  0.26810359
   0.90242009  0.89968829  0.13365358
   0.90242009  0.89968829  0.26810359
   0.09757991  0.10031170  0.13365358
   0.09757991  0.10031170  0.26810359
   0.75000000  0.72964780  0.17345207
   0.75000000  0.73011322  0.30552513
   0.25000000  0.26988678  0.09623204
   0.25000000  0.27035220  0.22830510
   0.75000000  0.73011322  0.09623204
   0.75000000  0.72964780  0.22830510
   0.25000000  0.27035220  0.17345207
   0.25000000  0.26988678  0.30552513
   0.25000000  0.52380176  0.13364182
   0.25000000  0.52380176  0.26811535
   0.75000000  0.47619821  0.13364182
   0.75000000  0.47619821  0.26811535
   0.25000000  0.27086839  0.05699585
   0.75000000  0.72913161  0.05699585
   0.25000000  0.27086839  0.34476133
   0.75000000  0.72913161  0.34476133
Parameters                              
           1
     5.688080    0.000000    0.000000
     0.000000    6.184779    0.000000
     0.000000    0.000000   30.088117
   B    H 
    28     4
Direct configuration=     4
   0.52160711  0.63789778  0.13363359
   0.52160711  0.63789778  0.26812359
   0.47839289  0.36210222  0.13363359
   0.47839289  0.36210222  0.26812359
   0.97839289  0.63789778  0.13363359
   0.97839289  0.63789778  0.26812359
   0.02160711  0.36210222  0.13363359
   0.02160711  0.36210222  0.26812359
   0.59757593  0.89969381  0.13365422
   0.59757593  0.89969381  0.26810295
   0.40242407  0.10030618  0.13365422
   0.40242407  0.10030618  0.26810295
   0.90242407  0.89969381  0.13365422
   0.90242407  0.89969381  0.26810295
   0.09757593  0.10030618  0.13365422
   0.09757593  0.10030618  0.26810295
   0.75000000  0.72964570  0.17343447
   0.75000000  0.73009685  0.30557732
   0.25000000  0.26990315  0.09617985
   0.25000000  0.27035430  0.22832270
   0.75000000  0.73009685  0.09617985
   0.75000000  0.72964570  0.22832270
   0.25000000  0.27035430  0.17343447
   0.25000000  0.26990315  0.30557732
   0.25000000  0.52380763  0.13364282
   0.25000000  0.52380763  0.26811436
   0.75000000  0.47619234  0.13364282
   0.75000000  0.47619234  0.26811436
   0.25000000  0.27085465  0.05705159
   0.75000000  0.72914535  0.05705159
   0.25000000  0.27085465  0.34470558
   0.75000000  0.72914535  0.34470558
Parameters                              
           1
     5.674719    0.000000    0.000000
     0.000000    6.161077    0.000000
     0.000000    0.000000   30.088117
   B    H 
    28     4
Direct configuration=     5
   0.52114122  0.63761808  0.13380980
   0.52114122  0.63761808  0.26794738
   0.47885878  0.36238192  0.13380980
   0.47885878  0.36238192  0.26794738
   0.97885878  0.63761808  0.13380980
   0.97885878  0.63761808  0.26794738
   0.02114122  0.36238192  0.13380980
   0.02114122  0.36238192  0.26794738
   0.59693121  0.90041938  0.13395465
   0.59693121  0.90041938  0.26780253
   0.40306879  0.09958061  0.13395465
   0.40306879  0.09958061  0.26780253
   0.90306879  0.90041938  0.13395465
   0.90306879  0.90041938  0.26780253
   0.09693121  0.09958061  0.13395465
   0.09693121  0.09958061  0.26780253
   0.75000000  0.72987332  0.17405724
   0.75000000  0.73063028  0.30631098
   0.25000000  0.26936972  0.09544620
   0.25000000  0.27012668  0.22769993
   0.75000000  0.73063028  0.09544620
   0.75000000  0.72987332  0.22769993
   0.25000000  0.27012668  0.17405724
   0.25000000  0.26936972  0.30631098
   0.25000000  0.52428349  0.13366480
   0.25000000  0.52428349  0.26809237
   0.75000000  0.47571648  0.13366480
   0.75000000  0.47571648  0.26809237
   0.25000000  0.27205846  0.05622610
   0.75000000  0.72794154  0.05622610
   0.25000000  0.27205846  0.34553107
   0.75000000  0.72794154  0.34553107
Parameters                              
           1
     5.673637    0.000000    0.000000
     0.000000    6.159157    0.000000
     0.000000    0.000000   30.088117
   B    H 
    28     4
Direct configuration=     6
   0.52110340  0.63759533  0.13382407
   0.52110340  0.63759533  0.26793310
   0.47889660  0.36240467  0.13382407
   0.47889660  0.36240467  0.26793310
   0.97889660  0.63759533  0.13382407
   0.97889660  0.63759533  0.26793310
   0.02110340  0.36240467  0.13382407
   0.02110340  0.36240467  0.26793310
   0.59687886  0.90047838  0.13397898
   0.59687886  0.90047838  0.26777819
   0.40312114  0.09952161  0.13397898
   0.40312114  0.09952161  0.26777819
   0.90312114  0.90047838  0.13397898
   0.90312114  0.90047838  0.26777819
   0.09687886  0.09952161  0.13397898
   0.09687886  0.09952161  0.26777819
   0.75000000  0.72989183  0.17410769
   0.75000000  0.73067366  0.30637040
   0.25000000  0.26932634  0.09538677
   0.25000000  0.27010817  0.22764949
   0.75000000  0.73067366  0.09538677
   0.75000000  0.72989183  0.22764949
   0.25000000  0.27010817  0.17410769
   0.25000000  0.26932634  0.30637040
   0.25000000  0.52432219  0.13366659
   0.25000000  0.52432219  0.26809059
   0.75000000  0.47567778  0.13366659
   0.75000000  0.47567778  0.26809059
   0.25000000  0.27215634  0.05615924
   0.75000000  0.72784366  0.05615924
   0.25000000  0.27215634  0.34559794
   0.75000000  0.72784366  0.34559794
Parameters                              
           1
     5.663755    0.000000    0.000000
     0.000000    6.143371    0.000000
     0.000000    0.000000   30.088117
   B    H 
    28     4
Direct configuration=     7
   0.52157445  0.63829436  0.13399828
   0.52157445  0.63829436  0.26775890
   0.47842555  0.36170564  0.13399828
   0.47842555  0.36170564  0.26775890
   0.97842555  0.63829436  0.13399828
   0.97842555  0.63829436  0.26775890
   0.02157445  0.36170564  0.13399828
   0.02157445  0.36170564  0.26775890
   0.59798174  0.89971599  0.13429016
   0.59798174  0.89971599  0.26746701
   0.40201826  0.10028400  0.13429016
   0.40201826  0.10028400  0.26746701
   0.90201826  0.89971599  0.13429016
   0.90201826  0.89971599  0.26746701
   0.09798174  0.10028400  0.13429016
   0.09798174  0.10028400  0.26746701
   0.75000000  0.73044176  0.17379189
   0.75000000  0.73175378  0.30701747
   0.25000000  0.26824622  0.09473970
   0.25000000  0.26955824  0.22796528
   0.75000000  0.73175378  0.09473970
   0.75000000  0.73044176  0.22796528
   0.25000000  0.26955824  0.17379189
   0.25000000  0.26824622  0.30701747
   0.25000000  0.52456561  0.13368062
   0.25000000  0.52456561  0.26807655
   0.75000000  0.47543436  0.13368062
   0.75000000  0.47543436  0.26807655
   0.25000000  0.27369143  0.05528645
   0.75000000  0.72630857  0.05528645
   0.25000000  0.27369143  0.34647072
   0.75000000  0.72630857  0.34647072
Parameters                              
           1
     5.664881    0.000000    0.000000
     0.000000    6.145171    0.000000
     0.000000    0.000000   30.088117
   B    H 
    28     4
Direct configuration=     8
   0.52152064  0.63821445  0.13397841
   0.52152064  0.63821445  0.26777876
   0.47847936  0.36178555  0.13397841
   0.47847936  0.36178555  0.26777876
   0.97847936  0.63821445  0.13397841
   0.97847936  0.63821445  0.26777876
   0.02152064  0.36178555  0.13397841
   0.02152064  0.36178555  0.26777876
   0.59785577  0.89980315  0.13425468
   0.59785577  0.89980315  0.26750249
   0.40214423  0.10019685  0.13425468
   0.40214423  0.10019685  0.26750249
   0.90214423  0.89980315  0.13425468
   0.90214423  0.89980315  0.26750249
   0.09785577  0.10019685  0.13425468
   0.09785577  0.10019685  0.26750249
   0.75000000  0.73037890  0.17382790
   0.75000000  0.73163030  0.30694369
   0.25000000  0.26836970  0.09481348
   0.25000000  0.26962110  0.22792927
   0.75000000  0.73163030  0.09481348
   0.75000000  0.73037890  0.22792927
   0.25000000  0.26962110  0.17382790
   0.25000000  0.26836970  0.30694369
   0.25000000  0.52453778  0.13367902
   0.25000000  0.52453778  0.26807815
   0.75000000  0.47546219  0.13367902
   0.75000000  0.47546219  0.26807815
   0.25000000  0.27351595  0.05538597
   0.75000000  0.72648405  0.05538597
   0.25000000  0.27351595  0.34637121
   0.75000000  0.72648405  0.34637121
Parameters                              
           1
     5.674387    0.000000    0.000000
     0.000000    6.151647    0.000000
     0.000000    0.000000   30.088117
   B    H 
    28     4
Direct configuration=     9
   0.52177342  0.63792221  0.13394440
   0.52177342  0.63792221  0.26781277
   0.47822658  0.36207779  0.13394440
   0.47822658  0.36207779  0.26781277
   0.97822658  0.63792221  0.13394440
   0.97822658  0.63792221  0.26781277
   0.02177342  0.36207779  0.13394440
   0.02177342  0.36207779  0.26781277
   0.59773615  0.90033664  0.13426579
   0.59773615  0.90033664  0.26749138
   0.40226385  0.09966335  0.13426579
   0.40226385  0.09966335  0.26749138
   0.90226385  0.90033664  0.13426579
   0.90226385  0.90033664  0.26749138
   0.09773615  0.09966335  0.13426579
   0.09773615  0.09966335  0.26749138
   0.75000000  0.73042153  0.17370412
   0.75000000  0.73218504  0.30704416
   0.25000000  0.26781496  0.09471301
   0.25000000  0.26957847  0.22805305
   0.75000000  0.73218504  0.09471301
   0.75000000  0.73042153  0.22805305
   0.25000000  0.26957847  0.17370412
   0.25000000  0.26781496  0.30704416
   0.25000000  0.52482841  0.13364920
   0.25000000  0.52482841  0.26810798
   0.75000000  0.47517156  0.13364920
   0.75000000  0.47517156  0.26810798
   0.25000000  0.27435589  0.05506458
   0.75000000  0.72564411  0.05506458
   0.25000000  0.27435589  0.34669260
   0.75000000  0.72564411  0.34669260
Parameters                              
           1
     5.674531    0.000000    0.000000
     0.000000    6.151745    0.000000
     0.000000    0.000000   30.088117
   B    H 
    28     4
Direct configuration=    10
   0.52177723  0.63791779  0.13394389
   0.52177723  0.63791779  0.26781329
   0.47822277  0.36208221  0.13394389
   0.47822277  0.36208221  0.26781329
   0.97822277  0.63791779  0.13394389
   0.97822277  0.63791779  0.26781329
   0.02177723  0.36208221  0.13394389
   0.02177723  0.36208221  0.26781329
   0.59773434  0.90034471  0.13426596
   0.59773434  0.90034471  0.26749121
   0.40226566  0.09965529  0.13426596
   0.40226566  0.09965529  0.26749121
   0.90226566  0.90034471  0.13426596
   0.90226566  0.90034471  0.26749121
   0.09773434  0.09965529  0.13426596
   0.09773434  0.09965529  0.26749121
   0.75000000  0.73042218  0.17370225
   0.75000000  0.73219342  0.30704568
   0.25000000  0.26780658  0.09471149
   0.25000000  0.26957782  0.22805493
   0.75000000  0.73219342  0.09471149
   0.75000000  0.73042218  0.22805493
   0.25000000  0.26957782  0.17370225
   0.25000000  0.26780658  0.30704568
   0.25000000  0.52483281  0.13364875
   0.25000000  0.52483281  0.26810843
   0.75000000  0.47516716  0.13364875
   0.75000000  0.47516716  0.26810843
   0.25000000  0.27436858  0.05505971
   0.75000000  0.72563142  0.05505971
   0.25000000  0.27436858  0.34669746
   0.75000000  0.72563142  0.34669746
Parameters                              
           1
     5.681609    0.000000    0.000000
     0.000000    6.154402    0.000000
     0.000000    0.000000   30.088117
   B    H 
    28     4
Direct configuration=    11
   0.52218762  0.63790357  0.13383999
   0.52218762  0.63790357  0.26791718
   0.47781238  0.36209643  0.13383999
   0.47781238  0.36209643  0.26791718
   0.97781238  0.63790357  0.13383999
   0.97781238  0.63790357  0.26791718
   0.02218762  0.36209643  0.13383999
   0.02218762  0.36209643  0.26791718
   0.59789251  0.90033579  0.13419529
   0.59789251  0.90033579  0.26756188
   0.40210749  0.09966421  0.13419529
   0.40210749  0.09966421  0.26756188
   0.90210749  0.90033579  0.13419529
   0.90210749  0.90033579  0.26756188
   0.09789251  0.09966421  0.13419529
   0.09789251  0.09966421  0.26756188
   0.75000000  0.73039644  0.17379003
   0.75000000  0.73268874  0.30721074
   0.25000000  0.26731126  0.09454643
   0.25000000  0.26960356  0.22796714
   0.75000000  0.73268874  0.09454643
   0.75000000  0.73039644  0.22796714
   0.25000000  0.26960356  0.17379003
   0.25000000  0.26731126  0.30721074
   0.25000000  0.52503068  0.13360221
   0.25000000  0.52503068  0.26815496
   0.75000000  0.47496929  0.13360221
   0.75000000  0.47496929  0.26815496
   0.25000000  0.27521892  0.05492969
   0.75000000  0.72478108  0.05492969
   0.25000000  0.27521892  0.34682748
   0.75000000  0.72478108  0.34682748
Parameters                              
           1
     5.683930    0.000000    0.000000
     0.000000    6.155273    0.000000
     0.000000    0.000000   30.088117
   B    H 
    28     4
Direct configuration=    12
   0.52232198  0.63789891  0.13380594
   0.52232198  0.63789891  0.26795123
   0.47767802  0.36210109  0.13380594
   0.47767802  0.36210109  0.26795123
   0.97767802  0.63789891  0.13380594
   0.97767802  0.63789891  0.26795123
   0.02232198  0.36210109  0.13380594
   0.02232198  0.36210109  0.26795123
   0.59794430  0.90033286  0.13417213
   0.59794430  0.90033286  0.26758504
   0.40205570  0.09966713  0.13417213
   0.40205570  0.09966713  0.26758504
   0.90205570  0.90033286  0.13417213
   0.90205570  0.90033286  0.26758504
   0.09794430  0.09966713  0.13417213
   0.09794430  0.09966713  0.26758504
   0.75000000  0.73038801  0.17381881
   0.75000000  0.73285104  0.30726485
   0.25000000  0.26714896  0.09449232
   0.25000000  0.26961199  0.22793837
   0.75000000  0.73285104  0.09449232
   0.75000000  0.73038801  0.22793837
   0.25000000  0.26961199  0.17381881
   0.25000000  0.26714896  0.30726485
   0.25000000  0.52509552  0.13358696
   0.25000000  0.52509552  0.26817021
   0.75000000  0.47490445  0.13358696
   0.75000000  0.47490445  0.26817021
   0.25000000  0.27549754  0.05488707
   0.75000000  0.72450246  0.05488707
   0.25000000  0.27549754  0.34687010
   0.75000000  0.72450246  0.34687010
Parameters                              
           1
     5.684326    0.000000    0.000000
     0.000000    6.151502    0.000000
     0.000000    0.000000   30.088117
   B    H 
    28     4
Direct configuration=    13
   0.52260188  0.63787388  0.13366811
   0.52260188  0.63787388  0.26808906
   0.47739812  0.36212612  0.13366811
   0.47739812  0.36212612  0.26808906
   0.97739812  0.63787388  0.13366811
   0.97739812  0.63787388  0.26808906
   0.02260188  0.36212612  0.13366811
   0.02260188  0.36212612  0.26808906
   0.59808627  0.90017137  0.13406740
   0.59808627  0.90017137  0.26768977
   0.40191373  0.09982862  0.13406740
   0.40191373  0.09982862  0.26768977
   0.90191373  0.90017137  0.13406740
   0.90191373  0.90017137  0.26768977
   0.09808627  0.09982862  0.13406740
   0.09808627  0.09982862  0.26768977
   0.75000000  0.73038048  0.17372650
   0.75000000  0.73317699  0.30737171
   0.25000000  0.26682301  0.09438547
   0.25000000  0.26961952  0.22803067
   0.75000000  0.73317699  0.09438547
   0.75000000  0.73038048  0.22803067
   0.25000000  0.26961952  0.17372650
   0.25000000  0.26682301  0.30737171
   0.25000000  0.52538132  0.13353572
   0.25000000  0.52538132  0.26822145
   0.75000000  0.47461865  0.13353572
   0.75000000  0.47461865  0.26822145
   0.25000000  0.27636955  0.05480109
   0.75000000  0.72363045  0.05480109
   0.25000000  0.27636955  0.34695609
   0.75000000  0.72363045  0.34695609
Parameters                              
           1
     5.684784    0.000000    0.000000
     0.000000    6.147146    0.000000
     0.000000    0.000000   30.088117
   B    H 
    28     4
Direct configuration=    14
   0.52292513  0.63784495  0.13350893
   0.52292513  0.63784495  0.26824824
   0.47707487  0.36215505  0.13350893
   0.47707487  0.36215505  0.26824824
   0.97707487  0.63784495  0.13350893
   0.97707487  0.63784495  0.26824824
   0.02292513  0.36215505  0.13350893
   0.02292513  0.36215505  0.26824824
   0.59825023  0.89998473  0.13394644
   0.59825023  0.89998473  0.26781074
   0.40174977  0.10001526  0.13394644
   0.40174977  0.10001526  0.26781074
   0.90174977  0.89998473  0.13394644
   0.90174977  0.89998473  0.26781074
   0.09825023  0.10001526  0.13394644
   0.09825023  0.10001526  0.26781074
   0.75000000  0.73037177  0.17361989
   0.75000000  0.73355370  0.30749513
   0.25000000  0.26644630  0.09426205
   0.25000000  0.26962823  0.22813729
   0.75000000  0.73355370  0.09426205
   0.75000000  0.73037177  0.22813729
   0.25000000  0.26962823  0.17361989
   0.25000000  0.26644630  0.30749513
   0.25000000  0.52571161  0.13347654
   0.25000000  0.52571161  0.26828063
   0.75000000  0.47428836  0.13347654
   0.75000000  0.47428836  0.26828063
   0.25000000  0.27737733  0.05470178
   0.75000000  0.72262267  0.05470178
   0.25000000  0.27737733  0.34705540
   0.75000000  0.72262267  0.34705540
Parameters                              
           1
     5.683906    0.000000    0.000000
    -0.000000    6.143572    0.000000
     0.000000    0.000000   30.088117
   B    H 
    28     4
Direct configuration=    15
   0.52291846  0.63766570  0.13337956
   0.52291846  0.63766570  0.26837761
   0.47708154  0.36233430  0.13337956
   0.47708154  0.36233430  0.26837761
   0.97708154  0.63766570  0.13337956
   0.97708154  0.63766570  0.26837761
   0.02291846  0.36233430  0.13337956
   0.02291846  0.36233430  0.26837761
   0.59806020  0.90016134  0.13383978
   0.59806020  0.90016134  0.26791739
   0.40193980  0.09983865  0.13383978
   0.40193980  0.09983865  0.26791739
   0.90193980  0.90016134  0.13383978
   0.90193980  0.90016134  0.26791739
   0.09806020  0.09983865  0.13383978
   0.09806020  0.09983865  0.26791739
   0.75000000  0.73033219  0.17358846
   0.75000000  0.73356813  0.30757996
   0.25000000  0.26643187  0.09417722
   0.25000000  0.26966781  0.22816872
   0.75000000  0.73356813  0.09417722
   0.75000000  0.73033219  0.22816872
   0.25000000  0.26966781  0.17358846
   0.25000000  0.26643187  0.30757996
   0.25000000  0.52604335  0.13343139
   0.25000000  0.52604335  0.26832578
   0.75000000  0.47395662  0.13343139
   0.75000000  0.47395662  0.26832578
   0.25000000  0.27809116  0.05463506
   0.75000000  0.72190884  0.05463506
   0.25000000  0.27809116  0.34712211
   0.75000000  0.72190884  0.34712211
Parameters                              
           1
     5.683286   -0.000000    0.000000
    -0.000000    6.141050    0.000000
     0.000000    0.000000   30.088117
   B    H 
    28     4
Direct configuration=    16
   0.52291375  0.63753913  0.13328827
   0.52291375  0.63753913  0.26846891
   0.47708625  0.36246087  0.13328827
   0.47708625  0.36246087  0.26846891
   0.97708625  0.63753913  0.13328827
   0.97708625  0.63753913  0.26846891
   0.02291375  0.36246087  0.13328827
   0.02291375  0.36246087  0.26846891
   0.59792607  0.90028606  0.13376451
   0.59792607  0.90028606  0.26799267
   0.40207393  0.09971394  0.13376451
   0.40207393  0.09971394  0.26799267
   0.90207393  0.90028606  0.13376451
   0.90207393  0.90028606  0.26799267
   0.09792607  0.09971394  0.13376451
   0.09792607  0.09971394  0.26799267
   0.75000000  0.73030424  0.17356627
   0.75000000  0.73357831  0.30763982
   0.25000000  0.26642169  0.09411735
   0.25000000  0.26969576  0.22819090
   0.75000000  0.73357831  0.09411735
   0.75000000  0.73030424  0.22819090
   0.25000000  0.26969576  0.17356627
   0.25000000  0.26642169  0.30763982
   0.25000000  0.52627760  0.13339953
   0.25000000  0.52627760  0.26835764
   0.75000000  0.47372237  0.13339953
   0.75000000  0.47372237  0.26835764
   0.25000000  0.27859522  0.05458798
   0.75000000  0.72140478  0.05458798
   0.25000000  0.27859522  0.34716919
   0.75000000  0.72140478  0.34716919
Parameters                              
           1
     5.682530   -0.000000    0.000000
    -0.000000    6.141284    0.000000
     0.000000    0.000000   30.088117
   B    H 
    28     4
Direct configuration=    17
   0.52286308  0.63763958  0.13323803
   0.52286308  0.63763958  0.26851914
   0.47713692  0.36236042  0.13323803
   0.47713692  0.36236042  0.26851914
   0.97713692  0.63763958  0.13323803
   0.97713692  0.63763958  0.26851914
   0.02286308  0.36236042  0.13323803
   0.02286308  0.36236042  0.26851914
   0.59796564  0.90026014  0.13370845
   0.59796564  0.90026014  0.26804872
   0.40203436  0.09973985  0.13370845
   0.40203436  0.09973985  0.26804872
   0.90203436  0.90026014  0.13370845
   0.90203436  0.90026014  0.26804872
   0.09796564  0.09973985  0.13370845
   0.09796564  0.09973985  0.26804872
   0.75000000  0.73031482  0.17358878
   0.75000000  0.73333173  0.30766041
   0.25000000  0.26666827  0.09409677
   0.25000000  0.26968518  0.22816839
   0.75000000  0.73333173  0.09409677
   0.75000000  0.73031482  0.22816839
   0.25000000  0.26968518  0.17358878
   0.25000000  0.26666827  0.30766041
   0.25000000  0.52631826  0.13338095
   0.25000000  0.52631826  0.26837622
   0.75000000  0.47368171  0.13338095
   0.75000000  0.47368171  0.26837622
   0.25000000  0.27884370  0.05455557
   0.75000000  0.72115630  0.05455557
   0.25000000  0.27884370  0.34720160
   0.75000000  0.72115630  0.34720160
Parameters                              
           1
     5.681518   -0.000000    0.000000
    -0.000000    6.141597    0.000000
     0.000000    0.000000   30.088117
   B    H 
    28     4
Direct configuration=    18
   0.52279533  0.63777388  0.13317086
   0.52279533  0.63777388  0.26858632
   0.47720467  0.36222612  0.13317086
   0.47720467  0.36222612  0.26858632
   0.97720467  0.63777388  0.13317086
   0.97720467  0.63777388  0.26858632
   0.02279533  0.36222612  0.13317086
   0.02279533  0.36222612  0.26858632
   0.59801856  0.90022550  0.13363350
   0.59801856  0.90022550  0.26812367
   0.40198144  0.09977449  0.13363350
   0.40198144  0.09977449  0.26812367
   0.90198144  0.90022550  0.13363350
   0.90198144  0.90022550  0.26812367
   0.09801856  0.09977449  0.13363350
   0.09801856  0.09977449  0.26812367
   0.75000000  0.73032897  0.17361887
   0.75000000  0.73300203  0.30768793
   0.25000000  0.26699797  0.09406924
   0.25000000  0.26967103  0.22813830
   0.75000000  0.73300203  0.09406924
   0.75000000  0.73032897  0.22813830
   0.25000000  0.26967103  0.17361887
   0.25000000  0.26699797  0.30768793
   0.25000000  0.52637263  0.13335610
   0.25000000  0.52637263  0.26840107
   0.75000000  0.47362734  0.13335610
   0.75000000  0.47362734  0.26840107
   0.25000000  0.27917593  0.05451224
   0.75000000  0.72082407  0.05451224
   0.25000000  0.27917593  0.34724494
   0.75000000  0.72082407  0.34724494
Parameters                              
           1
     5.680821   -0.000000    0.000000
    -0.000000    6.143264    0.000000
     0.000000    0.000000   30.088117
   B    H 
    28     4
Direct configuration=    19
   0.52273073  0.63781138  0.13313634
   0.52273073  0.63781138  0.26862083
   0.47726927  0.36218862  0.13313634
   0.47726927  0.36218862  0.26862083
   0.97726927  0.63781138  0.13313634
   0.97726927  0.63781138  0.26862083
   0.02273073  0.36218862  0.13313634
   0.02273073  0.36218862  0.26862083
   0.59807116  0.90022056  0.13357002
   0.59807116  0.90022056  0.26818715
   0.40192884  0.09977944  0.13357002
   0.40192884  0.09977944  0.26818715
   0.90192884  0.90022056  0.13357002
   0.90192884  0.90022056  0.26818715
   0.09807116  0.09977944  0.13357002
   0.09807116  0.09977944  0.26818715
   0.75000000  0.73039617  0.17356743
   0.75000000  0.73255877  0.30772497
   0.25000000  0.26744123  0.09403221
   0.25000000  0.26960383  0.22818974
   0.75000000  0.73255877  0.09403221
   0.75000000  0.73039617  0.22818974
   0.25000000  0.26960383  0.17356743
   0.25000000  0.26744123  0.30772497
   0.25000000  0.52624659  0.13333442
   0.25000000  0.52624659  0.26842276
   0.75000000  0.47375338  0.13333442
   0.75000000  0.47375338  0.26842276
   0.25000000  0.27943891  0.05448433
   0.75000000  0.72056109  0.05448433
   0.25000000  0.27943891  0.34727284
   0.75000000  0.72056109  0.34727284
Parameters                              
           1
     5.679984   -0.000000    0.000000
    -0.000000    6.145265    0.000000
     0.000000    0.000000   30.088117
   B    H 
    28     4
Direct configuration=    20
   0.52265316  0.63785638  0.13309491
   0.52265316  0.63785638  0.26866226
   0.47734684  0.36214362  0.13309491
   0.47734684  0.36214362  0.26866226
   0.97734684  0.63785638  0.13309491
   0.97734684  0.63785638  0.26866226
   0.02265316  0.36214362  0.13309491
   0.02265316  0.36214362  0.26866226
   0.59813432  0.90021463  0.13349381
   0.59813432  0.90021463  0.26826336
   0.40186568  0.09978537  0.13349381
   0.40186568  0.09978537  0.26826336
   0.90186568  0.90021463  0.13349381
   0.90186568  0.90021463  0.26826336
   0.09813432  0.09978537  0.13349381
   0.09813432  0.09978537  0.26826336
   0.75000000  0.73047685  0.17350568
   0.75000000  0.73202671  0.30776944
   0.25000000  0.26797329  0.09398773
   0.25000000  0.26952315  0.22825150
   0.75000000  0.73202671  0.09398773
   0.75000000  0.73047685  0.22825150
   0.25000000  0.26952315  0.17350568
   0.25000000  0.26797329  0.30776944
   0.25000000  0.52609530  0.13330838
   0.25000000  0.52609530  0.26844880
   0.75000000  0.47390467  0.13330838
   0.75000000  0.47390467  0.26844880
   0.25000000  0.27975459  0.05445083
   0.75000000  0.72024541  0.05445083
   0.25000000  0.27975459  0.34730635
   0.75000000  0.72024541  0.34730635
Parameters                              
           1
     5.680256   -0.000000    0.000000
    -0.000000    6.146132    0.000000
     0.000000    0.000000   30.088117
   B    H 
    28     4
Direct configuration=    21
   0.52259354  0.63773285  0.13309542
   0.52259354  0.63773285  0.26866175
   0.47740646  0.36226715  0.13309542
   0.47740646  0.36226715  0.26866175
   0.97740646  0.63773285  0.13309542
   0.97740646  0.63773285  0.26866175
   0.02259354  0.36226715  0.13309542
   0.02259354  0.36226715  0.26866175
   0.59804189  0.90024563  0.13342726
   0.59804189  0.90024563  0.26832991
   0.40195812  0.09975436  0.13342726
   0.40195812  0.09975436  0.26832991
   0.90195812  0.90024563  0.13342726
   0.90195812  0.90024563  0.26832991
   0.09804189  0.09975436  0.13342726
   0.09804189  0.09975436  0.26832991
   0.75000000  0.73058203  0.17351280
   0.75000000  0.73164769  0.30780672
   0.25000000  0.26835231  0.09395046
   0.25000000  0.26941797  0.22824437
   0.75000000  0.73164769  0.09395046
   0.75000000  0.73058203  0.22824437
   0.25000000  0.26941797  0.17351280
   0.25000000  0.26835231  0.30780672
   0.25000000  0.52582590  0.13328182
   0.25000000  0.52582590  0.26847535
   0.75000000  0.47417407  0.13328182
   0.75000000  0.47417407  0.26847535
   0.25000000  0.28002684  0.05441615
   0.75000000  0.71997316  0.05441615
   0.25000000  0.28002684  0.34734103
   0.75000000  0.71997316  0.34734103
Parameters                              
           1
     5.680367   -0.000000    0.000000
    -0.000000    6.146484    0.000000
     0.000000    0.000000   30.088117
   B    H 
    28     4
Direct configuration=    22
   0.52256931  0.63768265  0.13309563
   0.52256931  0.63768265  0.26866154
   0.47743069  0.36231735  0.13309563
   0.47743069  0.36231735  0.26866154
   0.97743069  0.63768265  0.13309563
   0.97743069  0.63768265  0.26866154
   0.02256931  0.36231735  0.13309563
   0.02256931  0.36231735  0.26866154
   0.59800432  0.90025823  0.13340022
   0.59800432  0.90025823  0.26835695
   0.40199568  0.09974176  0.13340022
   0.40199568  0.09974176  0.26835695
   0.90199568  0.90025823  0.13340022
   0.90199568  0.90025823  0.26835695
   0.09800432  0.09974176  0.13340022
   0.09800432  0.09974176  0.26835695
   0.75000000  0.73062478  0.17351570
   0.75000000  0.73149369  0.30782186
   0.25000000  0.26850631  0.09393531
   0.25000000  0.26937522  0.22824148
   0.75000000  0.73149369  0.09393531
   0.75000000  0.73062478  0.22824148
   0.25000000  0.26937522  0.17351570
   0.25000000  0.26850631  0.30782186
   0.25000000  0.52571643  0.13327103
   0.25000000  0.52571643  0.26848614
   0.75000000  0.47428354  0.13327103
   0.75000000  0.47428354  0.26848614
   0.25000000  0.28013746  0.05440205
   0.75000000  0.71986254  0.05440205
   0.25000000  0.28013746  0.34735512
   0.75000000  0.71986254  0.34735512
Parameters                              
           1
     5.680679   -0.000000    0.000000
    -0.000000    6.146588    0.000000
     0.000000    0.000000   30.088117
   B    H 
    28     4
Direct configuration=    23
   0.52252483  0.63769493  0.13312688
   0.52252483  0.63769493  0.26863029
   0.47747517  0.36230507  0.13312688
   0.47747517  0.36230507  0.26863029
   0.97747517  0.63769493  0.13312688
   0.97747517  0.63769493  0.26863029
   0.02252483  0.36230507  0.13312688
   0.02252483  0.36230507  0.26863029
   0.59801084  0.90009391  0.13333106
   0.59801084  0.90009391  0.26842611
   0.40198916  0.09990608  0.13333106
   0.40198916  0.09990608  0.26842611
   0.90198916  0.90009391  0.13333106
   0.90198916  0.90009391  0.26842611
   0.09801084  0.09990608  0.13333106
   0.09801084  0.09990608  0.26842611
   0.75000000  0.73081604  0.17352057
   0.75000000  0.73125092  0.30783437
   0.25000000  0.26874908  0.09392281
   0.25000000  0.26918396  0.22823660
   0.75000000  0.73125092  0.09392281
   0.75000000  0.73081604  0.22823660
   0.25000000  0.26918396  0.17352057
   0.25000000  0.26874908  0.30783437
   0.25000000  0.52547862  0.13324040
   0.25000000  0.52547862  0.26851678
   0.75000000  0.47452135  0.13324040
   0.75000000  0.47452135  0.26851678
   0.25000000  0.28046782  0.05435538
   0.75000000  0.71953218  0.05435538
   0.25000000  0.28046782  0.34740179
   0.75000000  0.71953218  0.34740179
Parameters                              
           1
     5.680787   -0.000000    0.000000
    -0.000000    6.146624    0.000000
     0.000000    0.000000   30.088117
   B    H 
    28     4
Direct configuration=    24
   0.52250946  0.63769917  0.13313767
   0.52250946  0.63769917  0.26861950
   0.47749054  0.36230083  0.13313767
   0.47749054  0.36230083  0.26861950
   0.97749054  0.63769917  0.13313767
   0.97749054  0.63769917  0.26861950
   0.02250946  0.36230083  0.13313767
   0.02250946  0.36230083  0.26861950
   0.59801309  0.90003713  0.13330716
   0.59801309  0.90003713  0.26845001
   0.40198691  0.09996286  0.13330716
   0.40198691  0.09996286  0.26845001
   0.90198691  0.90003713  0.13330716
   0.90198691  0.90003713  0.26845001
   0.09801309  0.09996286  0.13330716
   0.09801309  0.09996286  0.26845001
   0.75000000  0.73088212  0.17352226
   0.75000000  0.73116703  0.30783869
   0.25000000  0.26883297  0.09391849
   0.25000000  0.26911788  0.22823492
   0.75000000  0.73116703  0.09391849
   0.75000000  0.73088212  0.22823492
   0.25000000  0.26911788  0.17352226
   0.25000000  0.26883297  0.30783869
   0.25000000  0.52539645  0.13322981
   0.25000000  0.52539645  0.26852736
   0.75000000  0.47460352  0.13322981
   0.75000000  0.47460352  0.26852736
   0.25000000  0.28058197  0.05433925
   0.75000000  0.71941803  0.05433925
   0.25000000  0.28058197  0.34741792
   0.75000000  0.71941803  0.34741792
Parameters                              
           1
     5.680629   -0.000000    0.000000
    -0.000000    6.147272    0.000000
     0.000000    0.000000   30.088117
   B    H 
    28     4
Direct configuration=    25
   0.52240796  0.63772817  0.13318671
   0.52240796  0.63772817  0.26857046
   0.47759204  0.36227183  0.13318671
   0.47759204  0.36227183  0.26857046
   0.97759204  0.63772817  0.13318671
   0.97759204  0.63772817  0.26857046
   0.02240796  0.36227183  0.13318671
   0.02240796  0.36227183  0.26857046
   0.59797344  0.90001867  0.13325622
   0.59797344  0.90001867  0.26850095
   0.40202656  0.09998133  0.13325622
   0.40202656  0.09998133  0.26850095
   0.90202656  0.90001867  0.13325622
   0.90202656  0.90001867  0.26850095
   0.09797344  0.09998133  0.13325622
   0.09797344  0.09998133  0.26850095
   0.75000000  0.73114240  0.17349724
   0.75000000  0.73102162  0.30786952
   0.25000000  0.26897838  0.09388765
   0.25000000  0.26885760  0.22825993
   0.75000000  0.73102162  0.09388765
   0.75000000  0.73114240  0.22825993
   0.25000000  0.26885760  0.17349724
   0.25000000  0.26897838  0.30786952
   0.25000000  0.52539927  0.13320580
   0.25000000  0.52539927  0.26855137
   0.75000000  0.47460070  0.13320580
   0.75000000  0.47460070  0.26855137
   0.25000000  0.28092972  0.05432564
   0.75000000  0.71907028  0.05432564
   0.25000000  0.28092972  0.34743153
   0.75000000  0.71907028  0.34743153
Parameters                              
           1
     5.680515   -0.000000    0.000000
    -0.000000    6.147745    0.000000
     0.000000    0.000000   30.088117
   B    H 
    28     4
Direct configuration=    26
   0.52233398  0.63774930  0.13322245
   0.52233398  0.63774930  0.26853472
   0.47766602  0.36225070  0.13322245
   0.47766602  0.36225070  0.26853472
   0.97766602  0.63774930  0.13322245
   0.97766602  0.63774930  0.26853472
   0.02233398  0.36225070  0.13322245
   0.02233398  0.36225070  0.26853472
   0.59794454  0.90000521  0.13321909
   0.59794454  0.90000521  0.26853808
   0.40205546  0.09999478  0.13321909
   0.40205546  0.09999478  0.26853808
   0.90205546  0.90000521  0.13321909
   0.90205546  0.90000521  0.26853808
   0.09794454  0.09999478  0.13321909
   0.09794454  0.09999478  0.26853808
   0.75000000  0.73133208  0.17347901
   0.75000000  0.73091565  0.30789199
   0.25000000  0.26908435  0.09386518
   0.25000000  0.26866792  0.22827817
   0.75000000  0.73091565  0.09386518
   0.75000000  0.73133208  0.22827817
   0.25000000  0.26866792  0.17347901
   0.25000000  0.26908435  0.30789199
   0.25000000  0.52540133  0.13318830
   0.25000000  0.52540133  0.26856887
   0.75000000  0.47459864  0.13318830
   0.75000000  0.47459864  0.26856887
   0.25000000  0.28118314  0.05431572
   0.75000000  0.71881686  0.05431572
   0.25000000  0.28118314  0.34744145
   0.75000000  0.71881686  0.34744145
Parameters                              
           1
     5.679065   -0.000000    0.000000
    -0.000000    6.148312    0.000000
     0.000000    0.000000   30.088117
   B    H 
    28     4
Direct configuration=    27
   0.52235515  0.63774867  0.13326981
   0.52235515  0.63774867  0.26848737
   0.47764485  0.36225133  0.13326981
   0.47764485  0.36225133  0.26848737
   0.97764485  0.63774867  0.13326981
   0.97764485  0.63774867  0.26848737
   0.02235515  0.36225133  0.13326981
   0.02235515  0.36225133  0.26848737
   0.59792238  0.90009943  0.13317000
   0.59792238  0.90009943  0.26858717
   0.40207762  0.09990057  0.13317000
   0.40207762  0.09990057  0.26858717
   0.90207762  0.90009943  0.13317000
   0.90207762  0.90009943  0.26858717
   0.09792238  0.09990057  0.13317000
   0.09792238  0.09990057  0.26858717
   0.75000000  0.73170454  0.17350124
   0.75000000  0.73076894  0.30789114
   0.25000000  0.26923106  0.09386603
   0.25000000  0.26829546  0.22825593
   0.75000000  0.73076894  0.09386603
   0.75000000  0.73170454  0.22825593
   0.25000000  0.26829546  0.17350124
   0.25000000  0.26923106  0.30789114
   0.25000000  0.52545226  0.13317149
   0.25000000  0.52545226  0.26858568
   0.75000000  0.47454771  0.13317149
   0.75000000  0.47454771  0.26858568
   0.25000000  0.28162174  0.05430351
   0.75000000  0.71837826  0.05430351
   0.25000000  0.28162174  0.34745366
   0.75000000  0.71837826  0.34745366
Parameters                              
           1
     5.678178   -0.000000    0.000000
    -0.000000    6.148659    0.000000
     0.000000    0.000000   30.088117
   B    H 
    28     4
Direct configuration=    28
   0.52236812  0.63774827  0.13329879
   0.52236812  0.63774827  0.26845838
   0.47763188  0.36225173  0.13329879
   0.47763188  0.36225173  0.26845838
   0.97763188  0.63774827  0.13329879
   0.97763188  0.63774827  0.26845838
   0.02236812  0.36225173  0.13329879
   0.02236812  0.36225173  0.26845838
   0.59790882  0.90015708  0.13313996
   0.59790882  0.90015708  0.26861722
   0.40209118  0.09984291  0.13313996
   0.40209118  0.09984291  0.26861722
   0.90209118  0.90015708  0.13313996
   0.90209118  0.90015708  0.26861722
   0.09790882  0.09984291  0.13313996
   0.09790882  0.09984291  0.26861722
   0.75000000  0.73193246  0.17351485
   0.75000000  0.73067916  0.30789062
   0.25000000  0.26932084  0.09386655
   0.25000000  0.26806754  0.22824232
   0.75000000  0.73067916  0.09386655
   0.75000000  0.73193246  0.22824232
   0.25000000  0.26806754  0.17351485
   0.25000000  0.26932084  0.30789062
   0.25000000  0.52548343  0.13316120
   0.25000000  0.52548343  0.26859597
   0.75000000  0.47451654  0.13316120
   0.75000000  0.47451654  0.26859597
   0.25000000  0.28189013  0.05429604
   0.75000000  0.71810987  0.05429604
   0.25000000  0.28189013  0.34746113
   0.75000000  0.71810987  0.34746113
Parameters                              
           1
     5.677468   -0.000000    0.000000
    -0.000000    6.148336    0.000000
     0.000000    0.000000   30.088117
   B    H 
    28     4
Direct configuration=    29
   0.52250590  0.63780565  0.13333624
   0.52250590  0.63780565  0.26842093
   0.47749410  0.36219435  0.13333624
   0.47749410  0.36219435  0.26842093
   0.97749410  0.63780565  0.13333624
   0.97749410  0.63780565  0.26842093
   0.02250590  0.36219435  0.13333624
   0.02250590  0.36219435  0.26842093
   0.59800540  0.90011560  0.13310447
   0.59800540  0.90011560  0.26865270
   0.40199460  0.09988439  0.13310447
   0.40199460  0.09988439  0.26865270
   0.90199460  0.90011560  0.13310447
   0.90199460  0.90011560  0.26865270
   0.09800540  0.09988439  0.13310447
   0.09800540  0.09988439  0.26865270
   0.75000000  0.73241149  0.17351100
   0.75000000  0.73047744  0.30787451
   0.25000000  0.26952256  0.09388266
   0.25000000  0.26758851  0.22824617
   0.75000000  0.73047744  0.09388266
   0.75000000  0.73241149  0.22824617
   0.25000000  0.26758851  0.17351100
   0.25000000  0.26952256  0.30787451
   0.25000000  0.52555264  0.13316318
   0.25000000  0.52555264  0.26859399
   0.75000000  0.47444733  0.13316318
   0.75000000  0.47444733  0.26859399
   0.25000000  0.28239494  0.05431127
   0.75000000  0.71760506  0.05431127
   0.25000000  0.28239494  0.34744590
   0.75000000  0.71760506  0.34744590
Parameters                              
           1
     5.677389   -0.000000    0.000000
    -0.000000    6.148301    0.000000
     0.000000    0.000000   30.088117
   B    H 
    28     4
Direct configuration=    30
   0.52252124  0.63781204  0.13334042
   0.52252124  0.63781204  0.26841676
   0.47747876  0.36218796  0.13334042
   0.47747876  0.36218796  0.26841676
   0.97747876  0.63781204  0.13334042
   0.97747876  0.63781204  0.26841676
   0.02252124  0.36218796  0.13334042
   0.02252124  0.36218796  0.26841676
   0.59801615  0.90011098  0.13310052
   0.59801615  0.90011098  0.26865666
   0.40198385  0.09988901  0.13310052
   0.40198385  0.09988901  0.26865666
   0.90198385  0.90011098  0.13310052
   0.90198385  0.90011098  0.26865666
   0.09801615  0.09988901  0.13310052
   0.09801615  0.09988901  0.26865666
   0.75000000  0.73246483  0.17351058
   0.75000000  0.73045498  0.30787272
   0.25000000  0.26954502  0.09388446
   0.25000000  0.26753517  0.22824660
   0.75000000  0.73045498  0.09388446
   0.75000000  0.73246483  0.22824660
   0.25000000  0.26753517  0.17351058
   0.25000000  0.26954502  0.30787272
   0.25000000  0.52556035  0.13316340
   0.25000000  0.52556035  0.26859377
   0.75000000  0.47443962  0.13316340
   0.75000000  0.47443962  0.26859377
   0.25000000  0.28245116  0.05431297
   0.75000000  0.71754884  0.05431297
   0.25000000  0.28245116  0.34744421
   0.75000000  0.71754884  0.34744421
Parameters                              
           1
     5.678455   -0.000000    0.000000
    -0.000000    6.147692    0.000000
     0.000000    0.000000   30.088117
   B    H 
    28     4
Direct configuration=    31
   0.52257379  0.63777477  0.13336550
   0.52257379  0.63777477  0.26839168
   0.47742621  0.36222523  0.13336550
   0.47742621  0.36222523  0.26839168
   0.97742621  0.63777477  0.13336550
   0.97742621  0.63777477  0.26839168
   0.02257379  0.36222523  0.13336550
   0.02257379  0.36222523  0.26839168
   0.59800259  0.90013684  0.13307912
   0.59800259  0.90013684  0.26867805
   0.40199741  0.09986315  0.13307912
   0.40199741  0.09986315  0.26867805
   0.90199741  0.90013684  0.13307912
   0.90199741  0.90013684  0.26867805
   0.09800259  0.09986315  0.13307912
   0.09800259  0.09986315  0.26867805
   0.75000000  0.73285392  0.17350725
   0.75000000  0.73022942  0.30786827
   0.25000000  0.26977058  0.09388891
   0.25000000  0.26714608  0.22824993
   0.75000000  0.73022942  0.09388891
   0.75000000  0.73285392  0.22824993
   0.25000000  0.26714608  0.17350725
   0.25000000  0.26977058  0.30786827
   0.25000000  0.52567816  0.13317900
   0.25000000  0.52567816  0.26857817
   0.75000000  0.47432181  0.13317900
   0.75000000  0.47432181  0.26857817
   0.25000000  0.28289614  0.05434648
   0.75000000  0.71710386  0.05434648
   0.25000000  0.28289614  0.34741070
   0.75000000  0.71710386  0.34741070
Parameters                              
           1
     5.679530   -0.000000    0.000000
    -0.000000    6.147078    0.000000
     0.000000    0.000000   30.088117
   B    H 
    28     4
Direct configuration=    32
   0.52262683  0.63773714  0.13339082
   0.52262683  0.63773714  0.26836635
   0.47737317  0.36226286  0.13339082
   0.47737317  0.36226286  0.26836635
   0.97737317  0.63773714  0.13339082
   0.97737317  0.63773714  0.26836635
   0.02262683  0.36226286  0.13339082
   0.02262683  0.36226286  0.26836635
   0.59798890  0.90016295  0.13305752
   0.59798890  0.90016295  0.26869965
   0.40201110  0.09983705  0.13305752
   0.40201110  0.09983705  0.26869965
   0.90201110  0.90016295  0.13305752
   0.90201110  0.90016295  0.26869965
   0.09798890  0.09983705  0.13305752
   0.09798890  0.09983705  0.26869965
   0.75000000  0.73324679  0.17350389
   0.75000000  0.73000167  0.30786377
   0.25000000  0.26999833  0.09389340
   0.25000000  0.26675321  0.22825328
   0.75000000  0.73000167  0.09389340
   0.75000000  0.73324679  0.22825328
   0.25000000  0.26675321  0.17350389
   0.25000000  0.26999833  0.30786377
   0.25000000  0.52579712  0.13319475
   0.25000000  0.52579712  0.26856242
   0.75000000  0.47420285  0.13319475
   0.75000000  0.47420285  0.26856242
   0.25000000  0.28334545  0.05438031
   0.75000000  0.71665455  0.05438031
   0.25000000  0.28334545  0.34737687
   0.75000000  0.71665455  0.34737687
Parameters                              
           1
     5.680683   -0.000000    0.000000
    -0.000000    6.146202    0.000000
     0.000000    0.000000   30.088117
   B    H 
    28     4
Direct configuration=    33
   0.52261844  0.63770354  0.13340625
   0.52261844  0.63770354  0.26835092
   0.47738156  0.36229646  0.13340625
   0.47738156  0.36229646  0.26835092
   0.97738156  0.63770354  0.13340625
   0.97738156  0.63770354  0.26835092
   0.02261844  0.36229646  0.13340625
   0.02261844  0.36229646  0.26835092
   0.59797628  0.90016660  0.13303941
   0.59797628  0.90016660  0.26871776
   0.40202372  0.09983339  0.13303941
   0.40202372  0.09983339  0.26871776
   0.90202372  0.90016660  0.13303941
   0.90202372  0.90016660  0.26871776
   0.09797628  0.09983339  0.13303941
   0.09797628  0.09983339  0.26871776
   0.75000000  0.73339839  0.17352411
   0.75000000  0.72985146  0.30782871
   0.25000000  0.27014854  0.09392846
   0.25000000  0.26660161  0.22823306
   0.75000000  0.72985146  0.09392846
   0.75000000  0.73339839  0.22823306
   0.25000000  0.26660161  0.17352411
   0.25000000  0.27014854  0.30782871
   0.25000000  0.52587076  0.13322033
   0.25000000  0.52587076  0.26853684
   0.75000000  0.47412921  0.13322033
   0.75000000  0.47412921  0.26853684
   0.25000000  0.28370004  0.05438560
   0.75000000  0.71629996  0.05438560
   0.25000000  0.28370004  0.34737157
   0.75000000  0.71629996  0.34737157
Parameters                              
           1
     5.680731   -0.000000    0.000000
    -0.000000    6.146165    0.000000
     0.000000    0.000000   30.088117
   B    H 
    28     4
Direct configuration=    34
   0.52261809  0.63770213  0.13340690
   0.52261809  0.63770213  0.26835028
   0.47738191  0.36229787  0.13340690
   0.47738191  0.36229787  0.26835028
   0.97738191  0.63770213  0.13340690
   0.97738191  0.63770213  0.26835028
   0.02261809  0.36229787  0.13340690
   0.02261809  0.36229787  0.26835028
   0.59797575  0.90016675  0.13303865
   0.59797575  0.90016675  0.26871852
   0.40202425  0.09983324  0.13303865
   0.40202425  0.09983324  0.26871852
   0.90202425  0.90016675  0.13303865
   0.90202425  0.90016675  0.26871852
   0.09797575  0.09983324  0.13303865
   0.09797575  0.09983324  0.26871852
   0.75000000  0.73340475  0.17352496
   0.75000000  0.72984516  0.30782724
   0.25000000  0.27015484  0.09392993
   0.25000000  0.26659525  0.22823222
   0.75000000  0.72984516  0.09392993
   0.75000000  0.73340475  0.22823222
   0.25000000  0.26659525  0.17352496
   0.25000000  0.27015484  0.30782724
   0.25000000  0.52587385  0.13322140
   0.25000000  0.52587385  0.26853577
   0.75000000  0.47412612  0.13322140
   0.75000000  0.47412612  0.26853577
   0.25000000  0.28371491  0.05438582
   0.75000000  0.71628509  0.05438582
   0.25000000  0.28371491  0.34737135
   0.75000000  0.71628509  0.34737135
Parameters                              
           1
     5.680980   -0.000000    0.000000
    -0.000000    6.145572    0.000000
     0.000000    0.000000   30.088117
   B    H 
    28     4
Direct configuration=    35
   0.52261802  0.63771918  0.13342155
   0.52261802  0.63771918  0.26833562
   0.47738198  0.36228082  0.13342155
   0.47738198  0.36228082  0.26833562
   0.97738198  0.63771918  0.13342155
   0.97738198  0.63771918  0.26833562
   0.02261802  0.36228082  0.13342155
   0.02261802  0.36228082  0.26833562
   0.59800566  0.90014355  0.13302893
   0.59800566  0.90014355  0.26872825
   0.40199434  0.09985644  0.13302893
   0.40199434  0.09985644  0.26872825
   0.90199434  0.90014355  0.13302893
   0.90199434  0.90014355  0.26872825
   0.09800566  0.09985644  0.13302893
   0.09800566  0.09985644  0.26872825
   0.75000000  0.73339136  0.17352633
   0.75000000  0.72974454  0.30781912
   0.25000000  0.27025546  0.09393806
   0.25000000  0.26660864  0.22823084
   0.75000000  0.72974454  0.09393806
   0.75000000  0.73339136  0.22823084
   0.25000000  0.26660864  0.17352633
   0.25000000  0.27025546  0.30781912
   0.25000000  0.52587509  0.13325313
   0.25000000  0.52587509  0.26850404
   0.75000000  0.47412488  0.13325313
   0.75000000  0.47412488  0.26850404
   0.25000000  0.28398124  0.05439953
   0.75000000  0.71601876  0.05439953
   0.25000000  0.28398124  0.34735764
   0.75000000  0.71601876  0.34735764
Parameters                              
           1
     5.681646   -0.000000    0.000000
    -0.000000    6.143986    0.000000
     0.000000    0.000000   30.088117
   B    H 
    28     4
Direct configuration=    36
   0.52261784  0.63776480  0.13346076
   0.52261784  0.63776480  0.26829641
   0.47738216  0.36223520  0.13346076
   0.47738216  0.36223520  0.26829641
   0.97738216  0.63776480  0.13346076
   0.97738216  0.63776480  0.26829641
   0.02261784  0.36223520  0.13346076
   0.02261784  0.36223520  0.26829641
   0.59808567  0.90008149  0.13300291
   0.59808567  0.90008149  0.26875427
   0.40191433  0.09991851  0.13300291
   0.40191433  0.09991851  0.26875427
   0.90191433  0.90008149  0.13300291
   0.90191433  0.90008149  0.26875427
   0.09808567  0.09991851  0.13300291
   0.09808567  0.09991851  0.26875427
   0.75000000  0.73335556  0.17353001
   0.75000000  0.72947534  0.30779737
   0.25000000  0.27052466  0.09395980
   0.25000000  0.26664444  0.22822716
   0.75000000  0.72947534  0.09395980
   0.75000000  0.73335556  0.22822716
   0.25000000  0.26664444  0.17353001
   0.25000000  0.27052466  0.30779737
   0.25000000  0.52587842  0.13333801
   0.25000000  0.52587842  0.26841916
   0.75000000  0.47412155  0.13333801
   0.75000000  0.47412155  0.26841916
   0.25000000  0.28469374  0.05443619
   0.75000000  0.71530626  0.05443619
   0.25000000  0.28469374  0.34732098
   0.75000000  0.71530626  0.34732098
Parameters                              
           1
     5.681685   -0.000000    0.000000
    -0.000000    6.143902    0.000000
     0.000000    0.000000   30.088117
   B    H 
    28     4
Direct configuration=    37
   0.52261524  0.63775932  0.13346711
   0.52261524  0.63775932  0.26829007
   0.47738476  0.36224068  0.13346711
   0.47738476  0.36224068  0.26829007
   0.97738476  0.63775932  0.13346711
   0.97738476  0.63775932  0.26829007
   0.02261524  0.36224068  0.13346711
   0.02261524  0.36224068  0.26829007
   0.59808406  0.90009275  0.13299945
   0.59808406  0.90009275  0.26875773
   0.40191594  0.09990724  0.13299945
   0.40191594  0.09990724  0.26875773
   0.90191594  0.90009275  0.13299945
   0.90191594  0.90009275  0.26875773
   0.09808406  0.09990724  0.13299945
   0.09808406  0.09990724  0.26875773
   0.75000000  0.73334365  0.17352954
   0.75000000  0.72943238  0.30779591
   0.25000000  0.27056762  0.09396127
   0.25000000  0.26665635  0.22822764
   0.75000000  0.72943238  0.09396127
   0.75000000  0.73334365  0.22822764
   0.25000000  0.26665635  0.17352954
   0.25000000  0.27056762  0.30779591
   0.25000000  0.52587585  0.13335284
   0.25000000  0.52587585  0.26840433
   0.75000000  0.47412412  0.13335284
   0.75000000  0.47412412  0.26840433
   0.25000000  0.28480725  0.05444191
   0.75000000  0.71519275  0.05444191
   0.25000000  0.28480725  0.34731527
   0.75000000  0.71519275  0.34731527
Parameters                              
           1
     5.681802   -0.000000    0.000000
    -0.000000    6.143651    0.000000
     0.000000    0.000000   30.088117
   B    H 
    28     4
Direct configuration=    38
   0.52260744  0.63774288  0.13348614
   0.52260744  0.63774288  0.26827103
   0.47739256  0.36225712  0.13348614
   0.47739256  0.36225712  0.26827103
   0.97739256  0.63774288  0.13348614
   0.97739256  0.63774288  0.26827103
   0.02260744  0.36225712  0.13348614
   0.02260744  0.36225712  0.26827103
   0.59807922  0.90012656  0.13298906
   0.59807922  0.90012656  0.26876811
   0.40192078  0.09987344  0.13298906
   0.40192078  0.09987344  0.26876811
   0.90192078  0.90012656  0.13298906
   0.90192078  0.90012656  0.26876811
   0.09807922  0.09987344  0.13298906
   0.09807922  0.09987344  0.26876811
   0.75000000  0.73330792  0.17352812
   0.75000000  0.72930349  0.30779151
   0.25000000  0.27069651  0.09396566
   0.25000000  0.26669208  0.22822906
   0.75000000  0.72930349  0.09396566
   0.75000000  0.73330792  0.22822906
   0.25000000  0.26669208  0.17352812
   0.25000000  0.27069651  0.30779151
   0.25000000  0.52586814  0.13339734
   0.25000000  0.52586814  0.26835983
   0.75000000  0.47413183  0.13339734
   0.75000000  0.47413183  0.26835983
   0.25000000  0.28514778  0.05445904
   0.75000000  0.71485222  0.05445904
   0.25000000  0.28514778  0.34729813
   0.75000000  0.71485222  0.34729813
Parameters                              
           1
     5.682036   -0.000000    0.000000
    -0.000000    6.143148    0.000000
     0.000000    0.000000   30.088117
   B    H 
    28     4
Direct configuration=    39
   0.52259185  0.63770999  0.13352422
   0.52259185  0.63770999  0.26823295
   0.47740815  0.36229001  0.13352422
   0.47740815  0.36229001  0.26823295
   0.97740815  0.63770999  0.13352422
   0.97740815  0.63770999  0.26823295
   0.02259185  0.36229001  0.13352422
   0.02259185  0.36229001  0.26823295
   0.59806955  0.90019416  0.13296830
   0.59806955  0.90019416  0.26878887
   0.40193045  0.09980583  0.13296830
   0.40193045  0.09980583  0.26878887
   0.90193045  0.90019416  0.13296830
   0.90193045  0.90019416  0.26878887
   0.09806955  0.09980583  0.13296830
   0.09806955  0.09980583  0.26878887
   0.75000000  0.73323645  0.17352527
   0.75000000  0.72904571  0.30778273
   0.25000000  0.27095429  0.09397445
   0.25000000  0.26676355  0.22823190
   0.75000000  0.72904571  0.09397445
   0.75000000  0.73323645  0.22823190
   0.25000000  0.26676355  0.17352527
   0.25000000  0.27095429  0.30778273
   0.25000000  0.52585273  0.13348633
   0.25000000  0.52585273  0.26827084
   0.75000000  0.47414724  0.13348633
   0.75000000  0.47414724  0.26827084
   0.25000000  0.28582888  0.05449332
   0.75000000  0.71417112  0.05449332
   0.25000000  0.28582888  0.34726385
   0.75000000  0.71417112  0.34726385
Parameters                              
           1
     5.681849   -0.000000    0.000000
    -0.000000    6.143519    0.000000
     0.000000    0.000000   30.088117
   B    H 
    28     4
Direct configuration=    40
   0.52259585  0.63770986  0.13353068
   0.52259585  0.63770986  0.26822649
   0.47740415  0.36229014  0.13353068
   0.47740415  0.36229014  0.26822649
   0.97740415  0.63770986  0.13353068
   0.97740415  0.63770986  0.26822649
   0.02259585  0.36229014  0.13353068
   0.02259585  0.36229014  0.26822649
   0.59807194  0.90019853  0.13296490
   0.59807194  0.90019853  0.26879227
   0.40192806  0.09980147  0.13296490
   0.40192806  0.09980147  0.26879227
   0.90192806  0.90019853  0.13296490
   0.90192806  0.90019853  0.26879227
   0.09807194  0.09980147  0.13296490
   0.09807194  0.09980147  0.26879227
   0.75000000  0.73323369  0.17352677
   0.75000000  0.72900899  0.30777497
   0.25000000  0.27099101  0.09398220
   0.25000000  0.26676631  0.22823041
   0.75000000  0.72900899  0.09398220
   0.75000000  0.73323369  0.22823041
   0.25000000  0.26676631  0.17352677
   0.25000000  0.27099101  0.30777497
   0.25000000  0.52583879  0.13350875
   0.25000000  0.52583879  0.26824842
   0.75000000  0.47416118  0.13350875
   0.75000000  0.47416118  0.26824842
   0.25000000  0.28597497  0.05449199
   0.75000000  0.71402503  0.05449199
   0.25000000  0.28597497  0.34726518
   0.75000000  0.71402503  0.34726518
Parameters                              
           1
     5.681288   -0.000000    0.000000
    -0.000000    6.144632    0.000000
     0.000000    0.000000   30.088117
   B    H 
    28     4
Direct configuration=    41
   0.52260785  0.63770946  0.13355006
   0.52260785  0.63770946  0.26820711
   0.47739215  0.36229054  0.13355006
   0.47739215  0.36229054  0.26820711
   0.97739215  0.63770946  0.13355006
   0.97739215  0.63770946  0.26820711
   0.02260785  0.36229054  0.13355006
   0.02260785  0.36229054  0.26820711
   0.59807910  0.90021162  0.13295469
   0.59807910  0.90021162  0.26880248
   0.40192090  0.09978837  0.13295469
   0.40192090  0.09978837  0.26880248
   0.90192090  0.90021162  0.13295469
   0.90192090  0.90021162  0.26880248
   0.09807910  0.09978837  0.13295469
   0.09807910  0.09978837  0.26880248
   0.75000000  0.73322542  0.17353125
   0.75000000  0.72889882  0.30775172
   0.25000000  0.27110118  0.09400546
   0.25000000  0.26677458  0.22822592
   0.75000000  0.72889882  0.09400546
   0.75000000  0.73322542  0.22822592
   0.25000000  0.26677458  0.17353125
   0.25000000  0.27110118  0.30775172
   0.25000000  0.52579698  0.13357600
   0.25000000  0.52579698  0.26818117
   0.75000000  0.47420299  0.13357600
   0.75000000  0.47420299  0.26818117
   0.25000000  0.28641321  0.05448801
   0.75000000  0.71358679  0.05448801
   0.25000000  0.28641321  0.34726917
   0.75000000  0.71358679  0.34726917
Parameters                              
           1
     5.680950   -0.000000    0.000000
    -0.000000    6.145402    0.000000
     0.000000    0.000000   30.088117
   B    H 
    28     4
Direct configuration=    42
   0.52259891  0.63772300  0.13355766
   0.52259891  0.63772300  0.26819952
   0.47740109  0.36227700  0.13355766
   0.47740109  0.36227700  0.26819952
   0.97740109  0.63772300  0.13355766
   0.97740109  0.63772300  0.26819952
   0.02259891  0.36227700  0.13355766
   0.02259891  0.36227700  0.26819952
   0.59807254  0.90018465  0.13295227
   0.59807254  0.90018465  0.26880490
   0.40192746  0.09981534  0.13295227
   0.40192746  0.09981534  0.26880490
   0.90192746  0.90018465  0.13295227
   0.90192746  0.90018465  0.26880490
   0.09807254  0.09981534  0.13295227
   0.09807254  0.09981534  0.26880490
   0.75000000  0.73325198  0.17353574
   0.75000000  0.72886461  0.30775623
   0.25000000  0.27113539  0.09400094
   0.25000000  0.26674802  0.22822144
   0.75000000  0.72886461  0.09400094
   0.75000000  0.73325198  0.22822144
   0.25000000  0.26674802  0.17353574
   0.25000000  0.27113539  0.30775623
   0.25000000  0.52577937  0.13361258
   0.25000000  0.52577937  0.26814460
   0.75000000  0.47422060  0.13361258
   0.75000000  0.47422060  0.26814460
   0.25000000  0.28660875  0.05449108
   0.75000000  0.71339125  0.05449108
   0.25000000  0.28660875  0.34726609
   0.75000000  0.71339125  0.34726609
Parameters                              
           1
     5.680318   -0.000000    0.000000
    -0.000000    6.146836    0.000000
     0.000000    0.000000   30.088117
   B    H 
    28     4
Direct configuration=    43
   0.52258224  0.63774822  0.13357180
   0.52258224  0.63774822  0.26818537
   0.47741776  0.36225178  0.13357180
   0.47741776  0.36225178  0.26818537
   0.97741776  0.63774822  0.13357180
   0.97741776  0.63774822  0.26818537
   0.02258224  0.36225178  0.13357180
   0.02258224  0.36225178  0.26818537
   0.59806031  0.90013438  0.13294777
   0.59806031  0.90013438  0.26880940
   0.40193969  0.09986561  0.13294777
   0.40193969  0.09986561  0.26880940
   0.90193969  0.90013438  0.13294777
   0.90193969  0.90013438  0.26880940
   0.09806031  0.09986561  0.13294777
   0.09806031  0.09986561  0.26880940
   0.75000000  0.73330148  0.17354410
   0.75000000  0.72880087  0.30776465
   0.25000000  0.27119913  0.09399252
   0.25000000  0.26669852  0.22821307
   0.75000000  0.72880087  0.09399252
   0.75000000  0.73330148  0.22821307
   0.25000000  0.26669852  0.17354410
   0.25000000  0.27119913  0.30776465
   0.25000000  0.52574655  0.13368075
   0.25000000  0.52574655  0.26807642
   0.75000000  0.47425343  0.13368075
   0.75000000  0.47425343  0.26807642
   0.25000000  0.28697314  0.05449682
   0.75000000  0.71302686  0.05449682
   0.25000000  0.28697314  0.34726036
   0.75000000  0.71302686  0.34726036
Parameters                              
           1
     5.679996   -0.000000    0.000000
    -0.000000    6.147111    0.000000
     0.000000    0.000000   30.088117
   B    H 
    28     4
Direct configuration=    44
   0.52254459  0.63772295  0.13357634
   0.52254459  0.63772295  0.26818083
   0.47745541  0.36227705  0.13357634
   0.47745541  0.36227705  0.26818083
   0.97745541  0.63772295  0.13357634
   0.97745541  0.63772295  0.26818083
   0.02254459  0.36227705  0.13357634
   0.02254459  0.36227705  0.26818083
   0.59800345  0.90011909  0.13294458
   0.59800345  0.90011909  0.26881259
   0.40199655  0.09988090  0.13294458
   0.40199655  0.09988090  0.26881259
   0.90199655  0.90011909  0.13294458
   0.90199655  0.90011909  0.26881259
   0.09800345  0.09988090  0.13294458
   0.09800345  0.09988090  0.26881259
   0.75000000  0.73335616  0.17353786
   0.75000000  0.72879364  0.30776750
   0.25000000  0.27120636  0.09398968
   0.25000000  0.26664384  0.22821932
   0.75000000  0.72879364  0.09398968
   0.75000000  0.73335616  0.22821932
   0.25000000  0.26664384  0.17353786
   0.25000000  0.27120636  0.30776750
   0.25000000  0.52573638  0.13371722
   0.25000000  0.52573638  0.26803996
   0.75000000  0.47426359  0.13371722
   0.75000000  0.47426359  0.26803996
   0.25000000  0.28712701  0.05449827
   0.75000000  0.71287299  0.05449827
   0.25000000  0.28712701  0.34725890
   0.75000000  0.71287299  0.34725890
