<?xml version="1.0" encoding="ISO-8859-1"?>
<modeling>
 <generator>
  <i name="program" type="string">vasp </i>
  <i name="version" type="string">6.5.1  </i>
  <i name="subversion" type="string">10Mar25 (build Mar 14 2025 17:12:02) complex                          parallel </i>
  <i name="platform" type="string">LinuxIFC </i>
  <i name="date" type="string">2026 03 25 </i>
  <i name="time" type="string">05:50:43 </i>
 </generator>
 <incar>
  <i type="string" name="SYSTEM">BS</i>
  <i type="string" name="PREC">Accurate</i>
  <i type="string" name="ALGO">Damped</i>
  <i type="int" name="ISPIN">     2</i>
  <i type="int" name="NELM">   150</i>
  <i type="int" name="IBRION">    -1</i>
  <i name="EDIFF">      0.00000100</i>
  <i name="EDIFFG">     -0.00100000</i>
  <i type="int" name="NSW">     0</i>
  <i name="ENCUT">    600.00000000</i>
  <i type="int" name="NEDOS">  4000</i>
  <v name="MAGMOM">      0.00000000      0.00000000      0.00000000      0.00000000      0.00000000      0.00000000      0.00000000      0.00000000      0.50000000     -0.50000000      0.50000000     -0.50000000      0.00000000      0.00000000</v>
  <i type="string" name="LREAL">Auto</i>
  <i type="int" name="ISMEAR">     0</i>
  <i name="SIGMA">      0.05000000</i>
  <i type="logical" name="LWAVE"> F  </i>
  <i type="logical" name="LCHARG"> T  </i>
  <i type="int" name="LORBIT">    11</i>
  <i name="HFSCREEN">      0.20000000</i>
  <i type="logical" name="LHFCALC"> T  </i>
  <i type="string" name="GGA">PE</i>
  <i name="HFRCUT">     -1.00000000</i>
  <i type="logical" name="LDIPOL"> T  </i>
  <i type="int" name="IDIPOL">     3</i>
  <v name="DIPOL">      0.50000000      0.50000000      0.08409700</v>
 </incar>
 <primitive_cell>
  <structure name="primitive_cell" >
   <crystal>
    <varray name="basis" >
     <v>       5.69975798       0.00000000       0.00000000 </v>
     <v>       0.00000000       6.31413378       0.00000000 </v>
     <v>       0.00000000       0.00000000      24.04405832 </v>
    </varray>
    <i name="volume">    865.32244126 </i>
    <varray name="rec_basis" >
     <v>       0.17544605       0.00000000       0.00000000 </v>
     <v>       0.00000000       0.15837485       0.00000000 </v>
     <v>       0.00000000       0.00000000       0.04159032 </v>
    </varray>
   </crystal>
   <varray name="positions" >
    <v>       0.51172619       0.64341793       0.08409683 </v>
    <v>       0.48827381       0.35658207       0.08409683 </v>
    <v>       0.98827381       0.64341793       0.08409683 </v>
    <v>       0.01172619       0.35658207       0.08409683 </v>
    <v>       0.59720407       0.90258230       0.08409683 </v>
    <v>       0.40279593       0.09741769       0.08409683 </v>
    <v>       0.90279593       0.90258230       0.08409683 </v>
    <v>       0.09720407       0.09741769       0.08409683 </v>
    <v>       0.75000000       0.72357099       0.12465534 </v>
    <v>       0.25000000       0.27642901       0.04353833 </v>
    <v>       0.75000000       0.72357099       0.04353833 </v>
    <v>       0.25000000       0.27642901       0.12465534 </v>
    <v>       0.25000000       0.51603999       0.08409683 </v>
    <v>       0.75000000       0.48395998       0.08409683 </v>
   </varray>
  </structure>
  <varray name="primitive_index" >
   <v type="int" >        1 </v>
   <v type="int" >        2 </v>
   <v type="int" >        3 </v>
   <v type="int" >        4 </v>
   <v type="int" >        5 </v>
   <v type="int" >        6 </v>
   <v type="int" >        7 </v>
   <v type="int" >        8 </v>
   <v type="int" >        9 </v>
   <v type="int" >       10 </v>
   <v type="int" >       11 </v>
   <v type="int" >       12 </v>
   <v type="int" >       13 </v>
   <v type="int" >       14 </v>
  </varray>
 </primitive_cell>
 <kpoints>
  <generation param="Monkhorst-Pack">
   <v type="int" name="divisions">      10        9        1 </v>
   <v name="usershift">      0.00000000       0.00000000       0.00000000 </v>
   <v name="genvec1">      0.10000000       0.00000000       0.00000000 </v>
   <v name="genvec2">      0.00000000       0.11111111       0.00000000 </v>
   <v name="genvec3">      0.00000000       0.00000000       1.00000000 </v>
   <v name="shift">      0.50000000       0.00000000       0.00000000 </v>
  </generation>
  <varray name="kpointlist" >
   <v>       0.05000000       0.00000000       0.00000000 </v>
   <v>       0.15000000       0.00000000       0.00000000 </v>
   <v>       0.25000000       0.00000000       0.00000000 </v>
   <v>       0.35000000       0.00000000       0.00000000 </v>
   <v>       0.45000000       0.00000000       0.00000000 </v>
   <v>       0.05000000       0.11111111       0.00000000 </v>
   <v>       0.15000000       0.11111111       0.00000000 </v>
   <v>       0.25000000       0.11111111       0.00000000 </v>
   <v>       0.35000000       0.11111111       0.00000000 </v>
   <v>       0.45000000       0.11111111       0.00000000 </v>
   <v>       0.05000000       0.22222222       0.00000000 </v>
   <v>       0.15000000       0.22222222       0.00000000 </v>
   <v>       0.25000000       0.22222222       0.00000000 </v>
   <v>       0.35000000       0.22222222       0.00000000 </v>
   <v>       0.45000000       0.22222222       0.00000000 </v>
   <v>       0.05000000       0.33333333       0.00000000 </v>
   <v>       0.15000000       0.33333333       0.00000000 </v>
   <v>       0.25000000       0.33333333       0.00000000 </v>
   <v>       0.35000000       0.33333333       0.00000000 </v>
   <v>       0.45000000       0.33333333       0.00000000 </v>
   <v>       0.05000000       0.44444444       0.00000000 </v>
   <v>       0.15000000       0.44444444       0.00000000 </v>
   <v>       0.25000000       0.44444444       0.00000000 </v>
   <v>       0.35000000       0.44444444       0.00000000 </v>
   <v>       0.45000000       0.44444444       0.00000000 </v>
  </varray>
  <varray name="weights" >
   <v>       0.02222222 </v>
   <v>       0.02222222 </v>
   <v>       0.02222222 </v>
   <v>       0.02222222 </v>
   <v>       0.02222222 </v>
   <v>       0.04444444 </v>
   <v>       0.04444444 </v>
   <v>       0.04444444 </v>
   <v>       0.04444444 </v>
   <v>       0.04444444 </v>
   <v>       0.04444444 </v>
   <v>       0.04444444 </v>
   <v>       0.04444444 </v>
   <v>       0.04444444 </v>
   <v>       0.04444444 </v>
   <v>       0.04444444 </v>
   <v>       0.04444444 </v>
   <v>       0.04444444 </v>
   <v>       0.04444444 </v>
   <v>       0.04444444 </v>
   <v>       0.04444444 </v>
   <v>       0.04444444 </v>
   <v>       0.04444444 </v>
   <v>       0.04444444 </v>
   <v>       0.04444444 </v>
  </varray>
 </kpoints>
 <parameters>
  <separator name="general" >
   <i type="string" name="SYSTEM">BS</i>
   <i type="logical" name="LCOMPAT"> F  </i>
  </separator>
  <separator name="electronic" >
   <i type="string" name="PREC">accura</i>
   <i name="ENMAX">    600.00000000</i>
   <i name="ENAUG">    535.51400000</i>
   <i name="EDIFF">      0.00000100</i>
   <i type="int" name="IALGO">    53</i>
   <i type="int" name="IWAVPR">    10</i>
   <i type="int" name="NBANDS">    32</i>
   <i type="int" name="NBANDSLOW">    -1</i>
   <i type="int" name="NBANDSHIGH">    -1</i>
   <i name="NELECT">     42.00000000</i>
   <i type="int" name="TURBO">     0</i>
   <i type="int" name="IRESTART">     0</i>
   <i type="int" name="NREBOOT">     0</i>
   <i type="int" name="NMIN">     0</i>
   <i name="EREF">      0.00000000</i>
   <separator name="electronic smearing" >
    <i type="int" name="ISMEAR">     0</i>
    <i name="SIGMA">      0.05000000</i>
    <i name="KSPACING">      0.50000000</i>
    <i type="logical" name="KGAMMA"> T  </i>
    <i type="logical" name="KBLOWUP"> T  </i>
   </separator>
   <separator name="electronic projectors" >
    <i type="logical" name="LREAL"> T  </i>
    <v name="ROPT">     -0.00025000</v>
    <i type="int" name="LMAXPAW">  -100</i>
    <i type="int" name="LMAXMIX">     2</i>
    <i type="logical" name="NLSPLINE"> F  </i>
   </separator>
   <separator name="electronic startup" >
    <i type="int" name="ISTART">     0</i>
    <i type="int" name="ICHARG">     2</i>
    <i type="int" name="INIWAV">     1</i>
   </separator>
   <separator name="electronic spin" >
    <i type="int" name="ISPIN">     2</i>
    <i type="logical" name="LNONCOLLINEAR"> F  </i>
    <v name="MAGMOM">      0.00000000      0.00000000      0.00000000      0.00000000      0.00000000      0.00000000      0.00000000      0.00000000      0.50000000     -0.50000000      0.50000000     -0.50000000      0.00000000      0.00000000</v>
    <i name="NUPDOWN">     -1.00000000</i>
    <i type="logical" name="LSORBIT"> F  </i>
    <v name="SAXIS">      0.00000000      0.00000000      1.00000000</v>
    <i type="logical" name="LSPIRAL"> F  </i>
    <v name="QSPIRAL">      0.00000000      0.00000000      0.00000000</v>
    <i type="logical" name="LZEROZ"> F  </i>
   </separator>
   <separator name="electronic exchange-correlation" >
    <i type="logical" name="LASPH"> F  </i>
   </separator>
   <separator name="electronic convergence" >
    <i type="int" name="NELM">   150</i>
    <i type="int" name="NELMDL">    -5</i>
    <i type="int" name="NELMIN">     2</i>
    <i name="ENINI">    600.00000000</i>
    <separator name="electronic convergence detail" >
     <i type="logical" name="LDIAG"> T  </i>
     <i type="logical" name="LSUBROT"> F  </i>
     <i type="logical" name="LROBUST"> F  </i>
     <i type="int" name="ISEARCH">     0</i>
     <i name="WEIMIN">      0.00000000</i>
     <i name="EBREAK">      0.00000001</i>
     <i name="DEPER">      0.30000000</i>
     <i type="int" name="NRMM">     4</i>
     <i name="TIME">      0.40000000</i>
    </separator>
   </separator>
   <separator name="electronic mixer" >
    <i name="AMIX">      0.40000000</i>
    <i name="BMIX">      1.00000000</i>
    <i name="AMIN">      0.10000000</i>
    <i name="AMIX_MAG">      1.60000000</i>
    <i name="BMIX_MAG">      1.00000000</i>
    <separator name="electronic mixer details" >
     <i type="int" name="IMIX">     4</i>
     <i type="logical" name="MIXFIRST"> F  </i>
     <i type="int" name="MAXMIX">   -45</i>
     <i name="WC">    100.00000000</i>
     <i type="int" name="INIMIX">     1</i>
     <i type="int" name="MIXPRE">     1</i>
     <i type="int" name="MREMOVE">     5</i>
    </separator>
   </separator>
   <separator name="electronic dipolcorrection" >
    <i type="logical" name="LDIPOL"> T  </i>
    <i type="logical" name="LMONO"> F  </i>
    <i type="int" name="IDIPOL">     3</i>
    <i name="EPSILON">      1.00000000</i>
    <v name="DIPOL">      0.50000000      0.50000000      0.08409700</v>
    <i name="EFIELD">      0.00000000</i>
    <i type="logical" name="LVACPOTAV"> F  </i>
   </separator>
  </separator>
  <separator name="grids" >
   <i type="int" name="NGX">    48</i>
   <i type="int" name="NGY">    50</i>
   <i type="int" name="NGZ">   192</i>
   <i type="int" name="NGXF">    96</i>
   <i type="int" name="NGYF">   100</i>
   <i type="int" name="NGZF">   384</i>
   <i type="logical" name="ADDGRID"> F  </i>
  </separator>
  <separator name="ionic" >
   <i type="int" name="NSW">     0</i>
   <i type="int" name="IBRION">    -1</i>
   <i type="int" name="MDALGO">     0</i>
   <i type="int" name="ISIF">     0</i>
   <i name="PSTRESS">      0.00000000</i>
   <i name="EDIFFG">     -0.00100000</i>
   <i type="int" name="NFREE">     0</i>
   <i name="POTIM">      0.50000000</i>
   <i name="SMASS">     -3.00000000</i>
   <i name="SCALEE">      1.00000000</i>
  </separator>
  <separator name="ionic md" >
   <i name="TEBEG">      0.00010000</i>
   <i name="TEEND">      0.00010000</i>
   <i type="int" name="NBLOCK">     1</i>
   <i type="int" name="KBLOCK">     1</i>
   <i type="int" name="NPACO">   256</i>
   <i name="APACO">     10.00000000</i>
  </separator>
  <separator name="symmetry" >
   <i type="int" name="ISYM">     3</i>
   <i name="SYMPREC">      0.00001000</i>
  </separator>
  <separator name="dos" >
   <i type="int" name="LORBIT">    11</i>
   <v name="RWIGS">     -1.00000000</v>
   <i type="int" name="NEDOS">  4000</i>
   <i name="EMIN">     10.00000000</i>
   <i name="EMAX">    -10.00000000</i>
   <i name="EFERMI">      0.00000000</i>
  </separator>
  <separator name="writing" >
   <i type="int" name="NWRITE">     2</i>
   <i type="logical" name="LWAVE"> F  </i>
   <i type="logical" name="LDOWNSAMPLE"> F  </i>
   <i type="logical" name="LCHARG"> T  </i>
   <i type="logical" name="LPARD"> F  </i>
   <i type="logical" name="LVTOT"> F  </i>
   <i type="logical" name="LVHAR"> F  </i>
   <i type="logical" name="LELF"> F  </i>
   <i type="logical" name="LOPTICS"> F  </i>
   <v name="STM">      0.00000000      0.00000000      0.00000000      0.00000000      0.00000000      0.00000000      0.00000000</v>
  </separator>
  <separator name="performance" >
   <i type="int" name="NPAR">    16</i>
   <i type="int" name="NSIM">     4</i>
   <i type="int" name="NBLK">    -1</i>
   <i type="logical" name="LPLANE"> T  </i>
   <i type="logical" name="LSCALAPACK"> T  </i>
   <i type="logical" name="LSCAAWARE"> F  </i>
   <i type="logical" name="LSCALU"> F  </i>
   <i type="logical" name="LASYNC"> F  </i>
   <i type="logical" name="LORBITALREAL"> F  </i>
  </separator>
  <separator name="miscellaneous" >
   <i type="int" name="IDIOT">     3</i>
   <i type="int" name="PHON_NSTRUCT">    -1</i>
   <i type="logical" name="LMUSIC"> F  </i>
   <v name="POMASS">     10.81100000</v>
   <v name="DARWINR">      0.00000000</v>
   <v name="DARWINV">      1.00000000</v>
   <i type="logical" name="LCORR"> T  </i>
  </separator>
  <i type="logical" name="GGA_COMPAT"> T  </i>
  <i type="logical" name="LBERRY"> F  </i>
  <i type="int" name="ICORELEVEL">     0</i>
  <i type="logical" name="LDAU"> F  </i>
  <i type="int" name="I_CONSTRAINED_M">     0</i>
  <separator name="electronic exchange-correlation" >
   <i type="string" name="GGA    ">PE</i>
   <i type="string" name="XC_C">1</i>
   <i type="int" name="VOSKOWN">     0</i>
   <i type="logical" name="LHFCALC"> T  </i>
   <i type="string" name="PRECFOCK">normal</i>
   <i type="logical" name="LSYMGRAD"> F  </i>
   <i type="logical" name="LHFONE"> F  </i>
   <i type="logical" name="LRHFCALC"> F  </i>
   <i type="logical" name="LTHOMAS"> F  </i>
   <i type="logical" name="LMODELHF"> F  </i>
   <i type="logical" name="LFOCKACE"> T  </i>
   <i name="ENCUT4O">     -1.00000000</i>
   <i type="int" name="EXXOEP">     0</i>
   <i type="int" name="FOURORBIT">     0</i>
   <i name="AEXX">      0.25000000</i>
   <i name="HFALPHA">     -1.00000000</i>
   <i name="MCALPHA">      0.00000000</i>
   <i name="ALDAX">      0.75000000</i>
   <i name="AGGAX">      0.75000000</i>
   <i name="AMGGAX">      0.75000000</i>
   <i name="ALDAC">      1.00000000</i>
   <i name="AGGAC">      1.00000000</i>
   <i name="AMGGAC">      1.00000000</i>
   <i type="int" name="NKREDX">     1</i>
   <i type="int" name="NKREDY">     1</i>
   <i type="int" name="NKREDZ">     1</i>
   <i type="logical" name="SHIFTRED"> F  </i>
   <i type="logical" name="ODDONLY"> F  </i>
   <i type="logical" name="EVENONLY"> F  </i>
   <i type="int" name="LMAXFOCK">     4</i>
   <i type="int" name="NMAXFOCKAE">     1</i>
   <i type="logical" name="LFOCKAEDFT"> F  </i>
   <i name="HFSCREEN">      0.20000000</i>
   <i name="HFSCREENC">      0.20000000</i>
   <i type="int" name="NBANDSGWLOW">     1</i>
  </separator>
  <separator name="vdW DFT" >
   <i type="logical" name="LUSE_VDW"> F  </i>
   <i type="int" name="IVDW_NL">    -1</i>
   <i type="logical" name="LSPIN_VDW"> F  </i>
   <i name="ZAB_VDW">     -0.84910000</i>
   <i name="GAMMA_VDW">      1.39626340</i>
   <i name="ALPHA_VDW">      0.00000000</i>
   <i name="PARAM1">      0.12340000</i>
   <i name="PARAM2">      1.00000000</i>
   <i name="BPARAM">      6.30000000</i>
   <i name="CPARAM">      0.00930000</i>
  </separator>
  <separator name="model GW" >
   <i type="int" name="MODEL_GW">     0</i>
   <i name="MODEL_EPS0">     37.08524748</i>
   <i name="MODEL_ALPHA">      1.00000000</i>
  </separator>
  <separator name="linear response parameters" >
   <i type="logical" name="LEPSILON"> F  </i>
   <i type="logical" name="LRPA"> F  </i>
   <i type="logical" name="LNABLA"> F  </i>
   <i type="logical" name="LVEL"> F  </i>
   <i name="CSHIFT">      0.10000000</i>
   <i name="OMEGAMAX">     -1.00000000</i>
   <i name="DEG_THRESHOLD">      0.00200000</i>
   <i name="RTIME">     -0.10000000</i>
   <i name="WPLASMAI">      0.00000000</i>
   <v name="DFIELD">      0.00000000      0.00000000      0.00000000</v>
   <v name="WPLASMA">      0.00000000      0.00000000      0.00000000      0.00000000      0.00000000      0.00000000      0.00000000      0.00000000      0.00000000</v>
  </separator>
  <separator name="orbital magnetization" >
   <i type="logical" name="NUCIND"> F  </i>
   <v name="MAGPOS">      0.00000000      0.00000000      0.00000000</v>
   <i type="logical" name="LNICSALL"> T  </i>
   <i type="logical" name="ORBITALMAG"> F  </i>
   <i type="logical" name="LMAGBLOCH"> F  </i>
   <i type="logical" name="LCHIMAG"> F  </i>
   <i type="logical" name="LGAUGE"> T  </i>
   <i type="int" name="MAGATOM">     0</i>
   <v name="MAGDIPOL">      0.00000000      0.00000000      0.00000000</v>
   <v name="AVECCONST">      0.00000000      0.00000000      0.00000000</v>
  </separator>
  <separator name="response functions" >
   <i type="logical" name="LALL_IN_ONE"> F  </i>
   <i type="int" name="IALL_IN_ONE">    -1</i>
   <i type="int" name="NBANDS_WAVE">    -1</i>
   <i type="logical" name="LFINITE_TEMPERATURE"> F  </i>
   <i type="logical" name="LADDER"> F  </i>
   <i type="logical" name="LRPAFORCE"> F  </i>
   <i type="logical" name="LFXC"> F  </i>
   <i type="logical" name="LHARTREE"> T  </i>
   <i type="int" name="IBSE">     2</i>
   <v type="int" name="KPOINT">    -1     0     0     0</v>
   <i type="logical" name="LTCTC"> F  </i>
   <i type="logical" name="LTCTE"> F  </i>
   <i type="logical" name="LTETE"> F  </i>
   <i type="logical" name="LTRIPLET"> F  </i>
   <i type="logical" name="LFXCEPS"> F  </i>
   <i type="logical" name="LFXHEG"> F  </i>
   <i type="int" name="NATURALO">     2</i>
   <i type="logical" name="LHOLEGF"> F  </i>
   <i type="logical" name="L2ORDER"> F  </i>
   <i type="logical" name="LDMP1"> F  </i>
   <i type="logical" name="LMP2LT"> F  </i>
   <i type="logical" name="LSMP2LT"> F  </i>
   <i type="logical" name="LGWLF"> F  </i>
   <i name="ENCUTGW">     -1.60000002</i>
   <i name="ENCUTGWSOFT">     -1.60000002</i>
   <i name="ENCUTLF">     -1.00000000</i>
   <i type="logical" name="ESF_SPLINES"> F  </i>
   <i name="ESF_CONV">      0.01000000</i>
   <i type="int" name="ESF_NINTER">    15</i>
   <i type="int" name="LMAXMP2">    -1</i>
   <i name="SCISSOR">      0.00000000</i>
   <i type="int" name="NOMEGA">     0</i>
   <i type="int" name="NOMEGAR">     0</i>
   <i type="int" name="NBANDSGW">    -1</i>
   <i type="int" name="NBANDSO">    -1</i>
   <i type="int" name="NBANDSV">    -1</i>
   <i type="int" name="NELMGW">     1</i>
   <i type="int" name="NELMHF">     1</i>
   <i type="int" name="DIM">     3</i>
   <i type="int" name="IESPILON">     4</i>
   <i type="int" name="ANTIRES">     0</i>
   <i name="OMEGAMAX">    -30.00000000</i>
   <i name="OMEGAMIN">    -30.00000000</i>
   <i name="OMEGATL">   -200.00000000</i>
   <i type="int" name="OMEGAGRID">     0</i>
   <i name="CSHIFT">     -0.10000000</i>
   <i type="logical" name="LSELFENERGY"> F  </i>
   <i type="logical" name="LSPECTRAL"> F  </i>
   <i type="logical" name="LSPECTRALGW"> F  </i>
   <i type="logical" name="LSINGLES"> F  </i>
   <i type="logical" name="LFERMIGW"> F  </i>
   <i type="logical" name="ODDONLYGW"> F  </i>
   <i type="logical" name="EVENONLYGW"> F  </i>
   <i type="int" name="NKREDLFX">     1</i>
   <i type="int" name="NKREDLFY">     1</i>
   <i type="int" name="NKREDLFZ">     1</i>
   <i type="int" name="MAXMEM">  2800</i>
   <i type="int" name="TELESCOPE">     0</i>
   <i type="int" name="NTAUPAR">    -1</i>
   <i type="int" name="NOMEGAPAR">    -1</i>
   <i name="DAMP_NEWTON">      0.80000001</i>
   <i name="LAMBDA">      1.00000000</i>
  </separator>
  <separator name="External order field" >
   <i name="OFIELD_KAPPA">      0.00000000</i>
   <v name="OFIELD_K">      0.00000000      0.00000000      0.00000000</v>
   <i name="OFIELD_Q6_NEAR">      0.00000000</i>
   <i name="OFIELD_Q6_FAR">      0.00000000</i>
   <i name="OFIELD_A">      0.00000000</i>
  </separator>
  <separator name="optional k-points parameters" >
   <i type="int" name="KPOINTS_OPT_MODE">     1</i>
   <i type="logical" name="LKPOINTS_OPT"> T  </i>
  </separator>
 </parameters>
 <atominfo>
  <atoms>      14 </atoms>
  <types>       1 </types>
  <array name="atoms" >
   <dimension dim="1">ion</dimension>
   <field type="string">element</field>
   <field type="int">atomtype</field>
   <set>
    <rc><c>B </c><c>   1</c></rc>
    <rc><c>B </c><c>   1</c></rc>
    <rc><c>B </c><c>   1</c></rc>
    <rc><c>B </c><c>   1</c></rc>
    <rc><c>B </c><c>   1</c></rc>
    <rc><c>B </c><c>   1</c></rc>
    <rc><c>B </c><c>   1</c></rc>
    <rc><c>B </c><c>   1</c></rc>
    <rc><c>B </c><c>   1</c></rc>
    <rc><c>B </c><c>   1</c></rc>
    <rc><c>B </c><c>   1</c></rc>
    <rc><c>B </c><c>   1</c></rc>
    <rc><c>B </c><c>   1</c></rc>
    <rc><c>B </c><c>   1</c></rc>
   </set>
  </array>
  <array name="atomtypes" >
   <dimension dim="1">type</dimension>
   <field type="int">atomspertype</field>
   <field type="string">element</field>
   <field>mass</field>
   <field>valence</field>
   <field type="string">pseudopotential</field>
   <set>
    <rc><c>  14</c><c>B </c><c>     10.81100000</c><c>      3.00000000</c><c>  PAW_PBE B 06Sep2000                   </c></rc>
   </set>
  </array>
 </atominfo>
 <structure name="initialpos" >
  <crystal>
   <varray name="basis" >
    <v>       5.69975798       0.00000000       0.00000000 </v>
    <v>       0.00000000       6.31413378       0.00000000 </v>
    <v>       0.00000000       0.00000000      24.04405832 </v>
   </varray>
   <i name="volume">    865.32244126 </i>
   <varray name="rec_basis" >
    <v>       0.17544605       0.00000000       0.00000000 </v>
    <v>       0.00000000       0.15837485       0.00000000 </v>
    <v>       0.00000000       0.00000000       0.04159032 </v>
   </varray>
  </crystal>
  <varray name="positions" >
   <v>       0.51172619       0.64341793       0.08409683 </v>
   <v>       0.48827381       0.35658207       0.08409683 </v>
   <v>       0.98827381       0.64341793       0.08409683 </v>
   <v>       0.01172619       0.35658207       0.08409683 </v>
   <v>       0.59720407       0.90258230       0.08409683 </v>
   <v>       0.40279593       0.09741769       0.08409683 </v>
   <v>       0.90279593       0.90258230       0.08409683 </v>
   <v>       0.09720407       0.09741769       0.08409683 </v>
   <v>       0.75000000       0.72357099       0.12465534 </v>
   <v>       0.25000000       0.27642901       0.04353833 </v>
   <v>       0.75000000       0.72357099       0.04353833 </v>
   <v>       0.25000000       0.27642901       0.12465534 </v>
   <v>       0.25000000       0.51603999       0.08409683 </v>
   <v>       0.75000000       0.48395998       0.08409683 </v>
  </varray>
 </structure>
 <calculation>
  <scstep>
   <time name="total">    4.59    4.62</time>
   <dipole>
    <v name="dipole">      0.00000000       0.00000000      -0.00000325 </v>
    <i name="Tr[quadrupol]">   -264.06546574 </i>
    <i name="Echarged">      0.00000000 </i>
    <i name="Edipol_quadrupol">      0.00000000 </i>
    <i name="Eion">      0.00000000 </i>
   </dipole>
   <energy>
    <i name="alphaZ">     15.58244514 </i>
    <i name="ewald">   6378.41290590 </i>
    <i name="hartreedc">  -6974.18530646 </i>
    <i name="XCdc">     96.25456723 </i>
    <i name="pawpsdc">    608.88614084 </i>
    <i name="pawaedc">   -854.77862819 </i>
    <i name="eentropy">     -0.00547759 </i>
    <i name="bandstr">    125.37047951 </i>
    <i name="atom">    983.73793191 </i>
    <i name="e_fr_energy">    379.27505828 </i>
    <i name="e_wo_entrp">    379.28053587 </i>
    <i name="e_0_energy">    379.27779707 </i>
   </energy>
  </scstep>
  <scstep>
   <time name="total">    5.51    5.54</time>
   <dipole>
    <v name="dipole">      0.00000000       0.00000000      -0.00000325 </v>
    <i name="Tr[quadrupol]">   -264.06546574 </i>
    <i name="Echarged">      0.00000000 </i>
    <i name="Edipol_quadrupol">      0.00000000 </i>
    <i name="Eion">      0.00000000 </i>
   </dipole>
   <energy>
    <i name="e_fr_energy">     -4.24227217 </i>
    <i name="e_wo_entrp">     -4.23831624 </i>
    <i name="e_0_energy">     -4.24029420 </i>
   </energy>
  </scstep>
  <scstep>
   <time name="total">    5.51    5.55</time>
   <dipole>
    <v name="dipole">      0.00000000       0.00000000      -0.00000325 </v>
    <i name="Tr[quadrupol]">   -264.06546574 </i>
    <i name="Echarged">      0.00000000 </i>
    <i name="Edipol_quadrupol">      0.00000000 </i>
    <i name="Eion">      0.00000000 </i>
   </dipole>
   <energy>
    <i name="e_fr_energy">   -226.78072377 </i>
    <i name="e_wo_entrp">   -226.77778426 </i>
    <i name="e_0_energy">   -226.77925402 </i>
   </energy>
  </scstep>
  <scstep>
   <time name="total">    5.50    5.56</time>
   <dipole>
    <v name="dipole">      0.00000000       0.00000000      -0.00000325 </v>
    <i name="Tr[quadrupol]">   -264.06546574 </i>
    <i name="Echarged">      0.00000000 </i>
    <i name="Edipol_quadrupol">      0.00000000 </i>
    <i name="Eion">      0.00000000 </i>
   </dipole>
   <energy>
    <i name="e_fr_energy">   -325.71592033 </i>
    <i name="e_wo_entrp">   -325.71495034 </i>
    <i name="e_0_energy">   -325.71543533 </i>
   </energy>
  </scstep>
  <scstep>
   <time name="total">  642.06  645.45</time>
   <dipole>
    <v name="dipole">      0.00000000       0.00000000      -0.00000325 </v>
    <i name="Tr[quadrupol]">   -264.06546574 </i>
    <i name="Echarged">      0.00000000 </i>
    <i name="Edipol_quadrupol">      0.00000000 </i>
    <i name="Eion">      0.00000000 </i>
   </dipole>
   <energy>
    <i name="e_fr_energy">    -86.69863718 </i>
    <i name="e_wo_entrp">    -86.69607810 </i>
    <i name="e_0_energy">    -86.69735764 </i>
   </energy>
  </scstep>
  <scstep>
   <time name="total">  640.54  643.90</time>
   <dipole>
    <v name="dipole">      0.00000000       0.00000000      -0.06247119 </v>
    <i name="Tr[quadrupol]">   -251.87442136 </i>
    <i name="Echarged">      0.00000000 </i>
    <i name="Edipol_quadrupol">      0.00000000 </i>
    <i name="Eion">      0.00000000 </i>
   </dipole>
   <energy>
    <i name="e_fr_energy">    -75.40413515 </i>
    <i name="e_wo_entrp">    -75.40157606 </i>
    <i name="e_0_energy">    -75.40285561 </i>
   </energy>
  </scstep>
  <scstep>
   <time name="total">  636.85  640.09</time>
   <dipole>
    <v name="dipole">      0.00000000       0.00000000       0.01107583 </v>
    <i name="Tr[quadrupol]">   -266.93711948 </i>
    <i name="Echarged">      0.00000000 </i>
    <i name="Edipol_quadrupol">      0.00000000 </i>
    <i name="Eion">      0.00000000 </i>
   </dipole>
   <energy>
    <i name="e_fr_energy">    -88.72885452 </i>
    <i name="e_wo_entrp">    -88.72629660 </i>
    <i name="e_0_energy">    -88.72757556 </i>
   </energy>
  </scstep>
  <scstep>
   <time name="total">  640.25  643.58</time>
   <dipole>
    <v name="dipole">      0.00000000       0.00000000       0.02008204 </v>
    <i name="Tr[quadrupol]">   -266.67458608 </i>
    <i name="Echarged">      0.00000000 </i>
    <i name="Edipol_quadrupol">      0.00000000 </i>
    <i name="Eion">      0.00000000 </i>
   </dipole>
   <energy>
    <i name="e_fr_energy">    -91.55539940 </i>
    <i name="e_wo_entrp">    -91.55229795 </i>
    <i name="e_0_energy">    -91.55384868 </i>
   </energy>
  </scstep>
  <scstep>
   <time name="total">  640.26  643.60</time>
   <dipole>
    <v name="dipole">      0.00000000       0.00000000       0.00684195 </v>
    <i name="Tr[quadrupol]">   -267.83908226 </i>
    <i name="Echarged">      0.00000000 </i>
    <i name="Edipol_quadrupol">      0.00000000 </i>
    <i name="Eion">      0.00000000 </i>
   </dipole>
   <energy>
    <i name="e_fr_energy">    -93.03408034 </i>
    <i name="e_wo_entrp">    -93.02837488 </i>
    <i name="e_0_energy">    -93.03122761 </i>
   </energy>
  </scstep>
  <scstep>
   <time name="total">  646.29  649.63</time>
   <dipole>
    <v name="dipole">      0.00000000       0.00000000      -0.00682290 </v>
    <i name="Tr[quadrupol]">   -269.05206698 </i>
    <i name="Echarged">      0.00000000 </i>
    <i name="Edipol_quadrupol">      0.00000000 </i>
    <i name="Eion">      0.00000000 </i>
   </dipole>
   <energy>
    <i name="e_fr_energy">    -93.95659727 </i>
    <i name="e_wo_entrp">    -93.95083511 </i>
    <i name="e_0_energy">    -93.95371619 </i>
   </energy>
  </scstep>
  <scstep>
   <time name="total">  650.53  653.86</time>
   <dipole>
    <v name="dipole">      0.00000000       0.00000000      -0.00232319 </v>
    <i name="Tr[quadrupol]">   -269.43007352 </i>
    <i name="Echarged">      0.00000000 </i>
    <i name="Edipol_quadrupol">      0.00000000 </i>
    <i name="Eion">      0.00000000 </i>
   </dipole>
   <energy>
    <i name="e_fr_energy">    -94.53851778 </i>
    <i name="e_wo_entrp">    -94.53451007 </i>
    <i name="e_0_energy">    -94.53651393 </i>
   </energy>
  </scstep>
  <scstep>
   <time name="total">  655.90  659.33</time>
   <dipole>
    <v name="dipole">      0.00000000       0.00000000       0.00227971 </v>
    <i name="Tr[quadrupol]">   -269.40440208 </i>
    <i name="Echarged">      0.00000000 </i>
    <i name="Edipol_quadrupol">      0.00000000 </i>
    <i name="Eion">      0.00000000 </i>
   </dipole>
   <energy>
    <i name="e_fr_energy">    -94.85592282 </i>
    <i name="e_wo_entrp">    -94.85074998 </i>
    <i name="e_0_energy">    -94.85333640 </i>
   </energy>
  </scstep>
  <scstep>
   <time name="total">  656.95  660.33</time>
   <dipole>
    <v name="dipole">      0.00000000       0.00000000       0.00196618 </v>
    <i name="Tr[quadrupol]">   -269.42268321 </i>
    <i name="Echarged">      0.00000000 </i>
    <i name="Edipol_quadrupol">      0.00000000 </i>
    <i name="Eion">      0.00000000 </i>
   </dipole>
   <energy>
    <i name="e_fr_energy">    -95.00575119 </i>
    <i name="e_wo_entrp">    -94.99984533 </i>
    <i name="e_0_energy">    -95.00279826 </i>
   </energy>
  </scstep>
  <scstep>
   <time name="total">  659.87  663.24</time>
   <dipole>
    <v name="dipole">      0.00000000       0.00000000       0.00036728 </v>
    <i name="Tr[quadrupol]">   -269.54142108 </i>
    <i name="Echarged">      0.00000000 </i>
    <i name="Edipol_quadrupol">      0.00000000 </i>
    <i name="Eion">      0.00000000 </i>
   </dipole>
   <energy>
    <i name="e_fr_energy">    -95.08527892 </i>
    <i name="e_wo_entrp">    -95.08102442 </i>
    <i name="e_0_energy">    -95.08315167 </i>
   </energy>
  </scstep>
  <scstep>
   <time name="total">  661.11  664.55</time>
   <dipole>
    <v name="dipole">      0.00000000       0.00000000      -0.00013809 </v>
    <i name="Tr[quadrupol]">   -269.62993579 </i>
    <i name="Echarged">      0.00000000 </i>
    <i name="Edipol_quadrupol">      0.00000000 </i>
    <i name="Eion">      0.00000000 </i>
   </dipole>
   <energy>
    <i name="e_fr_energy">    -95.12582053 </i>
    <i name="e_wo_entrp">    -95.12185005 </i>
    <i name="e_0_energy">    -95.12383529 </i>
   </energy>
  </scstep>
  <scstep>
   <time name="total">  660.97  664.39</time>
   <dipole>
    <v name="dipole">      0.00000000       0.00000000       0.00023591 </v>
    <i name="Tr[quadrupol]">   -269.67988018 </i>
    <i name="Echarged">      0.00000000 </i>
    <i name="Edipol_quadrupol">      0.00000000 </i>
    <i name="Eion">      0.00000000 </i>
   </dipole>
   <energy>
    <i name="e_fr_energy">    -95.14876618 </i>
    <i name="e_wo_entrp">    -95.14549172 </i>
    <i name="e_0_energy">    -95.14712895 </i>
   </energy>
  </scstep>
  <scstep>
   <time name="total">  659.89  663.32</time>
   <dipole>
    <v name="dipole">      0.00000000       0.00000000       0.00048386 </v>
    <i name="Tr[quadrupol]">   -269.71341584 </i>
    <i name="Echarged">      0.00000000 </i>
    <i name="Edipol_quadrupol">      0.00000000 </i>
    <i name="Eion">      0.00000000 </i>
   </dipole>
   <energy>
    <i name="e_fr_energy">    -95.16281238 </i>
    <i name="e_wo_entrp">    -95.16105952 </i>
    <i name="e_0_energy">    -95.16193595 </i>
   </energy>
  </scstep>
  <scstep>
   <time name="total">  662.38  665.84</time>
   <dipole>
    <v name="dipole">      0.00000000       0.00000000       0.00029306 </v>
    <i name="Tr[quadrupol]">   -269.72819306 </i>
    <i name="Echarged">      0.00000000 </i>
    <i name="Edipol_quadrupol">      0.00000000 </i>
    <i name="Eion">      0.00000000 </i>
   </dipole>
   <energy>
    <i name="e_fr_energy">    -95.17042017 </i>
    <i name="e_wo_entrp">    -95.16975555 </i>
    <i name="e_0_energy">    -95.17008786 </i>
   </energy>
  </scstep>
  <scstep>
   <time name="total">  659.27  662.70</time>
   <dipole>
    <v name="dipole">      0.00000000       0.00000000       0.00007601 </v>
    <i name="Tr[quadrupol]">   -269.73721796 </i>
    <i name="Echarged">      0.00000000 </i>
    <i name="Edipol_quadrupol">      0.00000000 </i>
    <i name="Eion">      0.00000000 </i>
   </dipole>
   <energy>
    <i name="e_fr_energy">    -95.17423205 </i>
    <i name="e_wo_entrp">    -95.17402048 </i>
    <i name="e_0_energy">    -95.17412627 </i>
   </energy>
  </scstep>
  <scstep>
   <time name="total">  654.15  657.55</time>
   <dipole>
    <v name="dipole">      0.00000000       0.00000000       0.00002535 </v>
    <i name="Tr[quadrupol]">   -269.74516428 </i>
    <i name="Echarged">      0.00000000 </i>
    <i name="Edipol_quadrupol">      0.00000000 </i>
    <i name="Eion">      0.00000000 </i>
   </dipole>
   <energy>
    <i name="e_fr_energy">    -95.17616721 </i>
    <i name="e_wo_entrp">    -95.17610033 </i>
    <i name="e_0_energy">    -95.17613377 </i>
   </energy>
  </scstep>
  <scstep>
   <time name="total">  648.67  652.03</time>
   <dipole>
    <v name="dipole">      0.00000000       0.00000000       0.00004508 </v>
    <i name="Tr[quadrupol]">   -269.75119582 </i>
    <i name="Echarged">      0.00000000 </i>
    <i name="Edipol_quadrupol">      0.00000000 </i>
    <i name="Eion">      0.00000000 </i>
   </dipole>
   <energy>
    <i name="e_fr_energy">    -95.17718271 </i>
    <i name="e_wo_entrp">    -95.17715862 </i>
    <i name="e_0_energy">    -95.17717066 </i>
   </energy>
  </scstep>
  <scstep>
   <time name="total">  646.34  649.72</time>
   <dipole>
    <v name="dipole">      0.00000000       0.00000000       0.00004683 </v>
    <i name="Tr[quadrupol]">   -269.75509984 </i>
    <i name="Echarged">      0.00000000 </i>
    <i name="Edipol_quadrupol">      0.00000000 </i>
    <i name="Eion">      0.00000000 </i>
   </dipole>
   <energy>
    <i name="e_fr_energy">    -95.17773411 </i>
    <i name="e_wo_entrp">    -95.17772346 </i>
    <i name="e_0_energy">    -95.17772878 </i>
   </energy>
  </scstep>
  <scstep>
   <time name="total">  643.67  646.98</time>
   <dipole>
    <v name="dipole">      0.00000000       0.00000000       0.00002520 </v>
    <i name="Tr[quadrupol]">   -269.75767928 </i>
    <i name="Echarged">      0.00000000 </i>
    <i name="Edipol_quadrupol">      0.00000000 </i>
    <i name="Eion">      0.00000000 </i>
   </dipole>
   <energy>
    <i name="e_fr_energy">    -95.17804298 </i>
    <i name="e_wo_entrp">    -95.17803714 </i>
    <i name="e_0_energy">    -95.17804006 </i>
   </energy>
  </scstep>
  <scstep>
   <time name="total">  643.65  646.90</time>
   <dipole>
    <v name="dipole">      0.00000000       0.00000000       0.00000687 </v>
    <i name="Tr[quadrupol]">   -269.75967038 </i>
    <i name="Echarged">      0.00000000 </i>
    <i name="Edipol_quadrupol">      0.00000000 </i>
    <i name="Eion">      0.00000000 </i>
   </dipole>
   <energy>
    <i name="e_fr_energy">    -95.17822073 </i>
    <i name="e_wo_entrp">    -95.17821688 </i>
    <i name="e_0_energy">    -95.17821881 </i>
   </energy>
  </scstep>
  <scstep>
   <time name="total">  645.09  648.40</time>
   <dipole>
    <v name="dipole">      0.00000000       0.00000000       0.00000094 </v>
    <i name="Tr[quadrupol]">   -269.76127742 </i>
    <i name="Echarged">      0.00000000 </i>
    <i name="Edipol_quadrupol">      0.00000000 </i>
    <i name="Eion">      0.00000000 </i>
   </dipole>
   <energy>
    <i name="e_fr_energy">    -95.17832608 </i>
    <i name="e_wo_entrp">    -95.17832316 </i>
    <i name="e_0_energy">    -95.17832462 </i>
   </energy>
  </scstep>
  <scstep>
   <time name="total">  642.80  646.14</time>
   <dipole>
    <v name="dipole">      0.00000000       0.00000000       0.00000060 </v>
    <i name="Tr[quadrupol]">   -269.76250481 </i>
    <i name="Echarged">      0.00000000 </i>
    <i name="Edipol_quadrupol">      0.00000000 </i>
    <i name="Eion">      0.00000000 </i>
   </dipole>
   <energy>
    <i name="e_fr_energy">    -95.17839062 </i>
    <i name="e_wo_entrp">    -95.17838818 </i>
    <i name="e_0_energy">    -95.17838940 </i>
   </energy>
  </scstep>
  <scstep>
   <time name="total">  646.29  649.57</time>
   <dipole>
    <v name="dipole">      0.00000000       0.00000000      -0.00000006 </v>
    <i name="Tr[quadrupol]">   -269.76340439 </i>
    <i name="Echarged">      0.00000000 </i>
    <i name="Edipol_quadrupol">      0.00000000 </i>
    <i name="Eion">      0.00000000 </i>
   </dipole>
   <energy>
    <i name="e_fr_energy">    -95.17843167 </i>
    <i name="e_wo_entrp">    -95.17842950 </i>
    <i name="e_0_energy">    -95.17843058 </i>
   </energy>
  </scstep>
  <scstep>
   <time name="total">  643.78  647.05</time>
   <dipole>
    <v name="dipole">      0.00000000       0.00000000      -0.00000144 </v>
    <i name="Tr[quadrupol]">   -269.76406850 </i>
    <i name="Echarged">      0.00000000 </i>
    <i name="Edipol_quadrupol">      0.00000000 </i>
    <i name="Eion">      0.00000000 </i>
   </dipole>
   <energy>
    <i name="e_fr_energy">    -95.17845887 </i>
    <i name="e_wo_entrp">    -95.17845686 </i>
    <i name="e_0_energy">    -95.17845786 </i>
   </energy>
  </scstep>
  <scstep>
   <time name="total">  642.02  645.32</time>
   <dipole>
    <v name="dipole">      0.00000000       0.00000000      -0.00000223 </v>
    <i name="Tr[quadrupol]">   -269.76456642 </i>
    <i name="Echarged">      0.00000000 </i>
    <i name="Edipol_quadrupol">      0.00000000 </i>
    <i name="Eion">      0.00000000 </i>
   </dipole>
   <energy>
    <i name="e_fr_energy">    -95.17847769 </i>
    <i name="e_wo_entrp">    -95.17847577 </i>
    <i name="e_0_energy">    -95.17847673 </i>
   </energy>
  </scstep>
  <scstep>
   <time name="total">  644.80  648.19</time>
   <dipole>
    <v name="dipole">      0.00000000       0.00000000      -0.00000229 </v>
    <i name="Tr[quadrupol]">   -269.76493911 </i>
    <i name="Echarged">      0.00000000 </i>
    <i name="Edipol_quadrupol">      0.00000000 </i>
    <i name="Eion">      0.00000000 </i>
   </dipole>
   <energy>
    <i name="e_fr_energy">    -95.17849128 </i>
    <i name="e_wo_entrp">    -95.17848942 </i>
    <i name="e_0_energy">    -95.17849035 </i>
   </energy>
  </scstep>
  <scstep>
   <time name="total">  646.76  650.07</time>
   <dipole>
    <v name="dipole">      0.00000000       0.00000000      -0.00000206 </v>
    <i name="Tr[quadrupol]">   -269.76521724 </i>
    <i name="Echarged">      0.00000000 </i>
    <i name="Edipol_quadrupol">      0.00000000 </i>
    <i name="Eion">      0.00000000 </i>
   </dipole>
   <energy>
    <i name="e_fr_energy">    -95.17850142 </i>
    <i name="e_wo_entrp">    -95.17849960 </i>
    <i name="e_0_energy">    -95.17850051 </i>
   </energy>
  </scstep>
  <scstep>
   <time name="total">  648.17  651.66</time>
   <dipole>
    <v name="dipole">      0.00000000       0.00000000      -0.00000166 </v>
    <i name="Tr[quadrupol]">   -269.76542711 </i>
    <i name="Echarged">      0.00000000 </i>
    <i name="Edipol_quadrupol">      0.00000000 </i>
    <i name="Eion">      0.00000000 </i>
   </dipole>
   <energy>
    <i name="e_fr_energy">    -95.17850918 </i>
    <i name="e_wo_entrp">    -95.17850740 </i>
    <i name="e_0_energy">    -95.17850829 </i>
   </energy>
  </scstep>
  <scstep>
   <time name="total">  739.97  744.17</time>
   <dipole>
    <v name="dipole">      0.00000000       0.00000000      -0.00000132 </v>
    <i name="Tr[quadrupol]">   -269.76558363 </i>
    <i name="Echarged">      0.00000000 </i>
    <i name="Edipol_quadrupol">      0.00000000 </i>
    <i name="Eion">      0.00000000 </i>
   </dipole>
   <energy>
    <i name="e_fr_energy">    -95.17851520 </i>
    <i name="e_wo_entrp">    -95.17851344 </i>
    <i name="e_0_energy">    -95.17851432 </i>
   </energy>
  </scstep>
  <scstep>
   <time name="total">  740.34  744.44</time>
   <dipole>
    <v name="dipole">      0.00000000       0.00000000      -0.00000092 </v>
    <i name="Tr[quadrupol]">   -269.76570227 </i>
    <i name="Echarged">      0.00000000 </i>
    <i name="Edipol_quadrupol">      0.00000000 </i>
    <i name="Eion">      0.00000000 </i>
   </dipole>
   <energy>
    <i name="e_fr_energy">    -95.17851979 </i>
    <i name="e_wo_entrp">    -95.17851805 </i>
    <i name="e_0_energy">    -95.17851892 </i>
   </energy>
  </scstep>
  <scstep>
   <time name="total">  739.39  748.45</time>
   <dipole>
    <v name="dipole">      0.00000000       0.00000000      -0.00000077 </v>
    <i name="Tr[quadrupol]">   -269.76579140 </i>
    <i name="Echarged">      0.00000000 </i>
    <i name="Edipol_quadrupol">      0.00000000 </i>
    <i name="Eion">      0.00000000 </i>
   </dipole>
   <energy>
    <i name="e_fr_energy">    -95.17852312 </i>
    <i name="e_wo_entrp">    -95.17852140 </i>
    <i name="e_0_energy">    -95.17852226 </i>
   </energy>
  </scstep>
  <scstep>
   <time name="total">  743.89  748.14</time>
   <dipole>
    <v name="dipole">      0.00000000       0.00000000      -0.00000031 </v>
    <i name="Tr[quadrupol]">   -269.76585911 </i>
    <i name="Echarged">      0.00000000 </i>
    <i name="Edipol_quadrupol">      0.00000000 </i>
    <i name="Eion">      0.00000000 </i>
   </dipole>
   <energy>
    <i name="e_fr_energy">    -95.17852547 </i>
    <i name="e_wo_entrp">    -95.17852376 </i>
    <i name="e_0_energy">    -95.17852461 </i>
   </energy>
  </scstep>
  <scstep>
   <time name="total">  740.47  744.74</time>
   <dipole>
    <v name="dipole">      0.00000000       0.00000000      -0.00000051 </v>
    <i name="Tr[quadrupol]">   -269.76590894 </i>
    <i name="Echarged">      0.00000000 </i>
    <i name="Edipol_quadrupol">      0.00000000 </i>
    <i name="Eion">      0.00000000 </i>
   </dipole>
   <energy>
    <i name="e_fr_energy">    -95.17852679 </i>
    <i name="e_wo_entrp">    -95.17852510 </i>
    <i name="e_0_energy">    -95.17852594 </i>
   </energy>
  </scstep>
  <scstep>
   <time name="total">  743.19  747.42</time>
   <dipole>
    <v name="dipole">      0.00000000       0.00000000       0.00000015 </v>
    <i name="Tr[quadrupol]">   -269.76594562 </i>
    <i name="Echarged">      0.00000000 </i>
    <i name="Edipol_quadrupol">      0.00000000 </i>
    <i name="Eion">      0.00000000 </i>
   </dipole>
   <energy>
    <i name="e_fr_energy">    -95.17852559 </i>
    <i name="e_wo_entrp">    -95.17852391 </i>
    <i name="e_0_energy">    -95.17852475 </i>
   </energy>
  </scstep>
  <scstep>
   <time name="total">  740.23  745.04</time>
   <dipole>
    <v name="dipole">      0.00000000       0.00000000      -0.00000052 </v>
    <i name="Tr[quadrupol]">   -269.76594139 </i>
    <i name="Echarged">      0.00000000 </i>
    <i name="Edipol_quadrupol">      0.00000000 </i>
    <i name="Eion">      0.00000000 </i>
   </dipole>
   <energy>
    <i name="e_fr_energy">    -95.17851885 </i>
    <i name="e_wo_entrp">    -95.17851717 </i>
    <i name="e_0_energy">    -95.17851801 </i>
   </energy>
  </scstep>
  <scstep>
   <time name="total">  742.33  746.98</time>
   <dipole>
    <v name="dipole">      0.00000000       0.00000000       0.00000021 </v>
    <i name="Tr[quadrupol]">   -269.76592338 </i>
    <i name="Echarged">      0.00000000 </i>
    <i name="Edipol_quadrupol">      0.00000000 </i>
    <i name="Eion">      0.00000000 </i>
   </dipole>
   <energy>
    <i name="e_fr_energy">    -95.17850366 </i>
    <i name="e_wo_entrp">    -95.17850199 </i>
    <i name="e_0_energy">    -95.17850282 </i>
   </energy>
  </scstep>
  <scstep>
   <time name="total">  742.51  746.42</time>
   <dipole>
    <v name="dipole">      0.00000000       0.00000000      -0.00000063 </v>
    <i name="Tr[quadrupol]">   -269.76582753 </i>
    <i name="Echarged">      0.00000000 </i>
    <i name="Edipol_quadrupol">      0.00000000 </i>
    <i name="Eion">      0.00000000 </i>
   </dipole>
   <energy>
    <i name="e_fr_energy">    -95.17847549 </i>
    <i name="e_wo_entrp">    -95.17847383 </i>
    <i name="e_0_energy">    -95.17847466 </i>
   </energy>
  </scstep>
  <scstep>
   <time name="total">  742.86  746.79</time>
   <dipole>
    <v name="dipole">      0.00000000       0.00000000      -0.00000080 </v>
    <i name="Tr[quadrupol]">   -269.76568783 </i>
    <i name="Echarged">      0.00000000 </i>
    <i name="Edipol_quadrupol">      0.00000000 </i>
    <i name="Eion">      0.00000000 </i>
   </dipole>
   <energy>
    <i name="e_fr_energy">    -95.17842962 </i>
    <i name="e_wo_entrp">    -95.17842796 </i>
    <i name="e_0_energy">    -95.17842879 </i>
   </energy>
  </scstep>
  <scstep>
   <time name="total">  746.57  750.43</time>
   <dipole>
    <v name="dipole">      0.00000000       0.00000000      -0.00000047 </v>
    <i name="Tr[quadrupol]">   -269.76544599 </i>
    <i name="Echarged">      0.00000000 </i>
    <i name="Edipol_quadrupol">      0.00000000 </i>
    <i name="Eion">      0.00000000 </i>
   </dipole>
   <energy>
    <i name="e_fr_energy">    -95.17836213 </i>
    <i name="e_wo_entrp">    -95.17836048 </i>
    <i name="e_0_energy">    -95.17836130 </i>
   </energy>
  </scstep>
  <scstep>
   <time name="total">  743.07  747.40</time>
   <dipole>
    <v name="dipole">      0.00000000       0.00000000      -0.00000315 </v>
    <i name="Tr[quadrupol]">   -269.76516929 </i>
    <i name="Echarged">      0.00000000 </i>
    <i name="Edipol_quadrupol">      0.00000000 </i>
    <i name="Eion">      0.00000000 </i>
   </dipole>
   <energy>
    <i name="e_fr_energy">    -95.17826476 </i>
    <i name="e_wo_entrp">    -95.17826311 </i>
    <i name="e_0_energy">    -95.17826393 </i>
   </energy>
  </scstep>
  <scstep>
   <time name="total">  741.33  745.62</time>
   <dipole>
    <v name="dipole">      0.00000000       0.00000000      -0.00000107 </v>
    <i name="Tr[quadrupol]">   -269.76466762 </i>
    <i name="Echarged">      0.00000000 </i>
    <i name="Edipol_quadrupol">      0.00000000 </i>
    <i name="Eion">      0.00000000 </i>
   </dipole>
   <energy>
    <i name="e_fr_energy">    -95.17814130 </i>
    <i name="e_wo_entrp">    -95.17813966 </i>
    <i name="e_0_energy">    -95.17814048 </i>
   </energy>
  </scstep>
  <scstep>
   <time name="total">  739.62  746.27</time>
   <dipole>
    <v name="dipole">      0.00000000       0.00000000      -0.00000579 </v>
    <i name="Tr[quadrupol]">   -269.76461802 </i>
    <i name="Echarged">      0.00000000 </i>
    <i name="Edipol_quadrupol">      0.00000000 </i>
    <i name="Eion">      0.00000000 </i>
   </dipole>
   <energy>
    <i name="e_fr_energy">    -95.17806723 </i>
    <i name="e_wo_entrp">    -95.17806559 </i>
    <i name="e_0_energy">    -95.17806641 </i>
   </energy>
  </scstep>
  <scstep>
   <time name="total">  738.35  746.19</time>
   <dipole>
    <v name="dipole">      0.00000000       0.00000000       0.00000048 </v>
    <i name="Tr[quadrupol]">   -269.76477181 </i>
    <i name="Echarged">      0.00000000 </i>
    <i name="Edipol_quadrupol">      0.00000000 </i>
    <i name="Eion">      0.00000000 </i>
   </dipole>
   <energy>
    <i name="e_fr_energy">    -95.17813027 </i>
    <i name="e_wo_entrp">    -95.17812864 </i>
    <i name="e_0_energy">    -95.17812946 </i>
   </energy>
  </scstep>
  <scstep>
   <time name="total">  738.91  747.40</time>
   <dipole>
    <v name="dipole">      0.00000000       0.00000000      -0.00000538 </v>
    <i name="Tr[quadrupol]">   -269.76540583 </i>
    <i name="Echarged">      0.00000000 </i>
    <i name="Edipol_quadrupol">      0.00000000 </i>
    <i name="Eion">      0.00000000 </i>
   </dipole>
   <energy>
    <i name="e_fr_energy">    -95.17828269 </i>
    <i name="e_wo_entrp">    -95.17828106 </i>
    <i name="e_0_energy">    -95.17828187 </i>
   </energy>
  </scstep>
  <scstep>
   <time name="total">  742.66  746.76</time>
   <dipole>
    <v name="dipole">      0.00000000       0.00000000       0.00000497 </v>
    <i name="Tr[quadrupol]">   -269.76576507 </i>
    <i name="Echarged">      0.00000000 </i>
    <i name="Edipol_quadrupol">      0.00000000 </i>
    <i name="Eion">      0.00000000 </i>
   </dipole>
   <energy>
    <i name="e_fr_energy">    -95.17839746 </i>
    <i name="e_wo_entrp">    -95.17839583 </i>
    <i name="e_0_energy">    -95.17839665 </i>
   </energy>
  </scstep>
  <scstep>
   <time name="total">  741.25  745.75</time>
   <dipole>
    <v name="dipole">      0.00000000       0.00000000      -0.00000219 </v>
    <i name="Tr[quadrupol]">   -269.76594245 </i>
    <i name="Echarged">      0.00000000 </i>
    <i name="Edipol_quadrupol">      0.00000000 </i>
    <i name="Eion">      0.00000000 </i>
   </dipole>
   <energy>
    <i name="e_fr_energy">    -95.17847122 </i>
    <i name="e_wo_entrp">    -95.17846959 </i>
    <i name="e_0_energy">    -95.17847041 </i>
   </energy>
  </scstep>
  <scstep>
   <time name="total">  741.92  746.23</time>
   <dipole>
    <v name="dipole">      0.00000000       0.00000000       0.00000288 </v>
    <i name="Tr[quadrupol]">   -269.76611656 </i>
    <i name="Echarged">      0.00000000 </i>
    <i name="Edipol_quadrupol">      0.00000000 </i>
    <i name="Eion">      0.00000000 </i>
   </dipole>
   <energy>
    <i name="e_fr_energy">    -95.17851963 </i>
    <i name="e_wo_entrp">    -95.17851801 </i>
    <i name="e_0_energy">    -95.17851882 </i>
   </energy>
  </scstep>
  <scstep>
   <time name="total">  742.58  746.79</time>
   <dipole>
    <v name="dipole">      0.00000000       0.00000000      -0.00000004 </v>
    <i name="Tr[quadrupol]">   -269.76614053 </i>
    <i name="Echarged">      0.00000000 </i>
    <i name="Edipol_quadrupol">      0.00000000 </i>
    <i name="Eion">      0.00000000 </i>
   </dipole>
   <energy>
    <i name="e_fr_energy">    -95.17853339 </i>
    <i name="e_wo_entrp">    -95.17853177 </i>
    <i name="e_0_energy">    -95.17853258 </i>
   </energy>
  </scstep>
  <scstep>
   <time name="total">  745.58  749.64</time>
   <dipole>
    <v name="dipole">      0.00000000       0.00000000      -0.00000018 </v>
    <i name="Tr[quadrupol]">   -269.76615232 </i>
    <i name="Echarged">      0.00000000 </i>
    <i name="Edipol_quadrupol">      0.00000000 </i>
    <i name="Eion">      0.00000000 </i>
   </dipole>
   <energy>
    <i name="e_fr_energy">    -95.17853837 </i>
    <i name="e_wo_entrp">    -95.17853675 </i>
    <i name="e_0_energy">    -95.17853756 </i>
   </energy>
  </scstep>
  <scstep>
   <time name="total">  744.19  749.53</time>
   <dipole>
    <v name="dipole">      0.00000000       0.00000000       0.00000077 </v>
    <i name="Tr[quadrupol]">   -269.76616005 </i>
    <i name="Echarged">      0.00000000 </i>
    <i name="Edipol_quadrupol">      0.00000000 </i>
    <i name="Eion">      0.00000000 </i>
   </dipole>
   <energy>
    <i name="e_fr_energy">    -95.17853988 </i>
    <i name="e_wo_entrp">    -95.17853826 </i>
    <i name="e_0_energy">    -95.17853907 </i>
   </energy>
  </scstep>
  <scstep>
   <time name="total"> 1480.39 1489.82</time>
   <dipole>
    <v name="dipole">      0.00000000       0.00000000       0.00000047 </v>
    <i name="Tr[quadrupol]">   -269.76616183 </i>
    <i name="Echarged">      0.00000000 </i>
    <i name="Edipol_quadrupol">      0.00000000 </i>
    <i name="Eion">      0.00000000 </i>
   </dipole>
   <energy>
    <i name="alphaZ">     15.58244454 </i>
    <i name="ewald">   6378.41290590 </i>
    <i name="hartreedc">  -7177.24230987 </i>
    <i name="XCdc">     77.42462140 </i>
    <i name="pawpsdc">   4175.99827197 </i>
    <i name="pawaedc">  -4166.47125182 </i>
    <i name="eentropy">     -0.00000162 </i>
    <i name="bandstr">   -456.56233521 </i>
    <i name="atom">    983.73793191 </i>
    <i name="e_fr_energy">    -95.17854037 </i>
    <i name="e_wo_entrp">    -95.17853875 </i>
    <i name="e_0_energy">    -95.17853956 </i>
   </energy>
  </scstep>
  <structure>
   <crystal>
    <varray name="basis" >
     <v>       5.69975798       0.00000000       0.00000000 </v>
     <v>       0.00000000       6.31413378       0.00000000 </v>
     <v>       0.00000000       0.00000000      24.04405832 </v>
    </varray>
    <i name="volume">    865.32244126 </i>
    <varray name="rec_basis" >
     <v>       0.17544605       0.00000000       0.00000000 </v>
     <v>       0.00000000       0.15837485       0.00000000 </v>
     <v>       0.00000000       0.00000000       0.04159032 </v>
    </varray>
   </crystal>
   <varray name="positions" >
    <v>       0.51172619       0.64341793       0.08409683 </v>
    <v>       0.48827381       0.35658207       0.08409683 </v>
    <v>       0.98827381       0.64341793       0.08409683 </v>
    <v>       0.01172619       0.35658207       0.08409683 </v>
    <v>       0.59720407       0.90258230       0.08409683 </v>
    <v>       0.40279593       0.09741769       0.08409683 </v>
    <v>       0.90279593       0.90258230       0.08409683 </v>
    <v>       0.09720407       0.09741769       0.08409683 </v>
    <v>       0.75000000       0.72357099       0.12465534 </v>
    <v>       0.25000000       0.27642901       0.04353833 </v>
    <v>       0.75000000       0.72357099       0.04353833 </v>
    <v>       0.25000000       0.27642901       0.12465534 </v>
    <v>       0.25000000       0.51603999       0.08409683 </v>
    <v>       0.75000000       0.48395998       0.08409683 </v>
   </varray>
  </structure>
  <varray name="forces" >
   <v>       0.06016252       0.21994383      -0.00000000 </v>
   <v>      -0.06016252      -0.21994383       0.00000000 </v>
   <v>      -0.06016252       0.21994383       0.00000000 </v>
   <v>       0.06016252      -0.21994383      -0.00000000 </v>
   <v>       0.26887927      -0.17600166       0.00000000 </v>
   <v>      -0.26887927       0.17600166       0.00000000 </v>
   <v>      -0.26887927      -0.17600166       0.00000000 </v>
   <v>       0.26887927       0.17600166      -0.00000000 </v>
   <v>      -0.00000000      -0.03197860      -0.33542653 </v>
   <v>       0.00000000       0.03197860       0.33542653 </v>
   <v>      -0.00000000      -0.03197860       0.33542653 </v>
   <v>      -0.00000000       0.03197860      -0.33542653 </v>
   <v>      -0.00000000      -0.17910910       0.00000000 </v>
   <v>       0.00000000       0.17910910      -0.00000000 </v>
  </varray>
  <energy>
   <i name="e_fr_energy">    -95.17854037 </i>
   <i name="e_wo_entrp">    -95.17853875 </i>
   <i name="e_0_energy">    -95.17853956 </i>
  </energy>
