 running   64 mpi-ranks, on    1 nodes
 distrk:  each k-point on   16 cores,    4 groups
 distr:  one band on    1 cores,   16 groups
 vasp.6.5.1 10Mar25 (build Mar 14 2025 17:12:02) complex                        
  
 POSCAR found type information on POSCAR B 
 POSCAR found :  1 types and      14 ions
 Reading from existing POTCAR
 scaLAPACK will be used
 -----------------------------------------------------------------------------
|                                                                             |
|           W    W    AA    RRRRR   N    N  II  N    N   GGGG   !!!           |
|           W    W   A  A   R    R  NN   N  II  NN   N  G    G  !!!           |
|           W    W  A    A  R    R  N N  N  II  N N  N  G       !!!           |
|           W WW W  AAAAAA  RRRRR   N  N N  II  N  N N  G  GGG   !            |
|           WW  WW  A    A  R   R   N   NN  II  N   NN  G    G                |
|           W    W  A    A  R    R  N    N  II  N    N   GGGG   !!!           |
|                                                                             |
|     For optimal performance we recommend to set                             |
|       NCORE = 2 up to number-of-cores-per-socket                            |
|     NCORE specifies how many cores store one orbital (NPAR=cpu/NCORE).      |
|     This setting can greatly improve the performance of VASP for DFT.       |
|     The default, NCORE=1 might be grossly inefficient on modern             |
|     multi-core architectures or massively parallel machines. Do your        |
|     own testing! More info at https://www.vasp.at/wiki/index.php/NCORE      |
|     Unfortunately you need to use the default for GW and RPA                |
|     calculations (for HF NCORE is supported but not extensively tested      |
|     yet).                                                                   |
|                                                                             |
 -----------------------------------------------------------------------------

 Reading from existing POTCAR
 LDA part: xc-table for (Slater+PW92), standard interpolation
 POSCAR, INCAR and KPOINTS ok, starting setup
 FFT: planning ... GRIDC
 FFT: planning ... GRID_SOFT
 FFT: planning ... GRID
 HFRCUT set to (new)   26.4917484340347     
 WAVECAR not read
 entering main loop
       N       E                     dE             d eps       ncg     rms           ort
DAV:   1     0.379275058277E+03    0.37928E+03   -0.12006E+04   800   0.105E+03  
DAV:   2    -0.424227216574E+01   -0.38352E+03   -0.36283E+03   800   0.259E+02  
DAV:   3    -0.226780723767E+03   -0.22254E+03   -0.21696E+03   800   0.207E+02  
DAV:   4    -0.325715920329E+03   -0.98935E+02   -0.98056E+02   800   0.175E+02  
DAV:   5    -0.866986371819E+02    0.23902E+03   -0.34807E+02   800   0.916E+01  
SDA:   6    -0.754041351478E+02    0.11295E+02   -0.21202E+02   800   0.530E+02   0.000E+00
DMP:   7    -0.887288545230E+02   -0.13325E+02   -0.55688E+01   800   0.880E+01   0.134E+02
DMP:   8    -0.915553994046E+02   -0.28265E+01   -0.21914E+01   800   0.564E+01  -0.435E+00
DMP:   9    -0.930340803409E+02   -0.14787E+01   -0.12643E+01   800   0.258E+01   0.151E+01
DMP:  10    -0.939565972701E+02   -0.92252E+00   -0.83479E+00   800   0.153E+01   0.146E+01
DMP:  11    -0.945385177823E+02   -0.58192E+00   -0.43474E+00   800   0.731E+00   0.931E+00
DMP:  12    -0.948559228222E+02   -0.31741E+00   -0.19510E+00   800   0.293E+00   0.509E+00
DMP:  13    -0.950057511939E+02   -0.14983E+00   -0.95309E-01   800   0.141E+00   0.255E+00
DMP:  14    -0.950852789180E+02   -0.79528E-01   -0.51564E-01   800   0.718E-01   0.150E+00
DMP:  15    -0.951258205327E+02   -0.40542E-01   -0.25838E-01   800   0.353E-01   0.767E-01
DMP:  16    -0.951487661794E+02   -0.22946E-01   -0.16113E-01   800   0.215E-01   0.492E-01
DMP:  17    -0.951628123827E+02   -0.14046E-01   -0.92330E-02   800   0.122E-01   0.284E-01
DMP:  18    -0.951704201708E+02   -0.76078E-02   -0.46440E-02   800   0.602E-02   0.146E-01
DMP:  19    -0.951742320517E+02   -0.38119E-02   -0.23129E-02   800   0.294E-02   0.743E-02
DMP:  20    -0.951761672059E+02   -0.19352E-02   -0.11917E-02   800   0.149E-02   0.389E-02
DMP:  21    -0.951771827062E+02   -0.10155E-02   -0.63835E-03   800   0.797E-03   0.209E-02
DMP:  22    -0.951777341137E+02   -0.55141E-03   -0.35352E-03   800   0.442E-03   0.116E-02
DMP:  23    -0.951780429841E+02   -0.30887E-03   -0.20126E-03   800   0.252E-03   0.658E-03
DMP:  24    -0.951782207345E+02   -0.17775E-03   -0.11804E-03   800   0.148E-03   0.385E-03
DMP:  25    -0.951783260799E+02   -0.10535E-03   -0.71611E-04   800   0.907E-04   0.231E-03
DMP:  26    -0.951783906162E+02   -0.64536E-04   -0.45145E-04   800   0.580E-04   0.144E-03
DMP:  27    -0.951784316689E+02   -0.41053E-04   -0.29661E-04   800   0.388E-04   0.925E-04
DMP:  28    -0.951784588701E+02   -0.27201E-04   -0.20373E-04   800   0.273E-04   0.619E-04
DMP:  29    -0.951784776902E+02   -0.18820E-04   -0.14650E-04   800   0.201E-04   0.432E-04
DMP:  30    -0.951784912777E+02   -0.13588E-04   -0.10980E-04   800   0.155E-04   0.313E-04
DMP:  31    -0.951785014157E+02   -0.10138E-04   -0.86076E-05   800   0.126E-04   0.233E-04
DMP:  32    -0.951785091830E+02   -0.77673E-05   -0.70924E-05   800   0.111E-04   0.173E-04
DMP:  33    -0.951785151982E+02   -0.60152E-05   -0.63814E-05   800   0.112E-04   0.124E-04
DMP:  34    -0.951785197869E+02   -0.45887E-05   -0.67224E-05   800   0.141E-04   0.701E-05
DMP:  35    -0.951785231239E+02   -0.33370E-05   -0.83346E-05   800   0.209E-04  -0.100E-06
DMP:  36    -0.951785254660E+02   -0.23421E-05   -0.10968E-04   800   0.309E-04  -0.911E-05
DMP:  37    -0.951785267900E+02   -0.13241E-05   -0.16450E-04   800   0.491E-04  -0.208E-04
DMP:  38    -0.951785255945E+02    0.11956E-05   -0.32644E-04   800   0.996E-04  -0.471E-04
DMP:  39    -0.951785188461E+02    0.67484E-05   -0.71803E-04   800   0.224E-03  -0.115E-03
DMP:  40    -0.951785036550E+02    0.15191E-04   -0.14622E-03   800   0.463E-03  -0.255E-03
DMP:  41    -0.951784754855E+02    0.28170E-04   -0.27421E-03   800   0.879E-03  -0.506E-03
DMP:  42    -0.951784296153E+02    0.45870E-04   -0.47329E-03   800   0.153E-02  -0.915E-03
DMP:  43    -0.951783621285E+02    0.67487E-04   -0.76094E-03   800   0.248E-02  -0.152E-02
DMP:  44    -0.951782647569E+02    0.97372E-04   -0.11680E-02   800   0.383E-02  -0.239E-02
DMP:  45    -0.951781413007E+02    0.12346E-03   -0.16214E-02   800   0.540E-02  -0.354E-02
DMP:  46    -0.951780672284E+02    0.74072E-04   -0.17778E-02   800   0.613E-02  -0.442E-02
DMP:  47    -0.951781302746E+02   -0.63046E-04   -0.14072E-02   800   0.509E-02  -0.413E-02
DMP:  48    -0.951782826881E+02   -0.15241E-03   -0.83791E-03   800   0.315E-02  -0.276E-02
DMP:  49    -0.951783974590E+02   -0.11477E-03   -0.45158E-03   800   0.171E-02  -0.152E-02
DMP:  50    -0.951784712201E+02   -0.73761E-04   -0.19530E-03   800   0.779E-03  -0.760E-03
DMP:  51    -0.951785196307E+02   -0.48411E-04   -0.52599E-04   800   0.226E-03  -0.246E-03
DMP:  52    -0.951785333915E+02   -0.13761E-04   -0.18125E-04   800   0.693E-04  -0.627E-04
DMP:  53    -0.951785383713E+02   -0.49798E-05   -0.43408E-05   800   0.186E-04  -0.204E-04
DMP:  54    -0.951785398803E+02   -0.15090E-05   -0.23976E-05   800   0.725E-05  -0.330E-05
DMP:  55    -0.951785403713E+02   -0.49099E-06   -0.89572E-06   800   0.359E-05  -0.354E-05
 final diagonalization occupied
   1 F= -.95178540E+02 E0= -.95178540E+02  d E =-.161789E-05  mag=    -0.0000
 Start KPOINTS_OPT (optional k-point list driver)
k-point batch [1-25\90]
       N       E                     dE             ncg
