k-points
0
Monkhorst-pack
16  23  15
0   0   0