k-points
0
Monkhorst-pack
26  37  24
0   0   0