       N       E                     dE             d eps       ncg     rms          rms(c)
DAV:   1     0.331497633956E+04    0.33150E+04   -0.13792E+05  3744   0.108E+03
DAV:   2    -0.408972902861E+03   -0.37239E+04   -0.36001E+04  5244   0.229E+02
DAV:   3    -0.100412046467E+04   -0.59515E+03   -0.58981E+03  4404   0.986E+01
DAV:   4    -0.102328150495E+04   -0.19161E+02   -0.19031E+02  4416   0.198E+01
DAV:   5    -0.102380182519E+04   -0.52032E+00   -0.51903E+00  4740   0.292E+00    0.423E+01
DAV:   6    -0.963724808267E+03    0.60077E+02   -0.60121E+01  3972   0.106E+01    0.237E+01
DAV:   7    -0.940419891898E+03    0.23305E+02   -0.71142E+01  4188   0.108E+01    0.485E+00
DAV:   8    -0.940148514287E+03    0.27138E+00   -0.53663E+00  4404   0.345E+00    0.219E+00
DAV:   9    -0.939866686477E+03    0.28183E+00   -0.68309E-01  4344   0.134E+00    0.108E+00
DAV:  10    -0.939792633694E+03    0.74053E-01   -0.31201E-01  4416   0.101E+00    0.703E-01
DAV:  11    -0.939762020202E+03    0.30613E-01   -0.62009E-02  4392   0.518E-01    0.429E-01
DAV:  12    -0.939735938697E+03    0.26082E-01   -0.78307E-02  4368   0.471E-01    0.325E-01
DAV:  13    -0.939726360181E+03    0.95785E-02   -0.58668E-02  4236   0.371E-01    0.197E-01
DAV:  14    -0.939738976695E+03   -0.12617E-01   -0.14102E-02  4056   0.206E-01    0.145E-01
DAV:  15    -0.939749352107E+03   -0.10375E-01   -0.67632E-03  4044   0.141E-01    0.962E-02
DAV:  16    -0.939754357580E+03   -0.50055E-02   -0.20665E-03  4152   0.877E-02    0.740E-02
DAV:  17    -0.939760371001E+03   -0.60134E-02   -0.98254E-04  4092   0.620E-02    0.507E-02
DAV:  18    -0.939772962332E+03   -0.12591E-01   -0.12761E-03  3948   0.469E-02    0.281E-02
DAV:  19    -0.939779279140E+03   -0.63168E-02   -0.37611E-04  4044   0.248E-02    0.181E-02
DAV:  20    -0.939784217632E+03   -0.49385E-02   -0.30099E-04  4020   0.190E-02    0.108E-02
DAV:  21    -0.939786210837E+03   -0.19932E-02   -0.84667E-05  4164   0.103E-02    0.758E-03
DAV:  22    -0.939787368999E+03   -0.11582E-02   -0.38932E-05  4104   0.705E-03    0.461E-03
DAV:  23    -0.939788102902E+03   -0.73390E-03   -0.21816E-05  3912   0.464E-03    0.245E-03
DAV:  24    -0.939788422441E+03   -0.31954E-03   -0.77001E-06  3648   0.260E-03    0.137E-03
DAV:  25    -0.939788550184E+03   -0.12774E-03   -0.22319E-06  3336   0.161E-03    0.748E-04
DAV:  26    -0.939788589340E+03   -0.39156E-04   -0.43493E-07  2832   0.910E-04    0.459E-04
DAV:  27    -0.939788614168E+03   -0.24828E-04   -0.37045E-07  2820   0.561E-04    0.229E-04
DAV:  28    -0.939788624102E+03   -0.99336E-05   -0.11153E-07  2796   0.306E-04    0.901E-05
DAV:  29    -0.939788626583E+03   -0.24811E-05   -0.12455E-08  2880   0.155E-04    0.530E-05
DAV:  30    -0.939788627366E+03   -0.78326E-06    0.54277E-09  2448   0.882E-05
   1 F= -.95251703E+03 E0= -.95242192E+03  d E =-.190213E+00
