 vasp.6.5.0 16Dec24 (build Jan 08 2025 16:17:04) complex                        
  
 executed on             LinuxIFC date 2026.02.02  04:13:19
 running   42 mpi-ranks, on    1 nodes
 distrk:  each k-point on   42 cores,    1 groups
 distr:  one band on NCORE=   7 cores,    6 groups


--------------------------------------------------------------------------------------------------------


 INCAR:
   SYSTEM = SCF
   PREC = Accurate
   LORBIT = 11
   ENCUT = 600
   LCHARG = .FALSE.
   LWAVE = .FALSE.
   ALGO = Normal
   NELM = 150
   EDIFF = 1E-6
   EDIFFG = -1E-3
   SIGMA = 0.1
   ISMEAR = 0
   NSW = 0
   IBRION = -1
   NCORE = 7
   LREAL = Auto
   GGA = PE
   IVDW = 12
   LDIPOL = .TRUE.
   IDIPOL = 3
   DIPOL = 0.5 0.5 0.154432

 POTCAR:    PAW_PBE B 06Sep2000                   
 POTCAR:    PAW_PBE H 15Jun2001                   
 POTCAR:    PAW_PBE B 06Sep2000                   
   SHA256 =  a32ced30f5ae56fd4d10b4325ff17eb3e4e38ee0f4288bc219fb012fddfa6e97 B/POTCAR              
   COPYR  = (c) Copyright 06Sep2000 Georg Kresse                                                    
   COPYR  = This file is part of the software VASP. Any use, copying, and all other rights are regul
   COPYR  = If you do not have a valid VASP license, you may not use, copy or distribute this file. 
   VRHFIN =B: s2p1                                                                                  
   LEXCH  = PE                                                                                      
   EATOM  =    71.1703 eV,    5.2309 Ry                                                             
                                                                                                    
   TITEL  = PAW_PBE B 06Sep2000                                                                     
   LULTRA =        F    use ultrasoft PP ?                                                          
   IUNSCR =        1    unscreen: 0-lin 1-nonlin 2-no                                               
   RPACOR =    1.200    partial core radius                                                         
   POMASS =   10.811; ZVAL   =    3.000    mass and valenz                                          
   RCORE  =    1.700    outmost cutoff radius                                                       
   RWIGS  =    1.710; RWIGS  =    0.905    wigner-seitz radius (au A)                               
   ENMAX  =  318.614; ENMIN  =  238.960 eV                                                          
   ICORE  =        2    local potential                                                             
   LCOR   =        T    correct aug charges                                                         
   LPAW   =        T    paw PP                                                                      
   EAUG   =  535.514                                                                                
   DEXC   =    0.000                                                                                
   RMAX   =    1.732    core radius for proj-oper                                                   
   RAUG   =    1.300    factor for augmentation sphere                                              
   RDEP   =    1.757    radius for radial grids                                                     
   RDEPT  =    1.436    core radius for aug-charge                                                  
                                                                                                    
   Atomic configuration                                                                             
    4 entries                                                                                       
     n  l   j            E        occ.                                                              
     1  0  0.50      -180.5896   2.0000                                                             
     2  0  0.50        -9.4431   2.0000                                                             
     2  1  0.50        -3.6068   1.0000                                                             
     3  2  1.50        -4.0817   0.0000                                                             
   Description                                                                                      
     l       E           TYP  RCUT    TYP  RCUT                                                     
     0     -9.4430752     23  1.500                                                                 
     0      0.8675899     23  1.500                                                                 
     1     -3.6067955     23  1.700                                                                 
     1      6.1086146     23  1.700                                                                 
     2     -4.0817478      7  1.700                                                                 
  local pseudopotential read in
  partial core-charges read in
  partial kinetic energy density read in
  atomic valenz-charges read in
  non local Contribution for L=           0  read in
    real space projection operators read in
  non local Contribution for L=           0  read in
    real space projection operators read in
  non local Contribution for L=           1  read in
    real space projection operators read in
  non local Contribution for L=           1  read in
    real space projection operators read in
    PAW grid and wavefunctions read in
 
   number of l-projection  operators is LMAX  =           4
   number of lm-projection operators is LMMAX =           8
 
 POTCAR:    PAW_PBE H 15Jun2001                   
   SHA256 =  030f79b5d3ab3cf0e668861823c8fb652ff669f3e15e46930bd03bfd63a607b6 H/POTCAR              
   COPYR  = (c) Copyright 15Jun2001 Georg Kresse                                                    
   COPYR  = This file is part of the software VASP. Any use, copying, and all other rights are regul
   COPYR  = If you do not have a valid VASP license, you may not use, copy or distribute this file. 
   VRHFIN =H: ultrasoft test                                                                        
   LEXCH  = PE                                                                                      
   EATOM  =    12.4884 eV,    0.9179 Ry                                                             
                                                                                                    
   TITEL  = PAW_PBE H 15Jun2001                                                                     
   LULTRA =        F    use ultrasoft PP ?                                                          
   IUNSCR =        0    unscreen: 0-lin 1-nonlin 2-no                                               
   RPACOR =    0.000    partial core radius                                                         
   POMASS =    1.000; ZVAL   =    1.000    mass and valenz                                          
   RCORE  =    1.100    outmost cutoff radius                                                       
   RWIGS  =    0.700; RWIGS  =    0.370    wigner-seitz radius (au A)                               
   ENMAX  =  250.000; ENMIN  =  200.000 eV                                                          
   RCLOC  =    0.701    cutoff for local pot                                                        
   LCOR   =        T    correct aug charges                                                         
   LPAW   =        T    paw PP                                                                      
   EAUG   =  400.000                                                                                
   RMAX   =    1.123    core radius for proj-oper                                                   
   RAUG   =    1.200    factor for augmentation sphere                                              
   RDEP   =    1.112    radius for radial grids                                                     
   RDEPT  =    0.926    core radius for aug-charge                                                  
                                                                                                    
   Atomic configuration                                                                             
    2 entries                                                                                       
     n  l   j            E        occ.                                                              
     1  0  0.50        -6.4927   1.0000                                                             
     2  1  0.50        -3.4015   0.0000                                                             
   Description                                                                                      
     l       E           TYP  RCUT    TYP  RCUT                                                     
     0     -6.4927494     23  1.100                                                                 
     0      6.8029130     23  1.100                                                                 
     1     -4.0817478     23  1.100                                                                 
  local pseudopotential read in
  atomic valenz-charges read in
  non local Contribution for L=           0  read in
    real space projection operators read in
  non local Contribution for L=           0  read in
    real space projection operators read in
  non local Contribution for L=           1  read in
    real space projection operators read in
    PAW grid and wavefunctions read in
 
   number of l-projection  operators is LMAX  =           3
   number of lm-projection operators is LMMAX =           5
 
 Optimization of the real space projectors (new method)

 maximal supplied QI-value         = 22.11
 optimisation between [QCUT,QGAM] = [ 12.38, 24.98] = [ 42.93,174.79] Ry 
 Optimized for a Real-space Cutoff    1.03 Angstroem

   l    n(q)    QCUT    max X(q) W(low)/X(q) W(high)/X(q)  e(spline) 
   0      8    12.381    53.033    0.22E-03    0.47E-03    0.92E-07
   0      8    12.381    34.740    0.21E-03    0.46E-03    0.93E-07
   1      7    12.381    30.949    0.11E-03    0.42E-03    0.70E-07
   1      7    12.381    19.518    0.10E-03    0.38E-03    0.67E-07
 Optimization of the real space projectors (new method)

 maximal supplied QI-value         = 34.20
 optimisation between [QCUT,QGAM] = [ 12.31, 24.97] = [ 42.46,174.58] Ry 
 Optimized for a Real-space Cutoff    1.13 Angstroem

   l    n(q)    QCUT    max X(q) W(low)/X(q) W(high)/X(q)  e(spline) 
   0      8    12.313    19.460    0.10E-03    0.25E-03    0.27E-06
   0      8    12.313    12.209    0.92E-04    0.23E-03    0.26E-06
   1      8    12.313     4.655    0.24E-03    0.28E-03    0.15E-06
  PAW_PBE B 06Sep2000                   :
 energy of atom  1       EATOM=  -71.1703
 kinetic energy error for atom=    0.0007 (will be added to EATOM!!)
  PAW_PBE H 15Jun2001                   :
 energy of atom  2       EATOM=  -12.4884
 kinetic energy error for atom=    0.0004 (will be added to EATOM!!)
 
 
 POSCAR: generated by phonopy
  positions in direct lattice
  No initial velocities read in
 IVDW         = 12
 VDW_S6       =    1.0000
 VDW_S8       =    0.7875
 VDW_A1       =    0.4289
 VDW_A2       =    4.4407
 VDW_RADIUS   =   50.2022 A
 VDW_CNRADIUS =   21.1671 A


 exchange-correlation table for PE
   RHO(1)=    0.500       N(1)  =     2000
   RHO(2)=  100.500       N(2)  =     4000
 


--------------------------------------------------------------------------------------------------------


 ion  position               nearest neighbor table
   1  0.174  0.212  0.154- 118 1.63  37 1.67 109 1.70  10 1.70  91 1.85  73 1.85
   2  0.508  0.212  0.154- 119 1.63  38 1.67 110 1.70  11 1.70  92 1.85  74 1.85
   3  0.841  0.212  0.154- 120 1.63  39 1.67 111 1.70  12 1.70  93 1.85  75 1.85
   4  0.174  0.546  0.154- 121 1.63  40 1.67 112 1.70  13 1.70  94 1.85  76 1.85
   5  0.508  0.546  0.154- 122 1.63  41 1.67 113 1.70  14 1.70  95 1.85  77 1.85
   6  0.841  0.546  0.154- 123 1.63  42 1.67 114 1.70  15 1.70  96 1.85  78 1.85
   7  0.174  0.879  0.154- 124 1.63  43 1.67 115 1.70  16 1.70  97 1.85  79 1.85
   8  0.508  0.879  0.154- 125 1.63  44 1.67 116 1.70  17 1.70  98 1.85  80 1.85
   9  0.841  0.879  0.154- 126 1.63  45 1.67 117 1.70  18 1.70  99 1.85  81 1.85
  10  0.159  0.121  0.154- 109 1.63  46 1.67 118 1.70   1 1.70  82 1.85 100 1.85
  11  0.492  0.121  0.154- 110 1.63  47 1.67 119 1.70   2 1.70  83 1.85 101 1.85
  12  0.826  0.121  0.154- 111 1.63  48 1.67 120 1.70   3 1.70  84 1.85 102 1.85
  13  0.159  0.454  0.154- 112 1.63  49 1.67 121 1.70   4 1.70  85 1.85 103 1.85
  14  0.492  0.454  0.154- 113 1.63  50 1.67 122 1.70   5 1.70  86 1.85 104 1.85
  15  0.826  0.454  0.154- 114 1.63  51 1.67 123 1.70   6 1.70  87 1.85 105 1.85
  16  0.159  0.788  0.154- 115 1.63  52 1.67 124 1.70   7 1.70  88 1.85 106 1.85
  17  0.492  0.788  0.154- 116 1.63  53 1.67 125 1.70   8 1.70  89 1.85 107 1.85
  18  0.826  0.788  0.154- 117 1.63  54 1.67 126 1.70   9 1.70  90 1.85 108 1.85
  19  0.326  0.212  0.154- 118 1.63  55 1.67 110 1.70  29 1.70  91 1.85  73 1.85
  20  0.659  0.212  0.154- 119 1.63  56 1.67 111 1.70  30 1.70  92 1.85  74 1.85
  21  0.992  0.212  0.154- 120 1.63  57 1.67 109 1.70  28 1.70  93 1.85  75 1.85
  22  0.326  0.546  0.154- 121 1.63  58 1.67 113 1.70  32 1.70  94 1.85  76 1.85
  23  0.659  0.546  0.154- 122 1.63  59 1.67 114 1.70  33 1.70  95 1.85  77 1.85
  24  0.992  0.546  0.154- 123 1.63  60 1.67 112 1.70  31 1.70  96 1.85  78 1.85
  25  0.326  0.879  0.154- 124 1.63  61 1.67 116 1.70  35 1.70  97 1.85  79 1.85
  26  0.659  0.879  0.154- 125 1.63  62 1.67 117 1.70  36 1.70  98 1.85  80 1.85
  27  0.992  0.879  0.154- 126 1.63  63 1.67 115 1.70  34 1.70  99 1.85  81 1.85
  28  0.008  0.121  0.154- 109 1.63  64 1.67 120 1.70  21 1.70  82 1.85 100 1.85
  29  0.341  0.121  0.154- 110 1.63  65 1.67 118 1.70  19 1.70  83 1.85 101 1.85
  30  0.674  0.121  0.154- 111 1.63  66 1.67 119 1.70  20 1.70  84 1.85 102 1.85
  31  0.008  0.454  0.154- 112 1.63  67 1.67 123 1.70  24 1.70  85 1.85 103 1.85
  32  0.341  0.454  0.154- 113 1.63  68 1.67 121 1.70  22 1.70  86 1.85 104 1.85
  33  0.674  0.454  0.154- 114 1.63  69 1.67 122 1.70  23 1.70  87 1.85 105 1.85
  34  0.008  0.788  0.154- 115 1.63  70 1.67 126 1.70  27 1.70  88 1.85 106 1.85
  35  0.341  0.788  0.154- 116 1.63  71 1.67 124 1.70  25 1.70  89 1.85 107 1.85
  36  0.674  0.788  0.154- 117 1.63  72 1.67 125 1.70  26 1.70  90 1.85 108 1.85
  37  0.199  0.300  0.154-  49 1.66   1 1.67  55 1.73  91 1.79  73 1.81
  38  0.533  0.300  0.154-  50 1.66   2 1.67  56 1.73  92 1.80  74 1.80
  39  0.866  0.300  0.154-  51 1.66   3 1.67  57 1.73  93 1.80  75 1.80
  40  0.200  0.633  0.154-  52 1.66   4 1.67  58 1.73  94 1.80  76 1.80
  41  0.533  0.633  0.154-  53 1.66   5 1.67  59 1.73  95 1.80  77 1.80
  42  0.866  0.633  0.154-  54 1.66   6 1.67  60 1.73  96 1.80  78 1.80
  43  0.200  0.967  0.154-  46 1.66   7 1.67  61 1.73  97 1.80  79 1.80
  44  0.533  0.967  0.154-  47 1.66   8 1.67  62 1.73  98 1.80  80 1.80
  45  0.866  0.967  0.154-  48 1.66   9 1.67  63 1.73  99 1.80  81 1.80
  46  0.134  0.033  0.154-  43 1.66  10 1.67  64 1.73  82 1.80 100 1.80
  47  0.467  0.033  0.154-  44 1.66  11 1.67  65 1.73  83 1.80 101 1.80
  48  0.800  0.033  0.154-  45 1.66  12 1.67  66 1.73  84 1.80 102 1.80
  49  0.134  0.367  0.154-  37 1.66  13 1.67  67 1.73  85 1.80 103 1.80
  50  0.467  0.367  0.154-  38 1.66  14 1.67  68 1.73  86 1.80 104 1.80
  51  0.800  0.367  0.154-  39 1.66  15 1.67  69 1.73  87 1.80 105 1.80
  52  0.134  0.700  0.154-  40 1.66  16 1.67  70 1.73  88 1.80 106 1.80
  53  0.467  0.700  0.154-  41 1.66  17 1.67  71 1.73  89 1.80 107 1.80
  54  0.800  0.700  0.154-  42 1.66  18 1.67  72 1.73  90 1.80 108 1.80
  55  0.300  0.300  0.154-  68 1.66  19 1.67  37 1.73  91 1.80  73 1.80
  56  0.634  0.300  0.154-  69 1.66  20 1.67  38 1.73  92 1.80  74 1.80
  57  0.967  0.300  0.154-  67 1.66  21 1.67  39 1.73  93 1.80  75 1.80
  58  0.300  0.633  0.154-  71 1.66  22 1.67  40 1.73  94 1.80  76 1.80
  59  0.634  0.633  0.154-  72 1.66  23 1.67  41 1.73  95 1.80  77 1.80
  60  0.967  0.633  0.154-  70 1.66  24 1.67  42 1.73  96 1.80  78 1.80
  61  0.300  0.967  0.154-  65 1.66  25 1.67  43 1.73  97 1.80  79 1.80
  62  0.634  0.967  0.154-  66 1.66  26 1.67  44 1.73  98 1.80  80 1.80
  63  0.967  0.967  0.154-  64 1.66  27 1.67  45 1.73  99 1.80  81 1.80
  64  0.033  0.033  0.154-  63 1.66  28 1.67  46 1.73  82 1.80 100 1.80
  65  0.366  0.033  0.154-  61 1.66  29 1.67  47 1.73  83 1.80 101 1.80
  66  0.700  0.033  0.154-  62 1.66  30 1.67  48 1.73  84 1.80 102 1.80
  67  0.033  0.367  0.154-  57 1.66  31 1.67  49 1.73  85 1.80 103 1.80
  68  0.366  0.367  0.154-  55 1.66  32 1.67  50 1.73  86 1.80 104 1.80
  69  0.700  0.367  0.154-  56 1.66  33 1.67  51 1.73  87 1.80 105 1.80
  70  0.033  0.700  0.154-  60 1.66  34 1.67  52 1.73  88 1.80 106 1.80
  71  0.366  0.700  0.154-  58 1.66  35 1.67  53 1.73  89 1.80 107 1.80
  72  0.700  0.700  0.154-  59 1.66  36 1.67  54 1.73  90 1.80 108 1.80
  73  0.250  0.244  0.200- 145 1.19  55 1.80  37 1.81   1 1.85  19 1.85 118 1.97
  74  0.583  0.244  0.200- 146 1.19  38 1.80  56 1.80   2 1.85  20 1.85 119 1.97
  75  0.917  0.244  0.200- 147 1.19  39 1.80  57 1.80   3 1.85  21 1.85 120 1.97
  76  0.250  0.577  0.200- 148 1.19  40 1.80  58 1.80   4 1.85  22 1.85 121 1.97
  77  0.583  0.577  0.200- 149 1.19  41 1.80  59 1.80   5 1.85  23 1.85 122 1.97
  78  0.917  0.577  0.200- 150 1.19  42 1.80  60 1.80   6 1.85  24 1.85 123 1.97
  79  0.250  0.910  0.200- 151 1.19  43 1.80  61 1.80   7 1.85  25 1.85 124 1.97
  80  0.583  0.910  0.200- 152 1.19  44 1.80  62 1.80   8 1.85  26 1.85 125 1.97
  81  0.917  0.910  0.200- 153 1.19  45 1.80  63 1.80   9 1.85  27 1.85 126 1.97
  82  0.083  0.090  0.109- 136 1.19  46 1.80  64 1.80  28 1.85  10 1.85 109 1.97
  83  0.417  0.090  0.109- 137 1.19  65 1.80  47 1.80  29 1.85  11 1.85 110 1.97
  84  0.750  0.090  0.109- 138 1.19  66 1.80  48 1.80  30 1.85  12 1.85 111 1.97
  85  0.083  0.423  0.109- 139 1.19  49 1.80  67 1.80  31 1.85  13 1.85 112 1.97
  86  0.417  0.423  0.109- 140 1.19  68 1.80  50 1.80  32 1.85  14 1.85 113 1.97
  87  0.750  0.423  0.109- 141 1.19  69 1.80  51 1.80  33 1.85  15 1.85 114 1.97
  88  0.083  0.756  0.109- 142 1.19  52 1.80  70 1.80  34 1.85  16 1.85 115 1.97
  89  0.417  0.756  0.109- 143 1.19  71 1.80  53 1.80  35 1.85  17 1.85 116 1.97
  90  0.750  0.756  0.109- 144 1.19  72 1.80  54 1.80  36 1.85  18 1.85 117 1.97
  91  0.250  0.244  0.109- 127 1.19  37 1.79  55 1.80   1 1.85  19 1.85 118 1.97
  92  0.583  0.244  0.109- 128 1.19  38 1.80  56 1.80   2 1.85  20 1.85 119 1.97
  93  0.917  0.244  0.109- 129 1.19  39 1.80  57 1.80   3 1.85  21 1.85 120 1.97
  94  0.250  0.577  0.109- 130 1.19  40 1.80  58 1.80   4 1.85  22 1.85 121 1.97
  95  0.583  0.577  0.109- 131 1.19  41 1.80  59 1.80   5 1.85  23 1.85 122 1.97
  96  0.917  0.577  0.109- 132 1.19  42 1.80  60 1.80   6 1.85  24 1.85 123 1.97
  97  0.250  0.910  0.109- 133 1.19  43 1.80  61 1.80   7 1.85  25 1.85 124 1.97
  98  0.583  0.910  0.109- 134 1.19  44 1.80  62 1.80   8 1.85  26 1.85 125 1.97
  99  0.917  0.910  0.109- 135 1.19  45 1.80  63 1.80   9 1.85  27 1.85 126 1.97
 100  0.083  0.090  0.200- 154 1.19  46 1.80  64 1.80  28 1.85  10 1.85 109 1.97
 101  0.417  0.090  0.200- 155 1.19  65 1.80  47 1.80  29 1.85  11 1.85 110 1.97
 102  0.750  0.090  0.200- 156 1.19  66 1.80  48 1.80  30 1.85  12 1.85 111 1.97
 103  0.083  0.423  0.200- 157 1.19  49 1.80  67 1.80  31 1.85  13 1.85 112 1.97
 104  0.417  0.423  0.200- 158 1.19  68 1.80  50 1.80  32 1.85  14 1.85 113 1.97
 105  0.750  0.423  0.200- 159 1.19  69 1.80  51 1.80  33 1.85  15 1.85 114 1.97
 106  0.083  0.756  0.200- 160 1.19  52 1.80  70 1.80  34 1.85  16 1.85 115 1.97
 107  0.417  0.756  0.200- 161 1.19  71 1.80  53 1.80  35 1.85  17 1.85 116 1.97
 108  0.750  0.756  0.200- 162 1.19  72 1.80  54 1.80  36 1.85  18 1.85 117 1.97
 109  0.083  0.175  0.154-  28 1.63  10 1.63  21 1.70   1 1.70  82 1.97 100 1.97
 110  0.417  0.175  0.154-  29 1.63  11 1.63  19 1.70   2 1.70  83 1.97 101 1.97
 111  0.750  0.175  0.154-  30 1.63  12 1.63  20 1.70   3 1.70  84 1.97 102 1.97
 112  0.083  0.508  0.154-  31 1.63  13 1.63  24 1.70   4 1.70  85 1.97 103 1.97
 113  0.417  0.508  0.154-  32 1.63  14 1.63  22 1.70   5 1.70  86 1.97 104 1.97
 114  0.750  0.508  0.154-  33 1.63  15 1.63  23 1.70   6 1.70  87 1.97 105 1.97
 115  0.083  0.842  0.154-  34 1.63  16 1.63  27 1.70   7 1.70  88 1.97 106 1.97
 116  0.417  0.842  0.154-  35 1.63  17 1.63  25 1.70   8 1.70  89 1.97 107 1.97
 117  0.750  0.842  0.154-  36 1.63  18 1.63  26 1.70   9 1.70  90 1.97 108 1.97
 118  0.250  0.158  0.154-   1 1.63  19 1.63  10 1.70  29 1.70  91 1.97  73 1.97
 119  0.583  0.158  0.154-   2 1.63  20 1.63  11 1.70  30 1.70  92 1.97  74 1.97
 120  0.917  0.158  0.154-   3 1.63  21 1.63  12 1.70  28 1.70  93 1.97  75 1.97
 121  0.250  0.492  0.154-   4 1.63  22 1.63  13 1.70  32 1.70  94 1.97  76 1.97
 122  0.583  0.492  0.154-   5 1.63  23 1.63  14 1.70  33 1.70  95 1.97  77 1.97
 123  0.917  0.492  0.154-   6 1.63  24 1.63  15 1.70  31 1.70  96 1.97  78 1.97
 124  0.250  0.825  0.154-   7 1.63  25 1.63  16 1.70  35 1.70  97 1.97  79 1.97
 125  0.583  0.825  0.154-   8 1.63  26 1.63  17 1.70  36 1.70  98 1.97  80 1.97
 126  0.917  0.825  0.154-   9 1.63  27 1.63  18 1.70  34 1.70  99 1.97  81 1.97
 127  0.250  0.239  0.063-  91 1.19
 128  0.583  0.239  0.063-  92 1.19
 129  0.917  0.239  0.063-  93 1.19
 130  0.250  0.573  0.063-  94 1.19
 131  0.583  0.573  0.063-  95 1.19
 132  0.917  0.573  0.063-  96 1.19
 133  0.250  0.906  0.063-  97 1.19
 134  0.583  0.906  0.063-  98 1.19
 135  0.917  0.906  0.063-  99 1.19
 136  0.083  0.094  0.063-  82 1.19
 137  0.417  0.094  0.063-  83 1.19
 138  0.750  0.094  0.063-  84 1.19
 139  0.083  0.427  0.063-  85 1.19
 140  0.417  0.427  0.063-  86 1.19
 141  0.750  0.427  0.063-  87 1.19
 142  0.083  0.761  0.063-  88 1.19
 143  0.417  0.761  0.063-  89 1.19
 144  0.750  0.761  0.063-  90 1.19
 145  0.250  0.239  0.246-  73 1.19
 146  0.583  0.239  0.246-  74 1.19
 147  0.917  0.239  0.246-  75 1.19
 148  0.250  0.573  0.246-  76 1.19
 149  0.583  0.573  0.246-  77 1.19
 150  0.917  0.573  0.246-  78 1.19
 151  0.250  0.906  0.246-  79 1.19
 152  0.583  0.906  0.246-  80 1.19
 153  0.917  0.906  0.246-  81 1.19
 154  0.083  0.094  0.246- 100 1.19
 155  0.417  0.094  0.246- 101 1.19
 156  0.750  0.094  0.246- 102 1.19
 157  0.083  0.427  0.246- 103 1.19
 158  0.417  0.427  0.246- 104 1.19
 159  0.750  0.427  0.246- 105 1.19
 160  0.083  0.761  0.246- 106 1.19
 161  0.417  0.761  0.246- 107 1.19
 162  0.750  0.761  0.246- 108 1.19
 
  LATTYP: Found a simple orthorhombic cell.
 ALAT       =    17.0825264762
 B/A-ratio  =     1.0772006171
 C/A-ratio  =     1.5246022234
  
  Lattice vectors:
  
 A1 = (  17.0825264762,   0.0000000000,   0.0000000000)
 A2 = (   0.0000000000,  18.4013080622,   0.0000000000)
 A3 = (   0.0000000000,   0.0000000000,  26.0440578461)


Analysis of symmetry for initial positions (statically):
=====================================================================
 Subroutine PRICEL returns:
 Original cell was already a primitive cell.
 

 Routine SETGRP: Setting up the symmetry group for a 
 simple orthorhombic supercell.


 Subroutine GETGRP returns: Found  1 space group operations
 (whereof  1 operations were pure point group operations)
 out of a pool of  8 trial point group operations.


The static configuration has the point symmetry C_1 .


Analysis of symmetry for dynamics (positions and initial velocities):
=====================================================================
 Subroutine PRICEL returns:
 Original cell was already a primitive cell.
 

 Routine SETGRP: Setting up the symmetry group for a 
 simple orthorhombic supercell.


 Subroutine GETGRP returns: Found  1 space group operations
 (whereof  1 operations were pure point group operations)
 out of a pool of  8 trial point group operations.


The dynamic configuration has the point symmetry C_1 .


 Subroutine INISYM returns: Found  1 space group operations
 (whereof  1 operations are pure point group operations),
 and found     1 'primitive' translations


----------------------------------------------------------------------------------------

                                     Primitive cell                                     

  volume of cell :    8186.7108

  direct lattice vectors                    reciprocal lattice vectors
    17.082526476  0.000000000  0.000000000     0.058539350  0.000000000  0.000000000
     0.000000000 18.401308062  0.000000000     0.000000000  0.054343963  0.000000000
     0.000000000  0.000000000 26.044057846     0.000000000  0.000000000  0.038396474

  length of vectors
    17.082526476 18.401308062 26.044057846     0.058539350  0.054343963  0.038396474

  position of ions in fractional coordinates (direct lattice)
     0.174470939  0.212345136  0.154431738
     0.507804272  0.212345136  0.154431738
     0.841137605  0.212345136  0.154431738
     0.174470939  0.545678469  0.154431738
     0.507804272  0.545678469  0.154431738
     0.841137605  0.545678469  0.154431738
     0.174470939  0.879011802  0.154431738
     0.507804272  0.879011802  0.154431738
     0.841137605  0.879011802  0.154431738
     0.158862395  0.120988198  0.154431738
     0.492195728  0.120988198  0.154431738
     0.825529061  0.120988198  0.154431738
     0.158862395  0.454321531  0.154431738
     0.492195728  0.454321531  0.154431738
     0.825529061  0.454321531  0.154431738
     0.158862395  0.787654864  0.154431738
     0.492195728  0.787654864  0.154431738
     0.825529061  0.787654864  0.154431738
     0.325529061  0.212345136  0.154431738
     0.658862395  0.212345136  0.154431738
     0.992195728  0.212345136  0.154431738
     0.325529061  0.545678469  0.154431738
     0.658862395  0.545678469  0.154431738
     0.992195728  0.545678469  0.154431738
     0.325529061  0.879011802  0.154431738
     0.658862395  0.879011802  0.154431738
     0.992195728  0.879011802  0.154431738
     0.007804272  0.120988198  0.154431738
     0.341137605  0.120988198  0.154431738
     0.674470939  0.120988198  0.154431738
     0.007804272  0.454321531  0.154431738
     0.341137605  0.454321531  0.154431738
     0.674470939  0.454321531  0.154431738
     0.007804272  0.787654864  0.154431738
     0.341137605  0.787654864  0.154431738
     0.674470939  0.787654864  0.154431738
     0.199183184  0.300002291  0.154110675
     0.532837581  0.300002291  0.154431738
     0.866170914  0.300002291  0.154431738
     0.199504247  0.633335624  0.154431738
     0.532837581  0.633335624  0.154431738
     0.866170914  0.633335624  0.154431738
     0.199504247  0.966668958  0.154431738
     0.532837581  0.966668958  0.154431738
     0.866170914  0.966668958  0.154431738
     0.133829086  0.033331040  0.154431738
     0.467162419  0.033331040  0.154431738
     0.800495753  0.033331040  0.154431738
     0.133829086  0.366664373  0.154431738
     0.467162419  0.366664373  0.154431738
     0.800495753  0.366664373  0.154431738
     0.133829086  0.699997706  0.154431738
     0.467162419  0.699997706  0.154431738
     0.800495753  0.699997706  0.154431738
     0.300495753  0.300002291  0.154431738
     0.633829086  0.300002291  0.154431738
     0.967162419  0.300002291  0.154431738
     0.300495753  0.633335624  0.154431738
     0.633829086  0.633335624  0.154431738
     0.967162419  0.633335624  0.154431738
     0.300495753  0.966668958  0.154431738
     0.633829086  0.966668958  0.154431738
     0.967162419  0.966668958  0.154431738
     0.032837581  0.033331040  0.154431738
     0.366170914  0.033331040  0.154431738
     0.699504247  0.033331040  0.154431738
     0.032837581  0.366664373  0.154431738
     0.366170914  0.366664373  0.154431738
     0.699504247  0.366664373  0.154431738
     0.032837581  0.699997706  0.154431738
     0.366170914  0.699997706  0.154431738
     0.699504247  0.699997706  0.154431738
     0.250000000  0.243765382  0.200085459
     0.583333333  0.243765382  0.200085459
     0.916666667  0.243765382  0.200085459
     0.250000000  0.577098716  0.200085459
     0.583333333  0.577098716  0.200085459
     0.916666667  0.577098716  0.200085459
     0.250000000  0.910432049  0.200085459
     0.583333333  0.910432049  0.200085459
     0.916666667  0.910432049  0.200085459
     0.083333333  0.089567951  0.108778020
     0.416666667  0.089567951  0.108778020
     0.750000000  0.089567951  0.108778020
     0.083333333  0.422901284  0.108778020
     0.416666667  0.422901284  0.108778020
     0.750000000  0.422901284  0.108778020
     0.083333333  0.756234618  0.108778020
     0.416666667  0.756234618  0.108778020
     0.750000000  0.756234618  0.108778020
     0.250000000  0.243765382  0.108778020
     0.583333333  0.243765382  0.108778020
     0.916666667  0.243765382  0.108778020
     0.250000000  0.577098716  0.108778020
     0.583333333  0.577098716  0.108778020
     0.916666667  0.577098716  0.108778020
     0.250000000  0.910432049  0.108778020
     0.583333333  0.910432049  0.108778020
     0.916666667  0.910432049  0.108778020
     0.083333333  0.089567951  0.200085459
     0.416666667  0.089567951  0.200085459
     0.750000000  0.089567951  0.200085459
     0.083333333  0.422901284  0.200085459
     0.416666667  0.422901284  0.200085459
     0.750000000  0.422901284  0.200085459
     0.083333333  0.756234618  0.200085459
     0.416666667  0.756234618  0.200085459
     0.750000000  0.756234618  0.200085459
     0.083333333  0.174986704  0.154431738
     0.416666667  0.174986704  0.154431738
     0.750000000  0.174986704  0.154431738
     0.083333333  0.508320038  0.154431738
     0.416666667  0.508320038  0.154431738
     0.750000000  0.508320038  0.154431738
     0.083333333  0.841653371  0.154431738
     0.416666667  0.841653371  0.154431738
     0.750000000  0.841653371  0.154431738
     0.250000000  0.158346619  0.154431738
     0.583333333  0.158346619  0.154431738
     0.916666667  0.158346619  0.154431738
     0.250000000  0.491679953  0.154431738
     0.583333333  0.491679953  0.154431738
     0.916666667  0.491679953  0.154431738
     0.250000000  0.825013286  0.154431738
     0.583333333  0.825013286  0.154431738
     0.916666667  0.825013286  0.154431738
     0.250000000  0.239245771  0.063144670
     0.583333333  0.239245771  0.063144670
     0.916666667  0.239245771  0.063144670
     0.250000000  0.572579104  0.063144670
     0.583333333  0.572579104  0.063144670
     0.916666667  0.572579104  0.063144670
     0.250000000  0.905912438  0.063144670
     0.583333333  0.905912438  0.063144670
     0.916666667  0.905912438  0.063144670
     0.083333333  0.094087562  0.063144670
     0.416666667  0.094087562  0.063144670
     0.750000000  0.094087562  0.063144670
     0.083333333  0.427420896  0.063144670
     0.416666667  0.427420896  0.063144670
     0.750000000  0.427420896  0.063144670
     0.083333333  0.760754229  0.063144670
     0.416666667  0.760754229  0.063144670
     0.750000000  0.760754229  0.063144670
     0.250000000  0.239245771  0.245718809
     0.583333333  0.239245771  0.245718809
     0.916666667  0.239245771  0.245718809
     0.250000000  0.572579104  0.245718809
     0.583333333  0.572579104  0.245718809
     0.916666667  0.572579104  0.245718809
     0.250000000  0.905912438  0.245718809
     0.583333333  0.905912438  0.245718809
     0.916666667  0.905912438  0.245718809
     0.083333333  0.094087562  0.245718809
     0.416666667  0.094087562  0.245718809
     0.750000000  0.094087562  0.245718809
     0.083333333  0.427420896  0.245718809
     0.416666667  0.427420896  0.245718809
     0.750000000  0.427420896  0.245718809
     0.083333333  0.760754229  0.245718809
     0.416666667  0.760754229  0.245718809
     0.750000000  0.760754229  0.245718809

  ion indices of the primitive-cell ions
   primitive index   ion index
                 1           1
                 2           2
                 3           3
                 4           4
                 5           5
                 6           6
                 7           7
                 8           8
                 9           9
                10          10
                11          11
                12          12
                13          13
                14          14
                15          15
                16          16
                17          17
                18          18
                19          19
                20          20
                21          21
                22          22
                23          23
                24          24
                25          25
                26          26
                27          27
                28          28
                29          29
                30          30
                31          31
                32          32
                33          33
                34          34
                35          35
                36          36
                37          37
                38          38
                39          39
                40          40
                41          41
                42          42
                43          43
                44          44
                45          45
                46          46
                47          47
                48          48
                49          49
                50          50
                51          51
                52          52
                53          53
                54          54
                55          55
                56          56
                57          57
                58          58
                59          59
                60          60
                61          61
                62          62
                63          63
                64          64
                65          65
                66          66
                67          67
                68          68
                69          69
                70          70
                71          71
                72          72
                73          73
                74          74
                75          75
                76          76
                77          77
                78          78
                79          79
                80          80
                81          81
                82          82
                83          83
                84          84
                85          85
                86          86
                87          87
                88          88
                89          89
                90          90
                91          91
                92          92
                93          93
                94          94
                95          95
                96          96
                97          97
                98          98
                99          99
               100         100
               101         101
               102         102
               103         103
               104         104
               105         105
               106         106
               107         107
               108         108
               109         109
               110         110
               111         111
               112         112
               113         113
               114         114
               115         115
               116         116
               117         117
               118         118
               119         119
               120         120
               121         121
               122         122
               123         123
               124         124
               125         125
               126         126
               127         127
               128         128
               129         129
               130         130
               131         131
               132         132
               133         133
               134         134
               135         135
               136         136
               137         137
               138         138
               139         139
               140         140
               141         141
               142         142
               143         143
               144         144
               145         145
               146         146
               147         147
               148         148
               149         149
               150         150
               151         151
               152         152
               153         153
               154         154
               155         155
               156         156
               157         157
               158         158
               159         159
               160         160
               161         161
               162         162

----------------------------------------------------------------------------------------

 
 
 KPOINTS: k-points                                

Automatic generation of k-mesh.
 Grid dimensions read from file:
 generate k-points for:    4    3    1

 Generating k-lattice:

  Cartesian coordinates                     Fractional coordinates (reciprocal lattice)
     0.014634838  0.000000000  0.000000000     0.250000000  0.000000000  0.000000000
     0.000000000  0.018114654  0.000000000     0.000000000  0.333333333  0.000000000
     0.000000000  0.000000000  0.038396474     0.000000000  0.000000000  1.000000000

  Length of vectors
     0.014634838  0.018114654  0.038396474

  Shift w.r.t. Gamma in fractional coordinates (k-lattice)
     0.500000000  0.000000000  0.000000000

 
 Subroutine IBZKPT returns following result:
 ===========================================
 
 Found      6 irreducible k-points:
 
 Following reciprocal coordinates:
            Coordinates               Weight
  0.125000  0.000000  0.000000      2.000000
  0.375000  0.000000  0.000000      2.000000
  0.125000  0.333333  0.000000      2.000000
  0.125000 -0.333333  0.000000      2.000000
  0.375000  0.333333  0.000000      2.000000
  0.375000 -0.333333  0.000000      2.000000
 
 Following cartesian coordinates:
            Coordinates               Weight
  0.007317  0.000000  0.000000      2.000000
  0.021952  0.000000  0.000000      2.000000
  0.007317  0.018115  0.000000      2.000000
  0.007317 -0.018115  0.000000      2.000000
  0.021952  0.018115  0.000000      2.000000
  0.021952 -0.018115  0.000000      2.000000
 


--------------------------------------------------------------------------------------------------------




 Dimension of arrays:
   k-points           NKPTS =      6   k-points in BZ     NKDIM =      6   number of bands    NBANDS=    294
   number of dos      NEDOS =    301   number of ions     NIONS =    162
   non local maximal  LDIM  =      4   non local SUM 2l+1 LMDIM =      8
   total plane-waves  NPLWV = ******
   max r-space proj   IRMAX =   3281   max aug-charges    IRDMAX=   8599
   dimension x,y,z NGX =   140 NGY =  150 NGZ =  210
   dimension x,y,z NGXF=   280 NGYF=  300 NGZF=  420
   support grid    NGXF=   280 NGYF=  300 NGZF=  420
   ions per type =             126  36
   NGX,Y,Z   is equivalent  to a cutoff of  13.62, 13.55, 13.40 a.u.
   NGXF,Y,Z  is equivalent  to a cutoff of  27.25, 27.10, 26.81 a.u.

 SYSTEM =  SCF                                     
 POSCAR =  generated by phonopy                    

 Startparameter for this run:
   NWRITE =      2    write-flag & timer
   PREC   = accura    normal or accurate (medium, high low for compatibility)
   ISTART =      0    job   : 0-new  1-cont  2-samecut
   ICHARG =      2    charge: 1-file 2-atom 10-const
   ISPIN  =      1    spin polarized calculation?
   LNONCOLLINEAR =      F non collinear calculations
   LSORBIT =      F    spin-orbit coupling
   INIWAV =      1    electr: 0-lowe 1-rand  2-diag
   LASPH  =      F    aspherical Exc in radial PAW
 Electronic Relaxation 1
   ENCUT  =  600.0 eV  44.10 Ry    6.64 a.u.  34.12 36.75 52.02*2*pi/ulx,y,z
   ENINI  =  600.0     initial cutoff
   ENAUG  =  535.5 eV  augmentation charge cutoff
   NELM   =    150;   NELMIN=  2; NELMDL= -5     # of ELM steps 
   EDIFF  = 0.1E-05   stopping-criterion for ELM
   LREAL  =      T    real-space projection
   NLSPLINE    = F    spline interpolate recip. space projectors
   LCOMPAT=      F    compatible to vasp.4.4
   GGA_COMPAT  = T    GGA compatible to vasp.4.4-vasp.4.6
   LMAXPAW     = -100 max onsite density
   LMAXMIX     =    2 max onsite mixed and CHGCAR
   VOSKOWN=      0    Vosko Wilk Nusair interpolation
   ROPT   =   -0.00025  -0.00025
 Ionic relaxation
   EDIFFG = -.1E-02   stopping-criterion for IOM
   NSW    =      0    number of steps for IOM
   NBLOCK =      1;   KBLOCK =      1    inner block; outer block 
   IBRION =     -1    ionic relax: 0-MD 1-quasi-New 2-CG
   NFREE  =      0    steps in history (QN), initial steepest desc. (CG)
   ISIF   =      2    stress and relaxation
   IWAVPR =     10    prediction:  0-non 1-charg 2-wave 3-comb
   ISYM   =      2    0-nonsym 1-usesym 2-fastsym
   LCORR  =      T    Harris-Foulkes like correction to forces

   POTIM  = 0.5000    time-step for ionic-motion
   TEIN   =    0.0    initial temperature
   TEBEG  =    0.0;   TEEND  =   0.0 temperature during run
   SMASS  =  -3.00    Nose mass-parameter (am)
   estimated Nose-frequenzy (Omega)   =  0.10E-29 period in steps = 0.13E+47 mass=  -0.667E-26a.u.
   SCALEE = 1.0000    scale energy and forces
   NPACO  =    256;   APACO  = 10.0  distance and # of slots for P.C.
   PSTRESS=    0.0 pullay stress

  Mass of Ions in am
   POMASS =  10.81  1.00
  Ionic Valenz
   ZVAL   =   3.00  1.00
  Atomic Wigner-Seitz radii
   RWIGS  =  -1.00 -1.00
  virtual crystal weights 
   VCA    =   1.00  1.00
   NELECT =     414.0000    total number of electrons
   NUPDOWN=      -1.0000    fix difference up-down

 DOS related values:
   EMIN   =  10.00;   EMAX   =-10.00  energy-range for DOS
   EFERMI =   0.00;   METHOD = LEGACY      
   ISMEAR =     0;   SIGMA  =   0.10  broadening in eV -4-tet -1-fermi 0-gaus
   EFERMI_NEDOS =   21; number of points for ismear=-14 and -15

 Electronic relaxation 2 (details)
   IALGO  =     38    algorithm
   LDIAG  =      T    sub-space diagonalisation (order eigenvalues)
   LSUBROT=      F    optimize rotation matrix (better conditioning)
   TURBO    =      0    0=normal 1=particle mesh
   IRESTART =      0    0=no restart 2=restart with 2 vectors
   NREBOOT  =      0    no. of reboots
   NMIN     =      0    reboot dimension
   EREF     =   0.00    reference energy to select bands
   IMIX   =      4    mixing-type and parameters
     AMIX     =   0.40;   BMIX     =  1.00
     AMIX_MAG =   1.60;   BMIX_MAG =  1.00
     AMIN     =   0.10
     WC   =   100.;   INIMIX=   1;  MIXPRE=   1;  MAXMIX= -45

 Intra band minimization:
   WEIMIN = 0.0000     energy-eigenvalue tresh-hold
   EBREAK =  0.85E-09  absolut break condition
   DEPER  =   0.30     relativ break condition  

   TIME   =   0.40     timestep for ELM

  volume/ion in A,a.u.               =      50.54       341.03
  Fermi-wavevector in a.u.,A,eV,Ry     =   0.605394  1.144030  4.986569  0.366502
  Thomas-Fermi vector in A             =   1.659102
 
 Write flags
   LWAVE        =      F    write WAVECAR
   LDOWNSAMPLE  =      F    k-point downsampling of WAVECAR
   LCHARG       =      F    write CHGCAR
   LVTOT        =      F    write LOCPOT, total local potential
   LVHAR        =      F    write LOCPOT, Hartree potential only
   WRT_POTENTIAL= false  ! write potential to hdf5 file
   LELF         =      F    write electronic localiz. function (ELF)
   LORBIT       =     11    0 simple, 1 ext, 2 COOP (PROOUT), +10 PAW based schemes


 Python interface
   PLUGINS active      =      F    recompile with -DPLUGINS to activate
 
 Dipole corrections
   LMONO      =      F    monopole corrections only (constant potential shift)
   LDIPOL     =      T    correct potential (dipole corrections)
   IDIPOL     =      3    1-x, 2-y, 3-z, 4-all directions 
   EPSILON    =  1.0000000 bulk dielectric constant
   LVACPOTAV  =      F  vacuum potentials using an averaging scheme for the charge density
   VACPOTFLAT =  0.1000000 required flatness to determine vacuum potential
 
Coulomb truncation method
  LTRUNCATE          =      F  Coulomb kernel truncation to be used
  IDIMENSIONALITY    =      3  Dimensionality of cutoff (0 molecules / 2 surfaces)
  ISURFACE           =     -1  Direction of surface normal
  LCOARSEN           =      F  Coarsen the charge grid before padding, preferred

 
 Exchange correlation treatment:
   GGA     = PE    functional components
   XC_C    = 1    coefficients multiplying the functional components
   LIBXC   =     F    Libxc                    
   VOSKOWN =     0    Vosko Wilk Nusair interpolation
   LHFCALC =     F    Hartree Fock is set to
   LHFONE  =     F    Hartree Fock one center treatment
   AEXX    =    0.0000 exact exchange contribution

 Parameters of functionals:
   PE:
     No parameter
 
 Van der Waals corrections
   IVDW    =    12    specifies the selected vdW correction

 Linear response parameters
   LEPSILON=     F    determine dielectric tensor
   LRPA    =     F    only Hartree local field effects (RPA)
   LNABLA  =     F    use nabla operator in PAW spheres
   LVEL    =     F    velocity operator in full k-point grid
   CSHIFT  =0.1000    complex shift for real part using Kramers Kronig
   OMEGAMAX=  -1.0    maximum frequency
   DEG_THRESHOLD= 0.2000000E-02 threshold for treating states as degnerate
   RTIME   =   -0.100 relaxation time in fs
  (WPLASMAI=    0.000 imaginary part of plasma frequency in eV, 0.658/RTIME)
   DFIELD  = 0.0000000 0.0000000 0.0000000 field for delta impulse in time
 
  Optional k-point grid parameters
   LKPOINTS_OPT  =     F    use optional k-point grid
   KPOINTS_OPT_MODE=     1    mode for optional k-point grid
 
 Orbital magnetization related:
   ORBITALMAG=     F  switch on orbital magnetization
   LCHIMAG   =     F  perturbation theory with respect to B field
   DQ        =  0.001000  dq finite difference perturbation B field
   LLRAUG    =     F  two centre corrections for induced B field
   LBONE     =     F  B-component reconstruction in AE one-centre
   LVGVCALC  =     T  calculate vGv susceptibility
   LVGVAPPL  =     F  apply vGv susceptibility instead of pGv for G=0

 Random number generation:
   RANDOM_GENERATOR = DEFAULT
   PCG_SEED         = not used


--------------------------------------------------------------------------------------------------------


 Static calculation
 charge density and potential will be updated during run
 non-spin polarized calculation
 Variant of blocked Davidson
 Davidson routine will perform the subspace rotation
 perform sub-space diagonalisation
    after iterative eigenvector-optimisation
 modified Broyden-mixing scheme, WC =      100.0
 initial mixing is a Kerker type mixing with AMIX =  0.4000 and BMIX =      1.0000
 Hartree-type preconditioning will be used
 using additional bands           87
 real space projection scheme for non local part
 use partial core corrections
 calculate Harris-corrections to forces 
   (improved forces if not selfconsistent)
 use gradient corrections 
 use of overlap-Matrix (Vanderbilt PP)
 Gauss-broadening in eV      SIGMA  =   0.10


--------------------------------------------------------------------------------------------------------


  energy-cutoff  :      600.00
  volume of cell :     8186.71
      direct lattice vectors                 reciprocal lattice vectors
    17.082526476  0.000000000  0.000000000     0.058539350  0.000000000  0.000000000
     0.000000000 18.401308062  0.000000000     0.000000000  0.054343963  0.000000000
     0.000000000  0.000000000 26.044057846     0.000000000  0.000000000  0.038396474

  length of vectors
    17.082526476 18.401308062 26.044057846     0.058539350  0.054343963  0.038396474


 
 k-points in units of 2pi/SCALE and weight: k-points                                
   0.00731742  0.00000000  0.00000000       0.167
   0.02195226  0.00000000  0.00000000       0.167
   0.00731742  0.01811465  0.00000000       0.167
   0.00731742 -0.01811465  0.00000000       0.167
   0.02195226  0.01811465  0.00000000       0.167
   0.02195226 -0.01811465  0.00000000       0.167
 
 k-points in reciprocal lattice and weights: k-points                                
   0.12500000  0.00000000  0.00000000       0.167
   0.37500000  0.00000000  0.00000000       0.167
   0.12500000  0.33333333  0.00000000       0.167
   0.12500000 -0.33333333  0.00000000       0.167
   0.37500000  0.33333333  0.00000000       0.167
   0.37500000 -0.33333333  0.00000000       0.167
 
 position of ions in fractional coordinates (direct lattice) 
   0.17447094  0.21234514  0.15443174
   0.50780427  0.21234514  0.15443174
   0.84113761  0.21234514  0.15443174
   0.17447094  0.54567847  0.15443174
   0.50780427  0.54567847  0.15443174
   0.84113761  0.54567847  0.15443174
   0.17447094  0.87901180  0.15443174
   0.50780427  0.87901180  0.15443174
   0.84113761  0.87901180  0.15443174
   0.15886239  0.12098820  0.15443174
   0.49219573  0.12098820  0.15443174
   0.82552906  0.12098820  0.15443174
   0.15886239  0.45432153  0.15443174
   0.49219573  0.45432153  0.15443174
   0.82552906  0.45432153  0.15443174
   0.15886239  0.78765486  0.15443174
   0.49219573  0.78765486  0.15443174
   0.82552906  0.78765486  0.15443174
   0.32552906  0.21234514  0.15443174
   0.65886239  0.21234514  0.15443174
   0.99219573  0.21234514  0.15443174
   0.32552906  0.54567847  0.15443174
   0.65886239  0.54567847  0.15443174
   0.99219573  0.54567847  0.15443174
   0.32552906  0.87901180  0.15443174
   0.65886239  0.87901180  0.15443174
   0.99219573  0.87901180  0.15443174
   0.00780427  0.12098820  0.15443174
   0.34113761  0.12098820  0.15443174
   0.67447094  0.12098820  0.15443174
   0.00780427  0.45432153  0.15443174
   0.34113761  0.45432153  0.15443174
   0.67447094  0.45432153  0.15443174
   0.00780427  0.78765486  0.15443174
   0.34113761  0.78765486  0.15443174
   0.67447094  0.78765486  0.15443174
   0.19918318  0.30000229  0.15411067
   0.53283758  0.30000229  0.15443174
   0.86617091  0.30000229  0.15443174
   0.19950425  0.63333562  0.15443174
   0.53283758  0.63333562  0.15443174
   0.86617091  0.63333562  0.15443174
   0.19950425  0.96666896  0.15443174
   0.53283758  0.96666896  0.15443174
   0.86617091  0.96666896  0.15443174
   0.13382909  0.03333104  0.15443174
   0.46716242  0.03333104  0.15443174
   0.80049575  0.03333104  0.15443174
   0.13382909  0.36666437  0.15443174
   0.46716242  0.36666437  0.15443174
   0.80049575  0.36666437  0.15443174
   0.13382909  0.69999771  0.15443174
   0.46716242  0.69999771  0.15443174
   0.80049575  0.69999771  0.15443174
   0.30049575  0.30000229  0.15443174
   0.63382909  0.30000229  0.15443174
   0.96716242  0.30000229  0.15443174
   0.30049575  0.63333562  0.15443174
   0.63382909  0.63333562  0.15443174
   0.96716242  0.63333562  0.15443174
   0.30049575  0.96666896  0.15443174
   0.63382909  0.96666896  0.15443174
   0.96716242  0.96666896  0.15443174
   0.03283758  0.03333104  0.15443174
   0.36617091  0.03333104  0.15443174
   0.69950425  0.03333104  0.15443174
   0.03283758  0.36666437  0.15443174
   0.36617091  0.36666437  0.15443174
   0.69950425  0.36666437  0.15443174
   0.03283758  0.69999771  0.15443174
   0.36617091  0.69999771  0.15443174
   0.69950425  0.69999771  0.15443174
   0.25000000  0.24376538  0.20008546
   0.58333333  0.24376538  0.20008546
   0.91666667  0.24376538  0.20008546
   0.25000000  0.57709872  0.20008546
   0.58333333  0.57709872  0.20008546
   0.91666667  0.57709872  0.20008546
   0.25000000  0.91043205  0.20008546
   0.58333333  0.91043205  0.20008546
   0.91666667  0.91043205  0.20008546
   0.08333333  0.08956795  0.10877802
   0.41666667  0.08956795  0.10877802
   0.75000000  0.08956795  0.10877802
   0.08333333  0.42290128  0.10877802
   0.41666667  0.42290128  0.10877802
   0.75000000  0.42290128  0.10877802
   0.08333333  0.75623462  0.10877802
   0.41666667  0.75623462  0.10877802
   0.75000000  0.75623462  0.10877802
   0.25000000  0.24376538  0.10877802
   0.58333333  0.24376538  0.10877802
   0.91666667  0.24376538  0.10877802
   0.25000000  0.57709872  0.10877802
   0.58333333  0.57709872  0.10877802
   0.91666667  0.57709872  0.10877802
   0.25000000  0.91043205  0.10877802
   0.58333333  0.91043205  0.10877802
   0.91666667  0.91043205  0.10877802
   0.08333333  0.08956795  0.20008546
   0.41666667  0.08956795  0.20008546
   0.75000000  0.08956795  0.20008546
   0.08333333  0.42290128  0.20008546
   0.41666667  0.42290128  0.20008546
   0.75000000  0.42290128  0.20008546
   0.08333333  0.75623462  0.20008546
   0.41666667  0.75623462  0.20008546
   0.75000000  0.75623462  0.20008546
   0.08333333  0.17498670  0.15443174
   0.41666667  0.17498670  0.15443174
   0.75000000  0.17498670  0.15443174
   0.08333333  0.50832004  0.15443174
   0.41666667  0.50832004  0.15443174
   0.75000000  0.50832004  0.15443174
   0.08333333  0.84165337  0.15443174
   0.41666667  0.84165337  0.15443174
   0.75000000  0.84165337  0.15443174
   0.25000000  0.15834662  0.15443174
   0.58333333  0.15834662  0.15443174
   0.91666667  0.15834662  0.15443174
   0.25000000  0.49167995  0.15443174
   0.58333333  0.49167995  0.15443174
   0.91666667  0.49167995  0.15443174
   0.25000000  0.82501329  0.15443174
   0.58333333  0.82501329  0.15443174
   0.91666667  0.82501329  0.15443174
   0.25000000  0.23924577  0.06314467
   0.58333333  0.23924577  0.06314467
   0.91666667  0.23924577  0.06314467
   0.25000000  0.57257910  0.06314467
   0.58333333  0.57257910  0.06314467
   0.91666667  0.57257910  0.06314467
   0.25000000  0.90591244  0.06314467
   0.58333333  0.90591244  0.06314467
   0.91666667  0.90591244  0.06314467
   0.08333333  0.09408756  0.06314467
   0.41666667  0.09408756  0.06314467
   0.75000000  0.09408756  0.06314467
   0.08333333  0.42742090  0.06314467
   0.41666667  0.42742090  0.06314467
   0.75000000  0.42742090  0.06314467
   0.08333333  0.76075423  0.06314467
   0.41666667  0.76075423  0.06314467
   0.75000000  0.76075423  0.06314467
   0.25000000  0.23924577  0.24571881
   0.58333333  0.23924577  0.24571881
   0.91666667  0.23924577  0.24571881
   0.25000000  0.57257910  0.24571881
   0.58333333  0.57257910  0.24571881
   0.91666667  0.57257910  0.24571881
   0.25000000  0.90591244  0.24571881
   0.58333333  0.90591244  0.24571881
   0.91666667  0.90591244  0.24571881
   0.08333333  0.09408756  0.24571881
   0.41666667  0.09408756  0.24571881
   0.75000000  0.09408756  0.24571881
   0.08333333  0.42742090  0.24571881
   0.41666667  0.42742090  0.24571881
   0.75000000  0.42742090  0.24571881
   0.08333333  0.76075423  0.24571881
   0.41666667  0.76075423  0.24571881
   0.75000000  0.76075423  0.24571881
 
 position of ions in cartesian coordinates  (Angst):
   2.98040443  3.90742825  4.02202912
   8.67457992  3.90742825  4.02202912
  14.36875541  3.90742825  4.02202912
   2.98040443 10.04119761  4.02202912
   8.67457992 10.04119761  4.02202912
  14.36875541 10.04119761  4.02202912
   2.98040443 16.17496696  4.02202912
   8.67457992 16.17496696  4.02202912
  14.36875541 16.17496696  4.02202912
   2.71377106  2.22634110  4.02202912
   8.40794656  2.22634110  4.02202912
  14.10212205  2.22634110  4.02202912
   2.71377106  8.36011045  4.02202912
   8.40794656  8.36011045  4.02202912
  14.10212205  8.36011045  4.02202912
   2.71377106 14.49387981  4.02202912
   8.40794656 14.49387981  4.02202912
  14.10212205 14.49387981  4.02202912
   5.56085881  3.90742825  4.02202912
  11.25503430  3.90742825  4.02202912
  16.94920979  3.90742825  4.02202912
   5.56085881 10.04119761  4.02202912
  11.25503430 10.04119761  4.02202912
  16.94920979 10.04119761  4.02202912
   5.56085881 16.17496696  4.02202912
  11.25503430 16.17496696  4.02202912
  16.94920979 16.17496696  4.02202912
   0.13331668  2.22634110  4.02202912
   5.82749218  2.22634110  4.02202912
  11.52166767  2.22634110  4.02202912
   0.13331668  8.36011045  4.02202912
   5.82749218  8.36011045  4.02202912
  11.52166767  8.36011045  4.02202912
   0.13331668 14.49387981  4.02202912
   5.82749218 14.49387981  4.02202912
  11.52166767 14.49387981  4.02202912
   3.40255202  5.52043458  4.01366733
   9.10221208  5.52043458  4.02202912
  14.79638757  5.52043458  4.02202912
   3.40803659 11.65420393  4.02202912
   9.10221208 11.65420393  4.02202912
  14.79638757 11.65420393  4.02202912
   3.40803659 17.78797329  4.02202912
   9.10221208 17.78797329  4.02202912
  14.79638757 17.78797329  4.02202912
   2.28613891  0.61333473  4.02202912
   7.98031440  0.61333473  4.02202912
  13.67448989  0.61333473  4.02202912
   2.28613891  6.74710408  4.02202912
   7.98031440  6.74710408  4.02202912
  13.67448989  6.74710408  4.02202912
   2.28613891 12.88087344  4.02202912
   7.98031440 12.88087344  4.02202912
  13.67448989 12.88087344  4.02202912
   5.13322665  5.52043458  4.02202912
  10.82740214  5.52043458  4.02202912
  16.52157764  5.52043458  4.02202912
   5.13322665 11.65420393  4.02202912
  10.82740214 11.65420393  4.02202912
  16.52157764 11.65420393  4.02202912
   5.13322665 17.78797329  4.02202912
  10.82740214 17.78797329  4.02202912
  16.52157764 17.78797329  4.02202912
   0.56094884  0.61333473  4.02202912
   6.25512433  0.61333473  4.02202912
  11.94929982  0.61333473  4.02202912
   0.56094884  6.74710408  4.02202912
   6.25512433  6.74710408  4.02202912
  11.94929982  6.74710408  4.02202912
   0.56094884 12.88087344  4.02202912
   6.25512433 12.88087344  4.02202912
  11.94929982 12.88087344  4.02202912
   4.27063162  4.48560189  5.21103727
   9.96480711  4.48560189  5.21103727
  15.65898260  4.48560189  5.21103727
   4.27063162 10.61937125  5.21103727
   9.96480711 10.61937125  5.21103727
  15.65898260 10.61937125  5.21103727
   4.27063162 16.75314060  5.21103727
   9.96480711 16.75314060  5.21103727
  15.65898260 16.75314060  5.21103727
   1.42354387  1.64816746  2.83302104
   7.11771936  1.64816746  2.83302104
  12.81189486  1.64816746  2.83302104
   1.42354387  7.78193681  2.83302104
   7.11771936  7.78193681  2.83302104
  12.81189486  7.78193681  2.83302104
   1.42354387 13.91570617  2.83302104
   7.11771936 13.91570617  2.83302104
  12.81189486 13.91570617  2.83302104
   4.27063162  4.48560189  2.83302104
   9.96480711  4.48560189  2.83302104
  15.65898260  4.48560189  2.83302104
   4.27063162 10.61937125  2.83302104
   9.96480711 10.61937125  2.83302104
  15.65898260 10.61937125  2.83302104
   4.27063162 16.75314060  2.83302104
   9.96480711 16.75314060  2.83302104
  15.65898260 16.75314060  2.83302104
   1.42354387  1.64816746  5.21103727
   7.11771936  1.64816746  5.21103727
  12.81189486  1.64816746  5.21103727
   1.42354387  7.78193681  5.21103727
   7.11771936  7.78193681  5.21103727
  12.81189486  7.78193681  5.21103727
   1.42354387 13.91570617  5.21103727
   7.11771936 13.91570617  5.21103727
  12.81189486 13.91570617  5.21103727
   1.42354387  3.21998425  4.02202912
   7.11771936  3.21998425  4.02202912
  12.81189486  3.21998425  4.02202912
   1.42354387  9.35375360  4.02202912
   7.11771936  9.35375360  4.02202912
  12.81189486  9.35375360  4.02202912
   1.42354387 15.48752296  4.02202912
   7.11771936 15.48752296  4.02202912
  12.81189486 15.48752296  4.02202912
   4.27063162  2.91378492  4.02202912
   9.96480711  2.91378492  4.02202912
  15.65898260  2.91378492  4.02202912
   4.27063162  9.04755427  4.02202912
   9.96480711  9.04755427  4.02202912
  15.65898260  9.04755427  4.02202912
   4.27063162 15.18132363  4.02202912
   9.96480711 15.18132363  4.02202912
  15.65898260 15.18132363  4.02202912
   4.27063162  4.40243514  1.64454343
   9.96480711  4.40243514  1.64454343
  15.65898260  4.40243514  1.64454343
   4.27063162 10.53620449  1.64454343
   9.96480711 10.53620449  1.64454343
  15.65898260 10.53620449  1.64454343
   4.27063162 16.66997384  1.64454343
   9.96480711 16.66997384  1.64454343
  15.65898260 16.66997384  1.64454343
   1.42354387  1.73133422  1.64454343
   7.11771936  1.73133422  1.64454343
  12.81189486  1.73133422  1.64454343
   1.42354387  7.86510357  1.64454343
   7.11771936  7.86510357  1.64454343
  12.81189486  7.86510357  1.64454343
   1.42354387 13.99887293  1.64454343
   7.11771936 13.99887293  1.64454343
  12.81189486 13.99887293  1.64454343
   4.27063162  4.40243514  6.39951487
   9.96480711  4.40243514  6.39951487
  15.65898260  4.40243514  6.39951487
   4.27063162 10.53620449  6.39951487
   9.96480711 10.53620449  6.39951487
  15.65898260 10.53620449  6.39951487
   4.27063162 16.66997384  6.39951487
   9.96480711 16.66997384  6.39951487
  15.65898260 16.66997384  6.39951487
   1.42354387  1.73133422  6.39951487
   7.11771936  1.73133422  6.39951487
  12.81189486  1.73133422  6.39951487
   1.42354387  7.86510357  6.39951487
   7.11771936  7.86510357  6.39951487
  12.81189486  7.86510357  6.39951487
   1.42354387 13.99887293  6.39951487
   7.11771936 13.99887293  6.39951487
  12.81189486 13.99887293  6.39951487
 


--------------------------------------------------------------------------------------------------------


 k-point     1 :   0.1250 0.0000 0.0000  plane waves:  273124
 k-point     2 :   0.3750 0.0000 0.0000  plane waves:  273210
 k-point     3 :   0.1250 0.3333 0.0000  plane waves:  273202
 k-point     4 :   0.1250-0.3333 0.0000  plane waves:  273202
 k-point     5 :   0.3750 0.3333 0.0000  plane waves:  273179
 k-point     6 :   0.3750-0.3333 0.0000  plane waves:  273179

 maximum and minimum number of plane-waves per node :     39094    38975

 maximum number of plane-waves:    273210
 maximum index in each direction: 
   IXMAX=   33   IYMAX=   37   IZMAX=   52
   IXMIN=  -34   IYMIN=  -37   IZMIN=  -52


 real space projection operators:
  total allocation   :      23357.75 KBytes
  max/ min on nodes  :       3343.28       3326.91


 parallel 3D FFT for wavefunctions:
    minimum data exchange during FFTs selected (reduces bandwidth)
 parallel 3D FFT for charge:
    minimum data exchange during FFTs selected (reduces bandwidth)


 total amount of memory used by VASP MPI-rank0   350767. kBytes
=======================================================================

   base                                    :      30000. kBytes
   nonlr-proj                              :      13056. kBytes
   fftplans                                :      48104. kBytes
   grid                                    :      74808. kBytes
   one-center                              :         73. kBytes
   wavefun                                 :     184726. kBytes
 
     INWAV:  cpu time      0.0000: real time      0.0000
 Broyden mixing: mesh for mixing (old mesh)
   NGX = 69   NGY = 73   NGZ =105
  (NGX  =280   NGY  =300   NGZ  =420)
  gives a total of 528885 points

 initial charge density was supplied:
 charge density of overlapping atoms calculated
 number of electron     414.0000000 magnetization 
 keeping initial charge density in first step


--------------------------------------------------------------------------------------------------------


 Maximum index for non-local projection operator          471
 Maximum index for augmentation-charges          489 (set IRDMAX)


--------------------------------------------------------------------------------------------------------


 First call to EWALD:  gamma=   0.088
 Maximum number of real-space cells   3x   3x   2
 Maximum number of reciprocal cells   2x   3x   3

    FEWALD:  cpu time      0.0148: real time      0.0148


--------------------------------------- Ionic step        1  -------------------------------------------




--------------------------------------- Iteration      1(   1)  ---------------------------------------


    POTLOK:  cpu time      0.8711: real time      0.8773
    SETDIJ:  cpu time      0.0049: real time      0.0049
     EDDAV:  cpu time    105.3052: real time    106.6921
       DOS:  cpu time      0.0019: real time      0.0020
    --------------------------------------------
      LOOP:  cpu time    106.1835: real time    107.5767

 eigenvalue-minimisations  :  3744
 total energy-change (2. order) : 0.3314976E+04  (-0.1379210E+05)
 number of electron     414.0000000 magnetization 
 augmentation part      414.0000000 magnetization 

 DIPCOR: dipole corrections for dipol
 direction  3 min pos   275,
 dipolmoment           0.000000      0.000000     -0.000044 electrons x Angstroem
 Tr[quadrupol]    -21764.545217

 energy correction for charged system         0.000000 eV
 dipol+quadrupol energy correction           -0.000000 eV
 added-field ion interaction          0.000022 eV  (added to PSCEN)


 Free energy of the ion-electron system (eV)
  ---------------------------------------------------
  alpha Z        PSCENC =       150.55105673
  Ewald energy   TEWEN  =     73634.07415409
  -Hartree energ DENC   =    -79286.53434535
  -exchange      EXHF   =         0.00000000
  -V(xc)+E(xc)   XCENC  =       952.68159510
  PAW double counting   =      5557.80804139    -5450.35732826
  entropy T*S    EENTRO =        -0.26098980
  eigenvalues    EBANDS =     -1659.92312271
  atomic energy  EATOM  =      9416.93727838
  Solvation  Ediel_sol  =         0.00000000
  ---------------------------------------------------
  free energy    TOTEN  =      3314.97633956 eV

  energy without entropy =     3315.23732937  energy(sigma->0) =     3315.10683446


--------------------------------------------------------------------------------------------------------




--------------------------------------- Iteration      1(   2)  ---------------------------------------


     EDDAV:  cpu time    135.9011: real time    139.3717
       DOS:  cpu time      0.0012: real time      0.0012
    --------------------------------------------
      LOOP:  cpu time    135.9023: real time    139.3729

 eigenvalue-minimisations  :  5244
 total energy-change (2. order) :-0.3723949E+04  (-0.3600059E+04)
 number of electron     414.0000000 magnetization 
 augmentation part      414.0000000 magnetization 

 DIPCOR: dipole corrections for dipol
 direction  3 min pos   275,
 dipolmoment           0.000000      0.000000     -0.000044 electrons x Angstroem
 Tr[quadrupol]    -21764.545217

 energy correction for charged system         0.000000 eV
 dipol+quadrupol energy correction           -0.000000 eV
 added-field ion interaction          0.000022 eV  (added to PSCEN)


 Free energy of the ion-electron system (eV)
  ---------------------------------------------------
  alpha Z        PSCENC =       150.55105673
  Ewald energy   TEWEN  =     73634.07415409
  -Hartree energ DENC   =    -79286.53434535
  -exchange      EXHF   =         0.00000000
  -V(xc)+E(xc)   XCENC  =       952.68159510
  PAW double counting   =      5557.80804139    -5450.35732826
  entropy T*S    EENTRO =        -0.14683431
  eigenvalues    EBANDS =     -5383.98652063
  atomic energy  EATOM  =      9416.93727838
  Solvation  Ediel_sol  =         0.00000000
  ---------------------------------------------------
  free energy    TOTEN  =      -408.97290286 eV

  energy without entropy =     -408.82606855  energy(sigma->0) =     -408.89948571


--------------------------------------------------------------------------------------------------------




--------------------------------------- Iteration      1(   3)  ---------------------------------------


     EDDAV:  cpu time    117.8076: real time    120.7861
       DOS:  cpu time      0.0022: real time      0.0022
    --------------------------------------------
      LOOP:  cpu time    117.8098: real time    120.7882

 eigenvalue-minimisations  :  4404
 total energy-change (2. order) :-0.5951476E+03  (-0.5898061E+03)
 number of electron     414.0000000 magnetization 
 augmentation part      414.0000000 magnetization 

 DIPCOR: dipole corrections for dipol
 direction  3 min pos   275,
 dipolmoment           0.000000      0.000000     -0.000044 electrons x Angstroem
 Tr[quadrupol]    -21764.545217

 energy correction for charged system         0.000000 eV
 dipol+quadrupol energy correction           -0.000000 eV
 added-field ion interaction          0.000022 eV  (added to PSCEN)


 Free energy of the ion-electron system (eV)
  ---------------------------------------------------
  alpha Z        PSCENC =       150.55105673
  Ewald energy   TEWEN  =     73634.07415409
  -Hartree energ DENC   =    -79286.53434535
  -exchange      EXHF   =         0.00000000
  -V(xc)+E(xc)   XCENC  =       952.68159510
  PAW double counting   =      5557.80804139    -5450.35732826
  entropy T*S    EENTRO =        -0.25667952
  eigenvalues    EBANDS =     -5979.02423722
  atomic energy  EATOM  =      9416.93727838
  Solvation  Ediel_sol  =         0.00000000
  ---------------------------------------------------
  free energy    TOTEN  =     -1004.12046467 eV

  energy without entropy =    -1003.86378514  energy(sigma->0) =    -1003.99212491


--------------------------------------------------------------------------------------------------------




--------------------------------------- Iteration      1(   4)  ---------------------------------------


     EDDAV:  cpu time    118.6499: real time    120.3218
       DOS:  cpu time      0.0026: real time      0.0026
    --------------------------------------------
      LOOP:  cpu time    118.6525: real time    120.3244

 eigenvalue-minimisations  :  4416
 total energy-change (2. order) :-0.1916104E+02  (-0.1903081E+02)
 number of electron     414.0000000 magnetization 
 augmentation part      414.0000000 magnetization 

 DIPCOR: dipole corrections for dipol
 direction  3 min pos   275,
 dipolmoment           0.000000      0.000000     -0.000044 electrons x Angstroem
 Tr[quadrupol]    -21764.545217

 energy correction for charged system         0.000000 eV
 dipol+quadrupol energy correction           -0.000000 eV
 added-field ion interaction          0.000022 eV  (added to PSCEN)


 Free energy of the ion-electron system (eV)
  ---------------------------------------------------
  alpha Z        PSCENC =       150.55105673
  Ewald energy   TEWEN  =     73634.07415409
  -Hartree energ DENC   =    -79286.53434535
  -exchange      EXHF   =         0.00000000
  -V(xc)+E(xc)   XCENC  =       952.68159510
  PAW double counting   =      5557.80804139    -5450.35732826
  entropy T*S    EENTRO =        -0.24779158
  eigenvalues    EBANDS =     -5998.19416544
  atomic energy  EATOM  =      9416.93727838
  Solvation  Ediel_sol  =         0.00000000
  ---------------------------------------------------
  free energy    TOTEN  =     -1023.28150495 eV

  energy without entropy =    -1023.03371337  energy(sigma->0) =    -1023.15760916


--------------------------------------------------------------------------------------------------------




--------------------------------------- Iteration      1(   5)  ---------------------------------------


     EDDAV:  cpu time    126.9330: real time    127.9795
       DOS:  cpu time      0.0063: real time      0.0063
    CHARGE:  cpu time      6.7856: real time      6.8315
    MIXING:  cpu time      0.0224: real time      0.0226
    --------------------------------------------
      LOOP:  cpu time    133.7471: real time    134.8397

 eigenvalue-minimisations  :  4740
 total energy-change (2. order) :-0.5203202E+00  (-0.5190337E+00)
 number of electron     413.9999996 magnetization 
 augmentation part       -0.2797510 magnetization 

 DIPCOR: dipole corrections for dipol
 direction  3 min pos   275,
 dipolmoment           0.000000      0.000000     -0.000044 electrons x Angstroem
 Tr[quadrupol]    -21764.545217

 energy correction for charged system         0.000000 eV
 dipol+quadrupol energy correction           -0.000000 eV
 added-field ion interaction          0.000022 eV  (added to PSCEN)


 Broyden mixing:
  rms(total) = 0.42256E+01    rms(broyden)= 0.42256E+01
  rms(prec ) = 0.45061E+01
  weight for this iteration     100.00

 Free energy of the ion-electron system (eV)
  ---------------------------------------------------
  alpha Z        PSCENC =       150.55105673
  Ewald energy   TEWEN  =     73634.07415409
  -Hartree energ DENC   =    -79286.53434535
  -exchange      EXHF   =         0.00000000
  -V(xc)+E(xc)   XCENC  =       952.68159510
  PAW double counting   =      5557.80804139    -5450.35732826
  entropy T*S    EENTRO =        -0.24700209
  eigenvalues    EBANDS =     -5998.71527517
  atomic energy  EATOM  =      9416.93727838
  Solvation  Ediel_sol  =         0.00000000
  ---------------------------------------------------
  free energy    TOTEN  =     -1023.80182519 eV

  energy without entropy =    -1023.55482310  energy(sigma->0) =    -1023.67832414


--------------------------------------------------------------------------------------------------------




--------------------------------------- Iteration      1(   6)  ---------------------------------------


    POTLOK:  cpu time      0.8722: real time      0.8783
    SETDIJ:  cpu time      0.0096: real time      0.0097
     EDDAV:  cpu time    111.4887: real time    112.5238
       DOS:  cpu time      0.0045: real time      0.0045
    CHARGE:  cpu time      6.7637: real time      6.8218
    MIXING:  cpu time      0.0205: real time      0.0207
    --------------------------------------------
      LOOP:  cpu time    119.1594: real time    120.2589

 eigenvalue-minimisations  :  3972
 total energy-change (2. order) : 0.6007702E+02  (-0.6012103E+01)
 number of electron     413.9999996 magnetization 
 augmentation part       -0.4560148 magnetization 

 DIPCOR: dipole corrections for dipol
 direction  3 min pos   275,
 dipolmoment           0.000000      0.000000     -0.002944 electrons x Angstroem
 Tr[quadrupol]    -21773.969327

 energy correction for charged system         0.000000 eV
 dipol+quadrupol energy correction           -0.000000 eV
 added-field ion interaction          0.001448 eV  (added to PSCEN)


 Broyden mixing:
  rms(total) = 0.23671E+01    rms(broyden)= 0.23671E+01
  rms(prec ) = 0.25142E+01
  weight for this iteration     100.00

 eigenvalues of (default mixing * dielectric matrix)
  average eigenvalue GAMMA=   2.1393
  2.1393

 Free energy of the ion-electron system (eV)
  ---------------------------------------------------
  alpha Z        PSCENC =       150.55248338
  Ewald energy   TEWEN  =     73634.07415409
  -Hartree energ DENC   =    -79825.08054996
  -exchange      EXHF   =         0.00000000
  -V(xc)+E(xc)   XCENC  =       972.49744723
  PAW double counting   =     13996.51348345   -13895.25698085
  entropy T*S    EENTRO =        -0.19216830
  eigenvalues    EBANDS =     -5413.76995568
  atomic energy  EATOM  =      9416.93727838
  Solvation  Ediel_sol  =         0.00000000
  ---------------------------------------------------
  free energy    TOTEN  =      -963.72480827 eV

  energy without entropy =     -963.53263997  energy(sigma->0) =     -963.62872412


--------------------------------------------------------------------------------------------------------




--------------------------------------- Iteration      1(   7)  ---------------------------------------


    POTLOK:  cpu time      0.8708: real time      0.8780
    SETDIJ:  cpu time      0.0104: real time      0.0104
     EDDAV:  cpu time    114.7112: real time    115.6736
       DOS:  cpu time      0.0068: real time      0.0070
    CHARGE:  cpu time      6.7715: real time      6.8236
    MIXING:  cpu time      0.0261: real time      0.0262
    --------------------------------------------
      LOOP:  cpu time    122.3967: real time    123.4187

 eigenvalue-minimisations  :  4188
 total energy-change (2. order) : 0.2330492E+02  (-0.7114199E+01)
 number of electron     413.9999996 magnetization 
 augmentation part       -0.6870505 magnetization 

 DIPCOR: dipole corrections for dipol
 direction  3 min pos   275,
 dipolmoment           0.000000      0.000000     -0.003727 electrons x Angstroem
 Tr[quadrupol]    -21788.638945

 energy correction for charged system         0.000000 eV
 dipol+quadrupol energy correction           -0.000000 eV
 added-field ion interaction          0.001834 eV  (added to PSCEN)


 Broyden mixing:
  rms(total) = 0.48516E+00    rms(broyden)= 0.48516E+00
  rms(prec ) = 0.53273E+00
  weight for this iteration     100.00

 eigenvalues of (default mixing * dielectric matrix)
  average eigenvalue GAMMA=   1.8708
  1.6478  2.0939

 Free energy of the ion-electron system (eV)
  ---------------------------------------------------
  alpha Z        PSCENC =       150.55286841
  Ewald energy   TEWEN  =     73634.07415409
  -Hartree energ DENC   =    -80544.84618646
  -exchange      EXHF   =         0.00000000
  -V(xc)+E(xc)   XCENC  =      1001.58935193
  PAW double counting   =     30966.45527989   -30871.33925054
  entropy T*S    EENTRO =        -0.20867978
  eigenvalues    EBANDS =     -4693.63470781
  atomic energy  EATOM  =      9416.93727838
  Solvation  Ediel_sol  =         0.00000000
  ---------------------------------------------------
  free energy    TOTEN  =      -940.41989190 eV

  energy without entropy =     -940.21121211  energy(sigma->0) =     -940.31555201


--------------------------------------------------------------------------------------------------------




--------------------------------------- Iteration      1(   8)  ---------------------------------------


    POTLOK:  cpu time      0.8656: real time      0.8714
    SETDIJ:  cpu time      0.0115: real time      0.0115
     EDDAV:  cpu time    119.1354: real time    120.0964
       DOS:  cpu time      0.0100: real time      0.0100
    CHARGE:  cpu time      6.8441: real time      6.9030
    MIXING:  cpu time      0.0234: real time      0.0235
    --------------------------------------------
      LOOP:  cpu time    126.8900: real time    127.9158

 eigenvalue-minimisations  :  4404
 total energy-change (2. order) : 0.2713776E+00  (-0.5366308E+00)
 number of electron     413.9999996 magnetization 
 augmentation part       -0.7534651 magnetization 

 DIPCOR: dipole corrections for dipol
 direction  3 min pos   275,
 dipolmoment           0.000000      0.000000     -0.000682 electrons x Angstroem
 Tr[quadrupol]    -21794.141821

 energy correction for charged system         0.000000 eV
 dipol+quadrupol energy correction           -0.000000 eV
 added-field ion interaction          0.000335 eV  (added to PSCEN)


 Broyden mixing:
  rms(total) = 0.21853E+00    rms(broyden)= 0.21853E+00
  rms(prec ) = 0.26150E+00
  weight for this iteration     100.00

 eigenvalues of (default mixing * dielectric matrix)
  average eigenvalue GAMMA=   1.8793
  1.2778  2.5077  1.8524

 Free energy of the ion-electron system (eV)
  ---------------------------------------------------
  alpha Z        PSCENC =       150.55137040
  Ewald energy   TEWEN  =     73634.07415409
  -Hartree energ DENC   =    -80654.26391197
  -exchange      EXHF   =         0.00000000
  -V(xc)+E(xc)   XCENC  =      1004.68302720
  PAW double counting   =     33660.35611279   -33564.69946890
  entropy T*S    EENTRO =        -0.19606204
  eigenvalues    EBANDS =     -4587.59101423
  atomic energy  EATOM  =      9416.93727838
  Solvation  Ediel_sol  =         0.00000000
  ---------------------------------------------------
  free energy    TOTEN  =      -940.14851429 eV

  energy without entropy =     -939.95245224  energy(sigma->0) =     -940.05048327


--------------------------------------------------------------------------------------------------------




--------------------------------------- Iteration      1(   9)  ---------------------------------------


    POTLOK:  cpu time      0.8695: real time      0.8754
    SETDIJ:  cpu time      0.0089: real time      0.0089
     EDDAV:  cpu time    117.6417: real time    118.7153
       DOS:  cpu time      0.0048: real time      0.0050
    CHARGE:  cpu time      6.8113: real time      6.8846
    MIXING:  cpu time      0.0248: real time      0.0252
    --------------------------------------------
      LOOP:  cpu time    125.3610: real time    126.5144

 eigenvalue-minimisations  :  4344
 total energy-change (2. order) : 0.2818278E+00  (-0.6830910E-01)
 number of electron     413.9999996 magnetization 
 augmentation part       -0.7533821 magnetization 

 DIPCOR: dipole corrections for dipol
 direction  3 min pos   275,
 dipolmoment           0.000000      0.000000      0.002323 electrons x Angstroem
 Tr[quadrupol]    -21799.402678

 energy correction for charged system         0.000000 eV
 dipol+quadrupol energy correction           -0.000000 eV
 added-field ion interaction         -0.001143 eV  (added to PSCEN)


 Broyden mixing:
  rms(total) = 0.10845E+00    rms(broyden)= 0.10845E+00
  rms(prec ) = 0.16922E+00
  weight for this iteration     100.00

 eigenvalues of (default mixing * dielectric matrix)
  average eigenvalue GAMMA=   1.6549
  2.4489  2.1403  1.3023  0.7281

 Free energy of the ion-electron system (eV)
  ---------------------------------------------------
  alpha Z        PSCENC =       150.54989204
  Ewald energy   TEWEN  =     73634.07415409
  -Hartree energ DENC   =    -80773.39040099
  -exchange      EXHF   =         0.00000000
  -V(xc)+E(xc)   XCENC  =      1007.78247694
  PAW double counting   =     35173.31207352   -35077.48397934
  entropy T*S    EENTRO =        -0.19260195
  eigenvalues    EBANDS =     -4471.45557917
  atomic energy  EATOM  =      9416.93727838
  Solvation  Ediel_sol  =         0.00000000
  ---------------------------------------------------
  free energy    TOTEN  =      -939.86668648 eV

  energy without entropy =     -939.67408452  energy(sigma->0) =     -939.77038550


--------------------------------------------------------------------------------------------------------




--------------------------------------- Iteration      1(  10)  ---------------------------------------


    POTLOK:  cpu time      0.8570: real time      0.8637
    SETDIJ:  cpu time      0.0098: real time      0.0098
     EDDAV:  cpu time    119.2764: real time    120.2021
       DOS:  cpu time      0.0071: real time      0.0072
    CHARGE:  cpu time      6.8418: real time      6.9163
    MIXING:  cpu time      0.0251: real time      0.0255
    --------------------------------------------
      LOOP:  cpu time    127.0172: real time    128.0246

 eigenvalue-minimisations  :  4416
 total energy-change (2. order) : 0.7405278E-01  (-0.3120116E-01)
 number of electron     413.9999996 magnetization 
 augmentation part       -0.7513382 magnetization 

 DIPCOR: dipole corrections for dipol
 direction  3 min pos   275,
 dipolmoment           0.000000      0.000000      0.003755 electrons x Angstroem
 Tr[quadrupol]    -21801.434019

 energy correction for charged system         0.000000 eV
 dipol+quadrupol energy correction           -0.000000 eV
 added-field ion interaction         -0.001847 eV  (added to PSCEN)


 Broyden mixing:
  rms(total) = 0.70307E-01    rms(broyden)= 0.70307E-01
  rms(prec ) = 0.11344E+00
  weight for this iteration     100.00

 eigenvalues of (default mixing * dielectric matrix)
  average eigenvalue GAMMA=   1.4958
  2.3731  2.3731  1.1762  1.1104  0.4463

 Free energy of the ion-electron system (eV)
  ---------------------------------------------------
  alpha Z        PSCENC =       150.54918762
  Ewald energy   TEWEN  =     73634.07415409
  -Hartree energ DENC   =    -80812.67662147
  -exchange      EXHF   =         0.00000000
  -V(xc)+E(xc)   XCENC  =      1008.39599708
  PAW double counting   =     35227.25884725   -35131.32143455
  entropy T*S    EENTRO =        -0.19475161
  eigenvalues    EBANDS =     -4432.81529048
  atomic energy  EATOM  =      9416.93727838
  Solvation  Ediel_sol  =         0.00000000
  ---------------------------------------------------
  free energy    TOTEN  =      -939.79263369 eV

  energy without entropy =     -939.59788208  energy(sigma->0) =     -939.69525789


--------------------------------------------------------------------------------------------------------




--------------------------------------- Iteration      1(  11)  ---------------------------------------


    POTLOK:  cpu time      0.8576: real time      0.8669
    SETDIJ:  cpu time      0.0096: real time      0.0096
     EDDAV:  cpu time    119.1323: real time    120.1389
       DOS:  cpu time      0.0060: real time      0.0060
    CHARGE:  cpu time      6.8280: real time      6.8995
    MIXING:  cpu time      0.0270: real time      0.0273
    --------------------------------------------
      LOOP:  cpu time    126.8604: real time    127.9482

 eigenvalue-minimisations  :  4392
 total energy-change (2. order) : 0.3061349E-01  (-0.6200856E-02)
 number of electron     413.9999996 magnetization 
 augmentation part       -0.7498791 magnetization 

 DIPCOR: dipole corrections for dipol
 direction  3 min pos   275,
 dipolmoment           0.000000      0.000000      0.005299 electrons x Angstroem
 Tr[quadrupol]    -21803.292347

 energy correction for charged system         0.000000 eV
 dipol+quadrupol energy correction           -0.000000 eV
 added-field ion interaction         -0.002607 eV  (added to PSCEN)


 Broyden mixing:
  rms(total) = 0.42853E-01    rms(broyden)= 0.42853E-01
  rms(prec ) = 0.76225E-01
  weight for this iteration     100.00

 eigenvalues of (default mixing * dielectric matrix)
  average eigenvalue GAMMA=   1.5429
  2.5841  2.5841  1.3767  1.3767  0.9149  0.4210

 Free energy of the ion-electron system (eV)
  ---------------------------------------------------
  alpha Z        PSCENC =       150.54842747
  Ewald energy   TEWEN  =     73634.07415409
  -Hartree energ DENC   =    -80845.27967190
  -exchange      EXHF   =         0.00000000
  -V(xc)+E(xc)   XCENC  =      1008.61247185
  PAW double counting   =     34992.09478345   -34896.06400727
  entropy T*S    EENTRO =        -0.19426896
  eigenvalues    EBANDS =     -4400.49118732
  atomic energy  EATOM  =      9416.93727838
  Solvation  Ediel_sol  =         0.00000000
  ---------------------------------------------------
  free energy    TOTEN  =      -939.76202020 eV

  energy without entropy =     -939.56775125  energy(sigma->0) =     -939.66488572


--------------------------------------------------------------------------------------------------------




--------------------------------------- Iteration      1(  12)  ---------------------------------------


    POTLOK:  cpu time      0.8748: real time      0.8842
    SETDIJ:  cpu time      0.0081: real time      0.0084
     EDDAV:  cpu time    118.5097: real time    119.4337
       DOS:  cpu time      0.0071: real time      0.0071
    CHARGE:  cpu time      6.7653: real time      6.8263
    MIXING:  cpu time      0.0238: real time      0.0240
    --------------------------------------------
      LOOP:  cpu time    126.1888: real time    127.1837

 eigenvalue-minimisations  :  4368
 total energy-change (2. order) : 0.2608150E-01  (-0.7830666E-02)
 number of electron     413.9999996 magnetization 
 augmentation part       -0.7486395 magnetization 

 DIPCOR: dipole corrections for dipol
 direction  3 min pos   275,
 dipolmoment           0.000000      0.000000      0.007479 electrons x Angstroem
 Tr[quadrupol]    -21806.052814

 energy correction for charged system         0.000000 eV
 dipol+quadrupol energy correction           -0.000001 eV
 added-field ion interaction         -0.003680 eV  (added to PSCEN)


 Broyden mixing:
  rms(total) = 0.32470E-01    rms(broyden)= 0.32470E-01
  rms(prec ) = 0.59152E-01
  weight for this iteration     100.00

 eigenvalues of (default mixing * dielectric matrix)
  average eigenvalue GAMMA=   1.5654
  3.3576  2.5558  1.7847  1.3129  1.0248  0.5074  0.4147

 Free energy of the ion-electron system (eV)
  ---------------------------------------------------
  alpha Z        PSCENC =       150.54735483
  Ewald energy   TEWEN  =     73634.07415409
  -Hartree energ DENC   =    -80897.60046489
  -exchange      EXHF   =         0.00000000
  -V(xc)+E(xc)   XCENC  =      1009.20530676
  PAW double counting   =     34899.99114700   -34803.90547663
  entropy T*S    EENTRO =        -0.19210395
  eigenvalues    EBANDS =     -4348.79313429
  atomic energy  EATOM  =      9416.93727838
  Solvation  Ediel_sol  =         0.00000000
  ---------------------------------------------------
  free energy    TOTEN  =      -939.73593870 eV

  energy without entropy =     -939.54383475  energy(sigma->0) =     -939.63988672


--------------------------------------------------------------------------------------------------------




--------------------------------------- Iteration      1(  13)  ---------------------------------------


    POTLOK:  cpu time      0.8752: real time      0.8858
    SETDIJ:  cpu time      0.0051: real time      0.0051
     EDDAV:  cpu time    115.7953: real time    116.7280
       DOS:  cpu time      0.0048: real time      0.0048
    CHARGE:  cpu time      6.9337: real time      6.9834
    MIXING:  cpu time      0.0285: real time      0.0286
    --------------------------------------------
      LOOP:  cpu time    123.6425: real time    124.6358

 eigenvalue-minimisations  :  4236
 total energy-change (2. order) : 0.9578516E-02  (-0.5866764E-02)
 number of electron     413.9999995 magnetization 
 augmentation part       -0.7489341 magnetization 

 DIPCOR: dipole corrections for dipol
 direction  3 min pos   275,
 dipolmoment           0.000000      0.000000      0.009785 electrons x Angstroem
 Tr[quadrupol]    -21809.137745

 energy correction for charged system         0.000000 eV
 dipol+quadrupol energy correction           -0.000001 eV
 added-field ion interaction         -0.004814 eV  (added to PSCEN)


 Broyden mixing:
  rms(total) = 0.19698E-01    rms(broyden)= 0.19698E-01
  rms(prec ) = 0.32242E-01
  weight for this iteration     100.00

 eigenvalues of (default mixing * dielectric matrix)
  average eigenvalue GAMMA=   1.5701
  3.5391  2.5571  1.8857  1.3516  1.3516  0.9564  0.5070  0.4128

 Free energy of the ion-electron system (eV)
  ---------------------------------------------------
  alpha Z        PSCENC =       150.54621987
  Ewald energy   TEWEN  =     73634.07415409
  -Hartree energ DENC   =    -80956.74812418
  -exchange      EXHF   =         0.00000000
  -V(xc)+E(xc)   XCENC  =      1009.91509099
  PAW double counting   =     34874.67220993   -34778.55725203
  entropy T*S    EENTRO =        -0.19060223
  eigenvalues    EBANDS =     -4290.37533500
  atomic energy  EATOM  =      9416.93727838
  Solvation  Ediel_sol  =         0.00000000
  ---------------------------------------------------
  free energy    TOTEN  =      -939.72636018 eV

  energy without entropy =     -939.53575795  energy(sigma->0) =     -939.63105906


--------------------------------------------------------------------------------------------------------




--------------------------------------- Iteration      1(  14)  ---------------------------------------


    POTLOK:  cpu time      0.8928: real time      0.9003
    SETDIJ:  cpu time      0.0104: real time      0.0105
     EDDAV:  cpu time    111.7551: real time    112.6601
       DOS:  cpu time      0.0055: real time      0.0055
    CHARGE:  cpu time      6.8654: real time      6.9116
    MIXING:  cpu time      0.0275: real time      0.0277
    --------------------------------------------
      LOOP:  cpu time    119.5568: real time    120.5158

 eigenvalue-minimisations  :  4056
 total energy-change (2. order) :-0.1261651E-01  (-0.1410199E-02)
 number of electron     413.9999995 magnetization 
 augmentation part       -0.7502295 magnetization 

 DIPCOR: dipole corrections for dipol
 direction  3 min pos   275,
 dipolmoment           0.000000      0.000000      0.010324 electrons x Angstroem
 Tr[quadrupol]    -21810.314455

 energy correction for charged system         0.000000 eV
 dipol+quadrupol energy correction           -0.000001 eV
 added-field ion interaction         -0.005079 eV  (added to PSCEN)


 Broyden mixing:
  rms(total) = 0.14505E-01    rms(broyden)= 0.14505E-01
  rms(prec ) = 0.24841E-01
  weight for this iteration     100.00

 eigenvalues of (default mixing * dielectric matrix)
  average eigenvalue GAMMA=   1.6312
  4.2774  2.5885  2.2891  1.7214  1.3009  1.0027  0.5449  0.5449  0.4109

 Free energy of the ion-electron system (eV)
  ---------------------------------------------------
  alpha Z        PSCENC =       150.54595450
  Ewald energy   TEWEN  =     73634.07415409
  -Hartree energ DENC   =    -80977.55921947
  -exchange      EXHF   =         0.00000000
  -V(xc)+E(xc)   XCENC  =      1010.01306937
  PAW double counting   =     34850.32414957   -34754.21936574
  entropy T*S    EENTRO =        -0.19060488
  eigenvalues    EBANDS =     -4269.66439253
  atomic energy  EATOM  =      9416.93727838
  Solvation  Ediel_sol  =         0.00000000
  ---------------------------------------------------
  free energy    TOTEN  =      -939.73897670 eV

  energy without entropy =     -939.54837182  energy(sigma->0) =     -939.64367426


--------------------------------------------------------------------------------------------------------




--------------------------------------- Iteration      1(  15)  ---------------------------------------


    POTLOK:  cpu time      0.8700: real time      0.8758
    SETDIJ:  cpu time      0.0121: real time      0.0121
     EDDAV:  cpu time    114.0292: real time    114.9731
       DOS:  cpu time      0.0049: real time      0.0050
    CHARGE:  cpu time      7.1632: real time      7.2144
    MIXING:  cpu time      0.0334: real time      0.0336
    --------------------------------------------
      LOOP:  cpu time    122.1128: real time    123.1140

 eigenvalue-minimisations  :  4044
 total energy-change (2. order) :-0.1037541E-01  (-0.6763168E-03)
 number of electron     413.9999995 magnetization 
 augmentation part       -0.7504018 magnetization 

 DIPCOR: dipole corrections for dipol
 direction  3 min pos   275,
 dipolmoment           0.000000      0.000000      0.010601 electrons x Angstroem
 Tr[quadrupol]    -21811.579876

 energy correction for charged system         0.000000 eV
 dipol+quadrupol energy correction           -0.000001 eV
 added-field ion interaction         -0.005216 eV  (added to PSCEN)


 Broyden mixing:
  rms(total) = 0.96236E-02    rms(broyden)= 0.96236E-02
  rms(prec ) = 0.16178E-01
  weight for this iteration     100.00

 eigenvalues of (default mixing * dielectric matrix)
  average eigenvalue GAMMA=   1.6258
  4.9923  2.5889  2.4231  1.7198  1.2662  1.0132  0.7083  0.6404  0.4126  0.4927

 Free energy of the ion-electron system (eV)
  ---------------------------------------------------
  alpha Z        PSCENC =       150.54581815
  Ewald energy   TEWEN  =     73634.07415409
  -Hartree energ DENC   =    -80999.82651525
  -exchange      EXHF   =         0.00000000
  -V(xc)+E(xc)   XCENC  =      1010.08691548
  PAW double counting   =     34818.68000209   -34722.57810954
  entropy T*S    EENTRO =        -0.19053189
  eigenvalues    EBANDS =     -4247.47836361
  atomic energy  EATOM  =      9416.93727838
  Solvation  Ediel_sol  =         0.00000000
  ---------------------------------------------------
  free energy    TOTEN  =      -939.74935211 eV

  energy without entropy =     -939.55882021  energy(sigma->0) =     -939.65408616


--------------------------------------------------------------------------------------------------------




--------------------------------------- Iteration      1(  16)  ---------------------------------------


    POTLOK:  cpu time      0.9082: real time      0.9146
    SETDIJ:  cpu time      0.0088: real time      0.0088
     EDDAV:  cpu time    104.7924: real time    105.6813
       DOS:  cpu time      0.0047: real time      0.0047
    CHARGE:  cpu time      6.7352: real time      6.8096
    MIXING:  cpu time      0.0306: real time      0.0308
    --------------------------------------------
      LOOP:  cpu time    112.4799: real time    113.4498

 eigenvalue-minimisations  :  4152
 total energy-change (2. order) :-0.5005473E-02  (-0.2066527E-03)
 number of electron     413.9999995 magnetization 
 augmentation part       -0.7502460 magnetization 

 DIPCOR: dipole corrections for dipol
 direction  3 min pos   275,
 dipolmoment           0.000000      0.000000      0.010286 electrons x Angstroem
 Tr[quadrupol]    -21812.104621

 energy correction for charged system         0.000000 eV
 dipol+quadrupol energy correction           -0.000001 eV
 added-field ion interaction         -0.005060 eV  (added to PSCEN)


 Broyden mixing:
  rms(total) = 0.73986E-02    rms(broyden)= 0.73986E-02
  rms(prec ) = 0.11913E-01
  weight for this iteration     100.00

 eigenvalues of (default mixing * dielectric matrix)
  average eigenvalue GAMMA=   1.5907
  5.3098  2.5234  2.5234  1.6669  1.2958  0.9483  0.9483  0.8884  0.5287  0.4127
  0.4515

 Free energy of the ion-electron system (eV)
  ---------------------------------------------------
  alpha Z        PSCENC =       150.54597337
  Ewald energy   TEWEN  =     73634.07415409
  -Hartree energ DENC   =    -81009.66128843
  -exchange      EXHF   =         0.00000000
  -V(xc)+E(xc)   XCENC  =      1010.10901988
  PAW double counting   =     34810.64729967   -34714.54305567
  entropy T*S    EENTRO =        -0.19032850
  eigenvalues    EBANDS =     -4237.67341037
  atomic energy  EATOM  =      9416.93727838
  Solvation  Ediel_sol  =         0.00000000
  ---------------------------------------------------
  free energy    TOTEN  =      -939.75435758 eV

  energy without entropy =     -939.56402908  energy(sigma->0) =     -939.65919333


--------------------------------------------------------------------------------------------------------




--------------------------------------- Iteration      1(  17)  ---------------------------------------


    POTLOK:  cpu time      0.8708: real time      0.8772
    SETDIJ:  cpu time      0.0046: real time      0.0046
     EDDAV:  cpu time    111.9631: real time    112.8396
       DOS:  cpu time      0.0030: real time      0.0030
    CHARGE:  cpu time      6.8307: real time      6.8829
    MIXING:  cpu time      0.0279: real time      0.0282
    --------------------------------------------
      LOOP:  cpu time    119.7001: real time    120.6355

 eigenvalue-minimisations  :  4092
 total energy-change (2. order) :-0.6013421E-02  (-0.9825365E-04)
 number of electron     413.9999995 magnetization 
 augmentation part       -0.7501110 magnetization 

 DIPCOR: dipole corrections for dipol
 direction  3 min pos   275,
 dipolmoment           0.000000      0.000000      0.009612 electrons x Angstroem
 Tr[quadrupol]    -21812.354884

 energy correction for charged system         0.000000 eV
 dipol+quadrupol energy correction           -0.000001 eV
 added-field ion interaction         -0.004729 eV  (added to PSCEN)


 Broyden mixing:
  rms(total) = 0.50683E-02    rms(broyden)= 0.50683E-02
  rms(prec ) = 0.84746E-02
  weight for this iteration     100.00

 eigenvalues of (default mixing * dielectric matrix)
  average eigenvalue GAMMA=   1.7182
  6.2905  2.9274  2.5423  1.8688  1.8688  1.1460  1.1460  0.9073  0.5874  0.5026
  0.4109  0.4202

 Free energy of the ion-electron system (eV)
  ---------------------------------------------------
  alpha Z        PSCENC =       150.54630490
  Ewald energy   TEWEN  =     73634.07415409
  -Hartree energ DENC   =    -81015.08098378
  -exchange      EXHF   =         0.00000000
  -V(xc)+E(xc)   XCENC  =      1010.11121577
  PAW double counting   =     34813.87647957   -34717.77067846
  entropy T*S    EENTRO =        -0.19018097
  eigenvalues    EBANDS =     -4232.26396051
  atomic energy  EATOM  =      9416.93727838
  Solvation  Ediel_sol  =         0.00000000
  ---------------------------------------------------
  free energy    TOTEN  =      -939.76037100 eV

  energy without entropy =     -939.57019003  energy(sigma->0) =     -939.66528052


--------------------------------------------------------------------------------------------------------




--------------------------------------- Iteration      1(  18)  ---------------------------------------


    POTLOK:  cpu time      0.8890: real time      0.8973
    SETDIJ:  cpu time      0.0069: real time      0.0069
     EDDAV:  cpu time    108.8099: real time    109.6973
       DOS:  cpu time      0.0053: real time      0.0053
    CHARGE:  cpu time      6.8524: real time      6.8970
    MIXING:  cpu time      0.0296: real time      0.0298
    --------------------------------------------
      LOOP:  cpu time    116.5931: real time    117.5336

 eigenvalue-minimisations  :  3948
 total energy-change (2. order) :-0.1259133E-01  (-0.1276147E-03)
 number of electron     413.9999995 magnetization 
 augmentation part       -0.7501263 magnetization 

 DIPCOR: dipole corrections for dipol
 direction  3 min pos   275,
 dipolmoment           0.000000      0.000000      0.007609 electrons x Angstroem
 Tr[quadrupol]    -21812.693685

 energy correction for charged system         0.000000 eV
 dipol+quadrupol energy correction           -0.000001 eV
 added-field ion interaction         -0.003744 eV  (added to PSCEN)


 Broyden mixing:
  rms(total) = 0.28057E-02    rms(broyden)= 0.28057E-02
  rms(prec ) = 0.44683E-02
  weight for this iteration     100.00

 eigenvalues of (default mixing * dielectric matrix)
  average eigenvalue GAMMA=   1.7627
  6.8412  3.4202  2.3816  2.3816  1.6533  1.2258  1.0715  1.0715  0.9511  0.5863
  0.5013  0.4133  0.4160

 Free energy of the ion-electron system (eV)
  ---------------------------------------------------
  alpha Z        PSCENC =       150.54729073
  Ewald energy   TEWEN  =     73634.07415409
  -Hartree energ DENC   =    -81023.56981909
  -exchange      EXHF   =         0.00000000
  -V(xc)+E(xc)   XCENC  =      1010.08708585
  PAW double counting   =     34823.65085766   -34727.54522092
  entropy T*S    EENTRO =        -0.19012449
  eigenvalues    EBANDS =     -4223.76446455
  atomic energy  EATOM  =      9416.93727838
  Solvation  Ediel_sol  =         0.00000000
  ---------------------------------------------------
  free energy    TOTEN  =      -939.77296233 eV

  energy without entropy =     -939.58283784  energy(sigma->0) =     -939.67790009


--------------------------------------------------------------------------------------------------------




--------------------------------------- Iteration      1(  19)  ---------------------------------------


    POTLOK:  cpu time      0.8612: real time      0.8668
    SETDIJ:  cpu time      0.0068: real time      0.0069
     EDDAV:  cpu time    110.9225: real time    111.8205
       DOS:  cpu time      0.0024: real time      0.0024
    CHARGE:  cpu time      6.8034: real time      6.8479
    MIXING:  cpu time      0.0281: real time      0.0283
    --------------------------------------------
      LOOP:  cpu time    118.6244: real time    119.5727

 eigenvalue-minimisations  :  4044
 total energy-change (2. order) :-0.6316809E-02  (-0.3761092E-04)
 number of electron     413.9999995 magnetization 
 augmentation part       -0.7502395 magnetization 

 DIPCOR: dipole corrections for dipol
 direction  3 min pos   275,
 dipolmoment           0.000000      0.000000      0.005894 electrons x Angstroem
 Tr[quadrupol]    -21812.699037

 energy correction for charged system         0.000000 eV
 dipol+quadrupol energy correction           -0.000000 eV
 added-field ion interaction         -0.002900 eV  (added to PSCEN)


 Broyden mixing:
  rms(total) = 0.18088E-02    rms(broyden)= 0.18088E-02
  rms(prec ) = 0.28478E-02
  weight for this iteration     100.00

 eigenvalues of (default mixing * dielectric matrix)
  average eigenvalue GAMMA=   1.8435
  7.4357  3.8914  2.5108  2.5108  1.6848  1.6848  1.1833  1.1833  0.8995  0.8995
  0.5932  0.5020  0.4132  0.4162

 Free energy of the ion-electron system (eV)
  ---------------------------------------------------
  alpha Z        PSCENC =       150.54813506
  Ewald energy   TEWEN  =     73634.07415409
  -Hartree energ DENC   =    -81025.48294403
  -exchange      EXHF   =         0.00000000
  -V(xc)+E(xc)   XCENC  =      1010.06455217
  PAW double counting   =     34824.56117487   -34728.45377411
  entropy T*S    EENTRO =        -0.19020484
  eigenvalues    EBANDS =     -4221.83765073
  atomic energy  EATOM  =      9416.93727838
  Solvation  Ediel_sol  =         0.00000000
  ---------------------------------------------------
  free energy    TOTEN  =      -939.77927914 eV

  energy without entropy =     -939.58907430  energy(sigma->0) =     -939.68417672


--------------------------------------------------------------------------------------------------------




--------------------------------------- Iteration      1(  20)  ---------------------------------------


    POTLOK:  cpu time      0.8692: real time      0.8749
    SETDIJ:  cpu time      0.0085: real time      0.0085
     EDDAV:  cpu time    110.3875: real time    111.2702
       DOS:  cpu time      0.0045: real time      0.0047
    CHARGE:  cpu time      6.8159: real time      6.8895
    MIXING:  cpu time      0.0309: real time      0.0312
    --------------------------------------------
      LOOP:  cpu time    118.1165: real time    119.0790

 eigenvalue-minimisations  :  4020
 total energy-change (2. order) :-0.4938492E-02  (-0.3009932E-04)
 number of electron     413.9999995 magnetization 
 augmentation part       -0.7502490 magnetization 

 DIPCOR: dipole corrections for dipol
 direction  3 min pos   275,
 dipolmoment           0.000000      0.000000      0.003819 electrons x Angstroem
 Tr[quadrupol]    -21812.649831

 energy correction for charged system         0.000000 eV
 dipol+quadrupol energy correction           -0.000000 eV
 added-field ion interaction         -0.001879 eV  (added to PSCEN)


 Broyden mixing:
  rms(total) = 0.10850E-02    rms(broyden)= 0.10850E-02
  rms(prec ) = 0.16532E-02
  weight for this iteration     100.00

 eigenvalues of (default mixing * dielectric matrix)
  average eigenvalue GAMMA=   1.8555
  7.5648  4.3879  2.6077  2.6077  1.8081  1.8081  1.1088  1.1088  1.0496  0.9278
  0.9278  0.5939  0.5020  0.4130  0.4167

 Free energy of the ion-electron system (eV)
  ---------------------------------------------------
  alpha Z        PSCENC =       150.54915579
  Ewald energy   TEWEN  =     73634.07415409
  -Hartree energ DENC   =    -81026.94556280
  -exchange      EXHF   =         0.00000000
  -V(xc)+E(xc)   XCENC  =      1010.06412601
  PAW double counting   =     34826.04224428   -34729.93416177
  entropy T*S    EENTRO =        -0.19023292
  eigenvalues    EBANDS =     -4220.38121869
  atomic energy  EATOM  =      9416.93727838
  Solvation  Ediel_sol  =         0.00000000
  ---------------------------------------------------
  free energy    TOTEN  =      -939.78421763 eV

  energy without entropy =     -939.59398471  energy(sigma->0) =     -939.68910117


--------------------------------------------------------------------------------------------------------




--------------------------------------- Iteration      1(  21)  ---------------------------------------


    POTLOK:  cpu time      0.8681: real time      0.8743
    SETDIJ:  cpu time      0.0093: real time      0.0093
     EDDAV:  cpu time    113.6683: real time    114.6034
       DOS:  cpu time      0.0035: real time      0.0036
    CHARGE:  cpu time      6.8273: real time      6.8894
    MIXING:  cpu time      0.0333: real time      0.0335
    --------------------------------------------
      LOOP:  cpu time    121.4099: real time    122.4135

 eigenvalue-minimisations  :  4164
 total energy-change (2. order) :-0.1993204E-02  (-0.8466660E-05)
 number of electron     413.9999995 magnetization 
 augmentation part       -0.7502682 magnetization 

 DIPCOR: dipole corrections for dipol
 direction  3 min pos   275,
 dipolmoment           0.000000      0.000000      0.002552 electrons x Angstroem
 Tr[quadrupol]    -21812.607114

 energy correction for charged system         0.000000 eV
 dipol+quadrupol energy correction           -0.000000 eV
 added-field ion interaction         -0.001256 eV  (added to PSCEN)


 Broyden mixing:
  rms(total) = 0.75823E-03    rms(broyden)= 0.75823E-03
  rms(prec ) = 0.10993E-02
  weight for this iteration     100.00

 eigenvalues of (default mixing * dielectric matrix)
  average eigenvalue GAMMA=   1.8665
  7.7557  4.8328  2.7358  2.6653  1.9973  1.6817  1.3355  1.2065  1.2065  0.9097
  0.9097  0.7005  0.5959  0.5021  0.4130  0.4166

 Free energy of the ion-electron system (eV)
  ---------------------------------------------------
  alpha Z        PSCENC =       150.54977934
  Ewald energy   TEWEN  =     73634.07415409
  -Hartree energ DENC   =    -81027.56443391
  -exchange      EXHF   =         0.00000000
  -V(xc)+E(xc)   XCENC  =      1010.06769499
  PAW double counting   =     34825.81307178   -34729.70538410
  entropy T*S    EENTRO =        -0.19022635
  eigenvalues    EBANDS =     -4219.76814504
  atomic energy  EATOM  =      9416.93727838
  Solvation  Ediel_sol  =         0.00000000
  ---------------------------------------------------
  free energy    TOTEN  =      -939.78621084 eV

  energy without entropy =     -939.59598448  energy(sigma->0) =     -939.69109766


--------------------------------------------------------------------------------------------------------




--------------------------------------- Iteration      1(  22)  ---------------------------------------


    POTLOK:  cpu time      0.8834: real time      0.8929
    SETDIJ:  cpu time      0.0078: real time      0.0078
     EDDAV:  cpu time    111.9588: real time    112.8679
       DOS:  cpu time      0.0058: real time      0.0059
    CHARGE:  cpu time      6.8571: real time      6.9022
    MIXING:  cpu time      0.0323: real time      0.0325
    --------------------------------------------
      LOOP:  cpu time    119.7452: real time    120.7092

 eigenvalue-minimisations  :  4104
 total energy-change (2. order) :-0.1158162E-02  (-0.3893154E-05)
 number of electron     413.9999995 magnetization 
 augmentation part       -0.7502963 magnetization 

 DIPCOR: dipole corrections for dipol
 direction  3 min pos   275,
 dipolmoment           0.000000      0.000000      0.001525 electrons x Angstroem
 Tr[quadrupol]    -21812.569777

 energy correction for charged system         0.000000 eV
 dipol+quadrupol energy correction           -0.000000 eV
 added-field ion interaction         -0.000750 eV  (added to PSCEN)


 Broyden mixing:
  rms(total) = 0.46080E-03    rms(broyden)= 0.46080E-03
  rms(prec ) = 0.65368E-03
  weight for this iteration     100.00

 eigenvalues of (default mixing * dielectric matrix)
  average eigenvalue GAMMA=   1.9232
  8.2385  5.3869  3.1345  2.5744  2.1637  1.8073  1.6225  1.2103  1.2103  0.9363
  0.9376  0.9376  0.4130  0.4166  0.5022  0.5947  0.6085

 Free energy of the ion-electron system (eV)
  ---------------------------------------------------
  alpha Z        PSCENC =       150.55028460
  Ewald energy   TEWEN  =     73634.07415409
  -Hartree energ DENC   =    -81027.91659520
  -exchange      EXHF   =         0.00000000
  -V(xc)+E(xc)   XCENC  =      1010.06962419
  PAW double counting   =     34825.03682169   -34728.92930535
  entropy T*S    EENTRO =        -0.19021633
  eigenvalues    EBANDS =     -4219.41941508
  atomic energy  EATOM  =      9416.93727838
  Solvation  Ediel_sol  =         0.00000000
  ---------------------------------------------------
  free energy    TOTEN  =      -939.78736900 eV

  energy without entropy =     -939.59715267  energy(sigma->0) =     -939.69226084


--------------------------------------------------------------------------------------------------------




--------------------------------------- Iteration      1(  23)  ---------------------------------------


    POTLOK:  cpu time      0.8837: real time      0.8896
    SETDIJ:  cpu time      0.0105: real time      0.0106
     EDDAV:  cpu time    107.7414: real time    108.6450
       DOS:  cpu time      0.0024: real time      0.0024
    CHARGE:  cpu time      6.7864: real time      6.8319
    MIXING:  cpu time      0.0332: real time      0.0335
    --------------------------------------------
      LOOP:  cpu time    115.4577: real time    116.4130

 eigenvalue-minimisations  :  3912
 total energy-change (2. order) :-0.7339028E-03  (-0.2181614E-05)
 number of electron     413.9999995 magnetization 
 augmentation part       -0.7503275 magnetization 

 DIPCOR: dipole corrections for dipol
 direction  3 min pos   275,
 dipolmoment           0.000000      0.000000      0.000629 electrons x Angstroem
 Tr[quadrupol]    -21812.536474

 energy correction for charged system         0.000000 eV
 dipol+quadrupol energy correction           -0.000000 eV
 added-field ion interaction         -0.000309 eV  (added to PSCEN)


 Broyden mixing:
  rms(total) = 0.24539E-03    rms(broyden)= 0.24539E-03
  rms(prec ) = 0.34025E-03
  weight for this iteration     100.00

 eigenvalues of (default mixing * dielectric matrix)
  average eigenvalue GAMMA=   1.9638
  8.4831  5.9451  3.4450  2.5744  2.3466  1.7474  1.7474  1.2178  1.2178  1.2318
  1.0039  0.9289  0.9289  0.4130  0.4166  0.5021  0.5929  0.6055

 Free energy of the ion-electron system (eV)
  ---------------------------------------------------
  alpha Z        PSCENC =       150.55072580
  Ewald energy   TEWEN  =     73634.07415409
  -Hartree energ DENC   =    -81028.10220714
  -exchange      EXHF   =         0.00000000
  -V(xc)+E(xc)   XCENC  =      1010.06969905
  PAW double counting   =     34824.24451430   -34728.13694052
  entropy T*S    EENTRO =        -0.19021408
  eigenvalues    EBANDS =     -4219.23511279
  atomic energy  EATOM  =      9416.93727838
  Solvation  Ediel_sol  =         0.00000000
  ---------------------------------------------------
  free energy    TOTEN  =      -939.78810290 eV

  energy without entropy =     -939.59788882  energy(sigma->0) =     -939.69299586


--------------------------------------------------------------------------------------------------------




--------------------------------------- Iteration      1(  24)  ---------------------------------------


    POTLOK:  cpu time      0.8690: real time      0.8747
    SETDIJ:  cpu time      0.0055: real time      0.0055
     EDDAV:  cpu time    102.3457: real time    103.1586
       DOS:  cpu time      0.0054: real time      0.0054
    CHARGE:  cpu time      6.7919: real time      6.8615
    MIXING:  cpu time      0.0356: real time      0.0360
    --------------------------------------------
      LOOP:  cpu time    110.0530: real time    110.9416

 eigenvalue-minimisations  :  3648
 total energy-change (2. order) :-0.3195392E-03  (-0.7700052E-06)
 number of electron     413.9999995 magnetization 
 augmentation part       -0.7503285 magnetization 

 DIPCOR: dipole corrections for dipol
 direction  3 min pos   275,
 dipolmoment           0.000000      0.000000      0.000087 electrons x Angstroem
 Tr[quadrupol]    -21812.515800

 energy correction for charged system         0.000000 eV
 dipol+quadrupol energy correction           -0.000000 eV
 added-field ion interaction         -0.000043 eV  (added to PSCEN)


 Broyden mixing:
  rms(total) = 0.13670E-03    rms(broyden)= 0.13670E-03
  rms(prec ) = 0.18217E-03
  weight for this iteration     100.00

 eigenvalues of (default mixing * dielectric matrix)
  average eigenvalue GAMMA=   2.0014
  8.8099  6.2141  3.7553  2.6128  2.5670  1.9215  1.9215  1.4025  1.2409  1.2409
  1.0354  0.9308  0.9308  0.9048  0.4130  0.4166  0.5021  0.5939  0.6123

 Free energy of the ion-electron system (eV)
  ---------------------------------------------------
  alpha Z        PSCENC =       150.55099227
  Ewald energy   TEWEN  =     73634.07415409
  -Hartree energ DENC   =    -81028.15867349
  -exchange      EXHF   =         0.00000000
  -V(xc)+E(xc)   XCENC  =      1010.06931949
  PAW double counting   =     34824.03097466   -34727.92343795
  entropy T*S    EENTRO =        -0.19021178
  eigenvalues    EBANDS =     -4219.17881811
  atomic energy  EATOM  =      9416.93727838
  Solvation  Ediel_sol  =         0.00000000
  ---------------------------------------------------
  free energy    TOTEN  =      -939.78842244 eV

  energy without entropy =     -939.59821066  energy(sigma->0) =     -939.69331655


--------------------------------------------------------------------------------------------------------




--------------------------------------- Iteration      1(  25)  ---------------------------------------


    POTLOK:  cpu time      0.8602: real time      0.8708
    SETDIJ:  cpu time      0.0047: real time      0.0047
     EDDAV:  cpu time     95.6418: real time     96.4191
       DOS:  cpu time      0.0059: real time      0.0059
    CHARGE:  cpu time      6.8449: real time      6.8910
    MIXING:  cpu time      0.0301: real time      0.0303
    --------------------------------------------
      LOOP:  cpu time    103.3877: real time    104.2219

 eigenvalue-minimisations  :  3336
 total energy-change (2. order) :-0.1277432E-03  (-0.2231946E-06)
 number of electron     413.9999995 magnetization 
 augmentation part       -0.7503283 magnetization 

 DIPCOR: dipole corrections for dipol
 direction  3 min pos   275,
 dipolmoment           0.000000      0.000000     -0.000201 electrons x Angstroem
 Tr[quadrupol]    -21812.505923

 energy correction for charged system         0.000000 eV
 dipol+quadrupol energy correction           -0.000000 eV
 added-field ion interaction          0.000099 eV  (added to PSCEN)


 Broyden mixing:
  rms(total) = 0.74788E-04    rms(broyden)= 0.74788E-04
  rms(prec ) = 0.10440E-03
  weight for this iteration     100.00

 eigenvalues of (default mixing * dielectric matrix)
  average eigenvalue GAMMA=   1.9775
  8.9047  6.3561  3.9085  2.7744  2.5621  1.9740  1.9740  1.3718  1.2369  1.2369
  1.1295  0.9707  0.9707  0.9036  0.4130  0.4166  0.5021  0.7306  0.5936  0.6212

 Free energy of the ion-electron system (eV)
  ---------------------------------------------------
  alpha Z        PSCENC =       150.55113376
  Ewald energy   TEWEN  =     73634.07415409
  -Hartree energ DENC   =    -81028.17779853
  -exchange      EXHF   =         0.00000000
  -V(xc)+E(xc)   XCENC  =      1010.06869747
  PAW double counting   =     34824.18609440   -34728.07857152
  entropy T*S    EENTRO =        -0.19021290
  eigenvalues    EBANDS =     -4219.15932534
  atomic energy  EATOM  =      9416.93727838
  Solvation  Ediel_sol  =         0.00000000
  ---------------------------------------------------
  free energy    TOTEN  =      -939.78855018 eV

  energy without entropy =     -939.59833729  energy(sigma->0) =     -939.69344374


--------------------------------------------------------------------------------------------------------




--------------------------------------- Iteration      1(  26)  ---------------------------------------


    POTLOK:  cpu time      0.8601: real time      0.8656
    SETDIJ:  cpu time      0.0075: real time      0.0076
     EDDAV:  cpu time     84.9538: real time     85.6628
       DOS:  cpu time      0.0051: real time      0.0051
    CHARGE:  cpu time      6.8133: real time      6.8591
    MIXING:  cpu time      0.0343: real time      0.0346
    --------------------------------------------
      LOOP:  cpu time     92.6742: real time     93.4347

 eigenvalue-minimisations  :  2832
 total energy-change (2. order) :-0.3915597E-04  (-0.4349298E-07)
 number of electron     413.9999995 magnetization 
 augmentation part       -0.7503272 magnetization 

 DIPCOR: dipole corrections for dipol
 direction  3 min pos   275,
 dipolmoment           0.000000      0.000000     -0.000311 electrons x Angstroem
 Tr[quadrupol]    -21812.502167

 energy correction for charged system         0.000000 eV
 dipol+quadrupol energy correction           -0.000000 eV
 added-field ion interaction          0.000153 eV  (added to PSCEN)


 Broyden mixing:
  rms(total) = 0.45914E-04    rms(broyden)= 0.45914E-04
  rms(prec ) = 0.59872E-04
  weight for this iteration     100.00

 eigenvalues of (default mixing * dielectric matrix)
  average eigenvalue GAMMA=   1.9779
  8.9421  6.5632  4.0890  2.9922  2.5500  2.2306  1.7520  1.5503  1.5503  1.2390
  1.2390  0.9944  0.9250  0.9250  0.9290  0.4130  0.4166  0.5935  0.6141  0.5021
  0.5249

 Free energy of the ion-electron system (eV)
  ---------------------------------------------------
  alpha Z        PSCENC =       150.55118788
  Ewald energy   TEWEN  =     73634.07415409
  -Hartree energ DENC   =    -81028.18130084
  -exchange      EXHF   =         0.00000000
  -V(xc)+E(xc)   XCENC  =      1010.06838257
  PAW double counting   =     34824.27955701   -34728.17202703
  entropy T*S    EENTRO =        -0.19021341
  eigenvalues    EBANDS =     -4219.15560799
  atomic energy  EATOM  =      9416.93727838
  Solvation  Ediel_sol  =         0.00000000
  ---------------------------------------------------
  free energy    TOTEN  =      -939.78858934 eV

  energy without entropy =     -939.59837593  energy(sigma->0) =     -939.69348263


--------------------------------------------------------------------------------------------------------




--------------------------------------- Iteration      1(  27)  ---------------------------------------


    POTLOK:  cpu time      0.8384: real time      0.8439
    SETDIJ:  cpu time      0.0104: real time      0.0104
     EDDAV:  cpu time     85.5232: real time     86.2203
       DOS:  cpu time      0.0049: real time      0.0049
    CHARGE:  cpu time      6.6044: real time      6.6483
    MIXING:  cpu time      0.0345: real time      0.0347
    --------------------------------------------
      LOOP:  cpu time     93.0156: real time     93.7625

 eigenvalue-minimisations  :  2820
 total energy-change (2. order) :-0.2482804E-04  (-0.3704478E-07)
 number of electron     413.9999995 magnetization 
 augmentation part       -0.7503259 magnetization 

 DIPCOR: dipole corrections for dipol
 direction  3 min pos   275,
 dipolmoment           0.000000      0.000000     -0.000395 electrons x Angstroem
 Tr[quadrupol]    -21812.499101

 energy correction for charged system         0.000000 eV
 dipol+quadrupol energy correction           -0.000000 eV
 added-field ion interaction          0.000195 eV  (added to PSCEN)


 Broyden mixing:
  rms(total) = 0.22859E-04    rms(broyden)= 0.22859E-04
  rms(prec ) = 0.27656E-04
  weight for this iteration     100.00

 eigenvalues of (default mixing * dielectric matrix)
  average eigenvalue GAMMA=   1.9904
  8.9464  6.7175  4.2876  3.1803  2.5281  2.3105  2.0854  1.9055  1.2778  1.2778
  1.2360  1.2360  0.9702  0.9702  0.9028  0.9028  0.4130  0.4166  0.5938  0.6157
  0.5021  0.5138

 Free energy of the ion-electron system (eV)
  ---------------------------------------------------
  alpha Z        PSCENC =       150.55122959
  Ewald energy   TEWEN  =     73634.07415409
  -Hartree energ DENC   =    -81028.18004625
  -exchange      EXHF   =         0.00000000
  -V(xc)+E(xc)   XCENC  =      1010.06811672
  PAW double counting   =     34824.33674320   -34728.22919788
  entropy T*S    EENTRO =        -0.19021353
  eigenvalues    EBANDS =     -4219.15667849
  atomic energy  EATOM  =      9416.93727838
  Solvation  Ediel_sol  =         0.00000000
  ---------------------------------------------------
  free energy    TOTEN  =      -939.78861417 eV

  energy without entropy =     -939.59840064  energy(sigma->0) =     -939.69350740


--------------------------------------------------------------------------------------------------------




--------------------------------------- Iteration      1(  28)  ---------------------------------------


    POTLOK:  cpu time      0.8721: real time      0.8780
    SETDIJ:  cpu time      0.0077: real time      0.0077
     EDDAV:  cpu time     84.8513: real time     85.5426
       DOS:  cpu time      0.0043: real time      0.0043
    CHARGE:  cpu time      6.8393: real time      6.8934
    MIXING:  cpu time      0.0381: real time      0.0385
    --------------------------------------------
      LOOP:  cpu time     92.6128: real time     93.3645

 eigenvalue-minimisations  :  2796
 total energy-change (2. order) :-0.9933574E-05  (-0.1115338E-07)
 number of electron     413.9999995 magnetization 
 augmentation part       -0.7503263 magnetization 

 DIPCOR: dipole corrections for dipol
 direction  3 min pos   275,
 dipolmoment           0.000000      0.000000     -0.000436 electrons x Angstroem
 Tr[quadrupol]    -21812.497534

 energy correction for charged system         0.000000 eV
 dipol+quadrupol energy correction           -0.000000 eV
 added-field ion interaction          0.000215 eV  (added to PSCEN)


 Broyden mixing:
  rms(total) = 0.90116E-05    rms(broyden)= 0.90115E-05
  rms(prec ) = 0.11759E-04
  weight for this iteration     100.00

 eigenvalues of (default mixing * dielectric matrix)
  average eigenvalue GAMMA=   1.9796
  8.9564  6.7878  4.4481  3.3108  2.5520  2.4718  2.1727  1.8287  1.3784  1.3784
  1.2331  1.2331  1.0154  1.0154  0.8968  0.8952  0.8952  0.4130  0.4166  0.5938
  0.6157  0.5021  0.5195

 Free energy of the ion-electron system (eV)
  ---------------------------------------------------
  alpha Z        PSCENC =       150.55124968
  Ewald energy   TEWEN  =     73634.07415409
  -Hartree energ DENC   =    -81028.17946661
  -exchange      EXHF   =         0.00000000
  -V(xc)+E(xc)   XCENC  =      1010.06806607
  PAW double counting   =     34824.31270383   -34728.20515456
  entropy T*S    EENTRO =        -0.19021331
  eigenvalues    EBANDS =     -4219.15724166
  atomic energy  EATOM  =      9416.93727838
  Solvation  Ediel_sol  =         0.00000000
  ---------------------------------------------------
  free energy    TOTEN  =      -939.78862410 eV

  energy without entropy =     -939.59841079  energy(sigma->0) =     -939.69351745


--------------------------------------------------------------------------------------------------------




--------------------------------------- Iteration      1(  29)  ---------------------------------------


    POTLOK:  cpu time      0.8706: real time      0.8788
    SETDIJ:  cpu time      0.0100: real time      0.0100
     EDDAV:  cpu time     86.4346: real time     87.1395
       DOS:  cpu time      0.0042: real time      0.0042
    CHARGE:  cpu time      6.7101: real time      6.7808
    MIXING:  cpu time      0.0367: real time      0.0370
    --------------------------------------------
      LOOP:  cpu time     94.0661: real time     94.8503

 eigenvalue-minimisations  :  2880
 total energy-change (2. order) :-0.2481149E-05  (-0.1245473E-08)
 number of electron     413.9999995 magnetization 
 augmentation part       -0.7503260 magnetization 

 DIPCOR: dipole corrections for dipol
 direction  3 min pos   275,
 dipolmoment           0.000000      0.000000     -0.000450 electrons x Angstroem
 Tr[quadrupol]    -21812.496927

 energy correction for charged system         0.000000 eV
 dipol+quadrupol energy correction           -0.000000 eV
 added-field ion interaction          0.000221 eV  (added to PSCEN)


 Broyden mixing:
  rms(total) = 0.53041E-05    rms(broyden)= 0.53041E-05
  rms(prec ) = 0.67510E-05
  weight for this iteration     100.00

 eigenvalues of (default mixing * dielectric matrix)
  average eigenvalue GAMMA=   1.9689
  8.9722  6.7975  4.5453  3.3702  2.5847  2.4850  2.1559  1.8331  1.6474  1.4338
  1.2518  1.2518  1.1278  1.0611  0.9523  0.9523  0.8841  0.8841  0.4130  0.4166
  0.5021  0.5938  0.6159  0.5215

 Free energy of the ion-electron system (eV)
  ---------------------------------------------------
  alpha Z        PSCENC =       150.55125626
  Ewald energy   TEWEN  =     73634.07415409
  -Hartree energ DENC   =    -81028.17991327
  -exchange      EXHF   =         0.00000000
  -V(xc)+E(xc)   XCENC  =      1010.06808335
  PAW double counting   =     34824.30706512   -34728.19951636
  entropy T*S    EENTRO =        -0.19021330
  eigenvalues    EBANDS =     -4219.15682085
  atomic energy  EATOM  =      9416.93727838
  Solvation  Ediel_sol  =         0.00000000
  ---------------------------------------------------
  free energy    TOTEN  =      -939.78862658 eV

  energy without entropy =     -939.59841328  energy(sigma->0) =     -939.69351993


--------------------------------------------------------------------------------------------------------




--------------------------------------- Iteration      1(  30)  ---------------------------------------


    POTLOK:  cpu time      0.8649: real time      0.8721
    SETDIJ:  cpu time      0.0110: real time      0.0111
     EDDAV:  cpu time     77.4662: real time     78.0689
       DOS:  cpu time      0.0067: real time      0.0068
    --------------------------------------------
      LOOP:  cpu time     78.3491: real time     78.9591

 eigenvalue-minimisations  :  2448
 total energy-change (2. order) :-0.7832605E-06  ( 0.5427723E-09)
 number of electron     413.9999995 magnetization 
 augmentation part       -0.7503260 magnetization 

 DIPCOR: dipole corrections for dipol
 direction  3 min pos   275,
 dipolmoment           0.000000      0.000000     -0.000455 electrons x Angstroem
 Tr[quadrupol]    -21812.496557

 energy correction for charged system         0.000000 eV
 dipol+quadrupol energy correction           -0.000000 eV
 added-field ion interaction          0.000224 eV  (added to PSCEN)


 Free energy of the ion-electron system (eV)
  ---------------------------------------------------
  alpha Z        PSCENC =       150.55125907
  Ewald energy   TEWEN  =     73634.07415409
  -Hartree energ DENC   =    -81028.18042099
  -exchange      EXHF   =         0.00000000
  -V(xc)+E(xc)   XCENC  =      1010.06811447
  PAW double counting   =     34824.30422586   -34728.19667876
  entropy T*S    EENTRO =        -0.19021332
  eigenvalues    EBANDS =     -4219.15634616
  atomic energy  EATOM  =      9416.93727838
  Solvation  Ediel_sol  =         0.00000000
  ---------------------------------------------------
  free energy    TOTEN  =      -939.78862737 eV

  energy without entropy =     -939.59841404  energy(sigma->0) =     -939.69352070


--------------------------------------------------------------------------------------------------------




 average (electrostatic) potential at core
  the test charge radii are     0.7672  0.5201
  (the norm of the test charge is              1.0000)
       1 -36.7621       2 -36.7647       3 -36.7644       4 -36.7646       5 -36.7647
       6 -36.7646       7 -36.7645       8 -36.7646       9 -36.7645      10 -36.7639
      11 -36.7648      12 -36.7646      13 -36.7652      14 -36.7648      15 -36.7645
      16 -36.7645      17 -36.7645      18 -36.7646      19 -36.7673      20 -36.7645
      21 -36.7645      22 -36.7646      23 -36.7645      24 -36.7648      25 -36.7646
      26 -36.7645      27 -36.7646      28 -36.7652      29 -36.7652      30 -36.7644
      31 -36.7653      32 -36.7648      33 -36.7645      34 -36.7645      35 -36.7645
      36 -36.7645      37 -35.6993      38 -35.6933      39 -35.6929      40 -35.6932
      41 -35.6931      42 -35.6933      43 -35.6932      44 -35.6932      45 -35.6932
      46 -35.6930      47 -35.6932      48 -35.6932      49 -35.6905      50 -35.6931
      51 -35.6932      52 -35.6931      53 -35.6931      54 -35.6932      55 -35.6967
      56 -35.6932      57 -35.6928      58 -35.6931      59 -35.6932      60 -35.6931
      61 -35.6932      62 -35.6932      63 -35.6932      64 -35.6933      65 -35.6930
      66 -35.6932      67 -35.6935      68 -35.6931      69 -35.6932      70 -35.6931
      71 -35.6932      72 -35.6932      73 -36.0763      74 -36.0714      75 -36.0717
      76 -36.0717      77 -36.0718      78 -36.0721      79 -36.0717      80 -36.0717
      81 -36.0717      82 -36.0721      83 -36.0724      84 -36.0715      85 -36.0718
      86 -36.0719      87 -36.0715      88 -36.0716      89 -36.0716      90 -36.0717
      91 -36.0705      92 -36.0717      93 -36.0715      94 -36.0716      95 -36.0718
      96 -36.0720      97 -36.0717      98 -36.0715      99 -36.0715     100 -36.0718
     101 -36.0721     102 -36.0716     103 -36.0739     104 -36.0720     105 -36.0716
     106 -36.0716     107 -36.0716     108 -36.0715     109 -36.7900     110 -36.7888
     111 -36.7889     112 -36.7886     113 -36.7885     114 -36.7889     115 -36.7889
     116 -36.7889     117 -36.7888     118 -36.7892     119 -36.7890     120 -36.7884
     121 -36.7889     122 -36.7888     123 -36.7891     124 -36.7888     125 -36.7889
     126 -36.7889     127 -39.7116     128 -39.7153     129 -39.7152     130 -39.7153
     131 -39.7154     132 -39.7156     133 -39.7153     134 -39.7152     135 -39.7152
     136 -39.7155     137 -39.7156     138 -39.7152     139 -39.7160     140 -39.7155
     141 -39.7152     142 -39.7152     143 -39.7153     144 -39.7153     145 -39.7185
     146 -39.7153     147 -39.7154     148 -39.7155     149 -39.7155     150 -39.7158
     151 -39.7154     152 -39.7154     153 -39.7154     154 -39.7155     155 -39.7158
     156 -39.7153     157 -39.7165     158 -39.7156     159 -39.7154     160 -39.7154
     161 -39.7154     162 -39.7153
 
 
 
 E-fermi :  -5.3183     XC(G=0):  -2.1134     alpha+bet : -1.8296

 val. band max:       -5.3328543390   @ k =   0.1250  -0.3333   0.0000
 cond. band min:      -5.2864927261   @ k =   0.3750   0.0000   0.0000
 fundamental gap:      0.0463616129
 Fermi energy:        -5.3182850414

 k-point     1 :       0.1250    0.0000    0.0000
  band No.  band energies     occupation 
      1     -19.3933      2.00000
      2     -19.3184      2.00000
      3     -19.3180      2.00000
      4     -19.2135      2.00000
      5     -19.1529      2.00000
      6     -19.1524      2.00000
      7     -19.0997      2.00000
      8     -19.0501      2.00000
      9     -19.0496      2.00000
     10     -18.6732      2.00000
     11     -18.6726      2.00000
     12     -18.6585      2.00000
     13     -18.5540      2.00000
     14     -18.5533      2.00000
     15     -18.5061      2.00000
     16     -18.3478      2.00000
     17     -18.3470      2.00000
     18     -18.2143      2.00000
     19     -15.5141      2.00000
     20     -15.5139      2.00000
     21     -15.4884      2.00000
     22     -15.4882      2.00000
     23     -15.4250      2.00000
     24     -15.3994      2.00000
     25     -15.3992      2.00000
     26     -15.2933      2.00000
     27     -15.2203      2.00000
     28     -15.1760      2.00000
     29     -15.1755      2.00000
     30     -15.0529      2.00000
     31     -15.0517      2.00000
     32     -15.0389      2.00000
     33     -15.0385      2.00000
     34     -15.0370      2.00000
     35     -14.8217      2.00000
     36     -14.8207      2.00000
     37     -13.4123      2.00000
     38     -13.4118      2.00000
     39     -12.7971      2.00000
     40     -12.7964      2.00000
     41     -12.7167      2.00000
     42     -12.6915      2.00000
     43     -12.6790      2.00000
     44     -12.5953      2.00000
     45     -12.5306      2.00000
     46     -12.4925      2.00000
     47     -12.4917      2.00000
     48     -12.3006      2.00000
     49     -12.2961      2.00000
     50     -12.2954      2.00000
     51     -12.1526      2.00000
     52     -12.1524      2.00000
     53     -12.0965      2.00000
     54     -11.9793      2.00000
     55     -11.9790      2.00000
     56     -11.9695      2.00000
     57     -11.8763      2.00000
     58     -11.8760      2.00000
     59     -11.8574      2.00000
     60     -11.8570      2.00000
     61     -11.6756      2.00000
     62     -11.6417      2.00000
     63     -11.6410      2.00000
     64     -11.5389      2.00000
     65     -11.5386      2.00000
     66     -11.4973      2.00000
     67     -11.4614      2.00000
     68     -11.4607      2.00000
     69     -11.4486      2.00000
     70     -11.4482      2.00000
     71     -11.4474      2.00000
     72     -11.3868      2.00000
     73     -11.3434      2.00000
     74     -11.3147      2.00000
     75     -11.3143      2.00000
     76     -11.2517      2.00000
     77     -11.2511      2.00000
     78     -11.1246      2.00000
     79     -11.0657      2.00000
     80     -10.9990      2.00000
     81     -10.4397      2.00000
     82     -10.4392      2.00000
     83     -10.1742      2.00000
     84     -10.1739      2.00000
     85     -10.1457      2.00000
     86     -10.1285      2.00000
     87     -10.1282      2.00000
     88      -9.7791      2.00000
     89      -9.7789      2.00000
     90      -9.7377      2.00000
     91      -9.7370      2.00000
     92      -9.4168      2.00000
     93      -9.4160      2.00000
     94      -9.2615      2.00000
     95      -9.2609      2.00000
     96      -9.2226      2.00000
     97      -9.2221      2.00000
     98      -9.1571      2.00000
     99      -9.1143      2.00000
    100      -9.1101      2.00000
    101      -9.0816      2.00000
    102      -9.0442      2.00000
    103      -9.0440      2.00000
    104      -9.0354      2.00000
    105      -9.0353      2.00000
    106      -9.0090      2.00000
    107      -9.0089      2.00000
    108      -8.9916      2.00000
    109      -8.9912      2.00000
    110      -8.9911      2.00000
    111      -8.9824      2.00000
    112      -8.9821      2.00000
    113      -8.9430      2.00000
    114      -8.9227      2.00000
    115      -8.9224      2.00000
    116      -8.9156      2.00000
    117      -8.8964      2.00000
    118      -8.8813      2.00000
    119      -8.6594      2.00000
    120      -8.4024      2.00000
    121      -8.4020      2.00000
    122      -8.3134      2.00000
    123      -8.3129      2.00000
    124      -8.2839      2.00000
    125      -8.2833      2.00000
    126      -8.0505      2.00000
    127      -8.0501      2.00000
    128      -8.0396      2.00000
    129      -8.0393      2.00000
    130      -8.0130      2.00000
    131      -8.0017      2.00000
    132      -8.0013      2.00000
    133      -7.8523      2.00000
    134      -7.8520      2.00000
    135      -7.8051      2.00000
    136      -7.7152      2.00000
    137      -7.7150      2.00000
    138      -7.6989      2.00000
    139      -7.6812      2.00000
    140      -7.6767      2.00000
    141      -7.6632      2.00000
    142      -7.6629      2.00000
    143      -7.6340      2.00000
    144      -7.6337      2.00000
    145      -7.5453      2.00000
    146      -7.5449      2.00000
    147      -7.4522      2.00000
    148      -7.4521      2.00000
    149      -7.3608      2.00000
    150      -7.2739      2.00000
    151      -7.2727      2.00000
    152      -7.2402      2.00000
    153      -7.2398      2.00000
    154      -7.1633      2.00000
    155      -7.1623      2.00000
    156      -7.1325      2.00000
    157      -7.1320      2.00000
    158      -7.0882      2.00000
    159      -7.0258      2.00000
    160      -7.0254      2.00000
    161      -7.0163      2.00000
    162      -6.9483      2.00000
    163      -6.9323      2.00000
    164      -6.8560      2.00000
    165      -6.7978      2.00000
    166      -6.7974      2.00000
    167      -6.7548      2.00000
    168      -6.7544      2.00000
    169      -6.6644      2.00000
    170      -6.6640      2.00000
    171      -6.6126      2.00000
    172      -6.6124      2.00000
    173      -6.6062      2.00000
    174      -6.5668      2.00000
    175      -6.5589      2.00000
    176      -6.5445      2.00000
    177      -6.5423      2.00000
    178      -6.4708      2.00000
    179      -6.4216      2.00000
    180      -6.4186      2.00000
    181      -6.4179      2.00000
    182      -6.4172      2.00000
    183      -6.3635      2.00000
    184      -6.2648      2.00000
    185      -6.2373      2.00000
    186      -6.2368      2.00000
    187      -6.2204      2.00000
    188      -6.1083      2.00000
    189      -6.1080      2.00000
    190      -6.0424      2.00000
    191      -5.9548      2.00000
    192      -5.8890      2.00000
    193      -5.8485      2.00000
    194      -5.8127      2.00000
    195      -5.7785      2.00000
    196      -5.7302      2.00000
    197      -5.7297      2.00000
    198      -5.7104      2.00000
    199      -5.7101      2.00000
    200      -5.5967      1.99992
    201      -5.5424      1.99847
    202      -5.5421      1.99845
    203      -5.5244      1.99645
    204      -5.3965      1.73116
    205      -5.3963      1.72998
    206      -5.2823      0.61109
    207      -5.2818      0.60611
    208      -5.2441      0.29407
    209      -5.2436      0.29092
    210      -5.2063      0.11322
    211      -4.8937      0.00000
    212      -4.7574      0.00000
    213      -4.7572      0.00000
    214      -4.3138      0.00000
    215      -3.0334      0.00000
    216      -3.0322      0.00000
    217      -1.6934      0.00000
    218      -1.5542      0.00000
    219      -1.4449      0.00000
    220      -1.4446      0.00000
    221      -1.2137      0.00000
    222      -1.2125      0.00000
    223      -1.0921      0.00000
    224      -0.8080      0.00000
    225      -0.8077      0.00000
    226      -0.5999      0.00000
    227      -0.4860      0.00000
    228      -0.4671      0.00000
    229      -0.4657      0.00000
    230      -0.4597      0.00000
    231      -0.4592      0.00000
    232      -0.4582      0.00000
    233      -0.4176      0.00000
    234      -0.4118      0.00000
    235      -0.3884      0.00000
    236      -0.3872      0.00000
    237      -0.3613      0.00000
    238      -0.3606      0.00000
    239      -0.3377      0.00000
    240      -0.3368      0.00000
    241      -0.2745      0.00000
    242      -0.2741      0.00000
    243      -0.2537      0.00000
    244      -0.0398      0.00000
    245      -0.0333      0.00000
    246      -0.0331      0.00000
    247       0.0153      0.00000
    248       0.1043      0.00000
    249       0.2807      0.00000
    250       0.3830      0.00000
    251       0.3836      0.00000
    252       0.4595      0.00000
    253       0.4599      0.00000
    254       0.5904      0.00000
    255       0.5913      0.00000
    256       0.6380      0.00000
    257       0.6383      0.00000
    258       0.7849      0.00000
    259       0.7950      0.00000
    260       0.7959      0.00000
    261       0.8349      0.00000
    262       0.8479      0.00000
    263       0.8772      0.00000
    264       0.8814      0.00000
    265       0.9938      0.00000
    266       0.9939      0.00000
    267       1.0059      0.00000
    268       1.0060      0.00000
    269       1.0825      0.00000
    270       1.0833      0.00000
    271       1.1252      0.00000
    272       1.1474      0.00000
    273       1.1480      0.00000
    274       1.1638      0.00000
    275       1.2475      0.00000
    276       1.3085      0.00000
    277       1.3088      0.00000
    278       1.3186      0.00000
    279       1.3923      0.00000
    280       1.4932      0.00000
    281       1.5235      0.00000
    282       1.5536      0.00000
    283       1.5536      0.00000
    284       1.6158      0.00000
    285       1.6159      0.00000
    286       1.6233      0.00000
    287       1.6464      0.00000
    288       1.7811      0.00000
    289       1.7834      0.00000
    290       1.8025      0.00000
    291       1.8040      0.00000
    292       1.8181      0.00000
    293       1.8321      0.00000
    294       1.8627      0.00000

 k-point     2 :       0.3750    0.0000    0.0000
  band No.  band energies     occupation 
      1     -19.3626      2.00000
      2     -19.3021      2.00000
      3     -19.2899      2.00000
      4     -19.2895      2.00000
      5     -19.2340      2.00000
      6     -19.2336      2.00000
      7     -18.9648      2.00000
      8     -18.9309      2.00000
      9     -18.9304      2.00000
     10     -18.8150      2.00000
     11     -18.8023      2.00000
     12     -18.8017      2.00000
     13     -18.4549      2.00000
     14     -18.4541      2.00000
     15     -18.3843      2.00000
     16     -18.3836      2.00000
     17     -18.3714      2.00000
     18     -18.2695      2.00000
     19     -15.4947      2.00000
     20     -15.4946      2.00000
     21     -15.4449      2.00000
     22     -15.4447      2.00000
     23     -15.4171      2.00000
     24     -15.4169      2.00000
     25     -15.4016      2.00000
     26     -15.3563      2.00000
     27     -15.3085      2.00000
     28     -15.3081      2.00000
     29     -15.1481      2.00000
     30     -15.0890      2.00000
     31     -15.0467      2.00000
     32     -15.0388      2.00000
     33     -14.9215      2.00000
     34     -14.9207      2.00000
     35     -14.8477      2.00000
     36     -14.8467      2.00000
     37     -13.2970      2.00000
     38     -13.2965      2.00000
     39     -13.0797      2.00000
     40     -13.0791      2.00000
     41     -12.7634      2.00000
     42     -12.7515      2.00000
     43     -12.6500      2.00000
     44     -12.5796      2.00000
     45     -12.2889      2.00000
     46     -12.2655      2.00000
     47     -12.2250      2.00000
     48     -12.2243      2.00000
     49     -12.1966      2.00000
     50     -12.1905      2.00000
     51     -12.1898      2.00000
     52     -12.1222      2.00000
     53     -12.1220      2.00000
     54     -12.0804      2.00000
     55     -12.0799      2.00000
     56     -12.0632      2.00000
     57     -12.0629      2.00000
     58     -11.9855      2.00000
     59     -11.8940      2.00000
     60     -11.8932      2.00000
     61     -11.8216      2.00000
     62     -11.7621      2.00000
     63     -11.7618      2.00000
     64     -11.6608      2.00000
     65     -11.6463      2.00000
     66     -11.6460      2.00000
     67     -11.5768      2.00000
     68     -11.5081      2.00000
     69     -11.3805      2.00000
     70     -11.3801      2.00000
     71     -11.3362      2.00000
     72     -11.3358      2.00000
     73     -11.2123      2.00000
     74     -11.1164      2.00000
     75     -11.1097      2.00000
     76     -11.1092      2.00000
     77     -10.9424      2.00000
     78     -10.9418      2.00000
     79     -10.6879      2.00000
     80     -10.6516      2.00000
     81     -10.6509      2.00000
     82     -10.6501      2.00000
     83     -10.6497      2.00000
     84     -10.6105      2.00000
     85     -10.1981      2.00000
     86     -10.1568      2.00000
     87     -10.0112      2.00000
     88     -10.0108      2.00000
     89      -9.8948      2.00000
     90      -9.8297      2.00000
     91      -9.8294      2.00000
     92      -9.5184      2.00000
     93      -9.2466      2.00000
     94      -9.2461      2.00000
     95      -9.1845      2.00000
     96      -9.1840      2.00000
     97      -9.0999      2.00000
     98      -9.0798      2.00000
     99      -9.0665      2.00000
    100      -9.0619      2.00000
    101      -9.0618      2.00000
    102      -9.0567      2.00000
    103      -9.0564      2.00000
    104      -9.0214      2.00000
    105      -9.0212      2.00000
    106      -9.0192      2.00000
    107      -9.0186      2.00000
    108      -9.0185      2.00000
    109      -8.9793      2.00000
    110      -8.9790      2.00000
    111      -8.9516      2.00000
    112      -8.9514      2.00000
    113      -8.9152      2.00000
    114      -8.9032      2.00000
    115      -8.8622      2.00000
    116      -8.8617      2.00000
    117      -8.6154      2.00000
    118      -8.6149      2.00000
    119      -8.5938      2.00000
    120      -8.5690      2.00000
    121      -8.4351      2.00000
    122      -8.3804      2.00000
    123      -8.3798      2.00000
    124      -8.3690      2.00000
    125      -8.3685      2.00000
    126      -8.2153      2.00000
    127      -8.0372      2.00000
    128      -8.0368      2.00000
    129      -7.9666      2.00000
    130      -7.9663      2.00000
    131      -7.9574      2.00000
    132      -7.9571      2.00000
    133      -7.8967      2.00000
    134      -7.8963      2.00000
    135      -7.7924      2.00000
    136      -7.7922      2.00000
    137      -7.7828      2.00000
    138      -7.7571      2.00000
    139      -7.7567      2.00000
    140      -7.7437      2.00000
    141      -7.6838      2.00000
    142      -7.6833      2.00000
    143      -7.6496      2.00000
    144      -7.6465      2.00000
    145      -7.5836      2.00000
    146      -7.5834      2.00000
    147      -7.5086      2.00000
    148      -7.4887      2.00000
    149      -7.4885      2.00000
    150      -7.3083      2.00000
    151      -7.2374      2.00000
    152      -7.2363      2.00000
    153      -7.1581      2.00000
    154      -7.1574      2.00000
    155      -7.0158      2.00000
    156      -7.0147      2.00000
    157      -7.0048      2.00000
    158      -6.9790      2.00000
    159      -6.9724      2.00000
    160      -6.9715      2.00000
    161      -6.9484      2.00000
    162      -6.9480      2.00000
    163      -6.8620      2.00000
    164      -6.8616      2.00000
    165      -6.8410      2.00000
    166      -6.7454      2.00000
    167      -6.7243      2.00000
    168      -6.7239      2.00000
    169      -6.6974      2.00000
    170      -6.6970      2.00000
    171      -6.6610      2.00000
    172      -6.6088      2.00000
    173      -6.5265      2.00000
    174      -6.5263      2.00000
    175      -6.5188      2.00000
    176      -6.5159      2.00000
    177      -6.5158      2.00000
    178      -6.4612      2.00000
    179      -6.4590      2.00000
    180      -6.4555      2.00000
    181      -6.3955      2.00000
    182      -6.3951      2.00000
    183      -6.3445      2.00000
    184      -6.3433      2.00000
    185      -6.3020      2.00000
    186      -6.2744      2.00000
    187      -6.2203      2.00000
    188      -6.0513      2.00000
    189      -6.0058      2.00000
    190      -6.0055      2.00000
    191      -5.9640      2.00000
    192      -5.9635      2.00000
    193      -5.9144      2.00000
    194      -5.8974      2.00000
    195      -5.8727      2.00000
    196      -5.8724      2.00000
    197      -5.8032      2.00000
    198      -5.7015      2.00000
    199      -5.6993      2.00000
    200      -5.6352      1.99999
    201      -5.5899      1.99988
    202      -5.5741      1.99970
    203      -5.5736      1.99969
    204      -5.5189      1.99545
    205      -5.4012      1.75903
    206      -5.4007      1.75626
    207      -5.3933      1.71125
    208      -5.3929      1.70873
    209      -5.2865      0.65299
    210      -5.2861      0.64858
    211      -4.6189      0.00000
    212      -4.4181      0.00000
    213      -4.0982      0.00000
    214      -4.0979      0.00000
    215      -3.4787      0.00000
    216      -3.4780      0.00000
    217      -1.6629      0.00000
    218      -1.4572      0.00000
    219      -1.3368      0.00000
    220      -1.3365      0.00000
    221      -1.2740      0.00000
    222      -1.1213      0.00000
    223      -1.1210      0.00000
    224      -0.9136      0.00000
    225      -0.9128      0.00000
    226      -0.8849      0.00000
    227      -0.5701      0.00000
    228      -0.5697      0.00000
    229      -0.5080      0.00000
    230      -0.4910      0.00000
    231      -0.4896      0.00000
    232      -0.4871      0.00000
    233      -0.4453      0.00000
    234      -0.4441      0.00000
    235      -0.2962      0.00000
    236      -0.2424      0.00000
    237      -0.2416      0.00000
    238      -0.1768      0.00000
    239      -0.1761      0.00000
    240      -0.1613      0.00000
    241      -0.1611      0.00000
    242      -0.1561      0.00000
    243      -0.1558      0.00000
    244      -0.0397      0.00000
    245      -0.0268      0.00000
    246       0.1130      0.00000
    247       0.1138      0.00000
    248       0.1609      0.00000
    249       0.1612      0.00000
    250       0.3177      0.00000
    251       0.3180      0.00000
    252       0.3832      0.00000
    253       0.5425      0.00000
    254       0.5676      0.00000
    255       0.6637      0.00000
    256       0.7447      0.00000
    257       0.7455      0.00000
    258       0.7751      0.00000
    259       0.7756      0.00000
    260       0.8044      0.00000
    261       0.8046      0.00000
    262       0.8419      0.00000
    263       0.8569      0.00000
    264       0.9343      0.00000
    265       0.9344      0.00000
    266       0.9374      0.00000
    267       0.9383      0.00000
    268       0.9544      0.00000
    269       1.0328      0.00000
    270       1.1431      0.00000
    271       1.1530      0.00000
    272       1.1531      0.00000
    273       1.1836      0.00000
    274       1.2044      0.00000
    275       1.2046      0.00000
    276       1.2517      0.00000
    277       1.3546      0.00000
    278       1.3547      0.00000
    279       1.4064      0.00000
    280       1.4064      0.00000
    281       1.4095      0.00000
    282       1.4531      0.00000
    283       1.4642      0.00000
    284       1.4650      0.00000
    285       1.4819      0.00000
    286       1.4819      0.00000
    287       1.5594      0.00000
    288       1.5649      0.00000
    289       1.6102      0.00000
    290       1.6982      0.00000
    291       1.6993      0.00000
    292       1.7329      0.00000
    293       1.7358      0.00000
    294       1.7812      0.00000

 k-point     3 :       0.1250    0.3333    0.0000
  band No.  band energies     occupation 
      1     -19.3826      2.00000
      2     -19.3539      2.00000
      3     -19.2926      2.00000
      4     -19.2047      2.00000
      5     -19.1814      2.00000
      6     -19.1322      2.00000
      7     -19.0924      2.00000
      8     -19.0733      2.00000
      9     -19.0335      2.00000
     10     -18.6790      2.00000
     11     -18.6654      2.00000
     12     -18.6602      2.00000
     13     -18.5706      2.00000
     14     -18.5306      2.00000
     15     -18.5127      2.00000
     16     -18.3895      2.00000
     17     -18.2860      2.00000
     18     -18.2342      2.00000
     19     -15.5492      2.00000
     20     -15.5389      2.00000
     21     -15.4418      2.00000
     22     -15.4219      2.00000
     23     -15.4124      2.00000
     24     -15.3936      2.00000
     25     -15.3897      2.00000
     26     -15.3477      2.00000
     27     -15.2816      2.00000
     28     -15.2313      2.00000
     29     -15.0998      2.00000
     30     -15.0744      2.00000
     31     -15.0542      2.00000
     32     -15.0211      2.00000
     33     -15.0140      2.00000
     34     -15.0055      2.00000
     35     -14.9351      2.00000
     36     -14.7299      2.00000
     37     -13.5942      2.00000
     38     -13.1312      2.00000
     39     -12.8568      2.00000
     40     -12.8496      2.00000
     41     -12.7880      2.00000
     42     -12.7821      2.00000
     43     -12.7019      2.00000
     44     -12.6952      2.00000
     45     -12.4211      2.00000
     46     -12.3980      2.00000
     47     -12.2811      2.00000
     48     -12.2484      2.00000
     49     -12.2269      2.00000
     50     -12.2181      2.00000
     51     -12.1056      2.00000
     52     -12.0918      2.00000
     53     -12.0808      2.00000
     54     -12.0413      2.00000
     55     -12.0375      2.00000
     56     -11.9996      2.00000
     57     -11.9568      2.00000
     58     -11.9324      2.00000
     59     -11.9220      2.00000
     60     -11.8595      2.00000
     61     -11.8524      2.00000
     62     -11.8403      2.00000
     63     -11.7634      2.00000
     64     -11.5595      2.00000
     65     -11.5388      2.00000
     66     -11.5162      2.00000
     67     -11.5019      2.00000
     68     -11.4923      2.00000
     69     -11.4811      2.00000
     70     -11.4030      2.00000
     71     -11.3950      2.00000
     72     -11.3569      2.00000
     73     -11.2894      2.00000
     74     -11.1961      2.00000
     75     -11.1644      2.00000
     76     -11.1625      2.00000
     77     -11.1604      2.00000
     78     -11.1015      2.00000
     79     -10.8715      2.00000
     80     -10.8604      2.00000
     81     -10.7903      2.00000
     82     -10.5472      2.00000
     83     -10.4988      2.00000
     84     -10.2206      2.00000
     85     -10.0208      2.00000
     86     -10.0009      2.00000
     87      -9.9207      2.00000
     88      -9.7815      2.00000
     89      -9.7696      2.00000
     90      -9.7678      2.00000
     91      -9.6839      2.00000
     92      -9.6590      2.00000
     93      -9.3094      2.00000
     94      -9.2956      2.00000
     95      -9.2480      2.00000
     96      -9.1930      2.00000
     97      -9.1547      2.00000
     98      -9.1397      2.00000
     99      -9.1182      2.00000
    100      -9.1029      2.00000
    101      -9.0809      2.00000
    102      -9.0741      2.00000
    103      -9.0591      2.00000
    104      -9.0445      2.00000
    105      -9.0306      2.00000
    106      -9.0032      2.00000
    107      -9.0019      2.00000
    108      -8.9955      2.00000
    109      -8.9863      2.00000
    110      -8.9860      2.00000
    111      -8.9795      2.00000
    112      -8.9721      2.00000
    113      -8.9652      2.00000
    114      -8.9498      2.00000
    115      -8.9173      2.00000
    116      -8.9021      2.00000
    117      -8.8368      2.00000
    118      -8.7810      2.00000
    119      -8.5340      2.00000
    120      -8.5287      2.00000
    121      -8.4875      2.00000
    122      -8.4192      2.00000
    123      -8.4108      2.00000
    124      -8.3039      2.00000
    125      -8.2209      2.00000
    126      -8.1523      2.00000
    127      -8.0774      2.00000
    128      -8.0499      2.00000
    129      -7.9802      2.00000
    130      -7.9735      2.00000
    131      -7.9499      2.00000
    132      -7.9493      2.00000
    133      -7.9153      2.00000
    134      -7.8418      2.00000
    135      -7.8316      2.00000
    136      -7.7994      2.00000
    137      -7.7844      2.00000
    138      -7.7224      2.00000
    139      -7.7083      2.00000
    140      -7.6636      2.00000
    141      -7.6454      2.00000
    142      -7.6241      2.00000
    143      -7.6063      2.00000
    144      -7.5915      2.00000
    145      -7.5607      2.00000
    146      -7.5558      2.00000
    147      -7.5058      2.00000
    148      -7.4082      2.00000
    149      -7.3843      2.00000
    150      -7.3756      2.00000
    151      -7.3713      2.00000
    152      -7.2959      2.00000
    153      -7.2072      2.00000
    154      -7.1744      2.00000
    155      -7.0221      2.00000
    156      -7.0216      2.00000
    157      -7.0177      2.00000
    158      -6.9928      2.00000
    159      -6.9777      2.00000
    160      -6.9082      2.00000
    161      -6.8851      2.00000
    162      -6.8640      2.00000
    163      -6.8506      2.00000
    164      -6.8316      2.00000
    165      -6.7986      2.00000
    166      -6.7868      2.00000
    167      -6.7696      2.00000
    168      -6.7398      2.00000
    169      -6.6865      2.00000
    170      -6.6544      2.00000
    171      -6.6470      2.00000
    172      -6.6101      2.00000
    173      -6.5717      2.00000
    174      -6.5652      2.00000
    175      -6.5456      2.00000
    176      -6.5236      2.00000
    177      -6.5216      2.00000
    178      -6.5062      2.00000
    179      -6.4642      2.00000
    180      -6.4283      2.00000
    181      -6.4221      2.00000
    182      -6.4206      2.00000
    183      -6.4165      2.00000
    184      -6.4089      2.00000
    185      -6.3740      2.00000
    186      -6.2547      2.00000
    187      -6.2274      2.00000
    188      -6.2040      2.00000
    189      -6.1646      2.00000
    190      -6.0809      2.00000
    191      -5.9364      2.00000
    192      -5.9255      2.00000
    193      -5.9118      2.00000
    194      -5.8849      2.00000
    195      -5.8391      2.00000
    196      -5.7684      2.00000
    197      -5.7053      2.00000
    198      -5.6563      2.00000
    199      -5.6101      1.99996
    200      -5.5606      1.99939
    201      -5.5336      1.99768
    202      -5.5078      1.99264
    203      -5.4911      1.98546
    204      -5.4123      1.81623
    205      -5.3643      1.48434
    206      -5.3353      1.18997
    207      -5.3330      1.16462
    208      -5.2723      0.51569
    209      -5.2116      0.13148
    210      -5.2068      0.11488
    211      -4.8165      0.00000
    212      -4.7989      0.00000
    213      -4.7413      0.00000
    214      -4.0279      0.00000
    215      -3.4958      0.00000
    216      -2.7785      0.00000
    217      -1.6221      0.00000
    218      -1.5377      0.00000
    219      -1.4442      0.00000
    220      -1.3750      0.00000
    221      -1.3302      0.00000
    222      -1.0449      0.00000
    223      -1.0247      0.00000
    224      -0.9594      0.00000
    225      -0.9166      0.00000
    226      -0.7788      0.00000
    227      -0.6382      0.00000
    228      -0.5799      0.00000
    229      -0.5712      0.00000
    230      -0.5293      0.00000
    231      -0.5004      0.00000
    232      -0.4914      0.00000
    233      -0.4908      0.00000
    234      -0.4733      0.00000
    235      -0.4115      0.00000
    236      -0.3869      0.00000
    237      -0.2999      0.00000
    238      -0.2879      0.00000
    239      -0.2593      0.00000
    240      -0.2412      0.00000
    241      -0.1902      0.00000
    242      -0.1095      0.00000
    243      -0.0553      0.00000
    244      -0.0298      0.00000
    245       0.1212      0.00000
    246       0.1279      0.00000
    247       0.1864      0.00000
    248       0.2186      0.00000
    249       0.3597      0.00000
    250       0.3787      0.00000
    251       0.3807      0.00000
    252       0.3937      0.00000
    253       0.3951      0.00000
    254       0.4311      0.00000
    255       0.5042      0.00000
    256       0.6426      0.00000
    257       0.6432      0.00000
    258       0.6596      0.00000
    259       0.6823      0.00000
    260       0.6964      0.00000
    261       0.7918      0.00000
    262       0.8206      0.00000
    263       0.8748      0.00000
    264       0.9406      0.00000
    265       0.9428      0.00000
    266       0.9948      0.00000
    267       1.0549      0.00000
    268       1.0721      0.00000
    269       1.0733      0.00000
    270       1.1253      0.00000
    271       1.1858      0.00000
    272       1.1950      0.00000
    273       1.2061      0.00000
    274       1.2464      0.00000
    275       1.2664      0.00000
    276       1.3318      0.00000
    277       1.3500      0.00000
    278       1.4065      0.00000
    279       1.4082      0.00000
    280       1.4491      0.00000
    281       1.5287      0.00000
    282       1.5351      0.00000
    283       1.5576      0.00000
    284       1.5875      0.00000
    285       1.5940      0.00000
    286       1.6067      0.00000
    287       1.6156      0.00000
    288       1.6201      0.00000
    289       1.6327      0.00000
    290       1.6436      0.00000
    291       1.6929      0.00000
    292       1.7373      0.00000
    293       1.7512      0.00000
    294       1.8490      0.00000

 k-point     4 :       0.1250   -0.3333    0.0000
  band No.  band energies     occupation 
      1     -19.3826      2.00000
      2     -19.3539      2.00000
      3     -19.2926      2.00000
      4     -19.2047      2.00000
      5     -19.1814      2.00000
      6     -19.1322      2.00000
      7     -19.0924      2.00000
      8     -19.0733      2.00000
      9     -19.0335      2.00000
     10     -18.6790      2.00000
     11     -18.6654      2.00000
     12     -18.6602      2.00000
     13     -18.5705      2.00000
     14     -18.5306      2.00000
     15     -18.5126      2.00000
     16     -18.3895      2.00000
     17     -18.2860      2.00000
     18     -18.2342      2.00000
     19     -15.5493      2.00000
     20     -15.5388      2.00000
     21     -15.4416      2.00000
     22     -15.4219      2.00000
     23     -15.4125      2.00000
     24     -15.3937      2.00000
     25     -15.3897      2.00000
     26     -15.3478      2.00000
     27     -15.2815      2.00000
     28     -15.2313      2.00000
     29     -15.0997      2.00000
     30     -15.0744      2.00000
     31     -15.0543      2.00000
     32     -15.0211      2.00000
     33     -15.0140      2.00000
     34     -15.0056      2.00000
     35     -14.9351      2.00000
     36     -14.7299      2.00000
     37     -13.5943      2.00000
     38     -13.1310      2.00000
     39     -12.8576      2.00000
     40     -12.8498      2.00000
     41     -12.7872      2.00000
     42     -12.7829      2.00000
     43     -12.7011      2.00000
     44     -12.6949      2.00000
     45     -12.4203      2.00000
     46     -12.3980      2.00000
     47     -12.2811      2.00000
     48     -12.2489      2.00000
     49     -12.2269      2.00000
     50     -12.2187      2.00000
     51     -12.1057      2.00000
     52     -12.0918      2.00000
     53     -12.0809      2.00000
     54     -12.0421      2.00000
     55     -12.0374      2.00000
     56     -11.9998      2.00000
     57     -11.9568      2.00000
     58     -11.9324      2.00000
     59     -11.9220      2.00000
     60     -11.8596      2.00000
     61     -11.8519      2.00000
     62     -11.8403      2.00000
     63     -11.7631      2.00000
     64     -11.5595      2.00000
     65     -11.5383      2.00000
     66     -11.5161      2.00000
     67     -11.5019      2.00000
     68     -11.4923      2.00000
     69     -11.4813      2.00000
     70     -11.4030      2.00000
     71     -11.3951      2.00000
     72     -11.3569      2.00000
     73     -11.2897      2.00000
     74     -11.1961      2.00000
     75     -11.1642      2.00000
     76     -11.1617      2.00000
     77     -11.1602      2.00000
     78     -11.1015      2.00000
     79     -10.8718      2.00000
     80     -10.8607      2.00000
     81     -10.7908      2.00000
     82     -10.5468      2.00000
     83     -10.4991      2.00000
     84     -10.2206      2.00000
     85     -10.0208      2.00000
     86     -10.0007      2.00000
     87      -9.9205      2.00000
     88      -9.7816      2.00000
     89      -9.7694      2.00000
     90      -9.7679      2.00000
     91      -9.6838      2.00000
     92      -9.6589      2.00000
     93      -9.3094      2.00000
     94      -9.2957      2.00000
     95      -9.2481      2.00000
     96      -9.1929      2.00000
     97      -9.1548      2.00000
     98      -9.1396      2.00000
     99      -9.1183      2.00000
    100      -9.1029      2.00000
    101      -9.0809      2.00000
    102      -9.0741      2.00000
    103      -9.0590      2.00000
    104      -9.0445      2.00000
    105      -9.0306      2.00000
    106      -9.0032      2.00000
    107      -9.0020      2.00000
    108      -8.9955      2.00000
    109      -8.9863      2.00000
    110      -8.9860      2.00000
    111      -8.9794      2.00000
    112      -8.9721      2.00000
    113      -8.9651      2.00000
    114      -8.9497      2.00000
    115      -8.9173      2.00000
    116      -8.9021      2.00000
    117      -8.8368      2.00000
    118      -8.7807      2.00000
    119      -8.5342      2.00000
    120      -8.5290      2.00000
    121      -8.4871      2.00000
    122      -8.4189      2.00000
    123      -8.4109      2.00000
    124      -8.3044      2.00000
    125      -8.2209      2.00000
    126      -8.1522      2.00000
    127      -8.0773      2.00000
    128      -8.0500      2.00000
    129      -7.9803      2.00000
    130      -7.9736      2.00000
    131      -7.9498      2.00000
    132      -7.9494      2.00000
    133      -7.9153      2.00000
    134      -7.8417      2.00000
    135      -7.8317      2.00000
    136      -7.7993      2.00000
    137      -7.7843      2.00000
    138      -7.7225      2.00000
    139      -7.7082      2.00000
    140      -7.6635      2.00000
    141      -7.6454      2.00000
    142      -7.6241      2.00000
    143      -7.6063      2.00000
    144      -7.5914      2.00000
    145      -7.5606      2.00000
    146      -7.5558      2.00000
    147      -7.5059      2.00000
    148      -7.4091      2.00000
    149      -7.3843      2.00000
    150      -7.3754      2.00000
    151      -7.3704      2.00000
    152      -7.2972      2.00000
    153      -7.2067      2.00000
    154      -7.1733      2.00000
    155      -7.0221      2.00000
    156      -7.0216      2.00000
    157      -7.0178      2.00000
    158      -6.9933      2.00000
    159      -6.9779      2.00000
    160      -6.9082      2.00000
    161      -6.8847      2.00000
    162      -6.8635      2.00000
    163      -6.8507      2.00000
    164      -6.8317      2.00000
    165      -6.7989      2.00000
    166      -6.7868      2.00000
    167      -6.7696      2.00000
    168      -6.7398      2.00000
    169      -6.6864      2.00000
    170      -6.6544      2.00000
    171      -6.6460      2.00000
    172      -6.6102      2.00000
    173      -6.5720      2.00000
    174      -6.5649      2.00000
    175      -6.5456      2.00000
    176      -6.5236      2.00000
    177      -6.5216      2.00000
    178      -6.5071      2.00000
    179      -6.4647      2.00000
    180      -6.4266      2.00000
    181      -6.4240      2.00000
    182      -6.4210      2.00000
    183      -6.4158      2.00000
    184      -6.4091      2.00000
    185      -6.3740      2.00000
    186      -6.2547      2.00000
    187      -6.2274      2.00000
    188      -6.2036      2.00000
    189      -6.1644      2.00000
    190      -6.0810      2.00000
    191      -5.9362      2.00000
    192      -5.9255      2.00000
    193      -5.9120      2.00000
    194      -5.8850      2.00000
    195      -5.8391      2.00000
    196      -5.7683      2.00000
    197      -5.7052      2.00000
    198      -5.6563      2.00000
    199      -5.6101      1.99996
    200      -5.5606      1.99939
    201      -5.5337      1.99768
    202      -5.5078      1.99266
    203      -5.4911      1.98549
    204      -5.4122      1.81593
    205      -5.3644      1.48528
    206      -5.3352      1.18913
    207      -5.3329      1.16324
    208      -5.2723      0.51512
    209      -5.2118      0.13210
    210      -5.2068      0.11482
    211      -4.8165      0.00000
    212      -4.7989      0.00000
    213      -4.7412      0.00000
    214      -4.0279      0.00000
    215      -3.4958      0.00000
    216      -2.7785      0.00000
    217      -1.6222      0.00000
    218      -1.5377      0.00000
    219      -1.4440      0.00000
    220      -1.3750      0.00000
    221      -1.3303      0.00000
    222      -1.0449      0.00000
    223      -1.0249      0.00000
    224      -0.9593      0.00000
    225      -0.9166      0.00000
    226      -0.7789      0.00000
    227      -0.6383      0.00000
    228      -0.5791      0.00000
    229      -0.5712      0.00000
    230      -0.5291      0.00000
    231      -0.5002      0.00000
    232      -0.4916      0.00000
    233      -0.4911      0.00000
    234      -0.4735      0.00000
    235      -0.4115      0.00000
    236      -0.3871      0.00000
    237      -0.3000      0.00000
    238      -0.2887      0.00000
    239      -0.2592      0.00000
    240      -0.2412      0.00000
    241      -0.1898      0.00000
    242      -0.1103      0.00000
    243      -0.0548      0.00000
    244      -0.0297      0.00000
    245       0.1212      0.00000
    246       0.1280      0.00000
    247       0.1863      0.00000
    248       0.2185      0.00000
    249       0.3596      0.00000
    250       0.3787      0.00000
    251       0.3810      0.00000
    252       0.3936      0.00000
    253       0.3953      0.00000
    254       0.4306      0.00000
    255       0.5049      0.00000
    256       0.6427      0.00000
    257       0.6434      0.00000
    258       0.6595      0.00000
    259       0.6822      0.00000
    260       0.6964      0.00000
    261       0.7918      0.00000
    262       0.8207      0.00000
    263       0.8748      0.00000
    264       0.9407      0.00000
    265       0.9428      0.00000
    266       0.9948      0.00000
    267       1.0551      0.00000
    268       1.0722      0.00000
    269       1.0734      0.00000
    270       1.1250      0.00000
    271       1.1858      0.00000
    272       1.1949      0.00000
    273       1.2063      0.00000
    274       1.2461      0.00000
    275       1.2665      0.00000
    276       1.3318      0.00000
    277       1.3502      0.00000
    278       1.4065      0.00000
    279       1.4081      0.00000
    280       1.4491      0.00000
    281       1.5291      0.00000
    282       1.5351      0.00000
    283       1.5576      0.00000
    284       1.5875      0.00000
    285       1.5940      0.00000
    286       1.6066      0.00000
    287       1.6156      0.00000
    288       1.6201      0.00000
    289       1.6330      0.00000
    290       1.6433      0.00000
    291       1.6986      0.00000
    292       1.7365      0.00000
    293       1.7855      0.00000
    294       1.8135      0.00000

 k-point     5 :       0.3750    0.3333    0.0000
  band No.  band energies     occupation 
      1     -19.3522      2.00000
      2     -19.3244      2.00000
      3     -19.2923      2.00000
      4     -19.2662      2.00000
      5     -19.2649      2.00000
      6     -19.2106      2.00000
      7     -18.9597      2.00000
      8     -18.9464      2.00000
      9     -18.9198      2.00000
     10     -18.8129      2.00000
     11     -18.8076      2.00000
     12     -18.7987      2.00000
     13     -18.4823      2.00000
     14     -18.4209      2.00000
     15     -18.4151      2.00000
     16     -18.3834      2.00000
     17     -18.3307      2.00000
     18     -18.2864      2.00000
     19     -15.5117      2.00000
     20     -15.4774      2.00000
     21     -15.4531      2.00000
     22     -15.4451      2.00000
     23     -15.4354      2.00000
     24     -15.4149      2.00000
     25     -15.3923      2.00000
     26     -15.3710      2.00000
     27     -15.3123      2.00000
     28     -15.2089      2.00000
     29     -15.2015      2.00000
     30     -15.1206      2.00000
     31     -15.0101      2.00000
     32     -15.0023      2.00000
     33     -14.9462      2.00000
     34     -14.9287      2.00000
     35     -14.9212      2.00000
     36     -14.7980      2.00000
     37     -13.4154      2.00000
     38     -13.0994      2.00000
     39     -13.0784      2.00000
     40     -12.9828      2.00000
     41     -12.8096      2.00000
     42     -12.7810      2.00000
     43     -12.7223      2.00000
     44     -12.5990      2.00000
     45     -12.5127      2.00000
     46     -12.3234      2.00000
     47     -12.2890      2.00000
     48     -12.2466      2.00000
     49     -12.1940      2.00000
     50     -12.1864      2.00000
     51     -12.1789      2.00000
     52     -12.1298      2.00000
     53     -12.0698      2.00000
     54     -12.0635      2.00000
     55     -12.0619      2.00000
     56     -12.0089      2.00000
     57     -11.9633      2.00000
     58     -11.9621      2.00000
     59     -11.8219      2.00000
     60     -11.8131      2.00000
     61     -11.7903      2.00000
     62     -11.7412      2.00000
     63     -11.6580      2.00000
     64     -11.6516      2.00000
     65     -11.6445      2.00000
     66     -11.5675      2.00000
     67     -11.5063      2.00000
     68     -11.4451      2.00000
     69     -11.4163      2.00000
     70     -11.4016      2.00000
     71     -11.3982      2.00000
     72     -11.3534      2.00000
     73     -11.2976      2.00000
     74     -11.2351      2.00000
     75     -11.2303      2.00000
     76     -11.1473      2.00000
     77     -11.0525      2.00000
     78     -10.9972      2.00000
     79     -10.8684      2.00000
     80     -10.7306      2.00000
     81     -10.5972      2.00000
     82     -10.5484      2.00000
     83     -10.3909      2.00000
     84     -10.3640      2.00000
     85     -10.3470      2.00000
     86     -10.2435      2.00000
     87     -10.1558      2.00000
     88     -10.0619      2.00000
     89      -9.7612      2.00000
     90      -9.6048      2.00000
     91      -9.5911      2.00000
     92      -9.4545      2.00000
     93      -9.4043      2.00000
     94      -9.3984      2.00000
     95      -9.2147      2.00000
     96      -9.1672      2.00000
     97      -9.0925      2.00000
     98      -9.0730      2.00000
     99      -9.0718      2.00000
    100      -9.0694      2.00000
    101      -9.0690      2.00000
    102      -9.0523      2.00000
    103      -9.0506      2.00000
    104      -9.0380      2.00000
    105      -9.0222      2.00000
    106      -9.0197      2.00000
    107      -9.0195      2.00000
    108      -8.9955      2.00000
    109      -8.9949      2.00000
    110      -8.9883      2.00000
    111      -8.9513      2.00000
    112      -8.9246      2.00000
    113      -8.9220      2.00000
    114      -8.9087      2.00000
    115      -8.8718      2.00000
    116      -8.8066      2.00000
    117      -8.6884      2.00000
    118      -8.6474      2.00000
    119      -8.5878      2.00000
    120      -8.5728      2.00000
    121      -8.5387      2.00000
    122      -8.4900      2.00000
    123      -8.4513      2.00000
    124      -8.3382      2.00000
    125      -8.3017      2.00000
    126      -8.2498      2.00000
    127      -8.1465      2.00000
    128      -8.1059      2.00000
    129      -8.0691      2.00000
    130      -8.0674      2.00000
    131      -7.9014      2.00000
    132      -7.9010      2.00000
    133      -7.8353      2.00000
    134      -7.8260      2.00000
    135      -7.8150      2.00000
    136      -7.8147      2.00000
    137      -7.8139      2.00000
    138      -7.7445      2.00000
    139      -7.6942      2.00000
    140      -7.6803      2.00000
    141      -7.6569      2.00000
    142      -7.6141      2.00000
    143      -7.5897      2.00000
    144      -7.5594      2.00000
    145      -7.5429      2.00000
    146      -7.5365      2.00000
    147      -7.5206      2.00000
    148      -7.4429      2.00000
    149      -7.4106      2.00000
    150      -7.3193      2.00000
    151      -7.2391      2.00000
    152      -7.2312      2.00000
    153      -7.1924      2.00000
    154      -7.0641      2.00000
    155      -7.0141      2.00000
    156      -7.0009      2.00000
    157      -6.9987      2.00000
    158      -6.9847      2.00000
    159      -6.9650      2.00000
    160      -6.9335      2.00000
    161      -6.9209      2.00000
    162      -6.9076      2.00000
    163      -6.8709      2.00000
    164      -6.8210      2.00000
    165      -6.8173      2.00000
    166      -6.7937      2.00000
    167      -6.7397      2.00000
    168      -6.7306      2.00000
    169      -6.7210      2.00000
    170      -6.7056      2.00000
    171      -6.6754      2.00000
    172      -6.6363      2.00000
    173      -6.6281      2.00000
    174      -6.5966      2.00000
    175      -6.5806      2.00000
    176      -6.5534      2.00000
    177      -6.5252      2.00000
    178      -6.5001      2.00000
    179      -6.4196      2.00000
    180      -6.4045      2.00000
    181      -6.3928      2.00000
    182      -6.3698      2.00000
    183      -6.3461      2.00000
    184      -6.3169      2.00000
    185      -6.2842      2.00000
    186      -6.2694      2.00000
    187      -6.2174      2.00000
    188      -6.1731      2.00000
    189      -6.0818      2.00000
    190      -5.9931      2.00000
    191      -5.9697      2.00000
    192      -5.9227      2.00000
    193      -5.9081      2.00000
    194      -5.9055      2.00000
    195      -5.8492      2.00000
    196      -5.8137      2.00000
    197      -5.7637      2.00000
    198      -5.7595      2.00000
    199      -5.7085      2.00000
    200      -5.7078      2.00000
    201      -5.6378      1.99999
    202      -5.5851      1.99984
    203      -5.5137      1.99427
    204      -5.5117      1.99378
    205      -5.4983      1.98910
    206      -5.4904      1.98508
    207      -5.4839      1.98084
    208      -5.3879      1.67545
    209      -5.2167      0.15088
    210      -5.1718      0.03829
    211      -4.4570      0.00000
    212      -4.2175      0.00000
    213      -4.1793      0.00000
    214      -4.0725      0.00000
    215      -3.7689      0.00000
    216      -3.3586      0.00000
    217      -1.5824      0.00000
    218      -1.4415      0.00000
    219      -1.3914      0.00000
    220      -1.2701      0.00000
    221      -1.2381      0.00000
    222      -1.2186      0.00000
    223      -1.0642      0.00000
    224      -0.9584      0.00000
    225      -0.8890      0.00000
    226      -0.8623      0.00000
    227      -0.8433      0.00000
    228      -0.8113      0.00000
    229      -0.6884      0.00000
    230      -0.6544      0.00000
    231      -0.6222      0.00000
    232      -0.3505      0.00000
    233      -0.3464      0.00000
    234      -0.2717      0.00000
    235      -0.2579      0.00000
    236      -0.2134      0.00000
    237      -0.1066      0.00000
    238      -0.1046      0.00000
    239      -0.0673      0.00000
    240      -0.0448      0.00000
    241      -0.0329      0.00000
    242      -0.0303      0.00000
    243      -0.0153      0.00000
    244      -0.0078      0.00000
    245       0.0382      0.00000
    246       0.0816      0.00000
    247       0.1678      0.00000
    248       0.2107      0.00000
    249       0.2194      0.00000
    250       0.2268      0.00000
    251       0.2834      0.00000
    252       0.3082      0.00000
    253       0.4933      0.00000
    254       0.6980      0.00000
    255       0.7121      0.00000
    256       0.7409      0.00000
    257       0.7605      0.00000
    258       0.7779      0.00000
    259       0.7795      0.00000
    260       0.7932      0.00000
    261       0.8442      0.00000
    262       0.8466      0.00000
    263       0.8722      0.00000
    264       0.8828      0.00000
    265       0.8972      0.00000
    266       0.9073      0.00000
    267       0.9185      0.00000
    268       0.9206      0.00000
    269       0.9228      0.00000
    270       0.9284      0.00000
    271       0.9803      0.00000
    272       1.0094      0.00000
    273       1.0193      0.00000
    274       1.0895      0.00000
    275       1.1534      0.00000
    276       1.2431      0.00000
    277       1.2667      0.00000
    278       1.2676      0.00000
    279       1.3436      0.00000
    280       1.3988      0.00000
    281       1.4678      0.00000
    282       1.4859      0.00000
    283       1.5015      0.00000
    284       1.5121      0.00000
    285       1.5193      0.00000
    286       1.5431      0.00000
    287       1.5540      0.00000
    288       1.5700      0.00000
    289       1.6206      0.00000
    290       1.6387      0.00000
    291       1.6888      0.00000
    292       1.7312      0.00000
    293       1.7422      0.00000
    294       1.7819      0.00000

 k-point     6 :       0.3750   -0.3333    0.0000
  band No.  band energies     occupation 
      1     -19.3522      2.00000
      2     -19.3244      2.00000
      3     -19.2923      2.00000
      4     -19.2662      2.00000
      5     -19.2649      2.00000
      6     -19.2106      2.00000
      7     -18.9597      2.00000
      8     -18.9465      2.00000
      9     -18.9198      2.00000
     10     -18.8129      2.00000
     11     -18.8076      2.00000
     12     -18.7987      2.00000
     13     -18.4823      2.00000
     14     -18.4209      2.00000
     15     -18.4152      2.00000
     16     -18.3833      2.00000
     17     -18.3306      2.00000
     18     -18.2864      2.00000
     19     -15.5117      2.00000
     20     -15.4774      2.00000
     21     -15.4530      2.00000
     22     -15.4451      2.00000
     23     -15.4356      2.00000
     24     -15.4148      2.00000
     25     -15.3924      2.00000
     26     -15.3710      2.00000
     27     -15.3124      2.00000
     28     -15.2089      2.00000
     29     -15.2014      2.00000
     30     -15.1207      2.00000
     31     -15.0101      2.00000
     32     -15.0022      2.00000
     33     -14.9462      2.00000
     34     -14.9287      2.00000
     35     -14.9212      2.00000
     36     -14.7980      2.00000
     37     -13.4155      2.00000
     38     -13.0991      2.00000
     39     -13.0780      2.00000
     40     -12.9835      2.00000
     41     -12.8099      2.00000
     42     -12.7803      2.00000
     43     -12.7231      2.00000
     44     -12.5982      2.00000
     45     -12.5119      2.00000
     46     -12.3234      2.00000
     47     -12.2897      2.00000
     48     -12.2466      2.00000
     49     -12.1940      2.00000
     50     -12.1865      2.00000
     51     -12.1789      2.00000
     52     -12.1298      2.00000
     53     -12.0700      2.00000
     54     -12.0636      2.00000
     55     -12.0621      2.00000
     56     -12.0089      2.00000
     57     -11.9630      2.00000
     58     -11.9621      2.00000
     59     -11.8226      2.00000
     60     -11.8130      2.00000
     61     -11.7904      2.00000
     62     -11.7411      2.00000
     63     -11.6580      2.00000
     64     -11.6515      2.00000
     65     -11.6445      2.00000
     66     -11.5678      2.00000
     67     -11.5058      2.00000
     68     -11.4451      2.00000
     69     -11.4163      2.00000
     70     -11.4009      2.00000
     71     -11.3978      2.00000
     72     -11.3528      2.00000
     73     -11.2976      2.00000
     74     -11.2351      2.00000
     75     -11.2302      2.00000
     76     -11.1474      2.00000
     77     -11.0531      2.00000
     78     -10.9977      2.00000
     79     -10.8687      2.00000
     80     -10.7305      2.00000
     81     -10.5975      2.00000
     82     -10.5485      2.00000
     83     -10.3907      2.00000
     84     -10.3639      2.00000
     85     -10.3469      2.00000
     86     -10.2437      2.00000
     87     -10.1559      2.00000
     88     -10.0618      2.00000
     89      -9.7613      2.00000
     90      -9.6045      2.00000
     91      -9.5915      2.00000
     92      -9.4544      2.00000
     93      -9.4038      2.00000
     94      -9.3984      2.00000
     95      -9.2147      2.00000
     96      -9.1675      2.00000
     97      -9.0925      2.00000
     98      -9.0730      2.00000
     99      -9.0718      2.00000
    100      -9.0694      2.00000
    101      -9.0690      2.00000
    102      -9.0523      2.00000
    103      -9.0506      2.00000
    104      -9.0379      2.00000
    105      -9.0223      2.00000
    106      -9.0197      2.00000
    107      -9.0195      2.00000
    108      -8.9955      2.00000
    109      -8.9949      2.00000
    110      -8.9883      2.00000
    111      -8.9513      2.00000
    112      -8.9246      2.00000
    113      -8.9220      2.00000
    114      -8.9087      2.00000
    115      -8.8717      2.00000
    116      -8.8069      2.00000
    117      -8.6880      2.00000
    118      -8.6475      2.00000
    119      -8.5876      2.00000
    120      -8.5732      2.00000
    121      -8.5384      2.00000
    122      -8.4899      2.00000
    123      -8.4517      2.00000
    124      -8.3379      2.00000
    125      -8.3017      2.00000
    126      -8.2499      2.00000
    127      -8.1468      2.00000
    128      -8.1058      2.00000
    129      -8.0690      2.00000
    130      -8.0675      2.00000
    131      -7.9013      2.00000
    132      -7.9010      2.00000
    133      -7.8355      2.00000
    134      -7.8261      2.00000
    135      -7.8151      2.00000
    136      -7.8147      2.00000
    137      -7.8138      2.00000
    138      -7.7444      2.00000
    139      -7.6941      2.00000
    140      -7.6803      2.00000
    141      -7.6568      2.00000
    142      -7.6142      2.00000
    143      -7.5897      2.00000
    144      -7.5595      2.00000
    145      -7.5429      2.00000
    146      -7.5365      2.00000
    147      -7.5206      2.00000
    148      -7.4437      2.00000
    149      -7.4102      2.00000
    150      -7.3190      2.00000
    151      -7.2384      2.00000
    152      -7.2321      2.00000
    153      -7.1918      2.00000
    154      -7.0642      2.00000
    155      -7.0144      2.00000
    156      -7.0010      2.00000
    157      -6.9991      2.00000
    158      -6.9846      2.00000
    159      -6.9649      2.00000
    160      -6.9321      2.00000
    161      -6.9210      2.00000
    162      -6.9077      2.00000
    163      -6.8711      2.00000
    164      -6.8209      2.00000
    165      -6.8165      2.00000
    166      -6.7951      2.00000
    167      -6.7398      2.00000
    168      -6.7305      2.00000
    169      -6.7210      2.00000
    170      -6.7055      2.00000
    171      -6.6754      2.00000
    172      -6.6363      2.00000
    173      -6.6269      2.00000
    174      -6.5967      2.00000
    175      -6.5815      2.00000
    176      -6.5531      2.00000
    177      -6.5256      2.00000
    178      -6.5001      2.00000
    179      -6.4209      2.00000
    180      -6.4043      2.00000
    181      -6.3914      2.00000
    182      -6.3692      2.00000
    183      -6.3466      2.00000
    184      -6.3169      2.00000
    185      -6.2843      2.00000
    186      -6.2693      2.00000
    187      -6.2171      2.00000
    188      -6.1738      2.00000
    189      -6.0820      2.00000
    190      -5.9929      2.00000
    191      -5.9698      2.00000
    192      -5.9224      2.00000
    193      -5.9081      2.00000
    194      -5.9054      2.00000
    195      -5.8493      2.00000
    196      -5.8138      2.00000
    197      -5.7634      2.00000
    198      -5.7594      2.00000
    199      -5.7084      2.00000
    200      -5.7079      2.00000
    201      -5.6378      1.99999
    202      -5.5852      1.99984
    203      -5.5136      1.99426
    204      -5.5117      1.99378
    205      -5.4982      1.98907
    206      -5.4905      1.98513
    207      -5.4838      1.98077
    208      -5.3881      1.67625
    209      -5.2166      0.15038
    210      -5.1719      0.03848
    211      -4.4572      0.00000
    212      -4.2174      0.00000
    213      -4.1792      0.00000
    214      -4.0725      0.00000
    215      -3.7691      0.00000
    216      -3.3586      0.00000
    217      -1.5824      0.00000
    218      -1.4415      0.00000
    219      -1.3914      0.00000
    220      -1.2701      0.00000
    221      -1.2382      0.00000
    222      -1.2182      0.00000
    223      -1.0642      0.00000
    224      -0.9589      0.00000
    225      -0.8895      0.00000
    226      -0.8620      0.00000
    227      -0.8434      0.00000
    228      -0.8105      0.00000
    229      -0.6887      0.00000
    230      -0.6547      0.00000
    231      -0.6220      0.00000
    232      -0.3500      0.00000
    233      -0.3463      0.00000
    234      -0.2716      0.00000
    235      -0.2583      0.00000
    236      -0.2135      0.00000
    237      -0.1064      0.00000
    238      -0.1048      0.00000
    239      -0.0672      0.00000
    240      -0.0449      0.00000
    241      -0.0330      0.00000
    242      -0.0302      0.00000
    243      -0.0159      0.00000
    244      -0.0077      0.00000
    245       0.0375      0.00000
    246       0.0814      0.00000
    247       0.1680      0.00000
    248       0.2107      0.00000
    249       0.2195      0.00000
    250       0.2273      0.00000
    251       0.2836      0.00000
    252       0.3082      0.00000
    253       0.4932      0.00000
    254       0.6981      0.00000
    255       0.7119      0.00000
    256       0.7417      0.00000
    257       0.7608      0.00000
    258       0.7780      0.00000
    259       0.7796      0.00000
    260       0.7929      0.00000
    261       0.8442      0.00000
    262       0.8466      0.00000
    263       0.8727      0.00000
    264       0.8828      0.00000
    265       0.8973      0.00000
    266       0.9073      0.00000
    267       0.9187      0.00000
    268       0.9203      0.00000
    269       0.9231      0.00000
    270       0.9284      0.00000
    271       0.9802      0.00000
    272       1.0093      0.00000
    273       1.0188      0.00000
    274       1.0896      0.00000
    275       1.1527      0.00000
    276       1.2431      0.00000
    277       1.2668      0.00000
    278       1.2677      0.00000
    279       1.3436      0.00000
    280       1.3988      0.00000
    281       1.4677      0.00000
    282       1.4859      0.00000
    283       1.5015      0.00000
    284       1.5120      0.00000
    285       1.5194      0.00000
    286       1.5431      0.00000
    287       1.5539      0.00000
    288       1.5700      0.00000
    289       1.6206      0.00000
    290       1.6387      0.00000
    291       1.6888      0.00000
    292       1.7316      0.00000
    293       1.7669      0.00000
    294       1.7828      0.00000


--------------------------------------------------------------------------------------------------------


 soft charge-density along one line, spin component           1
         0         1         2         3         4         5         6         7         8         9
 total charge-density along one line
 
 pseudopotential strength for first ion, spin component:           1
  6.872  10.495  -0.009  -0.000   0.004  -0.014  -0.000   0.006
 10.495  16.025  -0.013  -0.000   0.006  -0.021  -0.000   0.009
 -0.009  -0.013  -2.385   0.000  -0.001  -4.110   0.000  -0.001
 -0.000  -0.000   0.000  -2.379   0.000   0.000  -4.098   0.000
  0.004   0.006  -0.001   0.000  -2.383  -0.001   0.000  -4.108
 -0.014  -0.021  -4.110   0.000  -0.001  -6.887   0.000  -0.003
 -0.000  -0.000   0.000  -4.098   0.000   0.000  -6.861   0.000
  0.006   0.009  -0.001   0.000  -4.108  -0.003   0.000  -6.882
 total augmentation occupancy for first ion, spin component:           1
  3.718  -1.007  -0.259  -0.002   0.427   0.129   0.001  -0.177
 -1.007   0.296   0.165   0.001  -0.194  -0.058  -0.000   0.072
 -0.259   0.165   3.915  -0.004   0.327  -1.101   0.001  -0.120
 -0.002   0.001  -0.004   2.371  -0.000   0.001  -0.566   0.000
  0.427  -0.194   0.327  -0.000   3.642  -0.120   0.000  -1.000
  0.129  -0.058  -1.101   0.001  -0.120   0.319  -0.000   0.043
  0.001  -0.000   0.001  -0.566   0.000  -0.000   0.139  -0.000
 -0.177   0.072  -0.120   0.000  -1.000   0.043  -0.000   0.284


------------------------ aborting loop because EDIFF is reached ----------------------------------------





 total charge

# of ion       s       p       d       tot
------------------------------------------
    1        0.714   1.389   0.000   2.103
    2        0.714   1.388   0.000   2.102
    3        0.714   1.388   0.000   2.102
    4        0.714   1.388   0.000   2.102
    5        0.714   1.388   0.000   2.102
    6        0.714   1.388   0.000   2.102
    7        0.714   1.388   0.000   2.102
    8        0.714   1.388   0.000   2.102
    9        0.714   1.388   0.000   2.102
   10        0.714   1.388   0.000   2.102
   11        0.714   1.388   0.000   2.102
   12        0.714   1.388   0.000   2.102
   13        0.714   1.388   0.000   2.102
   14        0.714   1.388   0.000   2.102
   15        0.714   1.388   0.000   2.102
   16        0.714   1.388   0.000   2.102
   17        0.714   1.388   0.000   2.102
   18        0.714   1.388   0.000   2.102
   19        0.714   1.388   0.000   2.102
   20        0.714   1.388   0.000   2.102
   21        0.714   1.388   0.000   2.102
   22        0.714   1.388   0.000   2.102
   23        0.714   1.388   0.000   2.102
   24        0.714   1.388   0.000   2.102
   25        0.714   1.388   0.000   2.102
   26        0.714   1.388   0.000   2.102
   27        0.714   1.388   0.000   2.102
   28        0.714   1.388   0.000   2.102
   29        0.714   1.388   0.000   2.102
   30        0.714   1.388   0.000   2.102
   31        0.714   1.388   0.000   2.102
   32        0.714   1.388   0.000   2.102
   33        0.714   1.388   0.000   2.102
   34        0.714   1.388   0.000   2.102
   35        0.714   1.388   0.000   2.102
   36        0.714   1.388   0.000   2.102
   37        0.719   1.315   0.000   2.034
   38        0.719   1.317   0.000   2.035
   39        0.719   1.317   0.000   2.035
   40        0.719   1.317   0.000   2.035
   41        0.719   1.317   0.000   2.035
   42        0.719   1.317   0.000   2.035
   43        0.719   1.317   0.000   2.035
   44        0.719   1.317   0.000   2.035
   45        0.719   1.317   0.000   2.035
   46        0.719   1.317   0.000   2.035
   47        0.719   1.317   0.000   2.035
   48        0.719   1.317   0.000   2.035
   49        0.719   1.318   0.000   2.038
   50        0.719   1.317   0.000   2.035
   51        0.719   1.317   0.000   2.035
   52        0.719   1.317   0.000   2.035
   53        0.719   1.317   0.000   2.035
   54        0.719   1.317   0.000   2.035
   55        0.718   1.315   0.000   2.033
   56        0.719   1.317   0.000   2.035
   57        0.719   1.317   0.000   2.035
   58        0.719   1.317   0.000   2.035
   59        0.719   1.317   0.000   2.035
   60        0.719   1.317   0.000   2.035
   61        0.719   1.317   0.000   2.035
   62        0.719   1.317   0.000   2.035
   63        0.719   1.317   0.000   2.035
   64        0.719   1.317   0.000   2.035
   65        0.719   1.317   0.000   2.035
   66        0.719   1.317   0.000   2.035
   67        0.719   1.317   0.000   2.035
   68        0.719   1.317   0.000   2.035
   69        0.719   1.317   0.000   2.035
   70        0.719   1.317   0.000   2.035
   71        0.719   1.317   0.000   2.035
   72        0.719   1.317   0.000   2.035
   73        0.697   1.247   0.000   1.944
   74        0.698   1.249   0.000   1.947
   75        0.698   1.249   0.000   1.947
   76        0.698   1.249   0.000   1.947
   77        0.698   1.249   0.000   1.947
   78        0.698   1.249   0.000   1.947
   79        0.698   1.249   0.000   1.947
   80        0.698   1.249   0.000   1.947
   81        0.698   1.249   0.000   1.947
   82        0.698   1.249   0.000   1.947
   83        0.698   1.249   0.000   1.947
   84        0.698   1.249   0.000   1.947
   85        0.698   1.249   0.000   1.947
   86        0.698   1.249   0.000   1.947
   87        0.698   1.249   0.000   1.947
   88        0.698   1.249   0.000   1.947
   89        0.698   1.249   0.000   1.947
   90        0.698   1.249   0.000   1.947
   91        0.698   1.250   0.000   1.948
   92        0.698   1.249   0.000   1.947
   93        0.698   1.249   0.000   1.947
   94        0.698   1.249   0.000   1.947
   95        0.698   1.249   0.000   1.947
   96        0.698   1.249   0.000   1.947
   97        0.698   1.249   0.000   1.947
   98        0.698   1.249   0.000   1.947
   99        0.698   1.249   0.000   1.947
  100        0.698   1.249   0.000   1.947
  101        0.698   1.249   0.000   1.947
  102        0.698   1.249   0.000   1.947
  103        0.698   1.249   0.000   1.947
  104        0.698   1.249   0.000   1.947
  105        0.698   1.249   0.000   1.947
  106        0.698   1.249   0.000   1.947
  107        0.698   1.249   0.000   1.947
  108        0.698   1.249   0.000   1.947
  109        0.719   1.381   0.000   2.101
  110        0.719   1.381   0.000   2.101
  111        0.720   1.381   0.000   2.101
  112        0.719   1.381   0.000   2.101
  113        0.719   1.381   0.000   2.101
  114        0.720   1.381   0.000   2.101
  115        0.719   1.381   0.000   2.101
  116        0.719   1.381   0.000   2.101
  117        0.720   1.381   0.000   2.101
  118        0.719   1.381   0.000   2.101
  119        0.719   1.381   0.000   2.101
  120        0.719   1.381   0.000   2.101
  121        0.720   1.381   0.000   2.101
  122        0.719   1.381   0.000   2.101
  123        0.719   1.381   0.000   2.101
  124        0.720   1.381   0.000   2.101
  125        0.719   1.381   0.000   2.101
  126        0.719   1.381   0.000   2.101
  127        0.612   0.022   0.000   0.634
  128        0.612   0.022   0.000   0.634
  129        0.612   0.022   0.000   0.634
  130        0.612   0.022   0.000   0.634
  131        0.612   0.022   0.000   0.634
  132        0.612   0.022   0.000   0.634
  133        0.612   0.022   0.000   0.634
  134        0.612   0.022   0.000   0.634
  135        0.612   0.022   0.000   0.634
  136        0.612   0.022   0.000   0.634
  137        0.612   0.022   0.000   0.634
  138        0.612   0.022   0.000   0.634
  139        0.612   0.022   0.000   0.634
  140        0.612   0.022   0.000   0.634
  141        0.612   0.022   0.000   0.634
  142        0.612   0.022   0.000   0.634
  143        0.612   0.022   0.000   0.634
  144        0.612   0.022   0.000   0.634
  145        0.612   0.022   0.000   0.634
  146        0.612   0.022   0.000   0.634
  147        0.612   0.022   0.000   0.634
  148        0.612   0.022   0.000   0.634
  149        0.612   0.022   0.000   0.634
  150        0.612   0.022   0.000   0.634
  151        0.612   0.022   0.000   0.634
  152        0.612   0.022   0.000   0.634
  153        0.612   0.022   0.000   0.634
  154        0.612   0.022   0.000   0.634
  155        0.612   0.022   0.000   0.634
  156        0.612   0.022   0.000   0.634
  157        0.612   0.022   0.000   0.634
  158        0.612   0.022   0.000   0.634
  159        0.612   0.022   0.000   0.634
  160        0.612   0.022   0.000   0.634
  161        0.612   0.022   0.000   0.634
  162        0.612   0.022   0.000   0.634
--------------------------------------------------
tot        111.656 167.993   0.000 279.649
 
    CHARGE:  cpu time      6.7439: real time      6.8190
    FORLOC:  cpu time      0.5269: real time      0.5306
    FORNL :  cpu time     29.0238: real time     29.2422
    STRESS:  cpu time     87.3057: real time     88.0318
    FORCOR:  cpu time      1.1643: real time      1.1721
    FORHAR:  cpu time      0.7307: real time      0.7357
    MIXING:  cpu time      0.0355: real time      0.0357
    OFIELD:  cpu time      0.0001: real time      0.0001

 ---------------------------------------------------------------------------------------------

         DFTD3 V3.0 Rev 1        
 DF pbe       
 parameters
 k1-k3        =   16.0000    1.3333   -4.0000
 Edisp (eV)  -12.72840

 E6    (eV) :    -8.3791
 E8    (eV) :    -4.3493
 % E8        : 34.17
    FORVDW:  cpu time      0.8683: real time      0.8745

  FORCE on cell =-STRESS in cart. coord.  units (eV):
  Direction    XX          YY          ZZ          XY          YZ          ZX
  --------------------------------------------------------------------------------------
  Alpha Z   150.55104   150.55104   150.55104
  Ewald   80045.77138 79645.39918-86057.14321    -0.34939     0.06544    -0.16183
  Hartree 79452.08906 79225.62863-77649.54128    -0.12092    -0.04941     0.00448
  E(xc)   -1322.52156 -1322.27502 -1332.34559    -0.00041    -0.00011    -0.00023
  Local  ************************160454.31887     0.42477    -0.00732     0.12836
  n-local  -184.69299  -187.54858  -224.28432    -0.01176    -0.00650    -0.00287
  augment    16.38441    16.63699    15.72966    -0.00009    -0.00036     0.00011
  Kinetic  4374.58254  4354.37622  4643.81503     0.06598     0.04998    -0.00221
  Fock        0.00000     0.00000     0.00000     0.00000     0.00000     0.00000
  vdW       -13.56112   -13.32173    -2.98564    -0.00006    -0.00001     0.00002
  -------------------------------------------------------------------------------------
  Total       0.82419     0.35500    -1.88544     0.00813     0.05170    -0.03417
  in kB       0.16130     0.06947    -0.36899     0.00159     0.01012    -0.00669
  external pressure =       -0.05 kB  Pullay stress =        0.00 kB


 VOLUME and BASIS-vectors are now :
 -----------------------------------------------------------------------------
  energy-cutoff  :      600.00
  volume of cell :     8186.71
      direct lattice vectors                 reciprocal lattice vectors
    17.082526476  0.000000000  0.000000000     0.058539350  0.000000000  0.000000000
     0.000000000 18.401308062  0.000000000     0.000000000  0.054343963  0.000000000
     0.000000000  0.000000000 26.044057846     0.000000000  0.000000000  0.038396474

  length of vectors
    17.082526476 18.401308062 26.044057846     0.058539350  0.054343963  0.038396474


 FORCES acting on ions
    electron-ion (+dipol)            ewald-force                    non-local-force                 convergence-correction
 -----------------------------------------------------------------------------------------------
   0.482E+02 -.230E+02 -.211E+00   -.497E+02 0.263E+02 0.234E+00   0.149E+01 -.327E+01 -.196E-01   -.303E-05 -.101E-05 -.543E-05
   0.484E+02 -.231E+02 -.724E-02   -.499E+02 0.264E+02 0.688E-02   0.149E+01 -.325E+01 0.695E-04   0.439E-06 0.130E-04 -.611E-05
   0.483E+02 -.231E+02 -.553E-02   -.499E+02 0.264E+02 0.485E-02   0.149E+01 -.325E+01 0.595E-03   -.866E-05 -.865E-05 -.622E-05
   0.483E+02 -.231E+02 -.125E-01   -.498E+02 0.264E+02 0.118E-01   0.149E+01 -.325E+01 0.318E-03   0.168E-04 0.868E-05 -.606E-05
   0.483E+02 -.231E+02 -.353E-02   -.499E+02 0.264E+02 0.368E-02   0.149E+01 -.325E+01 -.501E-03   -.362E-05 -.680E-05 -.600E-05
   0.483E+02 -.231E+02 -.254E-02   -.499E+02 0.264E+02 0.301E-02   0.149E+01 -.325E+01 0.566E-03   -.935E-05 0.102E-04 -.613E-05
   0.483E+02 -.231E+02 -.249E-02   -.498E+02 0.264E+02 0.301E-02   0.149E+01 -.325E+01 -.568E-03   -.933E-05 -.907E-06 -.611E-05
   0.483E+02 -.231E+02 -.224E-02   -.499E+02 0.264E+02 0.199E-02   0.149E+01 -.325E+01 -.496E-03   0.501E-05 0.148E-05 -.603E-05
   0.483E+02 -.231E+02 -.261E-02   -.499E+02 0.264E+02 0.183E-02   0.149E+01 -.325E+01 0.711E-03   0.118E-04 -.168E-05 -.616E-05
   -.484E+02 0.231E+02 -.326E-01   0.499E+02 -.264E+02 0.286E-01   -.149E+01 0.325E+01 -.339E-02   0.148E-05 -.398E-05 -.588E-05
   -.483E+02 0.231E+02 -.610E-02   0.498E+02 -.264E+02 0.543E-02   -.149E+01 0.325E+01 -.187E-02   0.903E-05 0.636E-05 -.608E-05
   -.483E+02 0.231E+02 -.388E-02   0.498E+02 -.264E+02 0.352E-02   -.149E+01 0.325E+01 -.371E-03   -.487E-05 -.114E-04 -.615E-05
   -.484E+02 0.231E+02 -.461E-01   0.499E+02 -.264E+02 0.436E-01   -.149E+01 0.325E+01 0.287E-02   0.193E-04 0.153E-05 -.607E-05
   -.483E+02 0.231E+02 -.566E-02   0.498E+02 -.264E+02 0.607E-02   -.149E+01 0.325E+01 -.733E-03   -.157E-04 0.155E-05 -.608E-05
   -.483E+02 0.231E+02 -.380E-02   0.498E+02 -.264E+02 0.378E-02   -.149E+01 0.325E+01 -.956E-04   -.819E-05 -.718E-06 -.617E-05
   -.483E+02 0.231E+02 -.247E-02   0.499E+02 -.264E+02 0.257E-02   -.149E+01 0.325E+01 0.613E-04   -.559E-05 -.636E-05 -.603E-05
   -.483E+02 0.231E+02 -.207E-02   0.498E+02 -.264E+02 0.189E-02   -.149E+01 0.325E+01 -.583E-03   0.811E-05 -.846E-05 -.609E-05
   -.483E+02 0.231E+02 -.171E-02   0.498E+02 -.264E+02 0.168E-02   -.149E+01 0.325E+01 0.177E-03   0.152E-05 0.886E-05 -.611E-05
   -.483E+02 -.231E+02 -.569E-01   0.498E+02 0.264E+02 0.555E-01   -.150E+01 -.324E+01 -.588E-03   0.854E-05 0.119E-04 -.542E-05
   -.483E+02 -.231E+02 -.255E-02   0.498E+02 0.264E+02 0.318E-02   -.149E+01 -.325E+01 -.118E-03   -.475E-05 -.276E-05 -.616E-05
   -.483E+02 -.231E+02 -.185E-01   0.498E+02 0.264E+02 0.187E-01   -.149E+01 -.325E+01 -.168E-02   0.752E-05 -.567E-05 -.615E-05
   -.483E+02 -.231E+02 -.885E-02   0.499E+02 0.264E+02 0.888E-02   -.149E+01 -.325E+01 -.344E-03   0.867E-05 -.655E-05 -.605E-05
   -.483E+02 -.231E+02 -.255E-02   0.498E+02 0.264E+02 0.234E-02   -.149E+01 -.325E+01 0.143E-03   -.199E-04 0.881E-05 -.600E-05
   -.483E+02 -.231E+02 -.533E-02   0.498E+02 0.264E+02 0.605E-02   -.149E+01 -.325E+01 -.161E-02   0.750E-05 0.944E-05 -.610E-05
   -.483E+02 -.231E+02 -.327E-02   0.499E+02 0.264E+02 0.276E-02   -.149E+01 -.325E+01 0.112E-03   -.208E-05 0.906E-06 -.613E-05
   -.483E+02 -.231E+02 -.213E-02   0.498E+02 0.264E+02 0.164E-02   -.149E+01 -.325E+01 0.452E-03   0.923E-05 -.563E-05 -.604E-05
   -.483E+02 -.231E+02 -.304E-02   0.499E+02 0.264E+02 0.242E-02   -.149E+01 -.325E+01 -.262E-03   -.145E-04 0.365E-05 -.615E-05
   0.483E+02 0.231E+02 -.868E-02   -.499E+02 -.264E+02 0.111E-01   0.149E+01 0.325E+01 0.466E-04   -.413E-06 -.106E-04 -.612E-05
   0.483E+02 0.231E+02 -.175E-01   -.499E+02 -.264E+02 0.160E-01   0.148E+01 0.325E+01 0.474E-02   -.626E-05 0.176E-05 -.588E-05
   0.483E+02 0.231E+02 -.240E-02   -.499E+02 -.264E+02 0.267E-02   0.149E+01 0.325E+01 0.113E-03   0.109E-05 0.108E-06 -.613E-05
   0.483E+02 0.231E+02 -.150E-01   -.499E+02 -.264E+02 0.136E-01   0.149E+01 0.325E+01 0.148E-02   0.480E-05 0.468E-06 -.615E-05
   0.483E+02 0.231E+02 -.222E-01   -.499E+02 -.264E+02 0.210E-01   0.149E+01 0.325E+01 0.697E-03   0.178E-04 -.226E-05 -.603E-05
   0.483E+02 0.231E+02 -.318E-02   -.499E+02 -.264E+02 0.280E-02   0.149E+01 0.325E+01 0.340E-04   -.181E-04 0.409E-05 -.613E-05
   0.483E+02 0.231E+02 -.208E-02   -.498E+02 -.264E+02 0.221E-02   0.149E+01 0.325E+01 -.593E-03   -.740E-05 0.925E-05 -.604E-05
   0.483E+02 0.231E+02 -.244E-02   -.498E+02 -.264E+02 0.236E-02   0.149E+01 0.325E+01 0.295E-03   -.564E-05 -.923E-05 -.612E-05
   0.483E+02 0.231E+02 -.145E-02   -.499E+02 -.264E+02 0.155E-02   0.149E+01 0.325E+01 -.169E-03   0.900E-05 -.578E-05 -.607E-05
   0.282E+02 -.489E+02 0.142E+01   -.306E+02 0.532E+02 -.142E+01   0.253E+01 -.428E+01 0.755E-01   0.732E-05 0.110E-04 -.560E-05
   0.286E+02 -.493E+02 -.712E-02   -.311E+02 0.535E+02 0.634E-02   0.243E+01 -.425E+01 -.162E-02   -.958E-05 0.112E-04 -.621E-05
   0.286E+02 -.493E+02 -.743E-02   -.311E+02 0.535E+02 0.637E-02   0.243E+01 -.425E+01 -.259E-02   -.500E-05 0.104E-05 -.631E-05
   0.286E+02 -.493E+02 -.538E-02   -.310E+02 0.535E+02 0.509E-02   0.244E+01 -.425E+01 0.812E-03   0.717E-05 0.319E-06 -.613E-05
   0.286E+02 -.493E+02 -.249E-02   -.310E+02 0.535E+02 0.240E-02   0.243E+01 -.425E+01 -.128E-02   0.229E-05 -.135E-04 -.609E-05
   0.286E+02 -.493E+02 -.291E-02   -.310E+02 0.535E+02 0.240E-02   0.243E+01 -.425E+01 -.247E-02   -.622E-05 0.165E-04 -.618E-05
   0.286E+02 -.493E+02 -.522E-02   -.310E+02 0.535E+02 0.509E-02   0.244E+01 -.425E+01 0.643E-03   -.608E-05 0.215E-05 -.618E-05
   0.286E+02 -.493E+02 -.210E-02   -.310E+02 0.535E+02 0.240E-02   0.243E+01 -.425E+01 -.203E-02   0.276E-05 0.807E-06 -.611E-05
   0.286E+02 -.493E+02 -.267E-02   -.310E+02 0.535E+02 0.240E-02   0.243E+01 -.425E+01 -.235E-02   0.756E-05 -.132E-04 -.626E-05
   -.286E+02 0.493E+02 -.111E-01   0.311E+02 -.535E+02 0.877E-02   -.243E+01 0.425E+01 -.268E-02   -.288E-05 -.575E-05 -.616E-05
   -.286E+02 0.493E+02 -.162E-02   0.310E+02 -.535E+02 0.398E-02   -.243E+01 0.425E+01 -.198E-02   0.587E-05 -.579E-05 -.616E-05
   -.286E+02 0.493E+02 -.248E-02   0.310E+02 -.535E+02 0.248E-02   -.244E+01 0.425E+01 0.330E-03   0.324E-05 -.834E-05 -.621E-05
   -.286E+02 0.491E+02 -.266E+00   0.310E+02 -.533E+02 0.238E+00   -.245E+01 0.428E+01 0.405E-02   0.136E-04 -.313E-05 -.607E-05
   -.286E+02 0.493E+02 -.108E-01   0.310E+02 -.536E+02 0.105E-01   -.243E+01 0.425E+01 -.403E-03   -.988E-05 0.140E-04 -.615E-05
   -.286E+02 0.493E+02 -.390E-02   0.310E+02 -.535E+02 0.401E-02   -.244E+01 0.425E+01 0.809E-03   -.847E-05 -.387E-05 -.628E-05
   -.286E+02 0.493E+02 -.348E-02   0.310E+02 -.535E+02 0.323E-02   -.243E+01 0.425E+01 -.276E-02   0.304E-05 -.122E-05 -.609E-05
   -.286E+02 0.493E+02 -.220E-02   0.310E+02 -.535E+02 0.227E-02   -.243E+01 0.425E+01 -.145E-02   0.364E-05 -.180E-04 -.617E-05
   -.286E+02 0.493E+02 -.172E-02   0.310E+02 -.535E+02 0.179E-02   -.244E+01 0.425E+01 0.887E-03   -.655E-05 0.126E-04 -.619E-05
   -.283E+02 -.493E+02 -.179E+00   0.308E+02 0.535E+02 0.209E+00   -.246E+01 -.423E+01 -.206E-01   0.140E-04 0.201E-04 -.553E-05
   -.286E+02 -.493E+02 -.254E-02   0.310E+02 0.535E+02 0.359E-02   -.243E+01 -.425E+01 -.263E-02   -.114E-04 0.367E-05 -.624E-05
   -.286E+02 -.493E+02 -.180E-01   0.310E+02 0.535E+02 0.177E-01   -.243E+01 -.425E+01 -.837E-03   0.482E-05 -.522E-06 -.627E-05
   -.286E+02 -.493E+02 -.462E-02   0.310E+02 0.535E+02 0.459E-02   -.244E+01 -.425E+01 0.642E-03   0.103E-05 -.932E-05 -.615E-05
   -.286E+02 -.493E+02 -.204E-02   0.310E+02 0.535E+02 0.196E-02   -.243E+01 -.425E+01 -.289E-02   -.782E-05 -.289E-05 -.608E-05
   -.286E+02 -.493E+02 -.364E-02   0.310E+02 0.535E+02 0.323E-02   -.243E+01 -.425E+01 -.186E-02   0.343E-05 0.157E-04 -.615E-05
   -.286E+02 -.493E+02 -.428E-02   0.310E+02 0.535E+02 0.459E-02   -.244E+01 -.425E+01 0.311E-03   -.257E-05 0.274E-05 -.619E-05
   -.286E+02 -.493E+02 -.217E-02   0.310E+02 0.535E+02 0.196E-02   -.243E+01 -.425E+01 -.275E-02   0.525E-05 -.292E-07 -.612E-05
   -.286E+02 -.493E+02 -.321E-02   0.310E+02 0.535E+02 0.323E-02   -.243E+01 -.425E+01 -.229E-02   -.686E-05 -.133E-04 -.627E-05
   0.286E+02 0.493E+02 -.705E-02   -.310E+02 -.536E+02 0.625E-02   0.243E+01 0.425E+01 0.365E-03   -.708E-05 -.141E-04 -.623E-05
   0.286E+02 0.493E+02 -.651E-02   -.310E+02 -.535E+02 0.624E-02   0.243E+01 0.424E+01 -.141E-02   -.491E-05 -.552E-05 -.614E-05
   0.286E+02 0.493E+02 -.256E-02   -.310E+02 -.535E+02 0.218E-02   0.243E+01 0.425E+01 0.924E-03   0.595E-05 -.421E-06 -.618E-05
   0.286E+02 0.493E+02 -.411E-01   -.311E+02 -.535E+02 0.367E-01   0.243E+01 0.425E+01 0.155E-02   0.640E-05 -.647E-05 -.622E-05
   0.286E+02 0.493E+02 -.385E-01   -.311E+02 -.536E+02 0.364E-01   0.243E+01 0.425E+01 -.191E-02   0.108E-04 0.147E-04 -.601E-05
   0.286E+02 0.493E+02 -.348E-02   -.311E+02 -.535E+02 0.312E-02   0.244E+01 0.425E+01 0.383E-03   -.127E-04 -.112E-05 -.625E-05
   0.286E+02 0.493E+02 -.289E-02   -.310E+02 -.535E+02 0.280E-02   0.243E+01 0.425E+01 -.127E-02   0.377E-05 0.851E-05 -.611E-05
   0.286E+02 0.493E+02 -.281E-02   -.310E+02 -.535E+02 0.280E-02   0.243E+01 0.425E+01 -.260E-02   -.218E-05 -.171E-04 -.618E-05
   0.286E+02 0.493E+02 -.153E-02   -.310E+02 -.535E+02 0.167E-02   0.244E+01 0.425E+01 0.754E-03   -.169E-05 0.203E-05 -.615E-05
   0.148E+00 -.140E+02 -.219E+03   -.140E+00 0.152E+02 0.224E+03   -.249E-01 -.117E+01 -.502E+01   0.529E-05 0.840E-05 -.218E-05
   0.732E-02 -.137E+02 -.219E+03   -.718E-02 0.149E+02 0.224E+03   0.203E-02 -.118E+01 -.501E+01   -.575E-05 0.605E-05 -.628E-05
   0.535E-02 -.137E+02 -.219E+03   -.489E-02 0.149E+02 0.224E+03   -.132E-02 -.118E+01 -.501E+01   0.583E-06 -.241E-05 0.324E-05
   -.321E-02 -.137E+02 -.219E+03   0.313E-02 0.149E+02 0.224E+03   -.508E-04 -.118E+01 -.501E+01   0.898E-05 0.394E-06 -.109E-04
   0.229E-02 -.137E+02 -.219E+03   -.235E-02 0.149E+02 0.224E+03   0.148E-02 -.119E+01 -.501E+01   -.812E-05 -.863E-06 -.140E-04
   -.494E-04 -.137E+02 -.219E+03   -.528E-03 0.149E+02 0.224E+03   -.156E-02 -.119E+01 -.501E+01   -.921E-06 0.123E-04 0.212E-05
   -.144E-02 -.137E+02 -.219E+03   0.134E-02 0.149E+02 0.224E+03   -.286E-04 -.118E+01 -.501E+01   -.417E-05 0.130E-05 -.176E-05
   0.117E-02 -.137E+02 -.219E+03   -.116E-02 0.149E+02 0.224E+03   0.145E-02 -.118E+01 -.501E+01   0.440E-05 -.910E-06 -.328E-05
   0.106E-03 -.137E+02 -.219E+03   -.141E-03 0.149E+02 0.224E+03   -.150E-02 -.118E+01 -.501E+01   -.103E-06 -.396E-05 -.164E-04
   0.279E-02 0.137E+02 0.219E+03   -.139E-02 -.149E+02 -.224E+03   -.126E-02 0.118E+01 0.500E+01   -.449E-06 -.709E-05 -.110E-04
   0.896E-03 0.137E+02 0.219E+03   0.495E-03 -.149E+02 -.224E+03   0.669E-03 0.118E+01 0.500E+01   0.667E-06 0.401E-06 -.152E-04
   0.329E-02 0.137E+02 0.219E+03   -.304E-02 -.149E+02 -.224E+03   0.133E-03 0.118E+01 0.501E+01   -.107E-06 -.600E-05 -.895E-05
   0.237E-01 0.136E+02 0.219E+03   -.250E-01 -.148E+02 -.224E+03   -.418E-02 0.119E+01 0.500E+01   0.104E-04 -.226E-05 -.152E-04
   0.177E-02 0.137E+02 0.219E+03   -.124E-02 -.149E+02 -.224E+03   0.128E-02 0.118E+01 0.500E+01   0.762E-06 0.385E-05 0.692E-05
   0.416E-02 0.137E+02 0.219E+03   -.437E-02 -.149E+02 -.224E+03   -.751E-04 0.118E+01 0.501E+01   -.113E-04 -.166E-05 -.152E-04
   -.570E-03 0.137E+02 0.219E+03   0.595E-03 -.149E+02 -.224E+03   -.176E-02 0.118E+01 0.500E+01   -.178E-05 0.296E-06 -.929E-05
   -.310E-03 0.137E+02 0.219E+03   0.345E-03 -.149E+02 -.224E+03   0.176E-02 0.118E+01 0.500E+01   0.284E-06 -.124E-04 -.150E-04
   0.881E-03 0.137E+02 0.219E+03   -.958E-03 -.149E+02 -.224E+03   0.277E-05 0.118E+01 0.501E+01   0.147E-05 0.196E-05 -.454E-05
   -.210E+00 -.136E+02 0.219E+03   0.215E+00 0.148E+02 -.224E+03   -.493E-02 -.119E+01 0.500E+01   0.526E-05 0.871E-05 -.125E-04
   0.352E-02 -.137E+02 0.219E+03   -.414E-02 0.149E+02 -.224E+03   -.228E-02 -.118E+01 0.500E+01   -.572E-05 0.621E-05 -.862E-05
   0.154E-01 -.137E+02 0.219E+03   -.156E-01 0.149E+02 -.224E+03   0.126E-02 -.118E+01 0.500E+01   0.518E-06 -.224E-05 -.182E-04
   -.490E-02 -.137E+02 0.219E+03   0.471E-02 0.149E+02 -.224E+03   0.705E-04 -.118E+01 0.501E+01   0.897E-05 0.564E-06 -.397E-05
   0.153E-02 -.137E+02 0.219E+03   -.147E-02 0.149E+02 -.224E+03   -.172E-02 -.118E+01 0.500E+01   -.814E-05 -.690E-06 -.907E-06
   0.231E-02 -.137E+02 0.219E+03   -.239E-02 0.149E+02 -.224E+03   0.270E-02 -.118E+01 0.500E+01   -.955E-06 0.124E-04 -.170E-04
   -.141E-02 -.137E+02 0.219E+03   0.166E-02 0.149E+02 -.224E+03   -.706E-04 -.118E+01 0.501E+01   -.416E-05 0.143E-05 -.131E-04
   0.848E-03 -.137E+02 0.219E+03   -.783E-03 0.149E+02 -.224E+03   -.181E-02 -.118E+01 0.500E+01   0.441E-05 -.743E-06 -.115E-04
   0.935E-03 -.137E+02 0.219E+03   -.808E-03 0.149E+02 -.224E+03   0.161E-02 -.118E+01 0.500E+01   -.868E-07 -.377E-05 0.143E-05
   -.870E-02 0.137E+02 -.219E+03   0.676E-02 -.149E+02 0.224E+03   0.186E-02 0.119E+01 -.501E+01   -.334E-06 -.684E-05 -.383E-05
   0.560E-02 0.137E+02 -.219E+03   -.508E-02 -.149E+02 0.224E+03   -.302E-02 0.119E+01 -.501E+01   0.605E-06 0.626E-06 0.445E-06
   0.240E-02 0.137E+02 -.219E+03   -.247E-02 -.149E+02 0.224E+03   -.200E-04 0.118E+01 -.501E+01   -.124E-06 -.586E-05 -.594E-05
   -.241E-01 0.137E+02 -.219E+03   0.184E-01 -.149E+02 0.224E+03   0.847E-02 0.118E+01 -.501E+01   0.105E-04 -.212E-05 0.215E-06
   0.175E-01 0.137E+02 -.219E+03   -.165E-01 -.149E+02 0.224E+03   -.145E-02 0.119E+01 -.501E+01   0.696E-06 0.395E-05 -.218E-04
   0.369E-02 0.137E+02 -.219E+03   -.348E-02 -.149E+02 0.224E+03   0.200E-03 0.118E+01 -.501E+01   -.113E-04 -.147E-05 0.222E-06
   -.112E-02 0.137E+02 -.219E+03   0.963E-03 -.149E+02 0.224E+03   0.166E-02 0.118E+01 -.501E+01   -.177E-05 0.457E-06 -.559E-05
   0.122E-03 0.137E+02 -.219E+03   -.138E-03 -.149E+02 0.224E+03   -.161E-02 0.118E+01 -.501E+01   0.290E-06 -.123E-04 0.939E-07
   0.847E-03 0.137E+02 -.219E+03   -.835E-03 -.149E+02 0.224E+03   0.158E-04 0.118E+01 -.501E+01   0.144E-05 0.211E-05 -.103E-04
   0.788E-02 -.624E+02 -.372E-01   -.762E-02 0.646E+02 0.389E-01   -.319E-02 -.210E+01 0.508E-02   0.334E-05 -.240E-05 -.603E-05
   0.124E-01 -.625E+02 -.145E-01   -.108E-01 0.646E+02 0.132E-01   0.291E-02 -.210E+01 0.102E-02   0.378E-05 0.153E-04 -.602E-05
   0.353E-02 -.625E+02 -.303E-02   -.412E-02 0.646E+02 0.308E-02   -.305E-03 -.211E+01 -.184E-02   -.717E-05 -.751E-05 -.619E-05
   -.297E-02 -.625E+02 -.144E-01   0.267E-02 0.646E+02 0.137E-01   -.332E-02 -.210E+01 0.432E-02   0.119E-04 0.850E-05 -.615E-05
   0.298E-02 -.624E+02 -.702E-02   -.284E-02 0.646E+02 0.742E-02   0.430E-02 -.210E+01 0.202E-02   0.329E-05 -.120E-04 -.611E-05
   0.282E-02 -.625E+02 -.269E-02   -.292E-02 0.646E+02 0.259E-02   0.773E-04 -.211E+01 -.205E-02   -.153E-04 0.724E-05 -.618E-05
   -.650E-03 -.625E+02 -.258E-02   0.801E-03 0.646E+02 0.253E-02   -.443E-02 -.210E+01 0.223E-02   -.114E-04 0.115E-05 -.609E-05
   -.102E-03 -.625E+02 -.212E-02   0.104E-03 0.646E+02 0.219E-02   0.443E-02 -.210E+01 0.191E-02   0.669E-06 0.738E-06 -.615E-05
   0.856E-03 -.625E+02 -.150E-02   -.920E-03 0.646E+02 0.159E-02   0.315E-04 -.211E+01 -.224E-02   0.105E-04 -.464E-05 -.615E-05
   -.234E-01 0.624E+02 -.537E-01   0.234E-01 -.646E+02 0.524E-01   -.366E-02 0.211E+01 0.262E-02   -.219E-05 -.596E-05 -.546E-05
   0.522E-02 0.625E+02 -.361E-02   -.451E-02 -.646E+02 0.372E-02   -.454E-02 0.210E+01 0.252E-02   0.341E-05 0.352E-05 -.618E-05
   0.642E-02 0.625E+02 -.696E-02   -.662E-02 -.646E+02 0.693E-02   0.491E-02 0.210E+01 0.255E-02   -.126E-05 -.137E-04 -.623E-05
   -.113E-01 0.625E+02 -.232E-01   0.117E-01 -.646E+02 0.228E-01   -.759E-03 0.211E+01 -.180E-02   0.191E-04 0.270E-05 -.608E-05
   0.385E-02 0.625E+02 -.305E-02   -.344E-02 -.646E+02 0.325E-02   -.445E-02 0.210E+01 0.192E-02   -.184E-04 0.766E-05 -.606E-05
   0.329E-02 0.625E+02 -.535E-02   -.404E-02 -.646E+02 0.545E-02   0.465E-02 0.210E+01 0.270E-02   -.529E-06 0.214E-05 -.618E-05
   -.117E-02 0.625E+02 -.259E-02   0.106E-02 -.646E+02 0.259E-02   0.466E-04 0.211E+01 -.195E-02   -.563E-05 -.612E-05 -.617E-05
   0.803E-03 0.625E+02 -.177E-02   -.752E-03 -.646E+02 0.167E-02   -.444E-02 0.210E+01 0.206E-02   0.922E-05 -.541E-05 -.608E-05
   0.276E-03 0.625E+02 -.208E-02   -.300E-03 -.646E+02 0.193E-02   0.439E-02 0.210E+01 0.219E-02   -.344E-05 0.128E-04 -.618E-05
   -.192E-01 -.537E+00 0.110E+03   0.215E-01 0.264E+00 -.114E+03   0.606E-03 0.262E+00 0.406E+01   0.124E-05 0.142E-05 -.760E-05
   0.740E-03 -.547E+00 0.110E+03   -.708E-03 0.278E+00 -.114E+03   -.352E-06 0.264E+00 0.406E+01   -.134E-05 0.158E-05 -.411E-05
   0.451E-02 -.546E+00 0.110E+03   -.458E-02 0.277E+00 -.114E+03   0.293E-04 0.264E+00 0.406E+01   0.909E-07 -.727E-06 -.771E-05
   -.146E-02 -.549E+00 0.110E+03   0.148E-02 0.280E+00 -.114E+03   0.344E-05 0.264E+00 0.406E+01   0.210E-05 0.283E-06 -.259E-05
   0.287E-03 -.547E+00 0.110E+03   -.308E-03 0.278E+00 -.114E+03   -.273E-04 0.264E+00 0.406E+01   -.197E-05 0.274E-06 -.522E-06
   0.985E-03 -.548E+00 0.110E+03   -.922E-03 0.279E+00 -.114E+03   0.358E-04 0.263E+00 0.406E+01   -.163E-06 0.275E-05 -.750E-05
   -.525E-03 -.546E+00 0.110E+03   0.512E-03 0.278E+00 -.114E+03   -.405E-05 0.264E+00 0.406E+01   -.974E-06 0.299E-07 -.657E-05
   0.155E-03 -.547E+00 0.110E+03   -.176E-03 0.278E+00 -.114E+03   -.299E-04 0.264E+00 0.406E+01   0.105E-05 -.251E-06 -.551E-05
   0.316E-03 -.546E+00 0.110E+03   -.316E-03 0.278E+00 -.114E+03   0.209E-04 0.264E+00 0.406E+01   -.550E-07 -.280E-06 0.337E-06
   0.937E-03 0.552E+00 0.110E+03   -.961E-03 -.283E+00 -.114E+03   -.672E-04 -.263E+00 0.406E+01   -.376E-07 -.165E-05 -.615E-05
   -.120E-02 0.547E+00 0.110E+03   0.897E-03 -.278E+00 -.114E+03   -.992E-05 -.264E+00 0.406E+01   0.637E-07 0.475E-06 -.816E-05
   0.960E-03 0.547E+00 0.110E+03   -.976E-03 -.278E+00 -.114E+03   -.648E-05 -.264E+00 0.406E+01   -.322E-07 -.182E-05 -.386E-05
   0.520E-02 0.536E+00 0.110E+03   -.510E-02 -.267E+00 -.114E+03   0.673E-04 -.264E+00 0.406E+01   0.247E-05 -.974E-07 -.777E-05
   -.158E-02 0.547E+00 0.110E+03   0.152E-02 -.278E+00 -.114E+03   -.887E-06 -.264E+00 0.406E+01   0.155E-06 0.464E-06 0.171E-05
   0.135E-02 0.546E+00 0.110E+03   -.134E-02 -.278E+00 -.114E+03   0.673E-05 -.264E+00 0.406E+01   -.264E-05 -.146E-06 -.619E-05
   -.113E-03 0.547E+00 0.110E+03   0.129E-03 -.278E+00 -.114E+03   -.189E-04 -.264E+00 0.406E+01   -.397E-06 0.609E-07 -.381E-05
   -.182E-03 0.547E+00 0.110E+03   0.173E-03 -.278E+00 -.114E+03   0.193E-04 -.264E+00 0.406E+01   0.804E-07 -.256E-05 -.659E-05
   0.319E-03 0.547E+00 0.110E+03   -.307E-03 -.278E+00 -.114E+03   0.407E-05 -.264E+00 0.406E+01   0.311E-06 0.117E-06 -.165E-05
   0.307E-02 -.566E+00 -.110E+03   -.601E-02 0.300E+00 0.114E+03   -.855E-03 0.264E+00 -.406E+01   0.126E-05 0.135E-05 0.556E-06
   0.235E-02 -.547E+00 -.110E+03   -.227E-02 0.278E+00 0.114E+03   -.420E-04 0.264E+00 -.406E+01   -.135E-05 0.151E-05 -.259E-05
   -.226E-03 -.547E+00 -.110E+03   0.203E-03 0.278E+00 0.114E+03   0.348E-04 0.264E+00 -.406E+01   0.116E-06 -.794E-06 0.101E-05
   -.647E-03 -.544E+00 -.110E+03   0.698E-03 0.275E+00 0.114E+03   -.192E-05 0.264E+00 -.406E+01   0.212E-05 0.228E-06 -.417E-05
   0.794E-03 -.546E+00 -.110E+03   -.818E-03 0.277E+00 0.114E+03   -.395E-04 0.264E+00 -.406E+01   -.195E-05 0.227E-06 -.626E-05
   -.311E-04 -.547E+00 -.110E+03   0.119E-03 0.278E+00 0.114E+03   0.734E-04 0.263E+00 -.406E+01   -.146E-06 0.272E-05 0.752E-06
   -.352E-03 -.547E+00 -.110E+03   0.342E-03 0.279E+00 0.114E+03   -.113E-06 0.264E+00 -.406E+01   -.983E-06 -.159E-07 -.119E-06
   0.380E-03 -.547E+00 -.110E+03   -.393E-03 0.278E+00 0.114E+03   -.377E-04 0.264E+00 -.406E+01   0.106E-05 -.305E-06 -.123E-05
   -.711E-04 -.547E+00 -.110E+03   0.544E-04 0.278E+00 0.114E+03   0.336E-04 0.264E+00 -.406E+01   -.651E-07 -.350E-06 -.703E-05
   -.253E-02 0.545E+00 -.110E+03   0.264E-02 -.276E+00 0.114E+03   0.131E-04 -.264E+00 -.406E+01   0.196E-07 -.157E-05 -.575E-06
   0.183E-02 0.544E+00 -.110E+03   -.189E-02 -.275E+00 0.114E+03   -.187E-04 -.264E+00 -.406E+01   0.463E-07 0.551E-06 0.144E-05
   0.658E-03 0.547E+00 -.110E+03   -.650E-03 -.278E+00 0.114E+03   0.199E-05 -.264E+00 -.406E+01   -.345E-07 -.178E-05 -.285E-05
   -.618E-02 0.550E+00 -.110E+03   0.643E-02 -.281E+00 0.114E+03   0.620E-04 -.264E+00 -.406E+01   0.251E-05 -.485E-07 0.103E-05
   0.441E-02 0.551E+00 -.110E+03   -.452E-02 -.282E+00 0.114E+03   0.728E-05 -.264E+00 -.406E+01   0.134E-06 0.504E-06 -.843E-05
   0.855E-03 0.547E+00 -.110E+03   -.859E-03 -.278E+00 0.114E+03   -.149E-06 -.264E+00 -.406E+01   -.266E-05 -.755E-07 -.538E-06
   -.332E-03 0.547E+00 -.110E+03   0.337E-03 -.278E+00 0.114E+03   -.340E-04 -.264E+00 -.406E+01   -.390E-06 0.115E-06 -.295E-05
   0.114E-03 0.547E+00 -.110E+03   -.104E-03 -.278E+00 0.114E+03   0.372E-04 -.264E+00 -.406E+01   0.886E-07 -.251E-05 -.126E-06
   0.245E-03 0.547E+00 -.110E+03   -.235E-03 -.278E+00 0.114E+03   0.409E-05 -.264E+00 -.406E+01   0.308E-06 0.174E-06 -.506E-05
 -----------------------------------------------------------------------------------------------
   -.439E-02 -.999E-02 -.438E-01   0.409E-12 -.456E-12 -.938E-12   0.720E-02 0.975E-02 -.392E-01   0.364E-06 -.120E-05 -.938E-03
 
 
 POSITION                                       TOTAL-FORCE (eV/Angst)
 -----------------------------------------------------------------------------------
      2.98040      3.90743      4.02203        -0.037902      0.017400      0.003356
      8.67458      3.90743      4.02203        -0.031946      0.039124      0.000222
     14.36876      3.90743      4.02203        -0.032269      0.037014      0.000421
      2.98040     10.04120      4.02203        -0.031639      0.037851      0.000186
      8.67458     10.04120      4.02203        -0.032802      0.039196      0.000160
     14.36876     10.04120      4.02203        -0.032720      0.036609      0.001552
      2.98040     16.17497      4.02203        -0.032003      0.036614      0.000469
      8.67458     16.17497      4.02203        -0.032009      0.038929     -0.000233
     14.36876     16.17497      4.02203        -0.032774      0.036599      0.000439
      2.71377      2.22634      4.02203         0.031719     -0.037512     -0.006867
      8.40795      2.22634      4.02203         0.031080     -0.038163     -0.002028
     14.10212      2.22634      4.02203         0.032817     -0.037095     -0.000216
      2.71377      8.36011      4.02203         0.032148     -0.035989      0.000824
      8.40795      8.36011      4.02203         0.032112     -0.038556      0.000187
     14.10212      8.36011      4.02203         0.031944     -0.036996      0.000398
      2.71377     14.49388      4.02203         0.032730     -0.036891      0.000671
      8.40795     14.49388      4.02203         0.031879     -0.039164     -0.000255
     14.10212     14.49388      4.02203         0.031962     -0.036880      0.000657
      5.56086      3.90743      4.02203         0.025185      0.043290     -0.001454
     11.25503      3.90743      4.02203         0.033060      0.036598      0.001026
     16.94921      3.90743      4.02203         0.029861      0.039153     -0.001005
      5.56086     10.04120      4.02203         0.032513      0.037256      0.000197
     11.25503     10.04120      4.02203         0.032634      0.036684      0.000444
     16.94921     10.04120      4.02203         0.033702      0.039650     -0.000379
      5.56086     16.17497      4.02203         0.031930      0.036881      0.000115
     11.25503     16.17497      4.02203         0.032569      0.036735      0.000472
     16.94921     16.17497      4.02203         0.031974      0.039136     -0.000368
      0.13332      2.22634      4.02203        -0.034031     -0.037933      0.002960
      5.82749      2.22634      4.02203        -0.036531     -0.037205      0.003798
     11.52167      2.22634      4.02203        -0.031804     -0.036819      0.000890
      0.13332      8.36011      4.02203        -0.032247     -0.038554      0.000545
      5.82749      8.36011      4.02203        -0.032984     -0.036080      0.000026
     11.52167      8.36011      4.02203        -0.032231     -0.037113      0.000169
      0.13332     14.49388      4.02203        -0.031824     -0.039299      0.000056
      5.82749     14.49388      4.02203        -0.032759     -0.036863      0.000729
     11.52167     14.49388      4.02203        -0.031756     -0.036856      0.000444
      3.40255      5.52043      4.01367         0.118030     -0.037261      0.076811
      9.10221      5.52043      4.02203        -0.025902      0.014432     -0.001883
     14.79639      5.52043      4.02203        -0.023919      0.015497     -0.003132
      3.40804     11.65420      4.02203        -0.021672      0.014840      0.001031
      9.10221     11.65420      4.02203        -0.026029      0.015000     -0.000865
     14.79639     11.65420      4.02203        -0.024163      0.015657     -0.002458
      3.40804     17.78797      4.02203        -0.021663      0.015016      0.001031
      9.10221     17.78797      4.02203        -0.026134      0.014852     -0.001219
     14.79639     17.78797      4.02203        -0.024052      0.015418     -0.002114
      2.28614      0.61333      4.02203         0.023403     -0.015594     -0.004532
      7.98031      0.61333      4.02203         0.024945     -0.015339      0.000900
     13.67449      0.61333      4.02203         0.021056     -0.014579      0.000844
      2.28614      6.74710      4.02203        -0.019581      0.023280     -0.024063
      7.98031      6.74710      4.02203         0.024667     -0.015291     -0.000225
     13.67449      6.74710      4.02203         0.021690     -0.014586      0.001423
      2.28614     12.88087      4.02203         0.024447     -0.015429     -0.002500
      7.98031     12.88087      4.02203         0.026313     -0.014817     -0.000861
     13.67449     12.88087      4.02203         0.021501     -0.014715      0.001464
      5.13323      5.52043      4.02203        -0.026917      0.020201      0.010032
     10.82740      5.52043      4.02203         0.024675      0.015548     -0.001067
     16.52158      5.52043      4.02203         0.026414      0.014641     -0.000656
      5.13323     11.65420      4.02203         0.021460      0.014614      0.001129
     10.82740     11.65420      4.02203         0.024466      0.015684     -0.002457
     16.52158     11.65420      4.02203         0.025460      0.015273     -0.001754
      5.13323     17.78797      4.02203         0.021452      0.015150      0.001128
     10.82740     17.78797      4.02203         0.024463      0.015601     -0.002457
     16.52158     17.78797      4.02203         0.025452      0.015014     -0.001755
      0.56095      0.61333      4.02203        -0.024077     -0.015882      0.000075
      6.25512      0.61333      4.02203        -0.022099     -0.017110     -0.001181
     11.94930      0.61333      4.02203        -0.021917     -0.014783      0.001050
      0.56095      6.74710      4.02203        -0.028143     -0.013392     -0.002293
      6.25512      6.74710      4.02203        -0.026161     -0.016872     -0.003570
     11.94930      6.74710      4.02203        -0.021644     -0.014843      0.000540
      0.56095     12.88087      4.02203        -0.026341     -0.014861     -0.000847
      6.25512     12.88087      4.02203        -0.024359     -0.015364     -0.002097
     11.94930     12.88087      4.02203        -0.021711     -0.014854      0.001403
      4.27063      4.48560      5.21104        -0.017529      0.022608     -0.061804
      9.96481      4.48560      5.21104         0.002153     -0.003516     -0.023231
     15.65898      4.48560      5.21104        -0.000870     -0.003484     -0.022797
      4.27063     10.61937      5.21104        -0.000136     -0.002743     -0.022950
      9.96481     10.61937      5.21104         0.001396     -0.003277     -0.022918
     15.65898     10.61937      5.21104        -0.002156     -0.003486     -0.022829
      4.27063     16.75314      5.21104        -0.000155     -0.002513     -0.022879
      9.96481     16.75314      5.21104         0.001445     -0.003170     -0.022721
     15.65898     16.75314      5.21104        -0.001549     -0.003050     -0.022756
      1.42354      1.64817      2.83302         0.000136     -0.000641      0.018245
      7.11772      1.64817      2.83302         0.002044      0.002611      0.018302
     12.81189      1.64817      2.83302         0.000365     -0.000572      0.026370
      1.42354      7.78194      2.83302        -0.005415      0.004266      0.020137
      7.11772      7.78194      2.83302         0.001795      0.001907      0.018851
     12.81189      7.78194      2.83302        -0.000320     -0.000212      0.026511
      1.42354     13.91571      2.83302        -0.001753      0.001359      0.019019
      7.11772     13.91571      2.83302         0.001779      0.001557      0.019063
     12.81189     13.91571      2.83302        -0.000090     -0.000127      0.026184
      4.27063      4.48560      2.83302         0.000456     -0.004163     -0.001024
      9.96481      4.48560      2.83302        -0.002926     -0.001256      0.018700
     15.65898      4.48560      2.83302         0.001007     -0.001509      0.019224
      4.27063     10.61937      2.83302        -0.000130      0.000004      0.026526
      9.96481     10.61937      2.83302        -0.001690     -0.001414      0.019068
     15.65898     10.61937      2.83302         0.002608     -0.001062      0.019150
      4.27063     16.75314      2.83302         0.000161      0.000109      0.026306
      9.96481     16.75314      2.83302        -0.001759     -0.001584      0.019254
     15.65898     16.75314      2.83302         0.001722     -0.001603      0.019268
      1.42354      1.64817      5.21104        -0.000105      0.005380     -0.023099
      7.11772      1.64817      5.21104        -0.002513      0.003095     -0.023176
     12.81189      1.64817      5.21104        -0.000105      0.002670     -0.022889
      1.42354      7.78194      5.21104         0.002693      0.001740     -0.022750
      7.11772      7.78194      5.21104        -0.000423      0.003454     -0.022777
     12.81189      7.78194      5.21104         0.000386      0.002626     -0.022846
      1.42354     13.91571      5.21104         0.001486      0.003343     -0.022971
      7.11772     13.91571      5.21104        -0.001641      0.003056     -0.022912
     12.81189     13.91571      5.21104         0.000011      0.002408     -0.023005
      1.42354      3.21998      4.02203        -0.002968      0.058575      0.007335
      7.11772      3.21998      4.02203         0.004485      0.062203      0.000267
     12.81189      3.21998      4.02203        -0.000921      0.053805     -0.001280
      1.42354      9.35375      4.02203        -0.003629      0.059571      0.004134
      7.11772      9.35375      4.02203         0.004424      0.060502      0.002927
     12.81189      9.35375      4.02203        -0.000055      0.053890     -0.001629
      1.42354     15.48752      4.02203        -0.004308      0.060729      0.002687
      7.11772     15.48752      4.02203         0.004414      0.060697      0.002490
     12.81189     15.48752      4.02203        -0.000040      0.053669     -0.001640
      4.27063      2.91378      4.02203        -0.003720     -0.052242      0.001867
      9.96481      2.91378      4.02203        -0.003837     -0.060504      0.003144
     15.65898      2.91378      4.02203         0.004705     -0.060478      0.003026
      4.27063      9.04755      4.02203        -0.000367     -0.054171     -0.001695
      9.96481      9.04755      4.02203        -0.004077     -0.060877      0.002629
     15.65898      9.04755      4.02203         0.003891     -0.061357      0.003308
      4.27063     15.18132      4.02203        -0.000078     -0.053697     -0.001440
      9.96481     15.18132      4.02203        -0.004397     -0.060333      0.002468
     15.65898     15.18132      4.02203         0.004348     -0.060390      0.002553
      4.27063      4.40244      1.64454         0.002958     -0.013093     -0.002540
      9.96481      4.40244      1.64454         0.000013     -0.008107     -0.001528
     15.65898      4.40244      1.64454        -0.000050     -0.008145     -0.001561
      4.27063     10.53620      1.64454         0.000015     -0.008007     -0.001541
      9.96481     10.53620      1.64454        -0.000067     -0.008153     -0.001538
     15.65898     10.53620      1.64454         0.000082     -0.008208     -0.001521
      4.27063     16.66997      1.64454        -0.000036     -0.007959     -0.001521
      9.96481     16.66997      1.64454        -0.000067     -0.008068     -0.001550
     15.65898     16.66997      1.64454         0.000003     -0.008111     -0.001547
      1.42354      1.73133      1.64454        -0.000108      0.008081     -0.001494
      7.11772      1.73133      1.64454        -0.000327      0.008063     -0.001450
     12.81189      1.73133      1.64454        -0.000040      0.008026     -0.001531
      1.42354      7.86510      1.64454         0.000166      0.007746     -0.001442
      7.11772      7.86510      1.64454        -0.000078      0.008157     -0.001534
     12.81189      7.86510      1.64454        -0.000006      0.007984     -0.001540
      1.42354     13.99887      1.64454        -0.000021      0.008112     -0.001545
      7.11772     13.99887      1.64454        -0.000007      0.008145     -0.001543
     12.81189     13.99887      1.64454        -0.000001      0.007963     -0.001531
      4.27063      4.40244      6.39951        -0.003821     -0.004933      0.002551
      9.96481      4.40244      6.39951         0.000017     -0.008086      0.002525
     15.65898      4.40244      6.39951        -0.000006     -0.008155      0.002521
      4.27063     10.53620      6.39951         0.000034     -0.008088      0.002669
      9.96481     10.53620      6.39951        -0.000083     -0.008160      0.002495
     15.65898     10.53620      6.39951         0.000144     -0.008198      0.002490
      4.27063     16.66997      6.39951        -0.000029     -0.007985      0.002665
      9.96481     16.66997      6.39951        -0.000067     -0.008096      0.002499
     15.65898     16.66997      6.39951        -0.000000     -0.008138      0.002503
      1.42354      1.73133      6.39951         0.000107      0.007872      0.002521
      7.11772      1.73133      6.39951        -0.000097      0.008010      0.002521
     12.81189      1.73133      6.39951        -0.000008      0.008093      0.002661
      1.42354      7.86510      6.39951         0.000285      0.007669      0.002511
      7.11772      7.86510      6.39951        -0.000117      0.008097      0.002499
     12.81189      7.86510      6.39951        -0.000024      0.008067      0.002665
      1.42354     13.99887      6.39951        -0.000046      0.008130      0.002512
      7.11772     13.99887      6.39951         0.000030      0.008146      0.002502
     12.81189     13.99887      6.39951        -0.000002      0.008029      0.002664
 -----------------------------------------------------------------------------------
    total drift:                                0.002806     -0.000239     -0.083970


--------------------------------------------------------------------------------------------------------



  FREE ENERGIE OF THE ION-ELECTRON SYSTEM (eV)
  ---------------------------------------------------
  free  energy   TOTEN  =      -952.51702505 eV

  energy  without entropy=     -952.32681172  energy(sigma->0) =     -952.42191839
 


--------------------------------------------------------------------------------------------------------


    POTLOK:  cpu time      0.8200: real time      0.8263


--------------------------------------------------------------------------------------------------------


     LOOP+:  cpu time   3585.0204: real time   3620.0771
 vacuum level on the upper side and lower side of the slab         1.326         1.327
    4ORBIT:  cpu time      0.0000: real time      0.0000



 total charge

# of ion       s       p       d       tot
------------------------------------------
    1        0.714   1.389   0.000   2.103
    2        0.714   1.388   0.000   2.102
    3        0.714   1.388   0.000   2.102
    4        0.714   1.388   0.000   2.102
    5        0.714   1.388   0.000   2.102
    6        0.714   1.388   0.000   2.102
    7        0.714   1.388   0.000   2.102
    8        0.714   1.388   0.000   2.102
    9        0.714   1.388   0.000   2.102
   10        0.714   1.388   0.000   2.102
   11        0.714   1.388   0.000   2.102
   12        0.714   1.388   0.000   2.102
   13        0.714   1.388   0.000   2.102
   14        0.714   1.388   0.000   2.102
   15        0.714   1.388   0.000   2.102
   16        0.714   1.388   0.000   2.102
   17        0.714   1.388   0.000   2.102
   18        0.714   1.388   0.000   2.102
   19        0.714   1.388   0.000   2.102
   20        0.714   1.388   0.000   2.102
   21        0.714   1.388   0.000   2.102
   22        0.714   1.388   0.000   2.102
   23        0.714   1.388   0.000   2.102
   24        0.714   1.388   0.000   2.102
   25        0.714   1.388   0.000   2.102
   26        0.714   1.388   0.000   2.102
   27        0.714   1.388   0.000   2.102
   28        0.714   1.388   0.000   2.102
   29        0.714   1.388   0.000   2.102
   30        0.714   1.388   0.000   2.102
   31        0.714   1.388   0.000   2.102
   32        0.714   1.388   0.000   2.102
   33        0.714   1.388   0.000   2.102
   34        0.714   1.388   0.000   2.102
   35        0.714   1.388   0.000   2.102
   36        0.714   1.388   0.000   2.102
   37        0.719   1.315   0.000   2.034
   38        0.719   1.317   0.000   2.035
   39        0.719   1.317   0.000   2.035
   40        0.719   1.317   0.000   2.035
   41        0.719   1.317   0.000   2.035
   42        0.719   1.317   0.000   2.035
   43        0.719   1.317   0.000   2.035
   44        0.719   1.317   0.000   2.035
   45        0.719   1.317   0.000   2.035
   46        0.719   1.317   0.000   2.035
   47        0.719   1.317   0.000   2.035
   48        0.719   1.317   0.000   2.035
   49        0.719   1.318   0.000   2.038
   50        0.719   1.317   0.000   2.035
   51        0.719   1.317   0.000   2.035
   52        0.719   1.317   0.000   2.035
   53        0.719   1.317   0.000   2.035
   54        0.719   1.317   0.000   2.035
   55        0.718   1.315   0.000   2.033
   56        0.719   1.317   0.000   2.035
   57        0.719   1.317   0.000   2.035
   58        0.719   1.317   0.000   2.035
   59        0.719   1.317   0.000   2.035
   60        0.719   1.317   0.000   2.035
   61        0.719   1.317   0.000   2.035
   62        0.719   1.317   0.000   2.035
   63        0.719   1.317   0.000   2.035
   64        0.719   1.317   0.000   2.035
   65        0.719   1.317   0.000   2.035
   66        0.719   1.317   0.000   2.035
   67        0.719   1.317   0.000   2.035
   68        0.719   1.317   0.000   2.035
   69        0.719   1.317   0.000   2.035
   70        0.719   1.317   0.000   2.035
   71        0.719   1.317   0.000   2.035
   72        0.719   1.317   0.000   2.035
   73        0.697   1.247   0.000   1.944
   74        0.698   1.249   0.000   1.947
   75        0.698   1.249   0.000   1.947
   76        0.698   1.249   0.000   1.947
   77        0.698   1.249   0.000   1.947
   78        0.698   1.249   0.000   1.947
   79        0.698   1.249   0.000   1.947
   80        0.698   1.249   0.000   1.947
   81        0.698   1.249   0.000   1.947
   82        0.698   1.249   0.000   1.947
   83        0.698   1.249   0.000   1.947
   84        0.698   1.249   0.000   1.947
   85        0.698   1.249   0.000   1.947
   86        0.698   1.249   0.000   1.947
   87        0.698   1.249   0.000   1.947
   88        0.698   1.249   0.000   1.947
   89        0.698   1.249   0.000   1.947
   90        0.698   1.249   0.000   1.947
   91        0.698   1.250   0.000   1.948
   92        0.698   1.249   0.000   1.947
   93        0.698   1.249   0.000   1.947
   94        0.698   1.249   0.000   1.947
   95        0.698   1.249   0.000   1.947
   96        0.698   1.249   0.000   1.947
   97        0.698   1.249   0.000   1.947
   98        0.698   1.249   0.000   1.947
   99        0.698   1.249   0.000   1.947
  100        0.698   1.249   0.000   1.947
  101        0.698   1.249   0.000   1.947
  102        0.698   1.249   0.000   1.947
  103        0.698   1.249   0.000   1.947
  104        0.698   1.249   0.000   1.947
  105        0.698   1.249   0.000   1.947
  106        0.698   1.249   0.000   1.947
  107        0.698   1.249   0.000   1.947
  108        0.698   1.249   0.000   1.947
  109        0.719   1.381   0.000   2.101
  110        0.719   1.381   0.000   2.101
  111        0.720   1.381   0.000   2.101
  112        0.719   1.381   0.000   2.101
  113        0.719   1.381   0.000   2.101
  114        0.720   1.381   0.000   2.101
  115        0.719   1.381   0.000   2.101
  116        0.719   1.381   0.000   2.101
  117        0.720   1.381   0.000   2.101
  118        0.719   1.381   0.000   2.101
  119        0.719   1.381   0.000   2.101
  120        0.719   1.381   0.000   2.101
  121        0.720   1.381   0.000   2.101
  122        0.719   1.381   0.000   2.101
  123        0.719   1.381   0.000   2.101
  124        0.720   1.381   0.000   2.101
  125        0.719   1.381   0.000   2.101
  126        0.719   1.381   0.000   2.101
  127        0.612   0.022   0.000   0.634
  128        0.612   0.022   0.000   0.634
  129        0.612   0.022   0.000   0.634
  130        0.612   0.022   0.000   0.634
  131        0.612   0.022   0.000   0.634
  132        0.612   0.022   0.000   0.634
  133        0.612   0.022   0.000   0.634
  134        0.612   0.022   0.000   0.634
  135        0.612   0.022   0.000   0.634
  136        0.612   0.022   0.000   0.634
  137        0.612   0.022   0.000   0.634
  138        0.612   0.022   0.000   0.634
  139        0.612   0.022   0.000   0.634
  140        0.612   0.022   0.000   0.634
  141        0.612   0.022   0.000   0.634
  142        0.612   0.022   0.000   0.634
  143        0.612   0.022   0.000   0.634
  144        0.612   0.022   0.000   0.634
  145        0.612   0.022   0.000   0.634
  146        0.612   0.022   0.000   0.634
  147        0.612   0.022   0.000   0.634
  148        0.612   0.022   0.000   0.634
  149        0.612   0.022   0.000   0.634
  150        0.612   0.022   0.000   0.634
  151        0.612   0.022   0.000   0.634
  152        0.612   0.022   0.000   0.634
  153        0.612   0.022   0.000   0.634
  154        0.612   0.022   0.000   0.634
  155        0.612   0.022   0.000   0.634
  156        0.612   0.022   0.000   0.634
  157        0.612   0.022   0.000   0.634
  158        0.612   0.022   0.000   0.634
  159        0.612   0.022   0.000   0.634
  160        0.612   0.022   0.000   0.634
  161        0.612   0.022   0.000   0.634
  162        0.612   0.022   0.000   0.634
--------------------------------------------------
tot        111.656 167.993   0.000 279.649
 

 total amount of memory used by VASP MPI-rank0   350767. kBytes
=======================================================================

   base                                    :      30000. kBytes
   nonlr-proj                              :      13056. kBytes
   fftplans                                :      48104. kBytes
   grid                                    :      74808. kBytes
   one-center                              :         73. kBytes
   wavefun                                 :     184726. kBytes
 
  
  
 General timing and accounting informations for this job:
 ========================================================
  
                  Total CPU time used (sec):     3613.418
                            User time (sec):     3363.107
                          System time (sec):      250.311
                         Elapsed time (sec):     3649.147
  
                   Maximum memory used (kb):      799452.
                   Average memory used (kb):          N/A
  
                          Minor page faults:       205810
                          Major page faults:           98
                 Voluntary context switches:         1346
