SCF                                     
           1
    17.082526    0.000000    0.000000
     0.000000   18.401308    0.000000
     0.000000    0.000000   26.044058
   B    H 
   126    36
Direct configuration=     1
   0.17447094  0.21234514  0.15443174
   0.50780427  0.21234514  0.15443174
   0.84113761  0.21234514  0.15443174
   0.17447094  0.54567847  0.15443174
   0.50780427  0.54567847  0.15443174
   0.84113761  0.54567847  0.15443174
   0.17447094  0.87901180  0.15443174
   0.50780427  0.87901180  0.15443174
   0.84113761  0.87901180  0.15443174
   0.15886239  0.12098820  0.15443174
   0.49219573  0.12098820  0.15443174
   0.82552906  0.12098820  0.15443174
   0.15886239  0.45432153  0.15443174
   0.49219573  0.45432153  0.15443174
   0.82552906  0.45432153  0.15443174
   0.15886239  0.78765486  0.15443174
   0.49219573  0.78765486  0.15443174
   0.82552906  0.78765486  0.15443174
   0.32552906  0.21234514  0.15443174
   0.65886239  0.21234514  0.15443174
   0.99219573  0.21234514  0.15443174
   0.32552906  0.54567847  0.15443174
   0.65886239  0.54567847  0.15443174
   0.99219573  0.54567847  0.15443174
   0.32552906  0.87901180  0.15443174
   0.65886239  0.87901180  0.15443174
   0.99219573  0.87901180  0.15443174
   0.00780427  0.12098820  0.15443174
   0.34113761  0.12098820  0.15443174
   0.67447094  0.12098820  0.15443174
   0.00780427  0.45432153  0.15443174
   0.34113761  0.45432153  0.15443174
   0.67447094  0.45432153  0.15443174
   0.00780427  0.78765486  0.15443174
   0.34113761  0.78765486  0.15443174
   0.67447094  0.78765486  0.15443174
   0.19918318  0.30000229  0.15411067
   0.53283758  0.30000229  0.15443174
   0.86617091  0.30000229  0.15443174
   0.19950425  0.63333562  0.15443174
   0.53283758  0.63333562  0.15443174
   0.86617091  0.63333562  0.15443174
   0.19950425  0.96666896  0.15443174
   0.53283758  0.96666896  0.15443174
   0.86617091  0.96666896  0.15443174
   0.13382909  0.03333104  0.15443174
   0.46716242  0.03333104  0.15443174
   0.80049575  0.03333104  0.15443174
   0.13382909  0.36666437  0.15443174
   0.46716242  0.36666437  0.15443174
   0.80049575  0.36666437  0.15443174
   0.13382909  0.69999771  0.15443174
   0.46716242  0.69999771  0.15443174
   0.80049575  0.69999771  0.15443174
   0.30049575  0.30000229  0.15443174
   0.63382909  0.30000229  0.15443174
   0.96716242  0.30000229  0.15443174
   0.30049575  0.63333562  0.15443174
   0.63382909  0.63333562  0.15443174
   0.96716242  0.63333562  0.15443174
   0.30049575  0.96666896  0.15443174
   0.63382909  0.96666896  0.15443174
   0.96716242  0.96666896  0.15443174
   0.03283758  0.03333104  0.15443174
   0.36617091  0.03333104  0.15443174
   0.69950425  0.03333104  0.15443174
   0.03283758  0.36666437  0.15443174
   0.36617091  0.36666437  0.15443174
   0.69950425  0.36666437  0.15443174
   0.03283758  0.69999771  0.15443174
   0.36617091  0.69999771  0.15443174
   0.69950425  0.69999771  0.15443174
   0.25000000  0.24376538  0.20008546
   0.58333333  0.24376538  0.20008546
   0.91666667  0.24376538  0.20008546
   0.25000000  0.57709872  0.20008546
   0.58333333  0.57709872  0.20008546
   0.91666667  0.57709872  0.20008546
   0.25000000  0.91043205  0.20008546
   0.58333333  0.91043205  0.20008546
   0.91666667  0.91043205  0.20008546
   0.08333333  0.08956795  0.10877802
   0.41666667  0.08956795  0.10877802
   0.75000000  0.08956795  0.10877802
   0.08333333  0.42290128  0.10877802
   0.41666667  0.42290128  0.10877802
   0.75000000  0.42290128  0.10877802
   0.08333333  0.75623462  0.10877802
   0.41666667  0.75623462  0.10877802
   0.75000000  0.75623462  0.10877802
   0.25000000  0.24376538  0.10877802
   0.58333333  0.24376538  0.10877802
   0.91666667  0.24376538  0.10877802
   0.25000000  0.57709872  0.10877802
   0.58333333  0.57709872  0.10877802
   0.91666667  0.57709872  0.10877802
   0.25000000  0.91043205  0.10877802
   0.58333333  0.91043205  0.10877802
   0.91666667  0.91043205  0.10877802
   0.08333333  0.08956795  0.20008546
   0.41666667  0.08956795  0.20008546
   0.75000000  0.08956795  0.20008546
   0.08333333  0.42290128  0.20008546
   0.41666667  0.42290128  0.20008546
   0.75000000  0.42290128  0.20008546
   0.08333333  0.75623462  0.20008546
   0.41666667  0.75623462  0.20008546
   0.75000000  0.75623462  0.20008546
   0.08333333  0.17498670  0.15443174
   0.41666667  0.17498670  0.15443174
   0.75000000  0.17498670  0.15443174
   0.08333333  0.50832004  0.15443174
   0.41666667  0.50832004  0.15443174
   0.75000000  0.50832004  0.15443174
   0.08333333  0.84165337  0.15443174
   0.41666667  0.84165337  0.15443174
   0.75000000  0.84165337  0.15443174
   0.25000000  0.15834662  0.15443174
   0.58333333  0.15834662  0.15443174
   0.91666667  0.15834662  0.15443174
   0.25000000  0.49167995  0.15443174
   0.58333333  0.49167995  0.15443174
   0.91666667  0.49167995  0.15443174
   0.25000000  0.82501329  0.15443174
   0.58333333  0.82501329  0.15443174
   0.91666667  0.82501329  0.15443174
   0.25000000  0.23924577  0.06314467
   0.58333333  0.23924577  0.06314467
   0.91666667  0.23924577  0.06314467
   0.25000000  0.57257910  0.06314467
   0.58333333  0.57257910  0.06314467
   0.91666667  0.57257910  0.06314467
   0.25000000  0.90591244  0.06314467
   0.58333333  0.90591244  0.06314467
   0.91666667  0.90591244  0.06314467
   0.08333333  0.09408756  0.06314467
   0.41666667  0.09408756  0.06314467
   0.75000000  0.09408756  0.06314467
   0.08333333  0.42742090  0.06314467
   0.41666667  0.42742090  0.06314467
   0.75000000  0.42742090  0.06314467
   0.08333333  0.76075423  0.06314467
   0.41666667  0.76075423  0.06314467
   0.75000000  0.76075423  0.06314467
   0.25000000  0.23924577  0.24571881
   0.58333333  0.23924577  0.24571881
   0.91666667  0.23924577  0.24571881
   0.25000000  0.57257910  0.24571881
   0.58333333  0.57257910  0.24571881
   0.91666667  0.57257910  0.24571881
   0.25000000  0.90591244  0.24571881
   0.58333333  0.90591244  0.24571881
   0.91666667  0.90591244  0.24571881
   0.08333333  0.09408756  0.24571881
   0.41666667  0.09408756  0.24571881
   0.75000000  0.09408756  0.24571881
   0.08333333  0.42742090  0.24571881
   0.41666667  0.42742090  0.24571881
   0.75000000  0.42742090  0.24571881
   0.08333333  0.76075423  0.24571881
   0.41666667  0.76075423  0.24571881
   0.75000000  0.76075423  0.24571881
