k-points
0
Monkhorst-pack
13  18  12
0   0   0