       N       E                     dE             d eps       ncg     rms          rms(c)
DAV:   1     0.502305677494E+03    0.50231E+03   -0.33287E+04 15120   0.866E+02
DAV:   2    -0.165874336808E+03   -0.66818E+03   -0.63766E+03 25536   0.176E+02
DAV:   3    -0.210994121144E+03   -0.45120E+02   -0.44597E+02 22680   0.514E+01
DAV:   4    -0.211619537520E+03   -0.62542E+00   -0.62469E+00 21966   0.725E+00
DAV:   5    -0.211636995351E+03   -0.17458E-01   -0.17457E-01 26124   0.111E+00    0.189E+01
DAV:   6    -0.199439320151E+03    0.12198E+02   -0.94337E+00 22638   0.784E+00    0.106E+01
DAV:   7    -0.195038552241E+03    0.44008E+01   -0.11171E+01 22680   0.799E+00    0.215E+00
DAV:   8    -0.195045880310E+03   -0.73281E-02   -0.98143E-01 22344   0.243E+00    0.931E-01
DAV:   9    -0.195035194239E+03    0.10686E-01   -0.79892E-02 24360   0.721E-01    0.289E-01
DAV:  10    -0.195031400628E+03    0.37936E-02   -0.92680E-03 20874   0.272E-01    0.167E-01
DAV:  11    -0.195026884575E+03    0.45161E-02   -0.71927E-03 22302   0.231E-01    0.801E-02
DAV:  12    -0.195027963240E+03   -0.10787E-02   -0.25098E-03 19992   0.124E-01    0.418E-02
DAV:  13    -0.195029162671E+03   -0.11994E-02   -0.72693E-04 22386   0.702E-02    0.265E-02
DAV:  14    -0.195030550320E+03   -0.13876E-02   -0.23781E-04 19992   0.369E-02    0.140E-02
DAV:  15    -0.195031364122E+03   -0.81380E-03   -0.58810E-05 20622   0.167E-02    0.778E-03
DAV:  16    -0.195031917251E+03   -0.55313E-03   -0.20923E-05 19740   0.855E-03    0.523E-03
DAV:  17    -0.195032441727E+03   -0.52448E-03   -0.30887E-05 20328   0.900E-03    0.281E-03
DAV:  18    -0.195032606656E+03   -0.16493E-03   -0.47398E-06 20202   0.397E-03    0.167E-03
DAV:  19    -0.195032716607E+03   -0.10995E-03   -0.34255E-06 20244   0.288E-03    0.632E-04
DAV:  20    -0.195032742171E+03   -0.25564E-04   -0.38554E-07 19362   0.107E-03    0.347E-04
DAV:  21    -0.195032755485E+03   -0.13313E-04   -0.22887E-07 15918   0.761E-04    0.137E-04
DAV:  22    -0.195032758559E+03   -0.30742E-05   -0.43191E-08 16842   0.341E-04    0.715E-05
DAV:  23    -0.195032759680E+03   -0.11209E-05   -0.69458E-09 14532   0.198E-04    0.235E-05
DAV:  24    -0.195032759797E+03   -0.11714E-06    0.34561E-09 17262   0.712E-05
   1 F= -.19838489E+03 E0= -.19837073E+03  d E =-.283328E-01
