k-points
0
Monkhorst-pack
32  45  29
0   0   0