o-B14 large monolayer with Hydrogen 4*4
1.0
       22.7767028809         0.0000000000         0.0000000000
        0.0000000000        24.5350780487         0.0000000000
        0.0000000000         0.0000000000        26.0440578461
    B    H
  224   64
Cartesian
     2.980404592         3.907428130         4.022028923
     2.980404592        16.174967154         4.022028923
    14.368755354         3.907428130         4.022028923
    14.368755354        16.174967154         4.022028923
     2.980404592        10.041197642         4.022028923
     2.980404592        22.308736666         4.022028923
    14.368755354        10.041197642         4.022028923
    14.368755354        22.308736666         4.022028923
     8.674580312         3.907428130         4.022028923
     8.674580312        16.174967154         4.022028923
    20.062931074         3.907428130         4.022028923
    20.062931074        16.174967154         4.022028923
     8.674580312        10.041197642         4.022028923
     8.674580312        22.308736666         4.022028923
    20.062931074        10.041197642         4.022028923
    20.062931074        22.308736666         4.022028923
     2.713771128         2.226341199         4.022028923
     2.713771128        14.493880407         4.022028923
    14.102123247         2.226341199         4.022028923
    14.102123247        14.493880407         4.022028923
     2.713771128         8.360110163         4.022028923
     2.713771128        20.627649919         4.022028923
    14.102123247         8.360110163         4.022028923
    14.102123247        20.627649919         4.022028923
     8.407946848         2.226341199         4.022028923
     8.407946848        14.493880407         4.022028923
    19.796298967         2.226341199         4.022028923
    19.796298967        14.493880407         4.022028923
     8.407946848         8.360110163         4.022028923
     8.407946848        20.627649919         4.022028923
    19.796298967         8.360110163         4.022028923
    19.796298967        20.627649919         4.022028923
     5.560859327         3.907428130         4.022028923
     5.560859327        16.174967154         4.022028923
    16.949211107         3.907428130         4.022028923
    16.949211107        16.174967154         4.022028923
     5.560859327        10.041197642         4.022028923
     5.560859327        22.308736666         4.022028923
    16.949211107        10.041197642         4.022028923
    16.949211107        22.308736666         4.022028923
    11.255034708         3.907428130         4.022028923
    11.255034708        16.174967154         4.022028923
    22.643386828         3.907428130         4.022028923
    22.643386828        16.174967154         4.022028923
    11.255034708        10.041197642         4.022028923
    11.255034708        22.308736666         4.022028923
    22.643386828        10.041197642         4.022028923
    22.643386828        22.308736666         4.022028923
     0.133316700         2.226341199         4.022028923
     0.133316700        14.493880407         4.022028923
    11.521667494         2.226341199         4.022028923
    11.521667494        14.493880407         4.022028923
     0.133316700         8.360110163         4.022028923
     0.133316700        20.627649919         4.022028923
    11.521667494         8.360110163         4.022028923
    11.521667494        20.627649919         4.022028923
     5.827492452         2.226341199         4.022028923
     5.827492452        14.493880407         4.022028923
    17.215843214         2.226341199         4.022028923
    17.215843214        14.493880407         4.022028923
     5.827492452         8.360110163         4.022028923
     5.827492452        20.627649919         4.022028923
    17.215843214         8.360110163         4.022028923
    17.215843214        20.627649919         4.022028923
     3.408036876         5.520434824         4.022028923
     3.408036876        17.787973118         4.022028923
    14.796387638         5.520434824         4.022028923
    14.796387638        17.787973118         4.022028923
     3.408036876        11.654204337         4.022028923
     3.408036876        23.921742630         4.022028923
    14.796387638        11.654204337         4.022028923
    14.796387638        23.921742630         4.022028923
     9.102212596         5.520434824         4.022028923
     9.102212596        17.787973118         4.022028923
    20.490563358         5.520434824         4.022028923
    20.490563358        17.787973118         4.022028923
     9.102212596        11.654204337         4.022028923
     9.102212596        23.921742630         4.022028923
    20.490563358        11.654204337         4.022028923
    20.490563358        23.921742630         4.022028923
     2.286139014         0.613334733         4.022028923
     2.286139014        12.880874443         4.022028923
    13.674490963         0.613334733         4.022028923
    13.674490963        12.880874443         4.022028923
     2.286139014         6.747104200         4.022028923
     2.286139014        19.014643955         4.022028923
    13.674490963         6.747104200         4.022028923
    13.674490963        19.014643955         4.022028923
     7.980314564         0.613334733         4.022028923
     7.980314564        12.880874443         4.022028923
    19.368666684         0.613334733         4.022028923
    19.368666684        12.880874443         4.022028923
     7.980314564         6.747104200         4.022028923
     7.980314564        19.014643955         4.022028923
    19.368666684         6.747104200         4.022028923
    19.368666684        19.014643955         4.022028923
     5.133226704         5.520434824         4.022028923
     5.133226704        17.787973118         4.022028923
    16.521578824         5.520434824         4.022028923
    16.521578824        17.787973118         4.022028923
     5.133226704        11.654204337         4.022028923
     5.133226704        23.921742630         4.022028923
    16.521578824        11.654204337         4.022028923
    16.521578824        23.921742630         4.022028923
    10.827402425         5.520434824         4.022028923
    10.827402425        17.787973118         4.022028923
    22.215754544         5.520434824         4.022028923
    22.215754544        17.787973118         4.022028923
    10.827402425        11.654204337         4.022028923
    10.827402425        23.921742630         4.022028923
    22.215754544        11.654204337         4.022028923
    22.215754544        23.921742630         4.022028923
     0.560948846         0.613334733         4.022028923
     0.560948846        12.880874443         4.022028923
    11.949299778         0.613334733         4.022028923
    11.949299778        12.880874443         4.022028923
     0.560948846         6.747104200         4.022028923
     0.560948846        19.014643955         4.022028923
    11.949299778         6.747104200         4.022028923
    11.949299778        19.014643955         4.022028923
     6.255124736         0.613334733         4.022028923
     6.255124736        12.880874443         4.022028923
    17.643475498         0.613334733         4.022028923
    17.643475498        12.880874443         4.022028923
     6.255124736         6.747104200         4.022028923
     6.255124736        19.014643955         4.022028923
    17.643475498         6.747104200         4.022028923
    17.643475498        19.014643955         4.022028923
     4.270631790         4.485601858         5.211037324
     4.270631790        16.753140517         5.211037324
    15.658983231         4.485601858         5.211037324
    15.658983231        16.753140517         5.211037324
     4.270631790        10.619371736         5.211037324
     4.270631790        22.886910029         5.211037324
    15.658983231        10.619371736         5.211037324
    15.658983231        22.886910029         5.211037324
     9.964807510         4.485601858         5.211037324
     9.964807510        16.753140517         5.211037324
    21.353158951         4.485601858         5.211037324
    21.353158951        16.753140517         5.211037324
     9.964807510        10.619371736         5.211037324
     9.964807510        22.886910029         5.211037324
    21.353158951        10.619371736         5.211037324
    21.353158951        22.886910029         5.211037324
     1.423543930         1.648167471         2.833020909
     1.423543930        13.915707044         2.833020909
    12.811895370         1.648167471         2.833020909
    12.811895370        13.915707044         2.833020909
     1.423543930         7.781936801         2.833020909
     1.423543930        20.049476556         2.833020909
    12.811895370         7.781936801         2.833020909
    12.811895370        20.049476556         2.833020909
     7.117719650         1.648167471         2.833020909
     7.117719650        13.915707044         2.833020909
    18.506071091         1.648167471         2.833020909
    18.506071091        13.915707044         2.833020909
     7.117719650         7.781936801         2.833020909
     7.117719650        20.049476556         2.833020909
    18.506071091         7.781936801         2.833020909
    18.506071091        20.049476556         2.833020909
     4.270631790         4.485601858         2.833020909
     4.270631790        16.753140517         2.833020909
    15.658983231         4.485601858         2.833020909
    15.658983231        16.753140517         2.833020909
     4.270631790        10.619371736         2.833020909
     4.270631790        22.886910029         2.833020909
    15.658983231        10.619371736         2.833020909
    15.658983231        22.886910029         2.833020909
     9.964807510         4.485601858         2.833020909
     9.964807510        16.753140517         2.833020909
    21.353158951         4.485601858         2.833020909
    21.353158951        16.753140517         2.833020909
     9.964807510        10.619371736         2.833020909
     9.964807510        22.886910029         2.833020909
    21.353158951        10.619371736         2.833020909
    21.353158951        22.886910029         2.833020909
     1.423543930         1.648167471         5.211037324
     1.423543930        13.915707044         5.211037324
    12.811895370         1.648167471         5.211037324
    12.811895370        13.915707044         5.211037324
     1.423543930         7.781936801         5.211037324
     1.423543930        20.049476556         5.211037324
    12.811895370         7.781936801         5.211037324
    12.811895370        20.049476556         5.211037324
     7.117719650         1.648167471         5.211037324
     7.117719650        13.915707044         5.211037324
    18.506071091         1.648167471         5.211037324
    18.506071091        13.915707044         5.211037324
     7.117719650         7.781936801         5.211037324
     7.117719650        20.049476556         5.211037324
    18.506071091         7.781936801         5.211037324
    18.506071091        20.049476556         5.211037324
     1.423543930         3.219984260         4.022028923
     1.423543930        15.487522919         4.022028923
    12.811895370         3.219984260         4.022028923
    12.811895370        15.487522919         4.022028923
     1.423543930         9.353754138         4.022028923
     1.423543930        21.621292431         4.022028923
    12.811895370         9.353754138         4.022028923
    12.811895370        21.621292431         4.022028923
     7.117719650         3.219984260         4.022028923
     7.117719650        15.487522919         4.022028923
    18.506071091         3.219984260         4.022028923
    18.506071091        15.487522919         4.022028923
     7.117719650         9.353754138         4.022028923
     7.117719650        21.621292431         4.022028923
    18.506071091         9.353754138         4.022028923
    18.506071091        21.621292431         4.022028923
     4.270631790         2.913785069         4.022028923
     4.270631790        15.181324642         4.022028923
    15.658983231         2.913785069         4.022028923
    15.658983231        15.181324642         4.022028923
     4.270631790         9.047555129         4.022028923
     4.270631790        21.315094154         4.022028923
    15.658983231         9.047555129         4.022028923
    15.658983231        21.315094154         4.022028923
     9.964807510         2.913785069         4.022028923
     9.964807510        15.181324642         4.022028923
    21.353158951         2.913785069         4.022028923
    21.353158951        15.181324642         4.022028923
     9.964807510         9.047555129         4.022028923
     9.964807510        21.315094154         4.022028923
    21.353158951         9.047555129         4.022028923
    21.353158951        21.315094154         4.022028923
     4.270631790         4.402435273         1.644543410
     4.270631790        16.669973566         1.644543410
    15.658983231         4.402435273         1.644543410
    15.658983231        16.669973566         1.644543410
     4.270631790        10.536204054         1.644543410
     4.270631790        22.803743079         1.644543410
    15.658983231        10.536204054         1.644543410
    15.658983231        22.803743079         1.644543410
     9.964807510         4.402435273         1.644543410
     9.964807510        16.669973566         1.644543410
    21.353158951         4.402435273         1.644543410
    21.353158951        16.669973566         1.644543410
     9.964807510        10.536204054         1.644543410
     9.964807510        22.803743079         1.644543410
    21.353158951        10.536204054         1.644543410
    21.353158951        22.803743079         1.644543410
     1.423543930         1.731334239         1.644543410
     1.423543930        13.998873994         1.644543410
    12.811895370         1.731334239         1.644543410
    12.811895370        13.998873994         1.644543410
     1.423543930         7.865103751         1.644543410
     1.423543930        20.132643507         1.644543410
    12.811895370         7.865103751         1.644543410
    12.811895370        20.132643507         1.644543410
     7.117719650         1.731334239         1.644543410
     7.117719650        13.998873994         1.644543410
    18.506071091         1.731334239         1.644543410
    18.506071091        13.998873994         1.644543410
     7.117719650         7.865103751         1.644543410
     7.117719650        20.132643507         1.644543410
    18.506071091         7.865103751         1.644543410
    18.506071091        20.132643507         1.644543410
     4.270631790         4.402435273         6.399514823
     4.270631790        16.669973566         6.399514823
    15.658983231         4.402435273         6.399514823
    15.658983231        16.669973566         6.399514823
     4.270631790        10.536204054         6.399514823
     4.270631790        22.803743079         6.399514823
    15.658983231        10.536204054         6.399514823
    15.658983231        22.803743079         6.399514823
     9.964807510         4.402435273         6.399514823
     9.964807510        16.669973566         6.399514823
    21.353158951         4.402435273         6.399514823
    21.353158951        16.669973566         6.399514823
     9.964807510        10.536204054         6.399514823
     9.964807510        22.803743079         6.399514823
    21.353158951        10.536204054         6.399514823
    21.353158951        22.803743079         6.399514823
     1.423543930         1.731334239         6.399514823
     1.423543930        13.998873994         6.399514823
    12.811895370         1.731334239         6.399514823
    12.811895370        13.998873994         6.399514823
     1.423543930         7.865103751         6.399514823
     1.423543930        20.132643507         6.399514823
    12.811895370         7.865103751         6.399514823
    12.811895370        20.132643507         6.399514823
     7.117719650         1.731334239         6.399514823
     7.117719650        13.998873994         6.399514823
    18.506071091         1.731334239         6.399514823
    18.506071091        13.998873994         6.399514823
     7.117719650         7.865103751         6.399514823
     7.117719650        20.132643507         6.399514823
    18.506071091         7.865103751         6.399514823
    18.506071091        20.132643507         6.399514823
