       N       E                     dE             d eps       ncg     rms          rms(c)
DAV:   1     0.728701606051E+02    0.72870E+02   -0.10472E+04  5544   0.462E+02
DAV:   2    -0.503193201888E+02   -0.12319E+03   -0.12262E+03  8316   0.802E+01
DAV:   3    -0.522004597193E+02   -0.18811E+01   -0.18740E+01  8442   0.136E+01
DAV:   4    -0.522042161903E+02   -0.37565E-02   -0.37558E-02  8568   0.613E-01
DAV:   5    -0.522042193967E+02   -0.32064E-05   -0.32067E-05  8484   0.159E-02    0.138E+01
DAV:   6    -0.360657334864E+02    0.16138E+02   -0.27352E+01  8862   0.107E+01    0.761E+00
DAV:   7    -0.414030025948E+02   -0.53373E+01   -0.58696E+00  8862   0.533E+00    0.405E+00
DAV:   8    -0.427183758685E+02   -0.13154E+01   -0.11517E+00  8736   0.261E+00    0.253E+00
DAV:   9    -0.453803808493E+02   -0.26620E+01   -0.11331E+00  6804   0.228E+00    0.184E+00
DAV:  10    -0.487209261629E+02   -0.33405E+01   -0.30014E+00  8148   0.305E+00    0.970E-01
DAV:  11    -0.499818433530E+02   -0.12609E+01   -0.10050E+00  8736   0.164E+00    0.477E-01
DAV:  12    -0.502315105470E+02   -0.24967E+00   -0.18270E-01  8694   0.758E-01    0.283E-01
DAV:  13    -0.504174956042E+02   -0.18599E+00   -0.43422E-02  8736   0.402E-01    0.119E-01
DAV:  14    -0.504665406642E+02   -0.49045E-01   -0.12165E-02  7560   0.205E-01    0.565E-02
DAV:  15    -0.504720050925E+02   -0.54644E-02   -0.13997E-03  6132   0.952E-02    0.353E-02
DAV:  16    -0.504765806790E+02   -0.45756E-02   -0.13634E-03  7014   0.754E-02    0.175E-02
DAV:  17    -0.504775554244E+02   -0.97475E-03   -0.13331E-04  6048   0.350E-02    0.116E-02
DAV:  18    -0.504787970112E+02   -0.12416E-02   -0.26084E-04  7308   0.339E-02    0.809E-03
DAV:  19    -0.504791444523E+02   -0.34744E-03   -0.63223E-05  6300   0.305E-02    0.551E-03
DAV:  20    -0.504793553339E+02   -0.21088E-03   -0.52436E-05  8022   0.251E-02    0.321E-03
DAV:  21    -0.504794001472E+02   -0.44813E-04   -0.12662E-05  7938   0.130E-02    0.204E-03
DAV:  22    -0.504794330117E+02   -0.32865E-04   -0.43428E-06  7056   0.658E-03    0.110E-03
DAV:  23    -0.504794394814E+02   -0.64697E-05   -0.16064E-06  7518   0.503E-03    0.690E-04
DAV:  24    -0.504794439166E+02   -0.44352E-05   -0.49042E-07  7560   0.249E-03    0.426E-04
DAV:  25    -0.504794498284E+02   -0.59117E-05   -0.37667E-07  7518   0.195E-03    0.255E-04
DAV:  26    -0.504794526133E+02   -0.27850E-05   -0.16278E-07  7518   0.119E-03    0.106E-04
DAV:  27    -0.504794531710E+02   -0.55765E-06   -0.11964E-08  9030   0.364E-04
   1 F= -.50479453E+02 E0= -.50478564E+02  d E =-.177894E-02  mag=     0.0000
