k-points
0
Monkhorst-pack
11  15  10
0   0   0