o-B14 large bilayer with Hydrogen 4*4
1.0
       22.7199840546         0.0000000000         0.0000000000
        0.0000000000        24.5884456635         0.0000000000
        0.0000000000         0.0000000000        30.0881175995
    B    H
  448   64
Cartesian
     2.968051034         3.920154143         4.019060432
     2.968051034        16.214376975         4.019060432
    14.328043400         3.920154143         4.019060432
    14.328043400        16.214376975         4.019060432
     2.968051034        10.067265559         4.019060432
     2.968051034        22.361488391         4.019060432
    14.328043400        10.067265559         4.019060432
    14.328043400        22.361488391         4.019060432
     8.648047386         3.920154143         4.019060432
     8.648047386        16.214376975         4.019060432
    20.008039413         3.920154143         4.019060432
    20.008039413        16.214376975         4.019060432
     8.648047386        10.067265559         4.019060432
     8.648047386        22.361488391         4.019060432
    20.008039413        10.067265559         4.019060432
    20.008039413        22.361488391         4.019060432
     2.968051034         3.920154143         8.069056868
     2.968051034        16.214376975         8.069056868
    14.328043400         3.920154143         8.069056868
    14.328043400        16.214376975         8.069056868
     2.968051034        10.067265559         8.069056868
     2.968051034        22.361488391         8.069056868
    14.328043400        10.067265559         8.069056868
    14.328043400        22.361488391         8.069056868
     8.648047386         3.920154143         8.069056868
     8.648047386        16.214376975         8.069056868
    20.008039413         3.920154143         8.069056868
    20.008039413        16.214376975         8.069056868
     8.648047386        10.067265559         8.069056868
     8.648047386        22.361488391         8.069056868
    20.008039413        10.067265559         8.069056868
    20.008039413        22.361488391         8.069056868
     2.711944811         2.226957273         4.019060432
     2.711944811        14.521180104         4.019060432
    14.071936669         2.226957273         4.019060432
    14.071936669        14.521180104         4.019060432
     2.711944811         8.374069421         4.019060432
     2.711944811        20.668291520         4.019060432
    14.071936669         8.374069421         4.019060432
    14.071936669        20.668291520         4.019060432
     8.391941332         2.226957273         4.019060432
     8.391941332        14.521180104         4.019060432
    19.751934036         2.226957273         4.019060432
    19.751934036        14.521180104         4.019060432
     8.391941332         8.374069421         4.019060432
     8.391941332        20.668291520         4.019060432
    19.751934036         8.374069421         4.019060432
    19.751934036        20.668291520         4.019060432
     2.711944811         2.226957273         8.069056868
     2.711944811        14.521180104         8.069056868
    14.071936669         2.226957273         8.069056868
    14.071936669        14.521180104         8.069056868
     2.711944811         8.374069421         8.069056868
     2.711944811        20.668291520         8.069056868
    14.071936669         8.374069421         8.069056868
    14.071936669        20.668291520         8.069056868
     8.391941332         2.226957273         8.069056868
     8.391941332        14.521180104         8.069056868
    19.751934036         2.226957273         8.069056868
    19.751934036        14.521180104         8.069056868
     8.391941332         8.374069421         8.069056868
     8.391941332        20.668291520         8.069056868
    19.751934036         8.374069421         8.069056868
    19.751934036        20.668291520         8.069056868
     5.551942987         3.920154143         4.019060432
     5.551942987        16.214376975         4.019060432
    16.911934675         3.920154143         4.019060432
    16.911934675        16.214376975         4.019060432
     5.551942987        10.067265559         4.019060432
     5.551942987        22.361488391         4.019060432
    16.911934675        10.067265559         4.019060432
    16.911934675        22.361488391         4.019060432
    11.231938662         3.920154143         4.019060432
    11.231938662        16.214376975         4.019060432
    22.591930689         3.920154143         4.019060432
    22.591930689        16.214376975         4.019060432
    11.231938662        10.067265559         4.019060432
    11.231938662        22.361488391         4.019060432
    22.591930689        10.067265559         4.019060432
    22.591930689        22.361488391         4.019060432
     5.551942987         3.920154143         8.069056868
     5.551942987        16.214376975         8.069056868
    16.911934675         3.920154143         8.069056868
    16.911934675        16.214376975         8.069056868
     5.551942987        10.067265559         8.069056868
     5.551942987        22.361488391         8.069056868
    16.911934675        10.067265559         8.069056868
    16.911934675        22.361488391         8.069056868
    11.231938662         3.920154143         8.069056868
    11.231938662        16.214376975         8.069056868
    22.591930689         3.920154143         8.069056868
    22.591930689        16.214376975         8.069056868
    11.231938662        10.067265559         8.069056868
    11.231938662        22.361488391         8.069056868
    22.591930689        10.067265559         8.069056868
    22.591930689        22.361488391         8.069056868
     0.128053207         2.226957273         4.019060432
     0.128053207        14.521180104         4.019060432
    11.488045393         2.226957273         4.019060432
    11.488045393        14.521180104         4.019060432
     0.128053207         8.374069421         4.019060432
     0.128053207        20.668291520         4.019060432
    11.488045393         8.374069421         4.019060432
    11.488045393        20.668291520         4.019060432
     5.808049379         2.226957273         4.019060432
     5.808049379        14.521180104         4.019060432
    17.168041406         2.226957273         4.019060432
    17.168041406        14.521180104         4.019060432
     5.808049379         8.374069421         4.019060432
     5.808049379        20.668291520         4.019060432
    17.168041406         8.374069421         4.019060432
    17.168041406        20.668291520         4.019060432
     0.128053207         2.226957273         8.069056868
     0.128053207        14.521180104         8.069056868
    11.488045393         2.226957273         8.069056868
    11.488045393        14.521180104         8.069056868
     0.128053207         8.374069421         8.069056868
     0.128053207        20.668291520         8.069056868
    11.488045393         8.374069421         8.069056868
    11.488045393        20.668291520         8.069056868
     5.808049379         2.226957273         8.069056868
     5.808049379        14.521180104         8.069056868
    17.168041406         2.226957273         8.069056868
    17.168041406        14.521180104         8.069056868
     5.808049379         8.374069421         8.069056868
     5.808049379        20.668291520         8.069056868
    17.168041406         8.374069421         8.069056868
    17.168041406        20.668291520         8.069056868
     3.396657195         5.533132554         4.000051826
     3.396657195        17.827355019         4.000051826
    14.756648884         5.533132554         4.000051826
    14.756648884        17.827355019         4.000051826
     3.396657195        11.680243604         4.000051826
     3.396657195        23.974466435         4.000051826
    14.756648884        11.680243604         4.000051826
    14.756648884        23.974466435         4.000051826
     9.076653548         5.533132554         4.000051826
     9.076653548        17.827355019         4.000051826
    20.436644898         5.533132554         4.000051826
    20.436644898        17.827355019         4.000051826
     9.076653548        11.680243604         4.000051826
     9.076653548        23.974466435         4.000051826
    20.436644898        11.680243604         4.000051826
    20.436644898        23.974466435         4.000051826
     3.396657195         5.533132554         8.088065025
     3.396657195        17.827355019         8.088065025
    14.756648884         5.533132554         8.088065025
    14.756648884        17.827355019         8.088065025
     3.396657195        11.680243604         8.088065025
     3.396657195        23.974466435         8.088065025
    14.756648884        11.680243604         8.088065025
    14.756648884        23.974466435         8.088065025
     9.076653548         5.533132554         8.088065025
     9.076653548        17.827355019         8.088065025
    20.436644898         5.533132554         8.088065025
    20.436644898        17.827355019         8.088065025
     9.076653548        11.680243604         8.088065025
     9.076653548        23.974466435         8.088065025
    20.436644898        11.680243604         8.088065025
    20.436644898        23.974466435         8.088065025
     2.283338818         0.613979045         4.000051826
     2.283338818        12.908202060         4.000051826
    13.643331184         0.613979045         4.000051826
    13.643331184        12.908202060         4.000051826
     2.283338818         6.761090644         4.000051826
     2.283338818        19.055313476         4.000051826
    13.643331184         6.761090644         4.000051826
    13.643331184        19.055313476         4.000051826
     7.963334493         0.613979045         4.000051826
     7.963334493        12.908202060         4.000051826
    19.323327198         0.613979045         4.000051826
    19.323327198        12.908202060         4.000051826
     7.963334493         6.761090644         4.000051826
     7.963334493        19.055313476         4.000051826
    19.323327198         6.761090644         4.000051826
    19.323327198        19.055313476         4.000051826
     2.283338818         0.613979045         8.088065025
     2.283338818        12.908202060         8.088065025
    13.643331184         0.613979045         8.088065025
    13.643331184        12.908202060         8.088065025
     2.283338818         6.761090644         8.088065025
     2.283338818        19.055313476         8.088065025
    13.643331184         6.761090644         8.088065025
    13.643331184        19.055313476         8.088065025
     7.963334493         0.613979045         8.088065025
     7.963334493        12.908202060         8.088065025
    19.323327198         0.613979045         8.088065025
    19.323327198        12.908202060         8.088065025
     7.963334493         6.761090644         8.088065025
     7.963334493        19.055313476         8.088065025
    19.323327198         6.761090644         8.088065025
    19.323327198        19.055313476         8.088065025
     5.123336825         5.533132554         4.000051826
     5.123336825        17.827355019         4.000051826
    16.483329191         5.533132554         4.000051826
    16.483329191        17.827355019         4.000051826
     5.123336825        11.680243604         4.000051826
     5.123336825        23.974466435         4.000051826
    16.483329191        11.680243604         4.000051826
    16.483329191        23.974466435         4.000051826
    10.803332500         5.533132554         4.000051826
    10.803332500        17.827355019         4.000051826
    22.163325205         5.533132554         4.000051826
    22.163325205        17.827355019         4.000051826
    10.803332500        11.680243604         4.000051826
    10.803332500        23.974466435         4.000051826
    22.163325205        11.680243604         4.000051826
    22.163325205        23.974466435         4.000051826
     5.123336825         5.533132554         8.088065025
     5.123336825        17.827355019         8.088065025
    16.483329191         5.533132554         8.088065025
    16.483329191        17.827355019         8.088065025
     5.123336825        11.680243604         8.088065025
     5.123336825        23.974466435         8.088065025
    16.483329191        11.680243604         8.088065025
    16.483329191        23.974466435         8.088065025
    10.803332500         5.533132554         8.088065025
    10.803332500        17.827355019         8.088065025
    22.163325205         5.533132554         8.088065025
    22.163325205        17.827355019         8.088065025
    10.803332500        11.680243604         8.088065025
    10.803332500        23.974466435         8.088065025
    22.163325205        11.680243604         8.088065025
    22.163325205        23.974466435         8.088065025
     0.556659231         0.613979045         4.000051826
     0.556659231        12.908202060         4.000051826
    11.916650877         0.613979045         4.000051826
    11.916650877        12.908202060         4.000051826
     0.556659231         6.761090644         4.000051826
     0.556659231        19.055313476         4.000051826
    11.916650877         6.761090644         4.000051826
    11.916650877        19.055313476         4.000051826
     6.236655541         0.613979045         4.000051826
     6.236655541        12.908202060         4.000051826
    17.596646891         0.613979045         4.000051826
    17.596646891        12.908202060         4.000051826
     6.236655541         6.761090644         4.000051826
     6.236655541        19.055313476         4.000051826
    17.596646891         6.761090644         4.000051826
    17.596646891        19.055313476         4.000051826
     0.556659231         0.613979045         8.088065025
     0.556659231        12.908202060         8.088065025
    11.916650877         0.613979045         8.088065025
    11.916650877        12.908202060         8.088065025
     0.556659231         6.761090644         8.088065025
     0.556659231        19.055313476         8.088065025
    11.916650877         6.761090644         8.088065025
    11.916650877        19.055313476         8.088065025
     6.236655541         0.613979045         8.088065025
     6.236655541        12.908202060         8.088065025
    17.596646891         0.613979045         8.088065025
    17.596646891        12.908202060         8.088065025
     6.236655541         6.761090644         8.088065025
     6.236655541        19.055313476         8.088065025
    17.596646891         6.761090644         8.088065025
    17.596646891        19.055313476         8.088065025
     4.259997010         4.508021766         5.221427250
     4.259997010        16.802243865         5.221427250
    15.619989038         4.508021766         5.221427250
    15.619989038        16.802243865         5.221427250
     4.259997010        10.655133182         5.221427250
     4.259997010        22.949355281         5.221427250
    15.619989038        10.655133182         5.221427250
    15.619989038        22.949355281         5.221427250
     9.939993024         4.508021766         5.221427250
     9.939993024        16.802243865         5.221427250
    21.299985051         4.508021766         5.221427250
    21.299985051        16.802243865         5.221427250
     9.939993024        10.655133182         5.221427250
     9.939993024        22.949355281         5.221427250
    21.299985051        10.655133182         5.221427250
    21.299985051        22.949355281         5.221427250
     4.259997010         4.479975588         9.260144150
     4.259997010        16.774198420         9.260144150
    15.619989038         4.479975588         9.260144150
    15.619989038        16.774198420         9.260144150
     4.259997010        10.627087737         9.260144150
     4.259997010        22.921309835         9.260144150
    15.619989038        10.627087737         9.260144150
    15.619989038        22.921309835         9.260144150
     9.939993024         4.479975588         9.260144150
     9.939993024        16.774198420         9.260144150
    21.299985051         4.479975588         9.260144150
    21.299985051        16.774198420         9.260144150
     9.939993024        10.627087737         9.260144150
     9.939993024        22.921309835         9.260144150
    21.299985051        10.627087737         9.260144150
    21.299985051        22.921309835         9.260144150
     1.419999003         1.667135645         2.827972477
     1.419999003        13.961358660         2.827972477
    12.779991031         1.667135645         2.827972477
    12.779991031        13.961358660         2.827972477
     1.419999003         7.814247244         2.827972477
     1.419999003        20.108470076         2.827972477
    12.779991031         7.814247244         2.827972477
    12.779991031        20.108470076         2.827972477
     7.099995017         1.667135645         2.827972477
     7.099995017        13.961358660         2.827972477
    18.459987044         1.667135645         2.827972477
    18.459987044        13.961358660         2.827972477
     7.099995017         7.814247244         2.827972477
     7.099995017        20.108470076         2.827972477
    18.459987044         7.814247244         2.827972477
    18.459987044        20.108470076         2.827972477
     1.419999003         1.639089283         6.866689601
     1.419999003        13.933311749         6.866689601
    12.779991031         1.639089283         6.866689601
    12.779991031        13.933311749         6.866689601
     1.419999003         7.786201066         6.866689601
     1.419999003        20.080424630         6.866689601
    12.779991031         7.786201066         6.866689601
    12.779991031        20.080424630         6.866689601
     7.099995017         1.639089283         6.866689601
     7.099995017        13.933311749         6.866689601
    18.459987044         1.639089283         6.866689601
    18.459987044        13.933311749         6.866689601
     7.099995017         7.786201066         6.866689601
     7.099995017        20.080424630         6.866689601
    18.459987044         7.786201066         6.866689601
    18.459987044        20.080424630         6.866689601
     4.259997010         4.479975588         2.827972477
     4.259997010        16.774198420         2.827972477
    15.619989038         4.479975588         2.827972477
    15.619989038        16.774198420         2.827972477
     4.259997010        10.627087737         2.827972477
     4.259997010        22.921309835         2.827972477
    15.619989038        10.627087737         2.827972477
    15.619989038        22.921309835         2.827972477
     9.939993024         4.479975588         2.827972477
     9.939993024        16.774198420         2.827972477
    21.299985051         4.479975588         2.827972477
    21.299985051        16.774198420         2.827972477
     9.939993024        10.627087737         2.827972477
     9.939993024        22.921309835         2.827972477
    21.299985051        10.627087737         2.827972477
    21.299985051        22.921309835         2.827972477
     4.259997010         4.508021766         6.866689601
     4.259997010        16.802243865         6.866689601
    15.619989038         4.508021766         6.866689601
    15.619989038        16.802243865         6.866689601
     4.259997010        10.655133182         6.866689601
     4.259997010        22.949355281         6.866689601
    15.619989038        10.655133182         6.866689601
    15.619989038        22.949355281         6.866689601
     9.939993024         4.508021766         6.866689601
     9.939993024        16.802243865         6.866689601
    21.299985051         4.508021766         6.866689601
    21.299985051        16.802243865         6.866689601
     9.939993024        10.655133182         6.866689601
     9.939993024        22.949355281         6.866689601
    21.299985051        10.655133182         6.866689601
    21.299985051        22.949355281         6.866689601
     1.419999003         1.639089283         5.221427250
     1.419999003        13.933311749         5.221427250
    12.779991031         1.639089283         5.221427250
    12.779991031        13.933311749         5.221427250
     1.419999003         7.786201066         5.221427250
     1.419999003        20.080424630         5.221427250
    12.779991031         7.786201066         5.221427250
    12.779991031        20.080424630         5.221427250
     7.099995017         1.639089283         5.221427250
     7.099995017        13.933311749         5.221427250
    18.459987044         1.639089283         5.221427250
    18.459987044        13.933311749         5.221427250
     7.099995017         7.786201066         5.221427250
     7.099995017        20.080424630         5.221427250
    18.459987044         7.786201066         5.221427250
    18.459987044        20.080424630         5.221427250
     1.419999003         1.667135645         9.260144150
     1.419999003        13.961358660         9.260144150
    12.779991031         1.667135645         9.260144150
    12.779991031        13.961358660         9.260144150
     1.419999003         7.814247244         9.260144150
     1.419999003        20.108470076         9.260144150
    12.779991031         7.814247244         9.260144150
    12.779991031        20.108470076         9.260144150
     7.099995017         1.667135645         9.260144150
     7.099995017        13.961358660         9.260144150
    18.459987044         1.667135645         9.260144150
    18.459987044        13.961358660         9.260144150
     7.099995017         7.814247244         9.260144150
     7.099995017        20.108470076         9.260144150
    18.459987044         7.814247244         9.260144150
    18.459987044        20.108470076         9.260144150
     1.419999003         3.231760174         4.023299112
     1.419999003        15.525982640         4.023299112
    12.779991031         3.231760174         4.023299112
    12.779991031        15.525982640         4.023299112
     1.419999003         9.378871956         4.023299112
     1.419999003        21.673094055         4.023299112
    12.779991031         9.378871956         4.023299112
    12.779991031        21.673094055         4.023299112
     7.099995017         3.231760174         4.023299112
     7.099995017        15.525982640         4.023299112
    18.459987044         3.231760174         4.023299112
    18.459987044        15.525982640         4.023299112
     7.099995017         9.378871956         4.023299112
     7.099995017        21.673094055         4.023299112
    18.459987044         9.378871956         4.023299112
    18.459987044        21.673094055         4.023299112
     1.419999003         3.231760174         8.064817290
     1.419999003        15.525982640         8.064817290
    12.779991031         3.231760174         8.064817290
    12.779991031        15.525982640         8.064817290
     1.419999003         9.378871956         8.064817290
     1.419999003        21.673094055         8.064817290
    12.779991031         9.378871956         8.064817290
    12.779991031        21.673094055         8.064817290
     7.099995017         3.231760174         8.064817290
     7.099995017        15.525982640         8.064817290
    18.459987044         3.231760174         8.064817290
    18.459987044        15.525982640         8.064817290
     7.099995017         9.378871956         8.064817290
     7.099995017        21.673094055         8.064817290
    18.459987044         9.378871956         8.064817290
    18.459987044        21.673094055         8.064817290
     4.259997010         2.915351242         4.023299112
     4.259997010        15.209574440         4.023299112
    15.619989038         2.915351242         4.023299112
    15.619989038        15.209574440         4.023299112
     4.259997010         9.062463024         4.023299112
     4.259997010        21.356685856         4.023299112
    15.619989038         9.062463024         4.023299112
    15.619989038        21.356685856         4.023299112
     9.939993024         2.915351242         4.023299112
     9.939993024        15.209574440         4.023299112
    21.299985051         2.915351242         4.023299112
    21.299985051        15.209574440         4.023299112
     9.939993024         9.062463024         4.023299112
     9.939993024        21.356685856         4.023299112
    21.299985051         9.062463024         4.023299112
    21.299985051        21.356685856         4.023299112
     4.259997010         2.915351242         8.064817290
     4.259997010        15.209574440         8.064817290
    15.619989038         2.915351242         8.064817290
    15.619989038        15.209574440         8.064817290
     4.259997010         9.062463024         8.064817290
     4.259997010        21.356685856         8.064817290
    15.619989038         9.062463024         8.064817290
    15.619989038        21.356685856         8.064817290
     9.939993024         2.915351242         8.064817290
     9.939993024        15.209574440         8.064817290
    21.299985051         2.915351242         8.064817290
    21.299985051        15.209574440         8.064817290
     9.939993024         9.062463024         8.064817290
     9.939993024        21.356685856         8.064817290
    21.299985051         9.062463024         8.064817290
    21.299985051        21.356685856         8.064817290
     1.419999003         1.765001770         1.639750361
     1.419999003        14.059224602         1.639750361
    12.779991031         1.765001770         1.639750361
    12.779991031        14.059224602         1.639750361
     1.419999003         7.912113186         1.639750361
     1.419999003        20.206336018         1.639750361
    12.779991031         7.912113186         1.639750361
    12.779991031        20.206336018         1.639750361
     7.099995017         1.765001770         1.639750361
     7.099995017        14.059224602         1.639750361
    18.459987044         1.765001770         1.639750361
    18.459987044        14.059224602         1.639750361
     7.099995017         7.912113186         1.639750361
     7.099995017        20.206336018         1.639750361
    18.459987044         7.912113186         1.639750361
    18.459987044        20.206336018         1.639750361
     4.259997010         4.382109646         1.639750361
     4.259997010        16.676332478         1.639750361
    15.619989038         4.382109646         1.639750361
    15.619989038        16.676332478         1.639750361
     4.259997010        10.529221795         1.639750361
     4.259997010        22.823443893         1.639750361
    15.619989038        10.529221795         1.639750361
    15.619989038        22.823443893         1.639750361
     9.939993024         4.382109646         1.639750361
     9.939993024        16.676332478         1.639750361
    21.299985051         4.382109646         1.639750361
    21.299985051        16.676332478         1.639750361
     9.939993024        10.529221795         1.639750361
     9.939993024        22.823443893         1.639750361
    21.299985051        10.529221795         1.639750361
    21.299985051        22.823443893         1.639750361
     1.419999003         1.765001770        10.448367386
     1.419999003        14.059224602        10.448367386
    12.779991031         1.765001770        10.448367386
    12.779991031        14.059224602        10.448367386
     1.419999003         7.912113186        10.448367386
     1.419999003        20.206336018        10.448367386
    12.779991031         7.912113186        10.448367386
    12.779991031        20.206336018        10.448367386
     7.099995017         1.765001770        10.448367386
     7.099995017        14.059224602        10.448367386
    18.459987044         1.765001770        10.448367386
    18.459987044        14.059224602        10.448367386
     7.099995017         7.912113186        10.448367386
     7.099995017        20.206336018        10.448367386
    18.459987044         7.912113186        10.448367386
    18.459987044        20.206336018        10.448367386
     4.259997010         4.382109646        10.448367386
     4.259997010        16.676332478        10.448367386
    15.619989038         4.382109646        10.448367386
    15.619989038        16.676332478        10.448367386
     4.259997010        10.529221795        10.448367386
     4.259997010        22.823443893        10.448367386
    15.619989038        10.529221795        10.448367386
    15.619989038        22.823443893        10.448367386
     9.939993024         4.382109646        10.448367386
     9.939993024        16.676332478        10.448367386
    21.299985051         4.382109646        10.448367386
    21.299985051        16.676332478        10.448367386
     9.939993024        10.529221795        10.448367386
     9.939993024        22.823443893        10.448367386
    21.299985051        10.529221795        10.448367386
    21.299985051        22.823443893        10.448367386
