k-points
0
Monkhorst-pack
21  30  19
0   0   0