       N       E                     dE             d eps       ncg     rms          rms(c)
DAV:   1     0.328983605402E+04    0.32898E+04   -0.13064E+05  3564   0.109E+03
DAV:   2    -0.267129874985E+03   -0.35570E+04   -0.34111E+04  4896   0.228E+02
DAV:   3    -0.867389033950E+03   -0.60026E+03   -0.59471E+03  3912   0.101E+02
DAV:   4    -0.891643059179E+03   -0.24254E+02   -0.23923E+02  4140   0.218E+01
DAV:   5    -0.892431471981E+03   -0.78841E+00   -0.78319E+00  4584   0.347E+00    0.386E+01
DAV:   6    -0.823911152686E+03    0.68520E+02   -0.91096E+01  3876   0.135E+01    0.202E+01
DAV:   7    -0.807061288246E+03    0.16850E+02   -0.69903E+01  3924   0.112E+01    0.625E+00
DAV:   8    -0.806120785885E+03    0.94050E+00   -0.62136E+00  4116   0.436E+00    0.181E+00
DAV:   9    -0.805747466659E+03    0.37332E+00   -0.70534E-01  3936   0.130E+00    0.828E-01
DAV:  10    -0.805674202345E+03    0.73264E-01   -0.10166E-01  4224   0.475E-01    0.457E-01
DAV:  11    -0.805595056958E+03    0.79145E-01   -0.12913E-01  3912   0.390E-01    0.280E-01
DAV:  12    -0.805603732986E+03   -0.86760E-02   -0.33053E-02  4104   0.232E-01    0.203E-01
DAV:  13    -0.805622988192E+03   -0.19255E-01   -0.90070E-03  3612   0.152E-01    0.108E-01
DAV:  14    -0.805639107520E+03   -0.16119E-01   -0.57304E-03  3948   0.832E-02    0.639E-02
DAV:  15    -0.805652878269E+03   -0.13771E-01   -0.12122E-03  3888   0.387E-02    0.379E-02
DAV:  16    -0.805666007966E+03   -0.13130E-01   -0.15407E-03  3876   0.329E-02    0.191E-02
DAV:  17    -0.805670502264E+03   -0.44943E-02   -0.32010E-04  4032   0.155E-02    0.122E-02
DAV:  18    -0.805674156960E+03   -0.36547E-02   -0.35828E-04  3912   0.120E-02    0.617E-03
DAV:  19    -0.805675152148E+03   -0.99519E-03   -0.52775E-05  3840   0.476E-03    0.330E-03
DAV:  20    -0.805675668253E+03   -0.51610E-03   -0.18147E-05  3300   0.316E-03    0.195E-03
DAV:  21    -0.805675821464E+03   -0.15321E-03   -0.29284E-06  3132   0.150E-03    0.105E-03
DAV:  22    -0.805675902527E+03   -0.81064E-04   -0.16319E-06  3048   0.104E-03    0.417E-04
DAV:  23    -0.805675922890E+03   -0.20363E-04   -0.21272E-07  2832   0.479E-04    0.230E-04
DAV:  24    -0.805675929787E+03   -0.68966E-05   -0.82943E-08  2796   0.257E-04    0.864E-05
DAV:  25    -0.805675930991E+03   -0.12042E-05   -0.15784E-09  2544   0.135E-04    0.389E-05
DAV:  26    -0.805675931280E+03   -0.28946E-06    0.90017E-09  2472   0.804E-05
   1 F= -.81835276E+03 E0= -.81835275E+03  d E =-.178107E-04
