generated by phonopy                    
   1.00000000000000     
    17.0825264761739604    0.0000000000000000    0.0000000000000000
     0.0000000000000000   18.4013080621789200    0.0000000000000000
     0.0000000000000000    0.0000000000000000   26.0440578460999994
  B               H             
   126    36
Direct
     0.1744709387189687    0.2123451355622947    0.1544317381249485
     0.5078042720522973    0.2123451355622947    0.1544317381249485
     0.8411376053856330    0.2123451355622947    0.1544317381249485
     0.1744709387189687    0.5456784688956304    0.1544317381249485
     0.5078042720522973    0.5456784688956304    0.1544317381249485
     0.8411376053856330    0.5456784688956304    0.1544317381249485
     0.1744709387189687    0.8790118022289590    0.1544317381249485
     0.5078042720522973    0.8790118022289590    0.1544317381249485
     0.8411376053856330    0.8790118022289590    0.1544317381249485
     0.1588623946845473    0.1209881977657616    0.1544317381249485
     0.4921957280178759    0.1209881977657616    0.1544317381249485
     0.8255290613512116    0.1209881977657616    0.1544317381249485
     0.1588623946845473    0.4543215310990902    0.1544317381249485
     0.4921957280178759    0.4543215310990902    0.1544317381249485
     0.8255290613512116    0.4543215310990902    0.1544317381249485
     0.1588623946845473    0.7876548644324259    0.1544317381249485
     0.4921957280178759    0.7876548644324259    0.1544317381249485
     0.8255290613512116    0.7876548644324259    0.1544317381249485
     0.3255290613278206    0.2123451355622947    0.1544317381249485
     0.6588623946611492    0.2123451355622947    0.1544317381249485
     0.9921957279944849    0.2123451355622947    0.1544317381249485
     0.3255290613278206    0.5456784688956304    0.1544317381249485
     0.6588623946611492    0.5456784688956304    0.1544317381249485
     0.9921957279944849    0.5456784688956304    0.1544317381249485
     0.3255290613278206    0.8790118022289590    0.1544317381249485
     0.6588623946611492    0.8790118022289590    0.1544317381249485
     0.9921957279944849    0.8790118022289590    0.1544317381249485
     0.0078042720172107    0.1209881977657616    0.1544317381249485
     0.3411376053505464    0.1209881977657616    0.1544317381249485
     0.6744709386838750    0.1209881977657616    0.1544317381249485
     0.0078042720172107    0.4543215310990902    0.1544317381249485
     0.3411376053505464    0.4543215310990902    0.1544317381249485
     0.6744709386838750    0.4543215310990902    0.1544317381249485
     0.0078042720172107    0.7876548644324259    0.1544317381249485
     0.3411376053505464    0.7876548644324259    0.1544317381249485
     0.6744709386838750    0.7876548644324259    0.1544317381249485
     0.1995042472717827    0.3000022911618530    0.1544317381249485
     0.5328375806051184    0.3000022911618530    0.1544317381249485
     0.8661709139384470    0.3000022911618530    0.1544317381249485
     0.1995042472717827    0.6333356244951887    0.1544317381249485
     0.5328375806051184    0.6333356244951887    0.1544317381249485
     0.8661709139384470    0.6333356244951887    0.1544317381249485
     0.1995042472717827    0.9666689578285244    0.1544317381249485
     0.5328375806051184    0.9666689578285244    0.1544317381249485
     0.8661709139384470    0.9666689578285244    0.1544317381249485
     0.1338290860732485    0.0333310396849953    0.1544317381249485
     0.4671624194065771    0.0333310396849953    0.1544317381249485
     0.8004957527399128    0.0333310396849953    0.1544317381249485
     0.1338290860732485    0.3666643730183239    0.1544317381249485
     0.4671624194065771    0.3666643730183239    0.1544317381249485
     0.8004957527399128    0.3666643730183239    0.1544317381249485
     0.1338290860732485    0.6999977063516596    0.1544317381249485
     0.4671624194065771    0.6999977063516596    0.1544317381249485
     0.8004957527399128    0.6999977063516596    0.1544317381249485
     0.3004957527749994    0.3000022911618530    0.1544317381249485
     0.6338290861083351    0.3000022911618530    0.1544317381249485
     0.9671624194416708    0.3000022911618530    0.1544317381249485
     0.3004957527749994    0.6333356244951887    0.1544317381249485
     0.6338290861083351    0.6333356244951887    0.1544317381249485
     0.9671624194416708    0.6333356244951887    0.1544317381249485
     0.3004957527749994    0.9666689578285244    0.1544317381249485
     0.6338290861083351    0.9666689578285244    0.1544317381249485
     0.9671624194416708    0.9666689578285244    0.1544317381249485
     0.0328375805700247    0.0333310396849953    0.1544317381249485
     0.3661709139033604    0.0333310396849953    0.1544317381249485
     0.6995042472366961    0.0333310396849953    0.1544317381249485
     0.0328375805700247    0.3666643730183239    0.1544317381249485
     0.3661709139033604    0.3666643730183239    0.1544317381249485
     0.6995042472366961    0.3666643730183239    0.1544317381249485
     0.0328375805700247    0.6999977063516596    0.1544317381249485
     0.3661709139033604    0.6999977063516596    0.1544317381249485
     0.6995042472366961    0.6999977063516596    0.1544317381249485
     0.2499999999649134    0.2437653822253125    0.2004694237198947
     0.5833333332982420    0.2437653822253125    0.2000854589760337
     0.9166666666315777    0.2437653822253125    0.2000854589760337
     0.2499999999649134    0.5770987155586482    0.2000854589760337
     0.5833333332982420    0.5770987155586482    0.2000854589760337
     0.9166666666315777    0.5770987155586482    0.2000854589760337
     0.2499999999649134    0.9104320488919768    0.2000854589760337
     0.5833333332982420    0.9104320488919768    0.2000854589760337
     0.9166666666315777    0.9104320488919768    0.2000854589760337
     0.0833333333216402    0.0895679511027438    0.1087780196160537
     0.4166666666549688    0.0895679511027438    0.1087780196160537
     0.7499999999883045    0.0895679511027438    0.1087780196160537
     0.0833333333216402    0.4229012844360795    0.1087780196160537
     0.4166666666549688    0.4229012844360795    0.1087780196160537
     0.7499999999883045    0.4229012844360795    0.1087780196160537
     0.0833333333216402    0.7562346177694081    0.1087780196160537
     0.4166666666549688    0.7562346177694081    0.1087780196160537
     0.7499999999883045    0.7562346177694081    0.1087780196160537
     0.2499999999649134    0.2437653822253125    0.1087780196160537
     0.5833333332982420    0.2437653822253125    0.1087780196160537
     0.9166666666315777    0.2437653822253125    0.1087780196160537
     0.2499999999649134    0.5770987155586482    0.1087780196160537
     0.5833333332982420    0.5770987155586482    0.1087780196160537
     0.9166666666315777    0.5770987155586482    0.1087780196160537
     0.2499999999649134    0.9104320488919768    0.1087780196160537
     0.5833333332982420    0.9104320488919768    0.1087780196160537
     0.9166666666315777    0.9104320488919768    0.1087780196160537
     0.0833333333216402    0.0895679511027438    0.2000854589760337
     0.4166666666549688    0.0895679511027438    0.2000854589760337
     0.7499999999883045    0.0895679511027438    0.2000854589760337
     0.0833333333216402    0.4229012844360795    0.2000854589760337
     0.4166666666549688    0.4229012844360795    0.2000854589760337
     0.7499999999883045    0.4229012844360795    0.2000854589760337
     0.0833333333216402    0.7562346177694081    0.2000854589760337
     0.4166666666549688    0.7562346177694081    0.2000854589760337
     0.7499999999883045    0.7562346177694081    0.2000854589760337
     0.0833333333216402    0.1749867042068658    0.1544317381249485
     0.4166666666549688    0.1749867042068658    0.1544317381249485
     0.7499999999883045    0.1749867042068658    0.1544317381249485
     0.0833333333216402    0.5083200375402015    0.1544317381249485
     0.4166666666549688    0.5083200375402015    0.1544317381249485
     0.7499999999883045    0.5083200375402015    0.1544317381249485
     0.0833333333216402    0.8416533708735372    0.1544317381249485
     0.4166666666549688    0.8416533708735372    0.1544317381249485
     0.7499999999883045    0.8416533708735372    0.1544317381249485
     0.2499999999649134    0.1583466191963652    0.1544317381249485
     0.5833333332982420    0.1583466191963652    0.1544317381249485
     0.9166666666315777    0.1583466191963652    0.1544317381249485
     0.2499999999649134    0.4916799525296938    0.1544317381249485
     0.5833333332982420    0.4916799525296938    0.1544317381249485
     0.9166666666315777    0.4916799525296938    0.1544317381249485
     0.2499999999649134    0.8250132858630295    0.1544317381249485
     0.5833333332982420    0.8250132858630295    0.1544317381249485
     0.9166666666315777    0.8250132858630295    0.1544317381249485
     0.2499999999649134    0.2392457710868143    0.0631446696312921
     0.5833333332982420    0.2392457710868143    0.0631446696312921
     0.9166666666315777    0.2392457710868143    0.0631446696312921
     0.2499999999649134    0.5725791044201500    0.0631446696312921
     0.5833333332982420    0.5725791044201500    0.0631446696312921
     0.9166666666315777    0.5725791044201500    0.0631446696312921
     0.2499999999649134    0.9059124377534786    0.0631446696312921
     0.5833333332982420    0.9059124377534786    0.0631446696312921
     0.9166666666315777    0.9059124377534786    0.0631446696312921
     0.0833333333216402    0.0940875622412420    0.0631446696312921
     0.4166666666549688    0.0940875622412420    0.0631446696312921
     0.7499999999883045    0.0940875622412420    0.0631446696312921
     0.0833333333216402    0.4274208955745706    0.0631446696312921
     0.4166666666549688    0.4274208955745706    0.0631446696312921
     0.7499999999883045    0.4274208955745706    0.0631446696312921
     0.0833333333216402    0.7607542289079063    0.0631446696312921
     0.4166666666549688    0.7607542289079063    0.0631446696312921
     0.7499999999883045    0.7607542289079063    0.0631446696312921
     0.2499999999649134    0.2392457710868143    0.2457188089607953
     0.5833333332982420    0.2392457710868143    0.2457188089607953
     0.9166666666315777    0.2392457710868143    0.2457188089607953
     0.2499999999649134    0.5725791044201500    0.2457188089607953
     0.5833333332982420    0.5725791044201500    0.2457188089607953
     0.9166666666315777    0.5725791044201500    0.2457188089607953
     0.2499999999649134    0.9059124377534786    0.2457188089607953
     0.5833333332982420    0.9059124377534786    0.2457188089607953
     0.9166666666315777    0.9059124377534786    0.2457188089607953
     0.0833333333216402    0.0940875622412420    0.2457188089607953
     0.4166666666549688    0.0940875622412420    0.2457188089607953
     0.7499999999883045    0.0940875622412420    0.2457188089607953
     0.0833333333216402    0.4274208955745706    0.2457188089607953
     0.4166666666549688    0.4274208955745706    0.2457188089607953
     0.7499999999883045    0.4274208955745706    0.2457188089607953
     0.0833333333216402    0.7607542289079063    0.2457188089607953
     0.4166666666549688    0.7607542289079063    0.2457188089607953
     0.7499999999883045    0.7607542289079063    0.2457188089607953
 
  0.00000000E+00  0.00000000E+00  0.00000000E+00
  0.00000000E+00  0.00000000E+00  0.00000000E+00
  0.00000000E+00  0.00000000E+00  0.00000000E+00
  0.00000000E+00  0.00000000E+00  0.00000000E+00
  0.00000000E+00  0.00000000E+00  0.00000000E+00
  0.00000000E+00  0.00000000E+00  0.00000000E+00
  0.00000000E+00  0.00000000E+00  0.00000000E+00
  0.00000000E+00  0.00000000E+00  0.00000000E+00
  0.00000000E+00  0.00000000E+00  0.00000000E+00
  0.00000000E+00  0.00000000E+00  0.00000000E+00
  0.00000000E+00  0.00000000E+00  0.00000000E+00
  0.00000000E+00  0.00000000E+00  0.00000000E+00
  0.00000000E+00  0.00000000E+00  0.00000000E+00
  0.00000000E+00  0.00000000E+00  0.00000000E+00
  0.00000000E+00  0.00000000E+00  0.00000000E+00
  0.00000000E+00  0.00000000E+00  0.00000000E+00
  0.00000000E+00  0.00000000E+00  0.00000000E+00
  0.00000000E+00  0.00000000E+00  0.00000000E+00
  0.00000000E+00  0.00000000E+00  0.00000000E+00
  0.00000000E+00  0.00000000E+00  0.00000000E+00
  0.00000000E+00  0.00000000E+00  0.00000000E+00
  0.00000000E+00  0.00000000E+00  0.00000000E+00
  0.00000000E+00  0.00000000E+00  0.00000000E+00
  0.00000000E+00  0.00000000E+00  0.00000000E+00
  0.00000000E+00  0.00000000E+00  0.00000000E+00
  0.00000000E+00  0.00000000E+00  0.00000000E+00
  0.00000000E+00  0.00000000E+00  0.00000000E+00
  0.00000000E+00  0.00000000E+00  0.00000000E+00
  0.00000000E+00  0.00000000E+00  0.00000000E+00
  0.00000000E+00  0.00000000E+00  0.00000000E+00
  0.00000000E+00  0.00000000E+00  0.00000000E+00
  0.00000000E+00  0.00000000E+00  0.00000000E+00
  0.00000000E+00  0.00000000E+00  0.00000000E+00
  0.00000000E+00  0.00000000E+00  0.00000000E+00
  0.00000000E+00  0.00000000E+00  0.00000000E+00
  0.00000000E+00  0.00000000E+00  0.00000000E+00
  0.00000000E+00  0.00000000E+00  0.00000000E+00
  0.00000000E+00  0.00000000E+00  0.00000000E+00
  0.00000000E+00  0.00000000E+00  0.00000000E+00
  0.00000000E+00  0.00000000E+00  0.00000000E+00
  0.00000000E+00  0.00000000E+00  0.00000000E+00
  0.00000000E+00  0.00000000E+00  0.00000000E+00
  0.00000000E+00  0.00000000E+00  0.00000000E+00
  0.00000000E+00  0.00000000E+00  0.00000000E+00
  0.00000000E+00  0.00000000E+00  0.00000000E+00
  0.00000000E+00  0.00000000E+00  0.00000000E+00
  0.00000000E+00  0.00000000E+00  0.00000000E+00
  0.00000000E+00  0.00000000E+00  0.00000000E+00
  0.00000000E+00  0.00000000E+00  0.00000000E+00
  0.00000000E+00  0.00000000E+00  0.00000000E+00
  0.00000000E+00  0.00000000E+00  0.00000000E+00
  0.00000000E+00  0.00000000E+00  0.00000000E+00
  0.00000000E+00  0.00000000E+00  0.00000000E+00
  0.00000000E+00  0.00000000E+00  0.00000000E+00
  0.00000000E+00  0.00000000E+00  0.00000000E+00
  0.00000000E+00  0.00000000E+00  0.00000000E+00
  0.00000000E+00  0.00000000E+00  0.00000000E+00
  0.00000000E+00  0.00000000E+00  0.00000000E+00
  0.00000000E+00  0.00000000E+00  0.00000000E+00
  0.00000000E+00  0.00000000E+00  0.00000000E+00
  0.00000000E+00  0.00000000E+00  0.00000000E+00
  0.00000000E+00  0.00000000E+00  0.00000000E+00
  0.00000000E+00  0.00000000E+00  0.00000000E+00
  0.00000000E+00  0.00000000E+00  0.00000000E+00
  0.00000000E+00  0.00000000E+00  0.00000000E+00
  0.00000000E+00  0.00000000E+00  0.00000000E+00
  0.00000000E+00  0.00000000E+00  0.00000000E+00
  0.00000000E+00  0.00000000E+00  0.00000000E+00
  0.00000000E+00  0.00000000E+00  0.00000000E+00
  0.00000000E+00  0.00000000E+00  0.00000000E+00
  0.00000000E+00  0.00000000E+00  0.00000000E+00
  0.00000000E+00  0.00000000E+00  0.00000000E+00
  0.00000000E+00  0.00000000E+00  0.00000000E+00
  0.00000000E+00  0.00000000E+00  0.00000000E+00
  0.00000000E+00  0.00000000E+00  0.00000000E+00
  0.00000000E+00  0.00000000E+00  0.00000000E+00
  0.00000000E+00  0.00000000E+00  0.00000000E+00
  0.00000000E+00  0.00000000E+00  0.00000000E+00
  0.00000000E+00  0.00000000E+00  0.00000000E+00
  0.00000000E+00  0.00000000E+00  0.00000000E+00
  0.00000000E+00  0.00000000E+00  0.00000000E+00
  0.00000000E+00  0.00000000E+00  0.00000000E+00
  0.00000000E+00  0.00000000E+00  0.00000000E+00
  0.00000000E+00  0.00000000E+00  0.00000000E+00
  0.00000000E+00  0.00000000E+00  0.00000000E+00
  0.00000000E+00  0.00000000E+00  0.00000000E+00
  0.00000000E+00  0.00000000E+00  0.00000000E+00
  0.00000000E+00  0.00000000E+00  0.00000000E+00
  0.00000000E+00  0.00000000E+00  0.00000000E+00
  0.00000000E+00  0.00000000E+00  0.00000000E+00
  0.00000000E+00  0.00000000E+00  0.00000000E+00
  0.00000000E+00  0.00000000E+00  0.00000000E+00
  0.00000000E+00  0.00000000E+00  0.00000000E+00
  0.00000000E+00  0.00000000E+00  0.00000000E+00
  0.00000000E+00  0.00000000E+00  0.00000000E+00
  0.00000000E+00  0.00000000E+00  0.00000000E+00
  0.00000000E+00  0.00000000E+00  0.00000000E+00
  0.00000000E+00  0.00000000E+00  0.00000000E+00
  0.00000000E+00  0.00000000E+00  0.00000000E+00
  0.00000000E+00  0.00000000E+00  0.00000000E+00
  0.00000000E+00  0.00000000E+00  0.00000000E+00
  0.00000000E+00  0.00000000E+00  0.00000000E+00
  0.00000000E+00  0.00000000E+00  0.00000000E+00
  0.00000000E+00  0.00000000E+00  0.00000000E+00
  0.00000000E+00  0.00000000E+00  0.00000000E+00
  0.00000000E+00  0.00000000E+00  0.00000000E+00
  0.00000000E+00  0.00000000E+00  0.00000000E+00
  0.00000000E+00  0.00000000E+00  0.00000000E+00
  0.00000000E+00  0.00000000E+00  0.00000000E+00
  0.00000000E+00  0.00000000E+00  0.00000000E+00
  0.00000000E+00  0.00000000E+00  0.00000000E+00
  0.00000000E+00  0.00000000E+00  0.00000000E+00
  0.00000000E+00  0.00000000E+00  0.00000000E+00
  0.00000000E+00  0.00000000E+00  0.00000000E+00
  0.00000000E+00  0.00000000E+00  0.00000000E+00
  0.00000000E+00  0.00000000E+00  0.00000000E+00
  0.00000000E+00  0.00000000E+00  0.00000000E+00
  0.00000000E+00  0.00000000E+00  0.00000000E+00
  0.00000000E+00  0.00000000E+00  0.00000000E+00
  0.00000000E+00  0.00000000E+00  0.00000000E+00
  0.00000000E+00  0.00000000E+00  0.00000000E+00
  0.00000000E+00  0.00000000E+00  0.00000000E+00
  0.00000000E+00  0.00000000E+00  0.00000000E+00
  0.00000000E+00  0.00000000E+00  0.00000000E+00
  0.00000000E+00  0.00000000E+00  0.00000000E+00
  0.00000000E+00  0.00000000E+00  0.00000000E+00
  0.00000000E+00  0.00000000E+00  0.00000000E+00
  0.00000000E+00  0.00000000E+00  0.00000000E+00
  0.00000000E+00  0.00000000E+00  0.00000000E+00
  0.00000000E+00  0.00000000E+00  0.00000000E+00
  0.00000000E+00  0.00000000E+00  0.00000000E+00
  0.00000000E+00  0.00000000E+00  0.00000000E+00
  0.00000000E+00  0.00000000E+00  0.00000000E+00
  0.00000000E+00  0.00000000E+00  0.00000000E+00
  0.00000000E+00  0.00000000E+00  0.00000000E+00
  0.00000000E+00  0.00000000E+00  0.00000000E+00
  0.00000000E+00  0.00000000E+00  0.00000000E+00
  0.00000000E+00  0.00000000E+00  0.00000000E+00
  0.00000000E+00  0.00000000E+00  0.00000000E+00
  0.00000000E+00  0.00000000E+00  0.00000000E+00
  0.00000000E+00  0.00000000E+00  0.00000000E+00
  0.00000000E+00  0.00000000E+00  0.00000000E+00
  0.00000000E+00  0.00000000E+00  0.00000000E+00
  0.00000000E+00  0.00000000E+00  0.00000000E+00
  0.00000000E+00  0.00000000E+00  0.00000000E+00
  0.00000000E+00  0.00000000E+00  0.00000000E+00
  0.00000000E+00  0.00000000E+00  0.00000000E+00
  0.00000000E+00  0.00000000E+00  0.00000000E+00
  0.00000000E+00  0.00000000E+00  0.00000000E+00
  0.00000000E+00  0.00000000E+00  0.00000000E+00
  0.00000000E+00  0.00000000E+00  0.00000000E+00
  0.00000000E+00  0.00000000E+00  0.00000000E+00
  0.00000000E+00  0.00000000E+00  0.00000000E+00
  0.00000000E+00  0.00000000E+00  0.00000000E+00
  0.00000000E+00  0.00000000E+00  0.00000000E+00
  0.00000000E+00  0.00000000E+00  0.00000000E+00
  0.00000000E+00  0.00000000E+00  0.00000000E+00
  0.00000000E+00  0.00000000E+00  0.00000000E+00
  0.00000000E+00  0.00000000E+00  0.00000000E+00
  0.00000000E+00  0.00000000E+00  0.00000000E+00
  0.00000000E+00  0.00000000E+00  0.00000000E+00
  0.00000000E+00  0.00000000E+00  0.00000000E+00
