  162  162    1    1
  0.5053525E+02  0.1708253E-08  0.1840131E-08  0.2604406E-08  0.5000000E-15
  1.000000000000000E-004
  CAR 
 SCF                                     
    414      4    294
 
  0.1250000E+00  0.1276756E-14  0.1276756E-14  0.1666667E+00
      1        -19.391300   1.000000
      2        -19.317095   1.000000
      3        -19.315323   1.000000
      4        -19.211482   1.000000
      5        -19.151580   1.000000
      6        -19.149698   1.000000
      7        -19.097584   1.000000
      8        -19.048815   1.000000
      9        -19.046711   1.000000
     10        -18.671935   1.000000
     11        -18.669806   1.000000
     12        -18.656136   1.000000
     13        -18.552689   1.000000
     14        -18.550158   1.000000
     15        -18.503755   1.000000
     16        -18.346545   1.000000
     17        -18.343681   1.000000
     18        -18.211836   1.000000
     19        -15.512720   1.000000
     20        -15.512367   1.000000
     21        -15.487035   1.000000
     22        -15.486530   1.000000
     23        -15.423556   1.000000
     24        -15.397990   1.000000
     25        -15.397818   1.000000
     26        -15.291829   1.000000
     27        -15.218748   1.000000
     28        -15.174727   1.000000
     29        -15.173785   1.000000
     30        -15.051546   1.000000
     31        -15.050189   1.000000
     32        -15.037609   1.000000
     33        -15.036991   1.000000
     34        -15.035212   1.000000
     35        -14.820333   1.000000
     36        -14.819037   1.000000
     37        -13.410616   1.000000
     38        -13.410046   1.000000
     39        -12.795078   1.000000
     40        -12.794647   1.000000
     41        -12.715103   1.000000
     42        -12.689324   1.000000
     43        -12.677050   1.000000
     44        -12.593340   1.000000
     45        -12.528395   1.000000
     46        -12.490269   1.000000
     47        -12.489987   1.000000
     48        -12.300296   1.000000
     49        -12.294154   1.000000
     50        -12.292983   1.000000
     51        -12.153166   1.000000
     52        -12.151413   1.000000
     53        -12.096298   1.000000
     54        -11.979941   1.000000
     55        -11.978040   1.000000
     56        -11.969241   1.000000
     57        -11.876878   1.000000
     58        -11.875071   1.000000
     59        -11.855654   1.000000
     60        -11.854730   1.000000
     61        -11.673159   1.000000
     62        -11.639344   1.000000
     63        -11.638820   1.000000
     64        -11.539901   1.000000
     65        -11.537729   1.000000
     66        -11.497328   1.000000
     67        -11.459405   1.000000
     68        -11.459176   1.000000
     69        -11.449455   1.000000
     70        -11.447349   1.000000
     71        -11.446019   1.000000
     72        -11.384925   1.000000
     73        -11.343556   1.000000
     74        -11.315605   1.000000
     75        -11.313517   1.000000
     76        -11.249747   1.000000
     77        -11.249028   1.000000
     78        -11.123141   1.000000
     79        -11.065957   1.000000
     80        -10.996901   1.000000
     81        -10.437839   1.000000
     82        -10.436553   1.000000
     83        -10.172258   1.000000
     84        -10.172158   1.000000
     85        -10.144519   1.000000
     86        -10.126923   1.000000
     87        -10.126425   1.000000
     88         -9.777323   1.000000
     89         -9.776942   1.000000
     90         -9.735537   1.000000
     91         -9.735292   1.000000
     92         -9.415217   1.000000
     93         -9.414557   1.000000
     94         -9.261379   1.000000
     95         -9.259560   1.000000
     96         -9.221593   1.000000
     97         -9.220970   1.000000
     98         -9.157403   1.000000
     99         -9.114329   1.000000
    100         -9.111778   1.000000
    101         -9.083014   1.000000
    102         -9.051537   1.000000
    103         -9.043199   1.000000
    104         -9.037400   1.000000
    105         -9.034225   1.000000
    106         -9.012708   1.000000
    107         -9.007779   1.000000
    108         -8.996335   1.000000
    109         -8.990544   1.000000
    110         -8.990057   1.000000
    111         -8.983583   1.000000
    112         -8.981348   1.000000
    113         -8.941995   1.000000
    114         -8.925410   1.000000
    115         -8.921277   1.000000
    116         -8.915620   1.000000
    117         -8.897042   1.000000
    118         -8.880207   1.000000
    119         -8.657991   1.000000
    120         -8.400876   1.000000
    121         -8.400718   1.000000
    122         -8.311761   1.000000
    123         -8.311684   1.000000
    124         -8.282027   1.000000
    125         -8.281535   1.000000
    126         -8.049417   1.000000
    127         -8.049071   1.000000
    128         -8.037994   1.000000
    129         -8.037865   1.000000
    130         -8.011535   1.000000
    131         -8.000533   1.000000
    132         -8.000266   1.000000
    133         -7.852026   1.000000
    134         -7.850983   1.000000
    135         -7.804597   1.000000
    136         -7.715490   1.000000
    137         -7.713925   1.000000
    138         -7.698568   1.000000
    139         -7.679737   1.000000
    140         -7.675820   1.000000
    141         -7.663198   1.000000
    142         -7.661900   1.000000
    143         -7.634653   1.000000
    144         -7.632688   1.000000
    145         -7.543713   1.000000
    146         -7.543626   1.000000
    147         -7.451300   1.000000
    148         -7.450778   1.000000
    149         -7.358115   1.000000
    150         -7.271823   1.000000
    151         -7.271110   1.000000
    152         -7.238571   1.000000
    153         -7.238442   1.000000
    154         -7.161323   1.000000
    155         -7.160734   1.000000
    156         -7.131358   1.000000
    157         -7.129958   1.000000
    158         -7.085327   1.000000
    159         -7.028747   1.000000
    160         -7.024804   1.000000
    161         -7.016957   1.000000
    162         -6.946903   1.000000
    163         -6.933103   1.000000
    164         -6.856644   1.000000
    165         -6.801110   1.000000
    166         -6.796662   1.000000
    167         -6.757891   1.000000
    168         -6.753679   1.000000
    169         -6.667278   1.000000
    170         -6.663243   1.000000
    171         -6.614718   1.000000
    172         -6.611488   1.000000
    173         -6.604770   1.000000
    174         -6.563383   1.000000
    175         -6.556851   1.000000
    176         -6.541229   1.000000
    177         -6.540669   1.000000
    178         -6.471426   1.000000
    179         -6.417381   1.000000
    180         -6.416879   1.000000
    181         -6.415707   1.000000
    182         -6.414916   1.000000
    183         -6.364619   1.000000
    184         -6.266386   1.000000
    185         -6.237581   1.000000
    186         -6.236048   1.000000
    187         -6.218931   1.000000
    188         -6.108758   1.000000
    189         -6.107027   1.000000
    190         -6.040806   1.000000
    191         -5.953953   1.000000
    192         -5.888339   1.000000
    193         -5.847599   1.000000
    194         -5.811880   1.000000
    195         -5.777335   1.000000
    196         -5.730108   1.000000
    197         -5.728806   1.000000
    198         -5.709995   1.000000
    199         -5.709116   1.000000
    200         -5.595217   0.999958
    201         -5.541567   0.999251
    202         -5.541027   0.999231
    203         -5.523557   0.998251
    204         -5.394950   0.864653
    205         -5.394365   0.862845
    206         -5.280975   0.304890
    207         -5.280862   0.304331
    208         -5.242718   0.146531
    209         -5.242606   0.146168
    210         -5.204721   0.056055
    211         -4.892203   0.000000
    212         -4.756005   0.000000
    213         -4.755505   0.000000
    214         -4.312404   0.000000
    215         -3.032072   0.000000
    216         -3.031834   0.000000
    217         -1.692154   0.000000
    218         -1.553051   0.000000
    219         -1.444221   0.000000
    220         -1.443673   0.000000
    221         -1.211179   0.000000
    222         -1.211029   0.000000
    223         -1.091112   0.000000
    224         -0.807199   0.000000
    225         -0.806630   0.000000
    226         -0.598895   0.000000
    227         -0.484626   0.000000
    228         -0.465327   0.000000
    229         -0.464871   0.000000
    230         -0.458681   0.000000
    231         -0.458035   0.000000
    232         -0.456930   0.000000
    233         -0.416288   0.000000
    234         -0.410574   0.000000
    235         -0.386249   0.000000
    236         -0.386155   0.000000
    237         -0.361962   0.000000
    238         -0.360045   0.000000
    239         -0.336311   0.000000
    240         -0.335916   0.000000
    241         -0.274094   0.000000
    242         -0.273329   0.000000
    243         -0.253886   0.000000
    244         -0.039230   0.000000
    245         -0.033598   0.000000
    246         -0.032308   0.000000
    247          0.015468   0.000000
    248          0.105546   0.000000
    249          0.280925   0.000000
    250          0.382244   0.000000
    251          0.384143   0.000000
    252          0.458272   0.000000
    253          0.460225   0.000000
    254          0.590081   0.000000
    255          0.591692   0.000000
    256          0.636457   0.000000
    257          0.638988   0.000000
    258          0.785227   0.000000
    259          0.796078   0.000000
    260          0.796578   0.000000
    261          0.834789   0.000000
    262          0.847927   0.000000
    263          0.877805   0.000000
    264          0.880946   0.000000
    265          0.992649   0.000000
    266          0.994393   0.000000
    267          1.005861   0.000000
    268          1.006552   0.000000
    269          1.083525   0.000000
    270          1.084041   0.000000
    271          1.124332   0.000000
    272          1.147362   0.000000
    273          1.148603   0.000000
    274          1.164723   0.000000
    275          1.246759   0.000000
    276          1.307924   0.000000
    277          1.309578   0.000000
    278          1.318958   0.000000
    279          1.392227   0.000000
    280          1.494040   0.000000
    281          1.523678   0.000000
    282          1.553023   0.000000
    283          1.553916   0.000000
    284          1.615859   0.000000
    285          1.616126   0.000000
    286          1.623411   0.000000
    287          1.646391   0.000000
    288          1.781297   0.000000
    289          1.785271   0.000000
    290          1.803232   0.000000
    291          1.805413   0.000000
    292          1.816656   0.000000
    293          1.826372   0.000000
    294          1.866905   0.000000
 
  0.3750000E+00  0.1276756E-14  0.1276756E-14  0.1666667E+00
      1        -19.360636   1.000000
      2        -19.300216   1.000000
      3        -19.288610   1.000000
      4        -19.286712   1.000000
      5        -19.232701   1.000000
      6        -19.230758   1.000000
      7        -18.962816   1.000000
      8        -18.929604   1.000000
      9        -18.927484   1.000000
     10        -18.813035   1.000000
     11        -18.800997   1.000000
     12        -18.798530   1.000000
     13        -18.453552   1.000000
     14        -18.451023   1.000000
     15        -18.383019   1.000000
     16        -18.380539   1.000000
     17        -18.368683   1.000000
     18        -18.267064   1.000000
     19        -15.493295   1.000000
     20        -15.493073   1.000000
     21        -15.443437   1.000000
     22        -15.443289   1.000000
     23        -15.415841   1.000000
     24        -15.415191   1.000000
     25        -15.400098   1.000000
     26        -15.354820   1.000000
     27        -15.307164   1.000000
     28        -15.306351   1.000000
     29        -15.146561   1.000000
     30        -15.087496   1.000000
     31        -15.045262   1.000000
     32        -15.037343   1.000000
     33        -14.920162   1.000000
     34        -14.918976   1.000000
     35        -14.846363   1.000000
     36        -14.845079   1.000000
     37        -13.295311   1.000000
     38        -13.294736   1.000000
     39        -13.077874   1.000000
     40        -13.077325   1.000000
     41        -12.761302   1.000000
     42        -12.749532   1.000000
     43        -12.648356   1.000000
     44        -12.577820   1.000000
     45        -12.286656   1.000000
     46        -12.265230   1.000000
     47        -12.222999   1.000000
     48        -12.221875   1.000000
     49        -12.196353   1.000000
     50        -12.188237   1.000000
     51        -12.187913   1.000000
     52        -12.122735   1.000000
     53        -12.120983   1.000000
     54        -12.078564   1.000000
     55        -12.077470   1.000000
     56        -12.063642   1.000000
     57        -12.061944   1.000000
     58        -11.983107   1.000000
     59        -11.891750   1.000000
     60        -11.891250   1.000000
     61        -11.821494   1.000000
     62        -11.762831   1.000000
     63        -11.760918   1.000000
     64        -11.660858   1.000000
     65        -11.646942   1.000000
     66        -11.645119   1.000000
     67        -11.575179   1.000000
     68        -11.506332   1.000000
     69        -11.381567   1.000000
     70        -11.379286   1.000000
     71        -11.337117   1.000000
     72        -11.335011   1.000000
     73        -11.212389   1.000000
     74        -11.116566   1.000000
     75        -11.107854   1.000000
     76        -11.107491   1.000000
     77        -10.940384   1.000000
     78        -10.939504   1.000000
     79        -10.686487   1.000000
     80        -10.649512   1.000000
     81        -10.649435   1.000000
     82        -10.648290   1.000000
     83        -10.647031   1.000000
     84        -10.608182   1.000000
     85        -10.196611   1.000000
     86        -10.154486   1.000000
     87        -10.009607   1.000000
     88        -10.009084   1.000000
     89         -9.893553   1.000000
     90         -9.828209   1.000000
     91         -9.827614   1.000000
     92         -9.517159   1.000000
     93         -9.245247   1.000000
     94         -9.244183   1.000000
     95         -9.185069   1.000000
     96         -9.182634   1.000000
     97         -9.103827   1.000000
     98         -9.083606   1.000000
     99         -9.070606   1.000000
    100         -9.063315   1.000000
    101         -9.060906   1.000000
    102         -9.057665   1.000000
    103         -9.055632   1.000000
    104         -9.027487   1.000000
    105         -9.020169   1.000000
    106         -9.019430   1.000000
    107         -9.017859   1.000000
    108         -9.017626   1.000000
    109         -8.981842   1.000000
    110         -8.978298   1.000000
    111         -8.953431   1.000000
    112         -8.950193   1.000000
    113         -8.916236   1.000000
    114         -8.903795   1.000000
    115         -8.861398   1.000000
    116         -8.860603   1.000000
    117         -8.613929   1.000000
    118         -8.613647   1.000000
    119         -8.591792   1.000000
    120         -8.567547   1.000000
    121         -8.433213   1.000000
    122         -8.378619   1.000000
    123         -8.378272   1.000000
    124         -8.367354   1.000000
    125         -8.367145   1.000000
    126         -8.213820   1.000000
    127         -8.036234   1.000000
    128         -8.035744   1.000000
    129         -7.965959   1.000000
    130         -7.965245   1.000000
    131         -7.955800   1.000000
    132         -7.955697   1.000000
    133         -7.895691   1.000000
    134         -7.895323   1.000000
    135         -7.790839   1.000000
    136         -7.790742   1.000000
    137         -7.782363   1.000000
    138         -7.756651   1.000000
    139         -7.755733   1.000000
    140         -7.743274   1.000000
    141         -7.682510   1.000000
    142         -7.682102   1.000000
    143         -7.649270   1.000000
    144         -7.645940   1.000000
    145         -7.584116   1.000000
    146         -7.582310   1.000000
    147         -7.506503   1.000000
    148         -7.489085   1.000000
    149         -7.487357   1.000000
    150         -7.306805   1.000000
    151         -7.235608   1.000000
    152         -7.234765   1.000000
    153         -7.156726   1.000000
    154         -7.155624   1.000000
    155         -7.013573   1.000000
    156         -7.013328   1.000000
    157         -7.006288   1.000000
    158         -6.980100   1.000000
    159         -6.970736   1.000000
    160         -6.970227   1.000000
    161         -6.950395   1.000000
    162         -6.947301   1.000000
    163         -6.864535   1.000000
    164         -6.860877   1.000000
    165         -6.837958   1.000000
    166         -6.746097   1.000000
    167         -6.727896   1.000000
    168         -6.723199   1.000000
    169         -6.700065   1.000000
    170         -6.696280   1.000000
    171         -6.657910   1.000000
    172         -6.609190   1.000000
    173         -6.527937   1.000000
    174         -6.525286   1.000000
    175         -6.514779   1.000000
    176         -6.514282   1.000000
    177         -6.514131   1.000000
    178         -6.457679   1.000000
    179         -6.457308   1.000000
    180         -6.453449   1.000000
    181         -6.396187   1.000000
    182         -6.394275   1.000000
    183         -6.342015   1.000000
    184         -6.340913   1.000000
    185         -6.303453   1.000000
    186         -6.275679   1.000000
    187         -6.219589   1.000000
    188         -6.050413   1.000000
    189         -6.006548   1.000000
    190         -6.004563   1.000000
    191         -5.962188   1.000000
    192         -5.961427   1.000000
    193         -5.913792   1.000000
    194         -5.896624   1.000000
    195         -5.872869   1.000000
    196         -5.871459   1.000000
    197         -5.801603   1.000000
    198         -5.700198   1.000000
    199         -5.698370   1.000000
    200         -5.633769   0.999996
    201         -5.589006   0.999940
    202         -5.573268   0.999855
    203         -5.572659   0.999850
    204         -5.517284   0.997684
    205         -5.400032   0.879669
    206         -5.399758   0.878892
    207         -5.392184   0.855960
    208         -5.391888   0.855008
    209         -5.285201   0.326129
    210         -5.285032   0.325271
    211         -4.617467   0.000000
    212         -4.416676   0.000000
    213         -4.096897   0.000000
    214         -4.096472   0.000000
    215         -3.477379   0.000000
    216         -3.477044   0.000000
    217         -1.661760   0.000000
    218         -1.456161   0.000000
    219         -1.336120   0.000000
    220         -1.335568   0.000000
    221         -1.272732   0.000000
    222         -1.120561   0.000000
    223         -1.120007   0.000000
    224         -0.911765   0.000000
    225         -0.911614   0.000000
    226         -0.883620   0.000000
    227         -0.569020   0.000000
    228         -0.568659   0.000000
    229         -0.506480   0.000000
    230         -0.489037   0.000000
    231         -0.488731   0.000000
    232         -0.485685   0.000000
    233         -0.443364   0.000000
    234         -0.443220   0.000000
    235         -0.295186   0.000000
    236         -0.241264   0.000000
    237         -0.240601   0.000000
    238         -0.177579   0.000000
    239         -0.175491   0.000000
    240         -0.161564   0.000000
    241         -0.159920   0.000000
    242         -0.155266   0.000000
    243         -0.154796   0.000000
    244         -0.039837   0.000000
    245         -0.025866   0.000000
    246          0.112330   0.000000
    247          0.114263   0.000000
    248          0.160041   0.000000
    249          0.161886   0.000000
    250          0.316361   0.000000
    251          0.318623   0.000000
    252          0.383422   0.000000
    253          0.543324   0.000000
    254          0.567896   0.000000
    255          0.664877   0.000000
    256          0.744690   0.000000
    257          0.746096   0.000000
    258          0.775943   0.000000
    259          0.776511   0.000000
    260          0.802837   0.000000
    261          0.805223   0.000000
    262          0.842087   0.000000
    263          0.857063   0.000000
    264          0.932734   0.000000
    265          0.935003   0.000000
    266          0.937903   0.000000
    267          0.938825   0.000000
    268          0.953751   0.000000
    269          1.032128   0.000000
    270          1.143918   0.000000
    271          1.153043   0.000000
    272          1.153577   0.000000
    273          1.184116   0.000000
    274          1.205063   0.000000
    275          1.205656   0.000000
    276          1.252827   0.000000
    277          1.354863   0.000000
    278          1.355206   0.000000
    279          1.404847   0.000000
    280          1.407129   0.000000
    281          1.409595   0.000000
    282          1.452939   0.000000
    283          1.465171   0.000000
    284          1.465429   0.000000
    285          1.481290   0.000000
    286          1.482224   0.000000
    287          1.559307   0.000000
    288          1.609658   0.000000
    289          1.629822   0.000000
    290          1.697846   0.000000
    291          1.701394   0.000000
    292          1.732024   0.000000
    293          1.738682   0.000000
    294          1.781620   0.000000
 
  0.1250000E+00  0.3333333E+00  0.1276756E-14  0.3333333E+00
      1        -19.380609   1.000000
      2        -19.351938   1.000000
      3        -19.290578   1.000000
      4        -19.202744   1.000000
      5        -19.179399   1.000000
      6        -19.130208   1.000000
      7        -19.090368   1.000000
      8        -19.071145   1.000000
      9        -19.031320   1.000000
     10        -18.676994   1.000000
     11        -18.663433   1.000000
     12        -18.657739   1.000000
     13        -18.568349   1.000000
     14        -18.528399   1.000000
     15        -18.510280   1.000000
     16        -18.387217   1.000000
     17        -18.283655   1.000000
     18        -18.231800   1.000000
     19        -15.547805   1.000000
     20        -15.537373   1.000000
     21        -15.440247   1.000000
     22        -15.420485   1.000000
     23        -15.411011   1.000000
     24        -15.392164   1.000000
     25        -15.388253   1.000000
     26        -15.346247   1.000000
     27        -15.280006   1.000000
     28        -15.229784   1.000000
     29        -15.098253   1.000000
     30        -15.072886   1.000000
     31        -15.052779   1.000000
     32        -15.019638   1.000000
     33        -15.012518   1.000000
     34        -15.004021   1.000000
     35        -14.933606   1.000000
     36        -14.728441   1.000000
     37        -13.592541   1.000000
     38        -13.129397   1.000000
     39        -12.855234   1.000000
     40        -12.848035   1.000000
     41        -12.785608   1.000000
     42        -12.780414   1.000000
     43        -12.699484   1.000000
     44        -12.693257   1.000000
     45        -12.418641   1.000000
     46        -12.395793   1.000000
     47        -12.280888   1.000000
     48        -12.246816   1.000000
     49        -12.226627   1.000000
     50        -12.216262   1.000000
     51        -12.103379   1.000000
     52        -12.091636   1.000000
     53        -12.080595   1.000000
     54        -12.039535   1.000000
     55        -12.037270   1.000000
     56        -11.997506   1.000000
     57        -11.956667   1.000000
     58        -11.932256   1.000000
     59        -11.921751   1.000000
     60        -11.857277   1.000000
     61        -11.849928   1.000000
     62        -11.840168   1.000000
     63        -11.761112   1.000000
     64        -11.559545   1.000000
     65        -11.536818   1.000000
     66        -11.516289   1.000000
     67        -11.501921   1.000000
     68        -11.492219   1.000000
     69        -11.479627   1.000000
     70        -11.403223   1.000000
     71        -11.394988   1.000000
     72        -11.356879   1.000000
     73        -11.287898   1.000000
     74        -11.196263   1.000000
     75        -11.162807   1.000000
     76        -11.160114   1.000000
     77        -11.158103   1.000000
     78        -11.101718   1.000000
     79        -10.869503   1.000000
     80        -10.858514   1.000000
     81        -10.788376   1.000000
     82        -10.545170   1.000000
     83        -10.497087   1.000000
     84        -10.218289   1.000000
     85        -10.019577   1.000000
     86         -9.998867   1.000000
     87         -9.918862   1.000000
     88         -9.779923   1.000000
     89         -9.767744   1.000000
     90         -9.765711   1.000000
     91         -9.682570   1.000000
     92         -9.657448   1.000000
     93         -9.308025   1.000000
     94         -9.294062   1.000000
     95         -9.246936   1.000000
     96         -9.192441   1.000000
     97         -9.153470   1.000000
     98         -9.138908   1.000000
     99         -9.120335   1.000000
    100         -9.105202   1.000000
    101         -9.083761   1.000000
    102         -9.074943   1.000000
    103         -9.060472   1.000000
    104         -9.045987   1.000000
    105         -9.031975   1.000000
    106         -9.007747   1.000000
    107         -9.001582   1.000000
    108         -8.996377   1.000000
    109         -8.988434   1.000000
    110         -8.985191   1.000000
    111         -8.979686   1.000000
    112         -8.972596   1.000000
    113         -8.965207   1.000000
    114         -8.949408   1.000000
    115         -8.918201   1.000000
    116         -8.902736   1.000000
    117         -8.835549   1.000000
    118         -8.779681   1.000000
    119         -8.532529   1.000000
    120         -8.527302   1.000000
    121         -8.485922   1.000000
    122         -8.417424   1.000000
    123         -8.409562   1.000000
    124         -8.302534   1.000000
    125         -8.219519   1.000000
    126         -8.150567   1.000000
    127         -8.076247   1.000000
    128         -8.048476   1.000000
    129         -7.979113   1.000000
    130         -7.972780   1.000000
    131         -7.948865   1.000000
    132         -7.948363   1.000000
    133         -7.914030   1.000000
    134         -7.841159   1.000000
    135         -7.830781   1.000000
    136         -7.798565   1.000000
    137         -7.783817   1.000000
    138         -7.722060   1.000000
    139         -7.707724   1.000000
    140         -7.661880   1.000000
    141         -7.644071   1.000000
    142         -7.623835   1.000000
    143         -7.606026   1.000000
    144         -7.591057   1.000000
    145         -7.560987   1.000000
    146         -7.554550   1.000000
    147         -7.504493   1.000000
    148         -7.406278   1.000000
    149         -7.383069   1.000000
    150         -7.373775   1.000000
    151         -7.368876   1.000000
    152         -7.294374   1.000000
    153         -7.205001   1.000000
    154         -7.171298   1.000000
    155         -7.025555   1.000000
    156         -7.020990   1.000000
    157         -7.017913   1.000000
    158         -6.991053   1.000000
    159         -6.976659   1.000000
    160         -6.909044   1.000000
    161         -6.883609   1.000000
    162         -6.862179   1.000000
    163         -6.851757   1.000000
    164         -6.832341   1.000000
    165         -6.796813   1.000000
    166         -6.788062   1.000000
    167         -6.770788   1.000000
    168         -6.741090   1.000000
    169         -6.687638   1.000000
    170         -6.655186   1.000000
    171         -6.644617   1.000000
    172         -6.610872   1.000000
    173         -6.570505   1.000000
    174         -6.561944   1.000000
    175         -6.543186   1.000000
    176         -6.524750   1.000000
    177         -6.521601   1.000000
    178         -6.504314   1.000000
    179         -6.461773   1.000000
    180         -6.424874   1.000000
    181         -6.420486   1.000000
    182         -6.418934   1.000000
    183         -6.413604   1.000000
    184         -6.409819   1.000000
    185         -6.372770   1.000000
    186         -6.256316   1.000000
    187         -6.228531   1.000000
    188         -6.201973   1.000000
    189         -6.163322   1.000000
    190         -6.081370   1.000000
    191         -5.935761   1.000000
    192         -5.924107   1.000000
    193         -5.911327   1.000000
    194         -5.884446   1.000000
    195         -5.838878   1.000000
    196         -5.767620   1.000000
    197         -5.703840   1.000000
    198         -5.655232   0.999999
    199         -5.609313   0.999982
    200         -5.559444   0.999696
    201         -5.532718   0.998855
    202         -5.506908   0.996371
    203         -5.489310   0.992573
    204         -5.411073   0.908154
    205         -5.363107   0.742519
    206         -5.334183   0.595643
    207         -5.331856   0.582847
    208         -5.270667   0.255861
    209         -5.210547   0.065984
    210         -5.205235   0.056881
    211         -4.814999   0.000000
    212         -4.797312   0.000000
    213         -4.739756   0.000000
    214         -4.026644   0.000000
    215         -3.494759   0.000000
    216         -2.777711   0.000000
    217         -1.621303   0.000000
    218         -1.536902   0.000000
    219         -1.442502   0.000000
    220         -1.374082   0.000000
    221         -1.328279   0.000000
    222         -1.043921   0.000000
    223         -1.023210   0.000000
    224         -0.957523   0.000000
    225         -0.915623   0.000000
    226         -0.777917   0.000000
    227         -0.636589   0.000000
    228         -0.578299   0.000000
    229         -0.570250   0.000000
    230         -0.527974   0.000000
    231         -0.499299   0.000000
    232         -0.490440   0.000000
    233         -0.489787   0.000000
    234         -0.472464   0.000000
    235         -0.411431   0.000000
    236         -0.385926   0.000000
    237         -0.300020   0.000000
    238         -0.287206   0.000000
    239         -0.259403   0.000000
    240         -0.240437   0.000000
    241         -0.188866   0.000000
    242         -0.108708   0.000000
    243         -0.053923   0.000000
    244         -0.029687   0.000000
    245          0.120867   0.000000
    246          0.128394   0.000000
    247          0.186434   0.000000
    248          0.218758   0.000000
    249          0.359410   0.000000
    250          0.378890   0.000000
    251          0.382401   0.000000
    252          0.393412   0.000000
    253          0.395291   0.000000
    254          0.431672   0.000000
    255          0.505444   0.000000
    256          0.642817   0.000000
    257          0.643411   0.000000
    258          0.659103   0.000000
    259          0.681989   0.000000
    260          0.696202   0.000000
    261          0.791668   0.000000
    262          0.820265   0.000000
    263          0.874836   0.000000
    264          0.940595   0.000000
    265          0.943192   0.000000
    266          0.994271   0.000000
    267          1.054770   0.000000
    268          1.072682   0.000000
    269          1.073003   0.000000
    270          1.125788   0.000000
    271          1.185220   0.000000
    272          1.194906   0.000000
    273          1.206976   0.000000
    274          1.247473   0.000000
    275          1.266790   0.000000
    276          1.332425   0.000000
    277          1.350612   0.000000
    278          1.406645   0.000000
    279          1.408490   0.000000
    280          1.449012   0.000000
    281          1.529713   0.000000
    282          1.535838   0.000000
    283          1.557815   0.000000
    284          1.587655   0.000000
    285          1.594188   0.000000
    286          1.607001   0.000000
    287          1.615480   0.000000
    288          1.620028   0.000000
    289          1.632843   0.000000
    290          1.643852   0.000000
    291          1.692929   0.000000
    292          1.737175   0.000000
    293          1.751256   0.000000
    294          1.849722   0.000000
 
  0.3750000E+00  0.3333333E+00  0.1276756E-14  0.3333333E+00
      1        -19.350246   1.000000
      2        -19.322411   1.000000
      3        -19.290324   1.000000
      4        -19.264706   1.000000
      5        -19.262299   1.000000
      6        -19.208574   1.000000
      7        -18.957758   1.000000
      8        -18.944356   1.000000
      9        -18.917690   1.000000
     10        -18.810990   1.000000
     11        -18.805412   1.000000
     12        -18.796258   1.000000
     13        -18.480152   1.000000
     14        -18.418935   1.000000
     15        -18.412642   1.000000
     16        -18.380976   1.000000
     17        -18.328281   1.000000
     18        -18.283956   1.000000
     19        -15.510259   1.000000
     20        -15.475882   1.000000
     21        -15.451602   1.000000
     22        -15.443682   1.000000
     23        -15.434068   1.000000
     24        -15.413403   1.000000
     25        -15.390908   1.000000
     26        -15.369463   1.000000
     27        -15.310884   1.000000
     28        -15.207401   1.000000
     29        -15.199941   1.000000
     30        -15.119167   1.000000
     31        -15.008658   1.000000
     32        -15.000761   1.000000
     33        -14.944766   1.000000
     34        -14.927239   1.000000
     35        -14.919662   1.000000
     36        -14.796451   1.000000
     37        -13.413749   1.000000
     38        -13.097509   1.000000
     39        -13.076421   1.000000
     40        -12.981289   1.000000
     41        -12.808029   1.000000
     42        -12.778756   1.000000
     43        -12.720621   1.000000
     44        -12.596540   1.000000
     45        -12.510267   1.000000
     46        -12.321187   1.000000
     47        -12.287268   1.000000
     48        -12.246396   1.000000
     49        -12.193826   1.000000
     50        -12.184269   1.000000
     51        -12.178653   1.000000
     52        -12.129584   1.000000
     53        -12.067720   1.000000
     54        -12.063254   1.000000
     55        -12.059887   1.000000
     56        -12.008717   1.000000
     57        -11.961257   1.000000
     58        -11.959714   1.000000
     59        -11.820220   1.000000
     60        -11.812993   1.000000
     61        -11.790224   1.000000
     62        -11.741057   1.000000
     63        -11.658159   1.000000
     64        -11.651429   1.000000
     65        -11.644274   1.000000
     66        -11.565911   1.000000
     67        -11.503744   1.000000
     68        -11.445174   1.000000
     69        -11.416351   1.000000
     70        -11.399379   1.000000
     71        -11.396133   1.000000
     72        -11.351097   1.000000
     73        -11.297756   1.000000
     74        -11.235427   1.000000
     75        -11.230158   1.000000
     76        -11.147505   1.000000
     77        -11.050723   1.000000
     78        -10.995538   1.000000
     79        -10.866910   1.000000
     80        -10.729053   1.000000
     81        -10.595142   1.000000
     82        -10.546362   1.000000
     83        -10.389131   1.000000
     84        -10.361681   1.000000
     85        -10.345135   1.000000
     86        -10.242059   1.000000
     87        -10.153725   1.000000
     88        -10.060016   1.000000
     89         -9.759940   1.000000
     90         -9.603143   1.000000
     91         -9.589458   1.000000
     92         -9.453084   1.000000
     93         -9.402462   1.000000
     94         -9.397097   1.000000
     95         -9.213676   1.000000
     96         -9.166959   1.000000
     97         -9.097654   1.000000
     98         -9.080298   1.000000
     99         -9.071551   1.000000
    100         -9.069594   1.000000
    101         -9.068149   1.000000
    102         -9.054386   1.000000
    103         -9.050303   1.000000
    104         -9.038736   1.000000
    105         -9.025144   1.000000
    106         -9.020191   1.000000
    107         -9.018500   1.000000
    108         -8.997092   1.000000
    109         -8.994202   1.000000
    110         -8.988577   1.000000
    111         -8.952183   1.000000
    112         -8.926470   1.000000
    113         -8.921935   1.000000
    114         -8.909194   1.000000
    115         -8.870772   1.000000
    116         -8.805488   1.000000
    117         -8.686474   1.000000
    118         -8.646253   1.000000
    119         -8.586222   1.000000
    120         -8.571578   1.000000
    121         -8.536913   1.000000
    122         -8.488417   1.000000
    123         -8.449595   1.000000
    124         -8.336436   1.000000
    125         -8.300102   1.000000
    126         -8.248362   1.000000
    127         -8.145285   1.000000
    128         -8.104752   1.000000
    129         -8.067851   1.000000
    130         -8.066574   1.000000
    131         -7.900536   1.000000
    132         -7.899972   1.000000
    133         -7.834534   1.000000
    134         -7.825077   1.000000
    135         -7.814653   1.000000
    136         -7.813664   1.000000
    137         -7.812944   1.000000
    138         -7.743842   1.000000
    139         -7.693791   1.000000
    140         -7.679844   1.000000
    141         -7.656454   1.000000
    142         -7.613193   1.000000
    143         -7.589147   1.000000
    144         -7.557777   1.000000
    145         -7.542379   1.000000
    146         -7.536175   1.000000
    147         -7.520002   1.000000
    148         -7.441379   1.000000
    149         -7.408612   1.000000
    150         -7.317463   1.000000
    151         -7.236853   1.000000
    152         -7.229753   1.000000
    153         -7.190381   1.000000
    154         -7.062803   1.000000
    155         -7.012593   1.000000
    156         -7.002452   1.000000
    157         -6.997315   1.000000
    158         -6.985571   1.000000
    159         -6.965817   1.000000
    160         -6.930121   1.000000
    161         -6.921871   1.000000
    162         -6.908226   1.000000
    163         -6.869277   1.000000
    164         -6.822088   1.000000
    165         -6.815020   1.000000
    166         -6.792142   1.000000
    167         -6.741095   1.000000
    168         -6.731891   1.000000
    169         -6.722018   1.000000
    170         -6.706644   1.000000
    171         -6.676186   1.000000
    172         -6.636784   1.000000
    173         -6.625042   1.000000
    174         -6.597002   1.000000
    175         -6.579237   1.000000
    176         -6.550688   1.000000
    177         -6.522810   1.000000
    178         -6.499830   1.000000
    179         -6.417837   1.000000
    180         -6.404873   1.000000
    181         -6.389716   1.000000
    182         -6.366848   1.000000
    183         -6.344810   1.000000
    184         -6.318080   1.000000
    185         -6.285091   1.000000
    186         -6.270455   1.000000
    187         -6.216007   1.000000
    188         -6.171493   1.000000
    189         -6.079733   1.000000
    190         -5.992377   1.000000
    191         -5.969410   1.000000
    192         -5.920803   1.000000
    193         -5.907946   1.000000
    194         -5.904499   1.000000
    195         -5.848493   1.000000
    196         -5.812601   1.000000
    197         -5.761772   1.000000
    198         -5.758538   1.000000
    199         -5.708173   1.000000
    200         -5.706922   1.000000
    201         -5.636888   0.999997
    202         -5.583512   0.999918
    203         -5.512749   0.997175
    204         -5.510650   0.996907
    205         -5.497083   0.994549
    206         -5.489335   0.992580
    207         -5.482834   0.990469
    208         -5.386851   0.838161
    209         -5.215499   0.075451
    210         -5.170683   0.019219
    211         -4.455697   0.000000
    212         -4.216071   0.000000
    213         -4.177970   0.000000
    214         -4.071072   0.000000
    215         -3.767828   0.000000
    216         -3.357419   0.000000
    217         -1.581402   0.000000
    218         -1.440684   0.000000
    219         -1.390406   0.000000
    220         -1.269207   0.000000
    221         -1.237282   0.000000
    222         -1.217050   0.000000
    223         -1.063305   0.000000
    224         -0.957130   0.000000
    225         -0.887958   0.000000
    226         -0.860625   0.000000
    227         -0.841890   0.000000
    228         -0.809566   0.000000
    229         -0.687335   0.000000
    230         -0.653064   0.000000
    231         -0.620794   0.000000
    232         -0.349187   0.000000
    233         -0.345409   0.000000
    234         -0.271689   0.000000
    235         -0.257027   0.000000
    236         -0.212537   0.000000
    237         -0.106965   0.000000
    238         -0.104453   0.000000
    239         -0.066226   0.000000
    240         -0.044886   0.000000
    241         -0.031874   0.000000
    242         -0.029585   0.000000
    243         -0.014470   0.000000
    244         -0.007307   0.000000
    245          0.039132   0.000000
    246          0.081372   0.000000
    247          0.167793   0.000000
    248          0.210912   0.000000
    249          0.219128   0.000000
    250          0.228325   0.000000
    251          0.284501   0.000000
    252          0.307686   0.000000
    253          0.493440   0.000000
    254          0.698334   0.000000
    255          0.712797   0.000000
    256          0.742274   0.000000
    257          0.761183   0.000000
    258          0.777252   0.000000
    259          0.779840   0.000000
    260          0.792857   0.000000
    261          0.843902   0.000000
    262          0.846804   0.000000
    263          0.873442   0.000000
    264          0.882828   0.000000
    265          0.896768   0.000000
    266          0.906691   0.000000
    267          0.918467   0.000000
    268          0.921121   0.000000
    269          0.923782   0.000000
    270          0.928331   0.000000
    271          0.979692   0.000000
    272          1.009678   0.000000
    273          1.020109   0.000000
    274          1.090582   0.000000
    275          1.154183   0.000000
    276          1.243400   0.000000
    277          1.267812   0.000000
    278          1.267970   0.000000
    279          1.343241   0.000000
    280          1.398373   0.000000
    281          1.467970   0.000000
    282          1.485976   0.000000
    283          1.501196   0.000000
    284          1.511938   0.000000
    285          1.519552   0.000000
    286          1.543145   0.000000
    287          1.554228   0.000000
    288          1.570061   0.000000
    289          1.620534   0.000000
    290          1.638740   0.000000
    291          1.688696   0.000000
    292          1.731423   0.000000
    293          1.781762   0.000000
    294          1.842516   0.000000
