       N       E                     dE             d eps       ncg     rms          rms(c)
DAV:   1     0.331793752470E+04    0.33179E+04   -0.13790E+05  2496   0.108E+03
DAV:   2    -0.409628931471E+03   -0.37276E+04   -0.36048E+04  3516   0.229E+02
DAV:   3    -0.100420125225E+04   -0.59457E+03   -0.58924E+03  2916   0.984E+01
DAV:   4    -0.102328354517E+04   -0.19082E+02   -0.18949E+02  2940   0.197E+01
DAV:   5    -0.102380925423E+04   -0.52571E+00   -0.52441E+00  3180   0.293E+00    0.423E+01
DAV:   6    -0.963729426788E+03    0.60080E+02   -0.60098E+01  2652   0.106E+01    0.237E+01
DAV:   7    -0.940425001592E+03    0.23304E+02   -0.71167E+01  2784   0.108E+01    0.486E+00
DAV:   8    -0.940199369728E+03    0.22563E+00   -0.56099E+00  2952   0.362E+00    0.235E+00
DAV:   9    -0.939994269896E+03    0.20510E+00   -0.67509E-01  3036   0.181E+00    0.149E+00
DAV:  10    -0.939792242231E+03    0.20203E+00   -0.51515E-01  2964   0.124E+00    0.734E-01
DAV:  11    -0.939762113282E+03    0.30129E-01   -0.10379E-01  2976   0.649E-01    0.516E-01
DAV:  12    -0.939741740739E+03    0.20373E-01   -0.50878E-02  2904   0.427E-01    0.327E-01
DAV:  13    -0.939726526110E+03    0.15215E-01   -0.82775E-02  2868   0.397E-01    0.210E-01
DAV:  14    -0.939731825762E+03   -0.52997E-02   -0.13684E-02  2880   0.217E-01    0.167E-01
DAV:  15    -0.939742928331E+03   -0.11103E-01   -0.60764E-03  2628   0.152E-01    0.110E-01
DAV:  16    -0.939753293836E+03   -0.10366E-01   -0.59759E-03  2736   0.116E-01    0.705E-02
DAV:  17    -0.939758489230E+03   -0.51954E-02   -0.11033E-03  2820   0.553E-02    0.490E-02
DAV:  18    -0.939771350469E+03   -0.12861E-01   -0.11475E-03  2616   0.442E-02    0.291E-02
DAV:  19    -0.939777534081E+03   -0.61836E-02   -0.42923E-04  2676   0.280E-02    0.178E-02
DAV:  20    -0.939782451951E+03   -0.49179E-02   -0.29545E-04  2688   0.190E-02    0.113E-02
DAV:  21    -0.939784540823E+03   -0.20889E-02   -0.89728E-05  2760   0.106E-02    0.746E-03
DAV:  22    -0.939785956952E+03   -0.14161E-02   -0.56607E-05  2592   0.756E-03    0.438E-03
DAV:  23    -0.939786721375E+03   -0.76442E-03   -0.25320E-05  2628   0.467E-03    0.231E-03
DAV:  24    -0.939786957079E+03   -0.23570E-03   -0.41764E-06  2436   0.213E-03    0.126E-03
DAV:  25    -0.939787102072E+03   -0.14499E-03   -0.30678E-06  2232   0.157E-03    0.579E-04
DAV:  26    -0.939787139492E+03   -0.37420E-04   -0.41884E-07  1956   0.673E-04    0.293E-04
DAV:  27    -0.939787154922E+03   -0.15430E-04   -0.24154E-07  1848   0.409E-04    0.105E-04
DAV:  28    -0.939787158777E+03   -0.38553E-05   -0.51580E-08  1836   0.213E-04    0.519E-05
DAV:  29    -0.939787159313E+03   -0.53614E-06    0.14599E-09  1764   0.109E-04
   1 F= -.95251525E+03 E0= -.95242020E+03  d E =-.190112E+00
