       N       E                     dE             d eps       ncg     rms          rms(c)
DAV:   1     0.328985202205E+04    0.32899E+04   -0.13064E+05  3564   0.109E+03
DAV:   2    -0.267126733555E+03   -0.35570E+04   -0.34111E+04  4896   0.228E+02
DAV:   3    -0.867389325958E+03   -0.60026E+03   -0.59471E+03  3912   0.101E+02
DAV:   4    -0.891643375977E+03   -0.24254E+02   -0.23923E+02  4140   0.218E+01
DAV:   5    -0.892431969380E+03   -0.78859E+00   -0.78337E+00  4596   0.347E+00    0.386E+01
DAV:   6    -0.823911551527E+03    0.68520E+02   -0.91114E+01  3876   0.135E+01    0.202E+01
DAV:   7    -0.807061026952E+03    0.16851E+02   -0.69881E+01  3924   0.112E+01    0.625E+00
DAV:   8    -0.806120489859E+03    0.94054E+00   -0.62152E+00  4116   0.436E+00    0.181E+00
DAV:   9    -0.805747632805E+03    0.37286E+00   -0.70429E-01  3936   0.130E+00    0.828E-01
DAV:  10    -0.805674078706E+03    0.73554E-01   -0.10183E-01  4212   0.475E-01    0.457E-01
DAV:  11    -0.805595106879E+03    0.78972E-01   -0.12839E-01  3912   0.390E-01    0.279E-01
DAV:  12    -0.805603717540E+03   -0.86107E-02   -0.33082E-02  4104   0.232E-01    0.203E-01
DAV:  13    -0.805622957923E+03   -0.19240E-01   -0.90065E-03  3612   0.152E-01    0.108E-01
DAV:  14    -0.805639062516E+03   -0.16105E-01   -0.57210E-03  3948   0.831E-02    0.639E-02
DAV:  15    -0.805652901573E+03   -0.13839E-01   -0.12208E-03  3888   0.388E-02    0.377E-02
DAV:  16    -0.805665981777E+03   -0.13080E-01   -0.15299E-03  3876   0.328E-02    0.191E-02
DAV:  17    -0.805670513103E+03   -0.45313E-02   -0.32567E-04  4032   0.155E-02    0.122E-02
DAV:  18    -0.805674217225E+03   -0.37041E-02   -0.37659E-04  3888   0.122E-02    0.613E-03
DAV:  19    -0.805675205338E+03   -0.98811E-03   -0.53182E-05  3828   0.494E-03    0.305E-03
DAV:  20    -0.805675666567E+03   -0.46123E-03   -0.14901E-05  3084   0.284E-03    0.173E-03
DAV:  21    -0.805675813279E+03   -0.14671E-03   -0.28724E-06  3096   0.142E-03    0.949E-04
DAV:  22    -0.805675875884E+03   -0.62606E-04   -0.10843E-06  3024   0.894E-04    0.385E-04
DAV:  23    -0.805675895441E+03   -0.19557E-04   -0.20071E-07  2832   0.444E-04    0.212E-04
DAV:  24    -0.805675901183E+03   -0.57418E-05   -0.65696E-08  2760   0.231E-04    0.819E-05
DAV:  25    -0.805675902346E+03   -0.11625E-05    0.38833E-10  2532   0.128E-04    0.372E-05
DAV:  26    -0.805675902573E+03   -0.22729E-06    0.10419E-08  2472   0.747E-05
   1 F= -.81835275E+03 E0= -.81835274E+03  d E =-.175159E-04
