       N       E                     dE             d eps       ncg     rms          rms(c)
DAV:   1     0.676531498857E+03    0.67653E+03   -0.27851E+04 37996   0.101E+03
DAV:   2    -0.755258137922E+02   -0.75206E+03   -0.72571E+03 56406   0.214E+02
DAV:   3    -0.187392920479E+03   -0.11187E+03   -0.11005E+03 45430   0.908E+01
DAV:   4    -0.190682325267E+03   -0.32894E+01   -0.32512E+01 45577   0.180E+01
DAV:   5    -0.190785990656E+03   -0.10367E+00   -0.10337E+00 53858   0.292E+00    0.184E+01
DAV:   6    -0.174917268739E+03    0.15869E+02   -0.18213E+01 40950   0.123E+01    0.966E+00
DAV:   7    -0.170946609573E+03    0.39707E+01   -0.15430E+01 44821   0.103E+01    0.324E+00
DAV:   8    -0.170851155085E+03    0.95454E-01   -0.22788E+00 44639   0.455E+00    0.161E+00
DAV:   9    -0.170673608182E+03    0.17755E+00   -0.26569E-01 47873   0.134E+00    0.112E+00
DAV:  10    -0.170668587783E+03    0.50204E-02   -0.13874E-01 49056   0.607E-01    0.137E+00
DAV:  11    -0.170623263222E+03    0.45325E-01   -0.11350E-01 45871   0.696E-01    0.663E-01
DAV:  12    -0.170620566928E+03    0.26963E-02   -0.35207E-02 45878   0.309E-01    0.585E-01
DAV:  13    -0.170605473100E+03    0.15094E-01   -0.27809E-02 44541   0.351E-01    0.390E-01
DAV:  14    -0.170605971997E+03   -0.49890E-03   -0.15305E-02 47915   0.184E-01    0.426E-01
DAV:  15    -0.170606959914E+03   -0.98792E-03   -0.70345E-03 39788   0.162E-01    0.120E-01
DAV:  16    -0.170611278475E+03   -0.43186E-02   -0.50489E-03 41090   0.166E-01    0.849E-02
DAV:  17    -0.170614026524E+03   -0.27480E-02   -0.86183E-04 43162   0.639E-02    0.499E-02
DAV:  18    -0.170619196056E+03   -0.51695E-02   -0.79110E-04 42595   0.573E-02    0.299E-02
DAV:  19    -0.170621475233E+03   -0.22792E-02   -0.23950E-04 44443   0.319E-02    0.123E-02
DAV:  20    -0.170623113839E+03   -0.16386E-02   -0.17440E-04 42966   0.198E-02    0.831E-03
DAV:  21    -0.170623728495E+03   -0.61466E-03   -0.53636E-05 44618   0.107E-02    0.465E-03
DAV:  22    -0.170623954630E+03   -0.22614E-03   -0.12357E-05 37394   0.510E-03    0.232E-03
DAV:  23    -0.170624041127E+03   -0.86496E-04   -0.44729E-06 35875   0.265E-03    0.894E-04
DAV:  24    -0.170624068594E+03   -0.27467E-04   -0.13169E-06 36358   0.147E-03    0.270E-04
DAV:  25    -0.170624072167E+03   -0.35730E-05   -0.68093E-08 35056   0.489E-04    0.203E-04
DAV:  26    -0.170624074263E+03   -0.20964E-05   -0.77024E-08 30520   0.324E-04    0.105E-04
DAV:  27    -0.170624074653E+03   -0.39020E-06   -0.22001E-08 32039   0.168E-04
   1 F= -.17300390E+03 E0= -.17298514E+03  d E =-.173004E+03
       N       E                     dE             d eps       ncg     rms          rms(c)
DAV:   1    -0.170624095850E+03   -0.21587E-04   -0.13591E-02 38178   0.424E-01    0.345E-02
DAV:   2    -0.170624085727E+03    0.10124E-04   -0.38796E-04 48048   0.735E-02    0.176E-02
DAV:   3    -0.170624075731E+03    0.99954E-05   -0.55758E-05 45269   0.257E-02    0.584E-03
DAV:   4    -0.170624078356E+03   -0.26243E-05   -0.17819E-05 44156   0.103E-02    0.188E-02
DAV:   5    -0.170624075428E+03    0.29279E-05   -0.12417E-05 27223   0.511E-03    0.365E-03
DAV:   6    -0.170624076116E+03   -0.68803E-06   -0.24010E-06 22610   0.280E-03
   2 F= -.17300402E+03 E0= -.17298527E+03  d E =-.117225E-03
       N       E                     dE             d eps       ncg     rms          rms(c)
DAV:   1    -0.170624098717E+03   -0.23289E-04   -0.34099E-04 39312   0.670E-02    0.574E-03
DAV:   2    -0.170624098388E+03    0.32942E-06   -0.11674E-05 46683   0.120E-02    0.802E-03
DAV:   3    -0.170624098552E+03   -0.16470E-06   -0.78180E-06 25466   0.397E-03
   3 F= -.17300402E+03 E0= -.17298527E+03  d E =-.121413E-03
       N       E                     dE             d eps       ncg     rms          rms(c)
DAV:   1    -0.170624030717E+03    0.67671E-04   -0.65719E-03 37002   0.316E-01    0.251E-02
DAV:   2    -0.170624151610E+03   -0.12089E-03   -0.59972E-04 48174   0.506E-02    0.128E-01
DAV:   3    -0.170624024590E+03    0.12702E-03   -0.39056E-04 44800   0.258E-02    0.100E-02
DAV:   4    -0.170624026268E+03   -0.16789E-05   -0.17766E-05 43757   0.143E-02    0.106E-02
DAV:   5    -0.170624026474E+03   -0.20541E-06   -0.12927E-05 32865   0.665E-03    0.106E-02
DAV:   6    -0.170624025295E+03    0.11784E-05   -0.35824E-06 24696   0.417E-03    0.158E-03
DAV:   7    -0.170624025373E+03   -0.77056E-07   -0.53057E-07 22344   0.232E-03
   4 F= -.17300405E+03 E0= -.17298533E+03  d E =-.259192E-04
