       N       E                     dE             d eps       ncg     rms          rms(c)
DAV:   1     0.331795896462E+04    0.33180E+04   -0.13790E+05  2496   0.108E+03
DAV:   2    -0.409609215752E+03   -0.37276E+04   -0.36048E+04  3516   0.229E+02
DAV:   3    -0.100417858835E+04   -0.59457E+03   -0.58924E+03  2916   0.984E+01
DAV:   4    -0.102326025609E+04   -0.19082E+02   -0.18948E+02  2928   0.197E+01
DAV:   5    -0.102378917403E+04   -0.52892E+00   -0.52754E+00  3156   0.293E+00    0.423E+01
DAV:   6    -0.963718876315E+03    0.60070E+02   -0.60100E+01  2652   0.106E+01    0.237E+01
DAV:   7    -0.940418685754E+03    0.23300E+02   -0.71164E+01  2784   0.108E+01    0.485E+00
DAV:   8    -0.940146599541E+03    0.27209E+00   -0.53614E+00  2928   0.345E+00    0.218E+00
DAV:   9    -0.939852648642E+03    0.29395E+00   -0.67899E-01  2892   0.128E+00    0.103E+00
DAV:  10    -0.939794821396E+03    0.57827E-01   -0.29492E-01  2976   0.957E-01    0.711E-01
DAV:  11    -0.939761919916E+03    0.32901E-01   -0.55345E-02  2964   0.515E-01    0.417E-01
DAV:  12    -0.939732236382E+03    0.29684E-01   -0.91144E-02  2904   0.481E-01    0.316E-01
DAV:  13    -0.939726026222E+03    0.62102E-02   -0.45980E-02  2820   0.352E-01    0.196E-01
DAV:  14    -0.939740368608E+03   -0.14342E-01   -0.13841E-02  2700   0.199E-01    0.134E-01
DAV:  15    -0.939749631838E+03   -0.92632E-02   -0.65099E-03  2736   0.127E-01    0.899E-02
DAV:  16    -0.939755065479E+03   -0.54336E-02   -0.13257E-03  2772   0.679E-02    0.622E-02
DAV:  17    -0.939769096413E+03   -0.14031E-01   -0.15369E-03  2628   0.579E-02    0.382E-02
DAV:  18    -0.939774055296E+03   -0.49589E-02   -0.40849E-04  2760   0.404E-02    0.297E-02
DAV:  19    -0.939778743947E+03   -0.46887E-02   -0.28462E-04  2580   0.261E-02    0.188E-02
DAV:  20    -0.939784053455E+03   -0.53095E-02   -0.37087E-04  2664   0.206E-02    0.106E-02
DAV:  21    -0.939785953082E+03   -0.18996E-02   -0.80997E-05  2820   0.101E-02    0.767E-03
DAV:  22    -0.939787026638E+03   -0.10736E-02   -0.33226E-05  2724   0.675E-03    0.474E-03
DAV:  23    -0.939787777572E+03   -0.75093E-03   -0.22502E-05  2616   0.476E-03    0.252E-03
DAV:  24    -0.939788131341E+03   -0.35377E-03   -0.91959E-06  2412   0.278E-03    0.132E-03
DAV:  25    -0.939788271094E+03   -0.13975E-03   -0.28774E-06  2292   0.159E-03    0.586E-04
DAV:  26    -0.939788310032E+03   -0.38937E-04   -0.44008E-07  1956   0.704E-04    0.307E-04
DAV:  27    -0.939788326912E+03   -0.16880E-04   -0.26455E-07  1824   0.434E-04    0.112E-04
DAV:  28    -0.939788330973E+03   -0.40611E-05   -0.56079E-08  1860   0.217E-04    0.590E-05
DAV:  29    -0.939788331845E+03   -0.87266E-06   -0.20793E-09  1752   0.125E-04
   1 F= -.95251648E+03 E0= -.95242138E+03  d E =-.190208E+00
