o-B14 large bilayer with hydrogen termination
1.0
       11.3599920272         0.0000000000         0.0000000000
        0.0000000000        12.2942228318         0.0000000000
        0.0000000000         0.0000000000        30.0881175995
    B    H
  112   16
Cartesian
     2.968051209         3.920154029         4.019060716
     2.968051209        10.067265445         4.019060716
     8.648047222         3.920154029         4.019060716
     8.648047222        10.067265445         4.019060716
     2.968051209         3.920154029         8.069056312
     2.968051209        10.067265445         8.069056312
     8.648047222         3.920154029         8.069056312
     8.648047222        10.067265445         8.069056312
     2.711944805         2.226957387         4.019060716
     2.711944805         8.374068802         4.019060716
     8.391940819         2.226957387         4.019060716
     8.391940819         8.374068802         4.019060716
     2.711944805         2.226957387         8.069056312
     2.711944805         8.374068802         8.069056312
     8.391940819         2.226957387         8.069056312
     8.391940819         8.374068802         8.069056312
     5.551942812         3.920154029         4.019060716
     5.551942812        10.067265445         4.019060716
    11.231938826         3.920154029         4.019060716
    11.231938826        10.067265445         4.019060716
     5.551942812         3.920154029         8.069056312
     5.551942812        10.067265445         8.069056312
    11.231938826         3.920154029         8.069056312
    11.231938826        10.067265445         8.069056312
     0.128053202         2.226957387         4.019060716
     0.128053202         8.374068802         4.019060716
     5.808049215         2.226957387         4.019060716
     5.808049215         8.374068802         4.019060716
     0.128053202         2.226957387         8.069056312
     0.128053202         8.374068802         8.069056312
     5.808049215         2.226957387         8.069056312
     5.808049215         8.374068802         8.069056312
     3.396657234         5.533132349         4.000052183
     3.396657234        11.680243765         4.000052183
     9.076653248         5.533132349         4.000052183
     9.076653248        11.680243765         4.000052183
     3.396657234         5.533132349         8.088064845
     3.396657234        11.680243765         8.088064845
     9.076653248         5.533132349         8.088064845
     9.076653248        11.680243765         8.088064845
     2.283338780         0.613979021         4.000052183
     2.283338780         6.761090437         4.000052183
     7.963334793         0.613979021         4.000052183
     7.963334793         6.761090437         4.000052183
     2.283338780         0.613979021         8.088064845
     2.283338780         6.761090437         8.088064845
     7.963334793         0.613979021         8.088064845
     7.963334793         6.761090437         8.088064845
     5.123336787         5.533132349         4.000052183
     5.123336787        11.680243765         4.000052183
    10.803332800         5.533132349         4.000052183
    10.803332800        11.680243765         4.000052183
     5.123336787         5.533132349         8.088064845
     5.123336787        11.680243765         8.088064845
    10.803332800         5.533132349         8.088064845
    10.803332800        11.680243765         8.088064845
     0.556659227         0.613979021         4.000052183
     0.556659227         6.761090437         4.000052183
     6.236655241         0.613979021         4.000052183
     6.236655241         6.761090437         4.000052183
     0.556659227         0.613979021         8.088064845
     0.556659227         6.761090437         8.088064845
     6.236655241         0.613979021         8.088064845
     6.236655241         6.761090437         8.088064845
     4.259997010         4.508022044         5.221427394
     4.259997010        10.655133460         5.221427394
     9.939993024         4.508022044         5.221427394
     9.939993024        10.655133460         5.221427394
     4.259997010         4.479975727         9.260144594
     4.259997010        10.627087143         9.260144594
     9.939993024         4.479975727         9.260144594
     9.939993024        10.627087143         9.260144594
     1.419999003         1.667135688         2.827972495
     1.419999003         7.814247104         2.827972495
     7.099995017         1.667135688         2.827972495
     7.099995017         7.814247104         2.827972495
     1.419999003         1.639089371         6.866689695
     1.419999003         7.786200787         6.866689695
     7.099995017         1.639089371         6.866689695
     7.099995017         7.786200787         6.866689695
     4.259997010         4.479975727         2.827972495
     4.259997010        10.627087143         2.827972495
     9.939993024         4.479975727         2.827972495
     9.939993024        10.627087143         2.827972495
     4.259997010         4.508022044         6.866689695
     4.259997010        10.655133460         6.866689695
     9.939993024         4.508022044         6.866689695
     9.939993024        10.655133460         6.866689695
     1.419999003         1.639089371         5.221427394
     1.419999003         7.786200787         5.221427394
     7.099995017         1.639089371         5.221427394
     7.099995017         7.786200787         5.221427394
     1.419999003         1.667135688         9.260144594
     1.419999003         7.814247104         9.260144594
     7.099995017         1.667135688         9.260144594
     7.099995017         7.814247104         9.260144594
     1.419999003         3.231760076         4.023299302
     1.419999003         9.378871492         4.023299302
     7.099995017         3.231760076         4.023299302
     7.099995017         9.378871492         4.023299302
     1.419999003         3.231760076         8.064817726
     1.419999003         9.378871492         8.064817726
     7.099995017         3.231760076         8.064817726
     7.099995017         9.378871492         8.064817726
     4.259997010         2.915351158         4.023299302
     4.259997010         9.062462574         4.023299302
     9.939993024         2.915351158         4.023299302
     9.939993024         9.062462574         4.023299302
     4.259997010         2.915351158         8.064817726
     4.259997010         9.062462574         8.064817726
     9.939993024         2.915351158         8.064817726
     9.939993024         9.062462574         8.064817726
     1.419999003         1.765001750         1.639750331
     1.419999003         7.912113166         1.639750331
     7.099995017         1.765001750         1.639750331
     7.099995017         7.912113166         1.639750331
     4.259997010         4.382109665         1.639750331
     4.259997010        10.529221081         1.639750331
     9.939993024         4.382109665         1.639750331
     9.939993024        10.529221081         1.639750331
     1.419999003         1.765001750        10.448366758
     1.419999003         7.912113166        10.448366758
     7.099995017         1.765001750        10.448366758
     7.099995017         7.912113166        10.448366758
     4.259997010         4.382109665        10.448366758
     4.259997010        10.529221081        10.448366758
     9.939993024         4.382109665        10.448366758
     9.939993024        10.529221081        10.448366758
