k-points
0
Monkhorst-pack
23  32  21
0   0   0