k-points
0
Monkhorst-pack
4   6   4
0   0   0