o-B14 bilayer with Hydrogen bridge      
   1.00000000000000     
     5.6053239177758867   -0.1119842311189790    0.0000000000000000
    -0.1255641216807847    6.0730512479780172    0.0000000000000000
     0.0000000000000000    0.0000000000000000   30.0881166459999996
  B               H             
    28     2
Direct
     0.5205548872228919    0.6415434106202662    0.1492954510532022
     0.5205548872228919    0.6415434106202662    0.2524617206309508
     0.4794451128297307    0.3584565893797333    0.1492954510532022
     0.4794451128297307    0.3584565893797333    0.2524617206309508
     0.9830676077064505    0.6411662290017542    0.1354484222546369
     0.9830676077064505    0.6411662290017542    0.2663087494295160
     0.0169323923461722    0.3588337709982457    0.1354484222546369
     0.0169323923461723    0.3588337709982457    0.2663087494295160
     0.5960157987002949    0.8993879956312463    0.1327903867010841
     0.5960157987002949    0.8993879956312463    0.2689667849830690
     0.4039842013523279    0.1006119969516395    0.1327903867010841
     0.4039842013523279    0.1006119969516395    0.2689667849830690
     0.8992925095117097    0.8957641554284614    0.1214959490969446
     0.8992925095117097    0.8957641554284614    0.2802612225872083
     0.1007074905409132    0.1042358371544246    0.1214959490969446
     0.1007074905409132    0.1042358371544247    0.2802612225872083
     0.7814025696086245    0.7655318815622288    0.1726086135930310
     0.6983223095973183    0.6772554336434298    0.3002951497173082
     0.3016776902798927    0.3227445663565702    0.1014620239942294
     0.2185974302685863    0.2344681184377711    0.2291485601185065
     0.6983223095973183    0.6772554336434298    0.1014620239942294
     0.7814025696086244    0.7655318815622288    0.2291485601185065
     0.2185974302685863    0.2344681184377711    0.1726086135930310
     0.3016776902798927    0.3227445663565702    0.3002951497173082
     0.2513246867298826    0.5228345032463917    0.1438074160743802
     0.2513246867298826    0.5228345032463917    0.2579497556097727
     0.7486753131473282    0.4771654670851453    0.1438074160743802
     0.7486753131473282    0.4771654670851453    0.2579497556097727
     0.5000000000000000    0.5000000000000000    0.0752149303364618
     0.5000000000000000    0.5000000000000000    0.3265422433750756
 
  0.00000000E+00  0.00000000E+00  0.00000000E+00
  0.00000000E+00  0.00000000E+00  0.00000000E+00
  0.00000000E+00  0.00000000E+00  0.00000000E+00
  0.00000000E+00  0.00000000E+00  0.00000000E+00
  0.00000000E+00  0.00000000E+00  0.00000000E+00
  0.00000000E+00  0.00000000E+00  0.00000000E+00
  0.00000000E+00  0.00000000E+00  0.00000000E+00
  0.00000000E+00  0.00000000E+00  0.00000000E+00
  0.00000000E+00  0.00000000E+00  0.00000000E+00
  0.00000000E+00  0.00000000E+00  0.00000000E+00
  0.00000000E+00  0.00000000E+00  0.00000000E+00
  0.00000000E+00  0.00000000E+00  0.00000000E+00
  0.00000000E+00  0.00000000E+00  0.00000000E+00
  0.00000000E+00  0.00000000E+00  0.00000000E+00
  0.00000000E+00  0.00000000E+00  0.00000000E+00
  0.00000000E+00  0.00000000E+00  0.00000000E+00
  0.00000000E+00  0.00000000E+00  0.00000000E+00
  0.00000000E+00  0.00000000E+00  0.00000000E+00
  0.00000000E+00  0.00000000E+00  0.00000000E+00
  0.00000000E+00  0.00000000E+00  0.00000000E+00
  0.00000000E+00  0.00000000E+00  0.00000000E+00
  0.00000000E+00  0.00000000E+00  0.00000000E+00
  0.00000000E+00  0.00000000E+00  0.00000000E+00
  0.00000000E+00  0.00000000E+00  0.00000000E+00
  0.00000000E+00  0.00000000E+00  0.00000000E+00
  0.00000000E+00  0.00000000E+00  0.00000000E+00
  0.00000000E+00  0.00000000E+00  0.00000000E+00
  0.00000000E+00  0.00000000E+00  0.00000000E+00
  0.00000000E+00  0.00000000E+00  0.00000000E+00
  0.00000000E+00  0.00000000E+00  0.00000000E+00
