  14  14   0   0
  0.6180875E+02  0.5699758E-09  0.6314134E-09  0.2404406E-08  0.5000000E-15
  1.000000000000000E-004
  CAR 
 SCF                                     
      5.40711629    -21.15934618  301     -4.35251988      1.00000000
    -21.159  0.0000E+00  0.0000E+00
    -21.071  0.0000E+00  0.0000E+00
    -20.982  0.0000E+00  0.0000E+00
    -20.894  0.0000E+00  0.0000E+00
    -20.805  0.0000E+00  0.0000E+00
    -20.717  0.0000E+00  0.0000E+00
    -20.628  0.0000E+00  0.0000E+00
    -20.539  0.2786E-16  0.2467E-17
    -20.451  0.6478E-12  0.5737E-13
    -20.362  0.2887E-08  0.2557E-09
    -20.274  0.2903E-05  0.2574E-06
    -20.185  0.6835E-03  0.6078E-04
    -20.097  0.3997E-01  0.3600E-02
    -20.008  0.6361E+00  0.5993E-01
    -19.920  0.3130E+01  0.3371E+00
    -19.831  0.5710E+01  0.8428E+00
    -19.742  0.5324E+01  0.1314E+01
    -19.654  0.4194E+01  0.1686E+01
    -19.565  0.3722E+01  0.2015E+01
    -19.477  0.3668E+01  0.2340E+01
    -19.388  0.4003E+01  0.2695E+01
    -19.300  0.4914E+01  0.3130E+01
    -19.211  0.5348E+01  0.3603E+01
    -19.123  0.3417E+01  0.3906E+01
    -19.034  0.9642E+00  0.3991E+01
    -18.945  0.9586E-01  0.4000E+01
    -18.857  0.2784E-02  0.4000E+01
    -18.768  0.2082E-04  0.4000E+01
    -18.680  0.3715E-07  0.4000E+01
    -18.591  0.1513E-10  0.4000E+01
    -18.503  0.1365E-14  0.4000E+01
    -18.414  0.0000E+00  0.4000E+01
    -18.326  0.0000E+00  0.4000E+01
    -18.237  0.0000E+00  0.4000E+01
    -18.148  0.0000E+00  0.4000E+01
    -18.060  0.0000E+00  0.4000E+01
    -17.971  0.0000E+00  0.4000E+01
    -17.883  0.0000E+00  0.4000E+01
    -17.794  0.0000E+00  0.4000E+01
    -17.706  0.0000E+00  0.4000E+01
    -17.617  0.0000E+00  0.4000E+01
    -17.529  0.0000E+00  0.4000E+01
    -17.440  0.0000E+00  0.4000E+01
    -17.351  0.0000E+00  0.4000E+01
    -17.263  0.0000E+00  0.4000E+01
    -17.174  0.0000E+00  0.4000E+01
    -17.086  0.0000E+00  0.4000E+01
    -16.997  0.0000E+00  0.4000E+01
    -16.909  0.0000E+00  0.4000E+01
    -16.820  0.0000E+00  0.4000E+01
    -16.732  0.0000E+00  0.4000E+01
    -16.643  0.0000E+00  0.4000E+01
    -16.554  0.0000E+00  0.4000E+01
    -16.466  0.0000E+00  0.4000E+01
    -16.377  0.0000E+00  0.4000E+01
    -16.289  0.0000E+00  0.4000E+01
    -16.200  0.0000E+00  0.4000E+01
    -16.112  0.1811E-15  0.4000E+01
    -16.023  0.2843E-11  0.4000E+01
    -15.935  0.9749E-08  0.4000E+01
    -15.846  0.7560E-05  0.4000E+01
    -15.757  0.1376E-02  0.4000E+01
    -15.669  0.6250E-01  0.4006E+01
    -15.580  0.7873E+00  0.4075E+01
    -15.492  0.3315E+01  0.4369E+01
    -15.403  0.6592E+01  0.4953E+01
    -15.315  0.9312E+01  0.5777E+01
    -15.226  0.1008E+02  0.6670E+01
    -15.138  0.8015E+01  0.7379E+01
    -15.049  0.4643E+01  0.7791E+01
    -14.961  0.1892E+01  0.7958E+01
    -14.872  0.4338E+00  0.7996E+01
    -14.783  0.3895E-01  0.8000E+01
    -14.695  0.1055E-02  0.8000E+01
    -14.606  0.7436E-05  0.8000E+01
    -14.518  0.1258E-07  0.8000E+01
    -14.429  0.4872E-11  0.8000E+01
    -14.341  0.4736E-15  0.8000E+01
    -14.252  0.7509E-12  0.8000E+01
    -14.164  0.2331E-08  0.8000E+01
    -14.075  0.1599E-05  0.8000E+01
    -13.986  0.2525E-03  0.8000E+01
    -13.898  0.9861E-02  0.8001E+01
    -13.809  0.1077E+00  0.8010E+01
    -13.721  0.3993E+00  0.8046E+01
    -13.632  0.6921E+00  0.8107E+01
    -13.544  0.8835E+00  0.8185E+01
    -13.455  0.1090E+01  0.8282E+01
    -13.367  0.1581E+01  0.8422E+01
    -13.278  0.2808E+01  0.8671E+01
    -13.189  0.4271E+01  0.9049E+01
    -13.101  0.4016E+01  0.9404E+01
    -13.012  0.3417E+01  0.9707E+01
    -12.924  0.3390E+01  0.1001E+02
    -12.835  0.3371E+01  0.1031E+02
    -12.747  0.3397E+01  0.1061E+02
    -12.658  0.3744E+01  0.1094E+02
    -12.570  0.4204E+01  0.1131E+02
    -12.481  0.3683E+01  0.1164E+02
    -12.392  0.2480E+01  0.1186E+02
    -12.304  0.1263E+01  0.1197E+02
    -12.215  0.3319E+00  0.1200E+02
    -12.127  0.3052E-01  0.1200E+02
    -12.038  0.8003E-03  0.1200E+02
    -11.950  0.5390E-05  0.1200E+02
    -11.861  0.1386E-07  0.1200E+02
    -11.773  0.4368E-05  0.1200E+02
    -11.684  0.8764E-03  0.1200E+02
    -11.595  0.4352E-01  0.1200E+02
    -11.507  0.5783E+00  0.1206E+02
    -11.418  0.2383E+01  0.1227E+02
    -11.330  0.4155E+01  0.1263E+02
    -11.241  0.5070E+01  0.1308E+02
    -11.153  0.5728E+01  0.1359E+02
    -11.064  0.6046E+01  0.1413E+02
    -10.976  0.5703E+01  0.1463E+02
    -10.887  0.4905E+01  0.1507E+02
    -10.798  0.4430E+01  0.1546E+02
    -10.710  0.4153E+01  0.1583E+02
    -10.621  0.3951E+01  0.1618E+02
    -10.533  0.3796E+01  0.1651E+02
    -10.444  0.3485E+01  0.1682E+02
    -10.356  0.3515E+01  0.1713E+02
    -10.267  0.3967E+01  0.1748E+02
    -10.179  0.4852E+01  0.1791E+02
    -10.090  0.5539E+01  0.1840E+02
    -10.001  0.5448E+01  0.1889E+02
     -9.913  0.5064E+01  0.1933E+02
     -9.824  0.4688E+01  0.1975E+02
     -9.736  0.3940E+01  0.2010E+02
     -9.647  0.3374E+01  0.2040E+02
     -9.559  0.3578E+01  0.2071E+02
     -9.470  0.4063E+01  0.2107E+02
     -9.382  0.3267E+01  0.2136E+02
     -9.293  0.2131E+01  0.2155E+02
     -9.204  0.1672E+01  0.2170E+02
     -9.116  0.1524E+01  0.2183E+02
     -9.027  0.1621E+01  0.2198E+02
     -8.939  0.1706E+01  0.2213E+02
     -8.850  0.1838E+01  0.2229E+02
     -8.762  0.1982E+01  0.2247E+02
     -8.673  0.2674E+01  0.2270E+02
     -8.585  0.3696E+01  0.2303E+02
     -8.496  0.3606E+01  0.2335E+02
     -8.407  0.2628E+01  0.2358E+02
     -8.319  0.1848E+01  0.2375E+02
     -8.230  0.1572E+01  0.2389E+02
     -8.142  0.1477E+01  0.2402E+02
     -8.053  0.1752E+01  0.2417E+02
     -7.965  0.2585E+01  0.2440E+02
     -7.876  0.4538E+01  0.2480E+02
     -7.788  0.6722E+01  0.2540E+02
     -7.699  0.8117E+01  0.2612E+02
     -7.610  0.8983E+01  0.2691E+02
     -7.522  0.9352E+01  0.2774E+02
     -7.433  0.8722E+01  0.2851E+02
     -7.345  0.7906E+01  0.2921E+02
     -7.256  0.7994E+01  0.2992E+02
     -7.168  0.8481E+01  0.3067E+02
     -7.079  0.7127E+01  0.3130E+02
     -6.991  0.5250E+01  0.3177E+02
     -6.902  0.4419E+01  0.3216E+02
     -6.813  0.3668E+01  0.3248E+02
     -6.725  0.2760E+01  0.3273E+02
     -6.636  0.2623E+01  0.3296E+02
     -6.548  0.2549E+01  0.3319E+02
     -6.459  0.2181E+01  0.3338E+02
     -6.371  0.2762E+01  0.3362E+02
     -6.282  0.3969E+01  0.3398E+02
     -6.194  0.5347E+01  0.3445E+02
     -6.105  0.5979E+01  0.3498E+02
     -6.016  0.5052E+01  0.3543E+02
     -5.928  0.4394E+01  0.3581E+02
     -5.839  0.4391E+01  0.3620E+02
     -5.751  0.4832E+01  0.3663E+02
     -5.662  0.5330E+01  0.3710E+02
     -5.574  0.5280E+01  0.3757E+02
     -5.485  0.4630E+01  0.3798E+02
     -5.397  0.4001E+01  0.3834E+02
     -5.308  0.3323E+01  0.3863E+02
     -5.219  0.1865E+01  0.3880E+02
     -5.131  0.7608E+00  0.3886E+02
     -5.042  0.8091E+00  0.3893E+02
     -4.954  0.1239E+01  0.3904E+02
     -4.865  0.1106E+01  0.3914E+02
     -4.777  0.8148E+00  0.3921E+02
     -4.688  0.1337E+01  0.3933E+02
     -4.600  0.3683E+01  0.3966E+02
     -4.511  0.7421E+01  0.4032E+02
     -4.422  0.9820E+01  0.4119E+02
     -4.334  0.1171E+02  0.4222E+02
     -4.245  0.9709E+01  0.4308E+02
     -4.157  0.4253E+01  0.4346E+02
     -4.068  0.1391E+01  0.4358E+02
     -3.980  0.7996E+00  0.4365E+02
     -3.891  0.4974E+00  0.4370E+02
     -3.803  0.3946E+00  0.4373E+02
     -3.714  0.4624E+00  0.4377E+02
     -3.625  0.4912E+00  0.4382E+02
     -3.537  0.3386E+00  0.4385E+02
     -3.448  0.2843E+00  0.4387E+02
     -3.360  0.3113E+00  0.4390E+02
     -3.271  0.3483E+00  0.4393E+02
     -3.183  0.2697E+00  0.4395E+02
     -3.094  0.1976E+00  0.4397E+02
     -3.006  0.2061E+00  0.4399E+02
     -2.917  0.1028E+00  0.4400E+02
     -2.828  0.1649E-01  0.4400E+02
     -2.740  0.7056E-03  0.4400E+02
     -2.651  0.7202E-05  0.4400E+02
     -2.563  0.1656E-07  0.4400E+02
     -2.474  0.8334E-11  0.4400E+02
     -2.386  0.8873E-14  0.4400E+02
     -2.297  0.5257E-10  0.4400E+02
     -2.209  0.7541E-07  0.4400E+02
     -2.120  0.2413E-04  0.4400E+02
     -2.031  0.1794E-02  0.4400E+02
     -1.943  0.3304E-01  0.4400E+02
     -1.854  0.1664E+00  0.4402E+02
     -1.766  0.2819E+00  0.4404E+02
     -1.677  0.3450E+00  0.4407E+02
     -1.589  0.9483E+00  0.4416E+02
     -1.500  0.2414E+01  0.4437E+02
     -1.412  0.4203E+01  0.4474E+02
     -1.323  0.5782E+01  0.4526E+02
     -1.234  0.6782E+01  0.4586E+02
     -1.146  0.7285E+01  0.4650E+02
     -1.057  0.7297E+01  0.4715E+02
     -0.969  0.6725E+01  0.4774E+02
     -0.880  0.5590E+01  0.4824E+02
     -0.792  0.5192E+01  0.4870E+02
     -0.703  0.5121E+01  0.4915E+02
     -0.615  0.4717E+01  0.4957E+02
     -0.526  0.5071E+01  0.5002E+02
     -0.438  0.5901E+01  0.5054E+02
     -0.349  0.5216E+01  0.5100E+02
     -0.260  0.4722E+01  0.5142E+02
     -0.172  0.5391E+01  0.5190E+02
     -0.083  0.5526E+01  0.5239E+02
      0.005  0.4526E+01  0.5279E+02
      0.094  0.4542E+01  0.5319E+02
      0.182  0.6028E+01  0.5372E+02
      0.271  0.6308E+01  0.5428E+02
      0.359  0.5195E+01  0.5474E+02
      0.448  0.3996E+01  0.5510E+02
      0.537  0.2964E+01  0.5536E+02
      0.625  0.2421E+01  0.5557E+02
      0.714  0.2255E+01  0.5577E+02
      0.802  0.2689E+01  0.5601E+02
      0.891  0.3334E+01  0.5631E+02
      0.979  0.3690E+01  0.5663E+02
      1.068  0.4537E+01  0.5704E+02
      1.156  0.7081E+01  0.5766E+02
      1.245  0.8918E+01  0.5845E+02
      1.334  0.8768E+01  0.5923E+02
      1.422  0.8485E+01  0.5998E+02
      1.511  0.8341E+01  0.6072E+02
      1.599  0.8185E+01  0.6144E+02
      1.688  0.7526E+01  0.6211E+02
      1.776  0.7301E+01  0.6276E+02
      1.865  0.7733E+01  0.6344E+02
      1.953  0.8690E+01  0.6421E+02
      2.042  0.9894E+01  0.6509E+02
      2.131  0.1036E+02  0.6600E+02
      2.219  0.1090E+02  0.6697E+02
      2.308  0.1123E+02  0.6796E+02
      2.396  0.1036E+02  0.6888E+02
      2.485  0.9676E+01  0.6974E+02
      2.573  0.9841E+01  0.7061E+02
      2.662  0.1049E+02  0.7154E+02
      2.750  0.1077E+02  0.7249E+02
      2.839  0.1130E+02  0.7349E+02
      2.928  0.1179E+02  0.7454E+02
      3.016  0.1291E+02  0.7568E+02
      3.105  0.1453E+02  0.7697E+02
      3.193  0.1526E+02  0.7832E+02
      3.282  0.1456E+02  0.7961E+02
      3.370  0.1449E+02  0.8089E+02
      3.459  0.1320E+02  0.8206E+02
      3.547  0.9152E+01  0.8287E+02
      3.636  0.4889E+01  0.8330E+02
      3.725  0.2526E+01  0.8353E+02
      3.813  0.1512E+01  0.8366E+02
      3.902  0.1083E+01  0.8376E+02
      3.990  0.1033E+01  0.8385E+02
      4.079  0.8485E+00  0.8392E+02
      4.167  0.4864E+00  0.8397E+02
      4.256  0.2892E+00  0.8399E+02
      4.344  0.8832E-01  0.8400E+02
      4.433  0.7832E-02  0.8400E+02
      4.522  0.1718E-03  0.8400E+02
      4.610  0.8740E-06  0.8400E+02
      4.699  0.9969E-09  0.8400E+02
      4.787  0.2497E-12  0.8400E+02
      4.876  0.0000E+00  0.8400E+02
      4.964  0.0000E+00  0.8400E+02
      5.053  0.0000E+00  0.8400E+02
      5.141  0.0000E+00  0.8400E+02
      5.230  0.0000E+00  0.8400E+02
      5.319  0.0000E+00  0.8400E+02
      5.407  0.0000E+00  0.8400E+02
