o-B14
1.0
    5.6970  0.0000  0.0000
    0.0000  4.0479  0.0000
    0.0000  0.0000  6.2042
    B
    14
Direct
    