   4   4   0   0
  0.2626359E+03  0.5679996E-09  0.6147111E-09  0.3008812E-08  0.5000000E-15
  1.000000000000000E-004
  CAR 
 SCF                                     
      6.13008900    -10.39957742  301     -3.61384032      1.00000000
    -10.400  0.0000E+00  0.0000E+00
    -10.344  0.0000E+00  0.0000E+00
    -10.289  0.0000E+00  0.0000E+00
    -10.234  0.0000E+00  0.0000E+00
    -10.179  0.0000E+00  0.0000E+00
    -10.124  0.0000E+00  0.0000E+00
    -10.069  0.0000E+00  0.0000E+00
    -10.014  0.0000E+00  0.0000E+00
     -9.959  0.2328E-14  0.1283E-15
     -9.904  0.1000E-11  0.5523E-13
     -9.849  0.2329E-09  0.1289E-10
     -9.793  0.3027E-07  0.1681E-08
     -9.738  0.2208E-05  0.1233E-06
     -9.683  0.9094E-04  0.5134E-05
     -9.628  0.2134E-02  0.1227E-03
     -9.573  0.2889E-01  0.1715E-02
     -9.518  0.2296E+00  0.1437E-01
     -9.463  0.1101E+01  0.7502E-01
     -9.408  0.3326E+01  0.2583E+00
     -9.353  0.6777E+01  0.6317E+00
     -9.298  0.1017E+02  0.1192E+01
     -9.243  0.1221E+02  0.1865E+01
     -9.187  0.1249E+02  0.2553E+01
     -9.132  0.1167E+02  0.3196E+01
     -9.077  0.1100E+02  0.3801E+01
     -9.022  0.1124E+02  0.4421E+01
     -8.967  0.1242E+02  0.5105E+01
     -8.912  0.1360E+02  0.5855E+01
     -8.857  0.1334E+02  0.6590E+01
     -8.802  0.1119E+02  0.7206E+01
     -8.747  0.7868E+01  0.7640E+01
     -8.692  0.4338E+01  0.7879E+01
     -8.636  0.1695E+01  0.7972E+01
     -8.581  0.4303E+00  0.7996E+01
     -8.526  0.6712E-01  0.8000E+01
     -8.471  0.6216E-02  0.8000E+01
     -8.416  0.3345E-03  0.8000E+01
     -8.361  0.1031E-04  0.8000E+01
     -8.306  0.1802E-06  0.8000E+01
     -8.251  0.1771E-08  0.8000E+01
     -8.196  0.9741E-11  0.8000E+01
     -8.141  0.2969E-13  0.8000E+01
     -8.085  0.0000E+00  0.8000E+01
     -8.030  0.0000E+00  0.8000E+01
     -7.975  0.0000E+00  0.8000E+01
     -7.920  0.0000E+00  0.8000E+01
     -7.865  0.0000E+00  0.8000E+01
     -7.810  0.0000E+00  0.8000E+01
     -7.755  0.0000E+00  0.8000E+01
     -7.700  0.0000E+00  0.8000E+01
     -7.645  0.0000E+00  0.8000E+01
     -7.590  0.0000E+00  0.8000E+01
     -7.534  0.0000E+00  0.8000E+01
     -7.479  0.0000E+00  0.8000E+01
     -7.424  0.0000E+00  0.8000E+01
     -7.369  0.0000E+00  0.8000E+01
     -7.314  0.0000E+00  0.8000E+01
     -7.259  0.0000E+00  0.8000E+01
     -7.204  0.0000E+00  0.8000E+01
     -7.149  0.0000E+00  0.8000E+01
     -7.094  0.0000E+00  0.8000E+01
     -7.039  0.0000E+00  0.8000E+01
     -6.983  0.0000E+00  0.8000E+01
     -6.928  0.0000E+00  0.8000E+01
     -6.873  0.0000E+00  0.8000E+01
     -6.818  0.0000E+00  0.8000E+01
     -6.763  0.0000E+00  0.8000E+01
     -6.708  0.0000E+00  0.8000E+01
     -6.653  0.0000E+00  0.8000E+01
     -6.598  0.0000E+00  0.8000E+01
     -6.543  0.0000E+00  0.8000E+01
     -6.488  0.0000E+00  0.8000E+01
     -6.432  0.0000E+00  0.8000E+01
     -6.377  0.0000E+00  0.8000E+01
     -6.322  0.0000E+00  0.8000E+01
     -6.267  0.0000E+00  0.8000E+01
     -6.212  0.0000E+00  0.8000E+01
     -6.157  0.0000E+00  0.8000E+01
     -6.102  0.0000E+00  0.8000E+01
     -6.047  0.0000E+00  0.8000E+01
     -5.992  0.0000E+00  0.8000E+01
     -5.937  0.0000E+00  0.8000E+01
     -5.881  0.0000E+00  0.8000E+01
     -5.826  0.0000E+00  0.8000E+01
     -5.771  0.0000E+00  0.8000E+01
     -5.716  0.0000E+00  0.8000E+01
     -5.661  0.0000E+00  0.8000E+01
     -5.606  0.0000E+00  0.8000E+01
     -5.551  0.0000E+00  0.8000E+01
     -5.496  0.0000E+00  0.8000E+01
     -5.441  0.0000E+00  0.8000E+01
     -5.386  0.0000E+00  0.8000E+01
     -5.330  0.0000E+00  0.8000E+01
     -5.275  0.0000E+00  0.8000E+01
     -5.220  0.0000E+00  0.8000E+01
     -5.165  0.0000E+00  0.8000E+01
     -5.110  0.0000E+00  0.8000E+01
     -5.055  0.0000E+00  0.8000E+01
     -5.000  0.0000E+00  0.8000E+01
     -4.945  0.0000E+00  0.8000E+01
     -4.890  0.0000E+00  0.8000E+01
     -4.835  0.0000E+00  0.8000E+01
     -4.779  0.0000E+00  0.8000E+01
     -4.724  0.0000E+00  0.8000E+01
     -4.669  0.0000E+00  0.8000E+01
     -4.614  0.0000E+00  0.8000E+01
     -4.559  0.8955E-16  0.8000E+01
     -4.504  0.5199E-13  0.8000E+01
     -4.449  0.1600E-10  0.8000E+01
     -4.394  0.2745E-08  0.8000E+01
     -4.339  0.2633E-06  0.8000E+01
     -4.284  0.1421E-04  0.8000E+01
     -4.229  0.4347E-03  0.8000E+01
     -4.173  0.7612E-02  0.8000E+01
     -4.118  0.7735E-01  0.8005E+01
     -4.063  0.4655E+00  0.8030E+01
     -4.008  0.1712E+01  0.8125E+01
     -3.953  0.4040E+01  0.8347E+01
     -3.898  0.6633E+01  0.8713E+01
     -3.843  0.8493E+01  0.9181E+01
     -3.788  0.9655E+01  0.9713E+01
     -3.733  0.1081E+02  0.1031E+02
     -3.678  0.1261E+02  0.1100E+02
     -3.622  0.1539E+02  0.1185E+02
     -3.567  0.1880E+02  0.1289E+02
     -3.512  0.2196E+02  0.1410E+02
     -3.457  0.2406E+02  0.1542E+02
     -3.402  0.2441E+02  0.1677E+02
     -3.347  0.2250E+02  0.1801E+02
     -3.292  0.1903E+02  0.1906E+02
     -3.237  0.1617E+02  0.1995E+02
     -3.182  0.1555E+02  0.2080E+02
     -3.127  0.1626E+02  0.2170E+02
     -3.071  0.1603E+02  0.2258E+02
     -3.016  0.1433E+02  0.2337E+02
     -2.961  0.1245E+02  0.2406E+02
     -2.906  0.1152E+02  0.2469E+02
     -2.851  0.1133E+02  0.2532E+02
     -2.796  0.1102E+02  0.2593E+02
     -2.741  0.1063E+02  0.2651E+02
     -2.686  0.1065E+02  0.2710E+02
     -2.631  0.1125E+02  0.2772E+02
     -2.576  0.1245E+02  0.2840E+02
     -2.520  0.1405E+02  0.2918E+02
     -2.465  0.1498E+02  0.3000E+02
     -2.410  0.1404E+02  0.3078E+02
     -2.355  0.1106E+02  0.3139E+02
     -2.300  0.6895E+01  0.3177E+02
     -2.245  0.3111E+01  0.3194E+02
     -2.190  0.9297E+00  0.3199E+02
     -2.135  0.1729E+00  0.3200E+02
     -2.080  0.1924E-01  0.3200E+02
     -2.025  0.1251E-02  0.3200E+02
     -1.969  0.4674E-04  0.3200E+02
     -1.914  0.9927E-06  0.3200E+02
     -1.859  0.1188E-07  0.3200E+02
     -1.804  0.7972E-10  0.3200E+02
     -1.749  0.2985E-12  0.3200E+02
     -1.694  0.4478E-15  0.3200E+02
     -1.639  0.0000E+00  0.3200E+02
     -1.584  0.0000E+00  0.3200E+02
     -1.529  0.0000E+00  0.3200E+02
     -1.474  0.0000E+00  0.3200E+02
     -1.418  0.0000E+00  0.3200E+02
     -1.363  0.0000E+00  0.3200E+02
     -1.308  0.0000E+00  0.3200E+02
     -1.253  0.0000E+00  0.3200E+02
     -1.198  0.0000E+00  0.3200E+02
     -1.143  0.0000E+00  0.3200E+02
     -1.088  0.0000E+00  0.3200E+02
     -1.033  0.0000E+00  0.3200E+02
     -0.978  0.0000E+00  0.3200E+02
     -0.923  0.0000E+00  0.3200E+02
     -0.867  0.0000E+00  0.3200E+02
     -0.812  0.0000E+00  0.3200E+02
     -0.757  0.0000E+00  0.3200E+02
     -0.702  0.4478E-15  0.3200E+02
     -0.647  0.1777E-12  0.3200E+02
     -0.592  0.4002E-10  0.3200E+02
     -0.537  0.5025E-08  0.3200E+02
     -0.482  0.3537E-06  0.3200E+02
     -0.427  0.1405E-04  0.3200E+02
     -0.372  0.3177E-03  0.3200E+02
     -0.316  0.4140E-02  0.3200E+02
     -0.261  0.3160E-01  0.3200E+02
     -0.206  0.1448E+00  0.3201E+02
     -0.151  0.4141E+00  0.3203E+02
     -0.096  0.7870E+00  0.3208E+02
     -0.041  0.1095E+01  0.3214E+02
      0.014  0.1271E+01  0.3221E+02
      0.069  0.1426E+01  0.3229E+02
      0.124  0.1717E+01  0.3238E+02
      0.179  0.2192E+01  0.3250E+02
      0.235  0.2795E+01  0.3265E+02
      0.290  0.3449E+01  0.3284E+02
      0.345  0.4000E+01  0.3306E+02
      0.400  0.4349E+01  0.3330E+02
      0.455  0.4505E+01  0.3355E+02
      0.510  0.4550E+01  0.3380E+02
      0.565  0.4641E+01  0.3406E+02
      0.620  0.4842E+01  0.3433E+02
      0.675  0.5191E+01  0.3461E+02
      0.730  0.5691E+01  0.3493E+02
      0.785  0.6122E+01  0.3526E+02
      0.841  0.6342E+01  0.3561E+02
      0.896  0.6509E+01  0.3597E+02
      0.951  0.6786E+01  0.3634E+02
      1.006  0.7231E+01  0.3674E+02
      1.061  0.7591E+01  0.3716E+02
      1.116  0.7652E+01  0.3758E+02
      1.171  0.7734E+01  0.3801E+02
      1.226  0.7944E+01  0.3845E+02
      1.281  0.8006E+01  0.3889E+02
      1.336  0.7918E+01  0.3932E+02
      1.392  0.7979E+01  0.3976E+02
      1.447  0.8315E+01  0.4022E+02
      1.502  0.8753E+01  0.4070E+02
      1.557  0.9210E+01  0.4121E+02
      1.612  0.9873E+01  0.4176E+02
      1.667  0.1070E+02  0.4235E+02
      1.722  0.1119E+02  0.4296E+02
      1.777  0.1116E+02  0.4358E+02
      1.832  0.1120E+02  0.4419E+02
      1.887  0.1178E+02  0.4484E+02
      1.943  0.1232E+02  0.4552E+02
      1.998  0.1221E+02  0.4619E+02
      2.053  0.1173E+02  0.4684E+02
      2.108  0.1159E+02  0.4748E+02
      2.163  0.1196E+02  0.4814E+02
      2.218  0.1266E+02  0.4884E+02
      2.273  0.1357E+02  0.4958E+02
      2.328  0.1446E+02  0.5038E+02
      2.383  0.1479E+02  0.5119E+02
      2.438  0.1403E+02  0.5197E+02
      2.494  0.1254E+02  0.5266E+02
      2.549  0.1139E+02  0.5329E+02
      2.604  0.1147E+02  0.5392E+02
      2.659  0.1275E+02  0.5462E+02
      2.714  0.1414E+02  0.5540E+02
      2.769  0.1446E+02  0.5620E+02
      2.824  0.1383E+02  0.5696E+02
      2.879  0.1335E+02  0.5769E+02
      2.934  0.1341E+02  0.5843E+02
      2.989  0.1364E+02  0.5918E+02
      3.045  0.1393E+02  0.5995E+02
      3.100  0.1439E+02  0.6075E+02
      3.155  0.1488E+02  0.6157E+02
      3.210  0.1501E+02  0.6239E+02
      3.265  0.1483E+02  0.6321E+02
      3.320  0.1480E+02  0.6403E+02
      3.375  0.1503E+02  0.6485E+02
      3.430  0.1517E+02  0.6569E+02
      3.485  0.1490E+02  0.6651E+02
      3.540  0.1454E+02  0.6731E+02
      3.596  0.1435E+02  0.6810E+02
      3.651  0.1401E+02  0.6887E+02
      3.706  0.1375E+02  0.6963E+02
      3.761  0.1402E+02  0.7040E+02
      3.816  0.1417E+02  0.7118E+02
      3.871  0.1404E+02  0.7196E+02
      3.926  0.1450E+02  0.7276E+02
      3.981  0.1546E+02  0.7361E+02
      4.036  0.1595E+02  0.7449E+02
      4.091  0.1592E+02  0.7536E+02
      4.147  0.1576E+02  0.7623E+02
      4.202  0.1555E+02  0.7709E+02
      4.257  0.1545E+02  0.7794E+02
      4.312  0.1536E+02  0.7879E+02
      4.367  0.1440E+02  0.7958E+02
      4.422  0.1247E+02  0.8027E+02
      4.477  0.1059E+02  0.8085E+02
      4.532  0.9389E+01  0.8137E+02
      4.587  0.8620E+01  0.8184E+02
      4.642  0.7945E+01  0.8228E+02
      4.698  0.7172E+01  0.8268E+02
      4.753  0.6058E+01  0.8301E+02
      4.808  0.4706E+01  0.8327E+02
      4.863  0.3651E+01  0.8347E+02
      4.918  0.3024E+01  0.8364E+02
      4.973  0.2476E+01  0.8377E+02
      5.028  0.1844E+01  0.8388E+02
      5.083  0.1201E+01  0.8394E+02
      5.138  0.6505E+00  0.8398E+02
      5.193  0.2790E+00  0.8399E+02
      5.249  0.9007E-01  0.8400E+02
      5.304  0.2022E-01  0.8400E+02
      5.359  0.2890E-02  0.8400E+02
      5.414  0.2462E-03  0.8400E+02
      5.469  0.1205E-04  0.8400E+02
      5.524  0.3319E-06  0.8400E+02
      5.579  0.5094E-08  0.8400E+02
      5.634  0.4331E-10  0.8400E+02
      5.689  0.2032E-12  0.8400E+02
      5.744  0.5373E-15  0.8400E+02
      5.799  0.0000E+00  0.8400E+02
      5.855  0.0000E+00  0.8400E+02
      5.910  0.0000E+00  0.8400E+02
      5.965  0.0000E+00  0.8400E+02
      6.020  0.0000E+00  0.8400E+02
      6.075  0.0000E+00  0.8400E+02
      6.130  0.0000E+00  0.8400E+02
