 running   42 mpi-ranks, on    1 nodes
 distrk:  each k-point on   42 cores,    1 groups
 distr:  one band on    7 cores,    6 groups
 vasp.6.5.0 16Dec24 (build Jan 08 2025 16:17:04) complex                        
  
 POSCAR found type information on POSCAR B H 
 POSCAR found :  2 types and     144 ions
 Reading from existing POTCAR
 scaLAPACK will be used
 Reading from existing POTCAR
 LDA part: xc-table for (Slater+PW92), standard interpolation
 POSCAR, INCAR and KPOINTS ok, starting setup
 FFT: planning ... GRIDC
 FFT: planning ... GRID_SOFT
 FFT: planning ... GRID
 WAVECAR not read
 entering main loop
       N       E                     dE             d eps       ncg     rms          rms(c)
DAV:   1     0.328983765029E+04    0.32898E+04   -0.13064E+05  3564   0.109E+03
DAV:   2    -0.267134029855E+03   -0.35570E+04   -0.34111E+04  4896   0.228E+02
DAV:   3    -0.867396846601E+03   -0.60026E+03   -0.59471E+03  3912   0.101E+02
DAV:   4    -0.891650713022E+03   -0.24254E+02   -0.23923E+02  4140   0.218E+01
DAV:   5    -0.892439185678E+03   -0.78847E+00   -0.78318E+00  4596   0.347E+00    0.386E+01
DAV:   6    -0.823913008393E+03    0.68526E+02   -0.91123E+01  3864   0.135E+01    0.202E+01
DAV:   7    -0.807061467665E+03    0.16852E+02   -0.69830E+01  3948   0.112E+01    0.625E+00
DAV:   8    -0.806120627658E+03    0.94084E+00   -0.62070E+00  4116   0.436E+00    0.181E+00
DAV:   9    -0.805747631292E+03    0.37300E+00   -0.70367E-01  3936   0.130E+00    0.827E-01
DAV:  10    -0.805674217691E+03    0.73414E-01   -0.10158E-01  4224   0.475E-01    0.457E-01
DAV:  11    -0.805595188524E+03    0.79029E-01   -0.12858E-01  3912   0.390E-01    0.279E-01
DAV:  12    -0.805603801232E+03   -0.86127E-02   -0.33132E-02  4104   0.232E-01    0.203E-01
DAV:  13    -0.805623017484E+03   -0.19216E-01   -0.90093E-03  3612   0.152E-01    0.108E-01
DAV:  14    -0.805639157587E+03   -0.16140E-01   -0.57281E-03  3924   0.832E-02    0.639E-02
DAV:  15    -0.805652967964E+03   -0.13810E-01   -0.12163E-03  3888   0.388E-02    0.378E-02
DAV:  16    -0.805666070101E+03   -0.13102E-01   -0.15359E-03  3876   0.329E-02    0.190E-02
DAV:  17    -0.805670603393E+03   -0.45333E-02   -0.32666E-04  4032   0.156E-02    0.122E-02
DAV:  18    -0.805674319341E+03   -0.37159E-02   -0.38006E-04  3888   0.123E-02    0.611E-03
DAV:  19    -0.805675312428E+03   -0.99309E-03   -0.54248E-05  3816   0.505E-03    0.301E-03
DAV:  20    -0.805675767100E+03   -0.45467E-03   -0.14621E-05  3072   0.281E-03    0.162E-03
DAV:  21    -0.805675927204E+03   -0.16010E-03   -0.40457E-06  3108   0.158E-03    0.800E-04
DAV:  22    -0.805675966686E+03   -0.39482E-04   -0.51059E-07  2988   0.731E-04    0.313E-04
DAV:  23    -0.805675980008E+03   -0.13322E-04   -0.12645E-07  2796   0.347E-04    0.176E-04
DAV:  24    -0.805675983751E+03   -0.37423E-05   -0.31844E-08  2676   0.195E-04    0.628E-05
DAV:  25    -0.805675984678E+03   -0.92772E-06    0.63623E-09  2496   0.104E-04
   1 F= -.81835278E+03 E0= -.81835278E+03  d E =-.175980E-04
