  14  14   1   0
  0.6180875E+02  0.5699758E-09  0.6314134E-09  0.2404406E-08  0.5000000E-15
  1.000000000000000E-004
  CAR 
 BS_HSE06                                
      6.37943935    -23.44321047  301     -4.43334101      1.00000000
    -23.443  0.0000E+00  0.0000E+00
    -23.344  0.0000E+00  0.0000E+00
    -23.244  0.0000E+00  0.0000E+00
    -23.145  0.0000E+00  0.0000E+00
    -23.046  0.0000E+00  0.0000E+00
    -22.946  0.0000E+00  0.0000E+00
    -22.847  0.0000E+00  0.0000E+00
    -22.747  0.0000E+00  0.0000E+00
    -22.648  0.6329E-15  0.6291E-16
    -22.549  0.2293E-10  0.2279E-11
    -22.449  0.1242E-06  0.1235E-07
    -22.350  0.1055E-03  0.1050E-04
    -22.250  0.1510E-01  0.1512E-02
    -22.151  0.4148E+00  0.4274E-01
    -22.051  0.2666E+01  0.3078E+00
    -21.952  0.5238E+01  0.8285E+00
    -21.853  0.4742E+01  0.1300E+01
    -21.753  0.3662E+01  0.1664E+01
    -21.654  0.3248E+01  0.1987E+01
    -21.554  0.3179E+01  0.2303E+01
    -21.455  0.3406E+01  0.2641E+01
    -21.356  0.4174E+01  0.3056E+01
    -21.256  0.4898E+01  0.3543E+01
    -21.157  0.3458E+01  0.3887E+01
    -21.057  0.1040E+01  0.3990E+01
    -20.958  0.9384E-01  0.4000E+01
    -20.859  0.1859E-02  0.4000E+01
    -20.759  0.6664E-05  0.4000E+01
    -20.660  0.3887E-08  0.4000E+01
    -20.560  0.3485E-12  0.4000E+01
    -20.461  0.0000E+00  0.4000E+01
    -20.362  0.0000E+00  0.4000E+01
    -20.262  0.0000E+00  0.4000E+01
    -20.163  0.0000E+00  0.4000E+01
    -20.063  0.0000E+00  0.4000E+01
    -19.964  0.0000E+00  0.4000E+01
    -19.864  0.0000E+00  0.4000E+01
    -19.765  0.0000E+00  0.4000E+01
    -19.666  0.0000E+00  0.4000E+01
    -19.566  0.0000E+00  0.4000E+01
    -19.467  0.0000E+00  0.4000E+01
    -19.367  0.0000E+00  0.4000E+01
    -19.268  0.0000E+00  0.4000E+01
    -19.169  0.0000E+00  0.4000E+01
    -19.069  0.0000E+00  0.4000E+01
    -18.970  0.0000E+00  0.4000E+01
    -18.870  0.0000E+00  0.4000E+01
    -18.771  0.0000E+00  0.4000E+01
    -18.672  0.0000E+00  0.4000E+01
    -18.572  0.0000E+00  0.4000E+01
    -18.473  0.0000E+00  0.4000E+01
    -18.373  0.0000E+00  0.4000E+01
    -18.274  0.0000E+00  0.4000E+01
    -18.175  0.0000E+00  0.4000E+01
    -18.075  0.0000E+00  0.4000E+01
    -17.976  0.0000E+00  0.4000E+01
    -17.876  0.2482E-16  0.4000E+01
    -17.777  0.1868E-11  0.4000E+01
    -17.677  0.1608E-07  0.4000E+01
    -17.578  0.2136E-04  0.4000E+01
    -17.479  0.4643E-02  0.4000E+01
    -17.379  0.1838E+00  0.4019E+01
    -17.280  0.1606E+01  0.4178E+01
    -17.180  0.4386E+01  0.4614E+01
    -17.081  0.6729E+01  0.5283E+01
    -16.982  0.8733E+01  0.6151E+01
    -16.882  0.8483E+01  0.6995E+01
    -16.783  0.5854E+01  0.7577E+01
    -16.683  0.2998E+01  0.7875E+01
    -16.584  0.1079E+01  0.7982E+01
    -16.485  0.1741E+00  0.7999E+01
    -16.385  0.7685E-02  0.8000E+01
    -16.286  0.6880E-04  0.8000E+01
    -16.186  0.1064E-06  0.8000E+01
    -16.087  0.2611E-10  0.8000E+01
    -15.988  0.9679E-15  0.8000E+01
    -15.888  0.1660E-13  0.8000E+01
    -15.789  0.2473E-09  0.8000E+01
    -15.689  0.5415E-06  0.8000E+01
    -15.590  0.1827E-03  0.8000E+01
    -15.491  0.1049E-01  0.8001E+01
    -15.391  0.1244E+00  0.8013E+01
    -15.292  0.4175E+00  0.8055E+01
    -15.192  0.6385E+00  0.8118E+01
    -15.093  0.7998E+00  0.8198E+01
    -14.993  0.9851E+00  0.8296E+01
    -14.894  0.1504E+01  0.8445E+01
    -14.795  0.2795E+01  0.8723E+01
    -14.695  0.3977E+01  0.9119E+01
    -14.596  0.3321E+01  0.9449E+01
    -14.496  0.2922E+01  0.9739E+01
    -14.397  0.3049E+01  0.1004E+02
    -14.298  0.2906E+01  0.1033E+02
    -14.198  0.2868E+01  0.1062E+02
    -14.099  0.3155E+01  0.1093E+02
    -13.999  0.3658E+01  0.1129E+02
    -13.900  0.3232E+01  0.1161E+02
    -13.801  0.2222E+01  0.1184E+02
    -13.701  0.1262E+01  0.1196E+02
    -13.602  0.3610E+00  0.1200E+02
    -13.502  0.2946E-01  0.1200E+02
    -13.403  0.5123E-03  0.1200E+02
    -13.304  0.1624E-05  0.1200E+02
    -13.204  0.9170E-09  0.1200E+02
    -13.105  0.2884E-06  0.1200E+02
    -13.005  0.1875E-03  0.1200E+02
    -12.906  0.2078E-01  0.1200E+02
    -12.806  0.4350E+00  0.1205E+02
    -12.707  0.2111E+01  0.1226E+02
    -12.608  0.3778E+01  0.1263E+02
    -12.508  0.4798E+01  0.1311E+02
    -12.409  0.5336E+01  0.1364E+02
    -12.309  0.5495E+01  0.1418E+02
    -12.210  0.5006E+01  0.1468E+02
    -12.111  0.4257E+01  0.1511E+02
    -12.011  0.3894E+01  0.1549E+02
    -11.912  0.3697E+01  0.1586E+02
    -11.812  0.3550E+01  0.1621E+02
    -11.713  0.3525E+01  0.1656E+02
    -11.614  0.3311E+01  0.1689E+02
    -11.514  0.3294E+01  0.1722E+02
    -11.415  0.3764E+01  0.1759E+02
    -11.315  0.4780E+01  0.1807E+02
    -11.216  0.5009E+01  0.1857E+02
    -11.117  0.4413E+01  0.1901E+02
    -11.017  0.4302E+01  0.1943E+02
    -10.918  0.4024E+01  0.1983E+02
    -10.818  0.3359E+01  0.2017E+02
    -10.719  0.2913E+01  0.2046E+02
    -10.619  0.3107E+01  0.2077E+02
    -10.520  0.3600E+01  0.2112E+02
    -10.421  0.2756E+01  0.2140E+02
    -10.321  0.1757E+01  0.2157E+02
    -10.222  0.1465E+01  0.2172E+02
    -10.122  0.1258E+01  0.2184E+02
    -10.023  0.1374E+01  0.2198E+02
     -9.924  0.1476E+01  0.2213E+02
     -9.824  0.1668E+01  0.2229E+02
     -9.725  0.1873E+01  0.2248E+02
     -9.625  0.2645E+01  0.2274E+02
     -9.526  0.3450E+01  0.2308E+02
     -9.427  0.3013E+01  0.2338E+02
     -9.327  0.2252E+01  0.2361E+02
     -9.228  0.1581E+01  0.2376E+02
     -9.128  0.1362E+01  0.2390E+02
     -9.029  0.1338E+01  0.2403E+02
     -8.930  0.1779E+01  0.2421E+02
     -8.830  0.2455E+01  0.2445E+02
     -8.731  0.3505E+01  0.2480E+02
     -8.631  0.5702E+01  0.2537E+02
     -8.532  0.7208E+01  0.2609E+02
     -8.432  0.7607E+01  0.2684E+02
     -8.333  0.8020E+01  0.2764E+02
     -8.234  0.8112E+01  0.2845E+02
     -8.134  0.7578E+01  0.2920E+02
     -8.035  0.7617E+01  0.2996E+02
     -7.935  0.7772E+01  0.3073E+02
     -7.836  0.6233E+01  0.3135E+02
     -7.737  0.4494E+01  0.3179E+02
     -7.637  0.3610E+01  0.3215E+02
     -7.538  0.3276E+01  0.3248E+02
     -7.438  0.2586E+01  0.3274E+02
     -7.339  0.1967E+01  0.3293E+02
     -7.240  0.2135E+01  0.3314E+02
     -7.140  0.1980E+01  0.3334E+02
     -7.041  0.1835E+01  0.3352E+02
     -6.941  0.2879E+01  0.3381E+02
     -6.842  0.4352E+01  0.3424E+02
     -6.743  0.5389E+01  0.3478E+02
     -6.643  0.5120E+01  0.3529E+02
     -6.544  0.4255E+01  0.3571E+02
     -6.444  0.3951E+01  0.3610E+02
     -6.345  0.4154E+01  0.3652E+02
     -6.245  0.4732E+01  0.3699E+02
     -6.146  0.5068E+01  0.3749E+02
     -6.047  0.4306E+01  0.3792E+02
     -5.947  0.3673E+01  0.3828E+02
     -5.848  0.2613E+01  0.3854E+02
     -5.748  0.1473E+01  0.3869E+02
     -5.649  0.9820E+00  0.3879E+02
     -5.550  0.5683E+00  0.3884E+02
     -5.450  0.4429E+00  0.3889E+02
     -5.351  0.7877E+00  0.3897E+02
     -5.251  0.1132E+01  0.3908E+02
     -5.152  0.8611E+00  0.3916E+02
     -5.053  0.6268E+00  0.3923E+02
     -4.953  0.9035E+00  0.3932E+02
     -4.854  0.2161E+01  0.3953E+02
     -4.754  0.4826E+01  0.4001E+02
     -4.655  0.6106E+01  0.4062E+02
     -4.556  0.5886E+01  0.4120E+02
     -4.456  0.6342E+01  0.4183E+02
     -4.357  0.7760E+01  0.4260E+02
     -4.257  0.6352E+01  0.4324E+02
     -4.158  0.2922E+01  0.4353E+02
     -4.058  0.1090E+01  0.4363E+02
     -3.959  0.6097E+00  0.4370E+02
     -3.860  0.4451E+00  0.4374E+02
     -3.760  0.3918E+00  0.4378E+02
     -3.661  0.4310E+00  0.4382E+02
     -3.561  0.3042E+00  0.4385E+02
     -3.462  0.2606E+00  0.4388E+02
     -3.363  0.2488E+00  0.4390E+02
     -3.263  0.3260E+00  0.4393E+02
     -3.164  0.2205E+00  0.4396E+02
     -3.064  0.1714E+00  0.4397E+02
     -2.965  0.1843E+00  0.4399E+02
     -2.866  0.7337E-01  0.4400E+02
     -2.766  0.6963E-02  0.4400E+02
     -2.667  0.1192E-03  0.4400E+02
     -2.567  0.3231E-06  0.4400E+02
     -2.468  0.1307E-09  0.4400E+02
     -2.369  0.7694E-14  0.4400E+02
     -2.269  0.0000E+00  0.4400E+02
     -2.170  0.0000E+00  0.4400E+02
     -2.070  0.1386E-13  0.4400E+02
     -1.971  0.2132E-09  0.4400E+02
     -1.871  0.4810E-06  0.4400E+02
     -1.772  0.1658E-03  0.4400E+02
     -1.673  0.9420E-02  0.4400E+02
     -1.573  0.1003E+00  0.4401E+02
     -1.474  0.2473E+00  0.4404E+02
     -1.374  0.2517E+00  0.4406E+02
     -1.275  0.3854E+00  0.4410E+02
     -1.176  0.8250E+00  0.4418E+02
     -1.076  0.1972E+01  0.4438E+02
     -0.977  0.3865E+01  0.4476E+02
     -0.877  0.5494E+01  0.4531E+02
     -0.778  0.6020E+01  0.4591E+02
     -0.679  0.6617E+01  0.4656E+02
     -0.579  0.7063E+01  0.4727E+02
     -0.480  0.5991E+01  0.4786E+02
     -0.380  0.5205E+01  0.4838E+02
     -0.281  0.5227E+01  0.4890E+02
     -0.182  0.4563E+01  0.4935E+02
     -0.082  0.3882E+01  0.4974E+02
      0.017  0.4610E+01  0.5020E+02
      0.117  0.5343E+01  0.5073E+02
      0.216  0.4362E+01  0.5116E+02
      0.316  0.4520E+01  0.5161E+02
      0.415  0.5478E+01  0.5215E+02
      0.514  0.5171E+01  0.5267E+02
      0.614  0.5286E+01  0.5319E+02
      0.713  0.6241E+01  0.5381E+02
      0.813  0.5905E+01  0.5440E+02
      0.912  0.4393E+01  0.5484E+02
      1.011  0.3925E+01  0.5523E+02
      1.111  0.3839E+01  0.5561E+02
      1.210  0.4252E+01  0.5603E+02
      1.310  0.4983E+01  0.5653E+02
      1.409  0.5193E+01  0.5704E+02
      1.508  0.5979E+01  0.5764E+02
      1.608  0.8117E+01  0.5845E+02
      1.707  0.1034E+02  0.5947E+02
      1.807  0.1085E+02  0.6055E+02
      1.906  0.1027E+02  0.6157E+02
      2.005  0.8851E+01  0.6245E+02
      2.105  0.8217E+01  0.6327E+02
      2.204  0.8126E+01  0.6408E+02
      2.304  0.7961E+01  0.6487E+02
      2.403  0.7528E+01  0.6562E+02
      2.502  0.8597E+01  0.6647E+02
      2.602  0.1110E+02  0.6758E+02
      2.701  0.1123E+02  0.6869E+02
      2.801  0.1123E+02  0.6981E+02
      2.900  0.1196E+02  0.7100E+02
      3.000  0.1193E+02  0.7218E+02
      3.099  0.1220E+02  0.7340E+02
      3.198  0.1211E+02  0.7460E+02
      3.298  0.1071E+02  0.7566E+02
      3.397  0.1017E+02  0.7667E+02
      3.497  0.1016E+02  0.7768E+02
      3.596  0.9774E+01  0.7866E+02
      3.695  0.9190E+01  0.7957E+02
      3.795  0.7155E+01  0.8028E+02
      3.894  0.6123E+01  0.8089E+02
      3.994  0.6321E+01  0.8152E+02
      4.093  0.6054E+01  0.8212E+02
      4.192  0.4907E+01  0.8261E+02
      4.292  0.3723E+01  0.8298E+02
      4.391  0.3026E+01  0.8328E+02
      4.491  0.2393E+01  0.8352E+02
      4.590  0.2010E+01  0.8372E+02
      4.689  0.1302E+01  0.8384E+02
      4.789  0.8006E+00  0.8392E+02
      4.888  0.4512E+00  0.8397E+02
      4.988  0.1495E+00  0.8398E+02
      5.087  0.1176E+00  0.8400E+02
      5.187  0.3910E-01  0.8400E+02
      5.286  0.2371E-02  0.8400E+02
      5.385  0.2347E-04  0.8400E+02
      5.485  0.3558E-07  0.8400E+02
      5.584  0.7961E-11  0.8400E+02
      5.684  0.2482E-15  0.8400E+02
      5.783  0.0000E+00  0.8400E+02
      5.882  0.0000E+00  0.8400E+02
      5.982  0.0000E+00  0.8400E+02
      6.081  0.0000E+00  0.8400E+02
      6.181  0.0000E+00  0.8400E+02
      6.280  0.0000E+00  0.8400E+02
      6.379  0.0000E+00  0.8400E+02
      6.37943935    -23.44321047  301     -4.43334101      1.00000000
    -23.443  0.0000E+00  0.0000E+00  0.0000E+00  0.0000E+00  0.0000E+00  0.0000E+00  0.0000E+00  0.0000E+00  0.0000E+00
    -23.344  0.0000E+00  0.0000E+00  0.0000E+00  0.0000E+00  0.0000E+00  0.0000E+00  0.0000E+00  0.0000E+00  0.0000E+00
    -23.244  0.0000E+00  0.0000E+00  0.0000E+00  0.0000E+00  0.0000E+00  0.0000E+00  0.0000E+00  0.0000E+00  0.0000E+00
    -23.145  0.0000E+00  0.0000E+00  0.0000E+00  0.0000E+00  0.0000E+00  0.0000E+00  0.0000E+00  0.0000E+00  0.0000E+00
    -23.046  0.0000E+00  0.0000E+00  0.0000E+00  0.0000E+00  0.0000E+00  0.0000E+00  0.0000E+00  0.0000E+00  0.0000E+00
    -22.946  0.0000E+00  0.0000E+00  0.0000E+00  0.0000E+00  0.0000E+00  0.0000E+00  0.0000E+00  0.0000E+00  0.0000E+00
    -22.847  0.0000E+00  0.0000E+00  0.0000E+00  0.0000E+00  0.0000E+00  0.0000E+00  0.0000E+00  0.0000E+00  0.0000E+00
    -22.747  0.0000E+00  0.0000E+00  0.0000E+00  0.0000E+00  0.0000E+00  0.0000E+00  0.0000E+00  0.0000E+00  0.0000E+00
    -22.648  0.3518E-16  0.2200E-18  0.1064E-24  0.4979E-17  0.0000E+00  0.0000E+00  0.0000E+00  0.0000E+00  0.0000E+00
    -22.549  0.1274E-11  0.8090E-14  0.3858E-20  0.1809E-12  0.0000E+00  0.0000E+00  0.0000E+00  0.0000E+00  0.0000E+00
    -22.449  0.6904E-08  0.4452E-10  0.2093E-16  0.9827E-09  0.0000E+00  0.0000E+00  0.0000E+00  0.0000E+00  0.0000E+00
    -22.350  0.5861E-05  0.3873E-07  0.1781E-13  0.8382E-06  0.0000E+00  0.0000E+00  0.0000E+00  0.0000E+00  0.0000E+00
    -22.250  0.8389E-03  0.5769E-05  0.2561E-11  0.1209E-03  0.0000E+00  0.0000E+00  0.0000E+00  0.0000E+00  0.0000E+00
    -22.151  0.2302E-01  0.1694E-03  0.7084E-10  0.3366E-02  0.0000E+00  0.0000E+00  0.0000E+00  0.0000E+00  0.0000E+00
    -22.051  0.1477E+00  0.1214E-02  0.4616E-09  0.2220E-01  0.0000E+00  0.0000E+00  0.0000E+00  0.0000E+00  0.0000E+00
    -21.952  0.2871E+00  0.2825E-02  0.9308E-09  0.4595E-01  0.0000E+00  0.0000E+00  0.0000E+00  0.0000E+00  0.0000E+00
    -21.853  0.2511E+00  0.3357E-02  0.8878E-09  0.4626E-01  0.0000E+00  0.0000E+00  0.0000E+00  0.0000E+00  0.0000E+00
    -21.753  0.1816E+00  0.3629E-02  0.7415E-09  0.4140E-01  0.0000E+00  0.0000E+00  0.0000E+00  0.0000E+00  0.0000E+00
    -21.654  0.1491E+00  0.4335E-02  0.7127E-09  0.4187E-01  0.0000E+00  0.0000E+00  0.0000E+00  0.0000E+00  0.0000E+00
    -21.554  0.1336E+00  0.5530E-02  0.7539E-09  0.4585E-01  0.0000E+00  0.0000E+00  0.0000E+00  0.0000E+00  0.0000E+00
    -21.455  0.1284E+00  0.7647E-02  0.8767E-09  0.5433E-01  0.0000E+00  0.0000E+00  0.0000E+00  0.0000E+00  0.0000E+00
    -21.356  0.1373E+00  0.1199E-01  0.1173E-08  0.7280E-01  0.0000E+00  0.0000E+00  0.0000E+00  0.0000E+00  0.0000E+00
    -21.256  0.1438E+00  0.1647E-01  0.1474E-08  0.9091E-01  0.0000E+00  0.0000E+00  0.0000E+00  0.0000E+00  0.0000E+00
    -21.157  0.9577E-01  0.1237E-01  0.1088E-08  0.6687E-01  0.0000E+00  0.0000E+00  0.0000E+00  0.0000E+00  0.0000E+00
    -21.057  0.2803E-01  0.3802E-02  0.3363E-09  0.2067E-01  0.0000E+00  0.0000E+00  0.0000E+00  0.0000E+00  0.0000E+00
    -20.958  0.2495E-02  0.3464E-03  0.3079E-10  0.1893E-02  0.0000E+00  0.0000E+00  0.0000E+00  0.0000E+00  0.0000E+00
    -20.859  0.4908E-04  0.6899E-05  0.6145E-12  0.3778E-04  0.0000E+00  0.0000E+00  0.0000E+00  0.0000E+00  0.0000E+00
    -20.759  0.1751E-06  0.2480E-07  0.2211E-14  0.1359E-06  0.0000E+00  0.0000E+00  0.0000E+00  0.0000E+00  0.0000E+00
    -20.660  0.1019E-09  0.1449E-10  0.1293E-17  0.7947E-10  0.0000E+00  0.0000E+00  0.0000E+00  0.0000E+00  0.0000E+00
    -20.560  0.9118E-14  0.1301E-14  0.1161E-21  0.7135E-14  0.0000E+00  0.0000E+00  0.0000E+00  0.0000E+00  0.0000E+00
    -20.461  0.0000E+00  0.0000E+00  0.0000E+00  0.0000E+00  0.0000E+00  0.0000E+00  0.0000E+00  0.0000E+00  0.0000E+00
    -20.362  0.0000E+00  0.0000E+00  0.0000E+00  0.0000E+00  0.0000E+00  0.0000E+00  0.0000E+00  0.0000E+00  0.0000E+00
    -20.262  0.0000E+00  0.0000E+00  0.0000E+00  0.0000E+00  0.0000E+00  0.0000E+00  0.0000E+00  0.0000E+00  0.0000E+00
    -20.163  0.0000E+00  0.0000E+00  0.0000E+00  0.0000E+00  0.0000E+00  0.0000E+00  0.0000E+00  0.0000E+00  0.0000E+00
    -20.063  0.0000E+00  0.0000E+00  0.0000E+00  0.0000E+00  0.0000E+00  0.0000E+00  0.0000E+00  0.0000E+00  0.0000E+00
    -19.964  0.0000E+00  0.0000E+00  0.0000E+00  0.0000E+00  0.0000E+00  0.0000E+00  0.0000E+00  0.0000E+00  0.0000E+00
    -19.864  0.0000E+00  0.0000E+00  0.0000E+00  0.0000E+00  0.0000E+00  0.0000E+00  0.0000E+00  0.0000E+00  0.0000E+00
    -19.765  0.0000E+00  0.0000E+00  0.0000E+00  0.0000E+00  0.0000E+00  0.0000E+00  0.0000E+00  0.0000E+00  0.0000E+00
    -19.666  0.0000E+00  0.0000E+00  0.0000E+00  0.0000E+00  0.0000E+00  0.0000E+00  0.0000E+00  0.0000E+00  0.0000E+00
    -19.566  0.0000E+00  0.0000E+00  0.0000E+00  0.0000E+00  0.0000E+00  0.0000E+00  0.0000E+00  0.0000E+00  0.0000E+00
    -19.467  0.0000E+00  0.0000E+00  0.0000E+00  0.0000E+00  0.0000E+00  0.0000E+00  0.0000E+00  0.0000E+00  0.0000E+00
    -19.367  0.0000E+00  0.0000E+00  0.0000E+00  0.0000E+00  0.0000E+00  0.0000E+00  0.0000E+00  0.0000E+00  0.0000E+00
    -19.268  0.0000E+00  0.0000E+00  0.0000E+00  0.0000E+00  0.0000E+00  0.0000E+00  0.0000E+00  0.0000E+00  0.0000E+00
    -19.169  0.0000E+00  0.0000E+00  0.0000E+00  0.0000E+00  0.0000E+00  0.0000E+00  0.0000E+00  0.0000E+00  0.0000E+00
    -19.069  0.0000E+00  0.0000E+00  0.0000E+00  0.0000E+00  0.0000E+00  0.0000E+00  0.0000E+00  0.0000E+00  0.0000E+00
    -18.970  0.0000E+00  0.0000E+00  0.0000E+00  0.0000E+00  0.0000E+00  0.0000E+00  0.0000E+00  0.0000E+00  0.0000E+00
    -18.870  0.0000E+00  0.0000E+00  0.0000E+00  0.0000E+00  0.0000E+00  0.0000E+00  0.0000E+00  0.0000E+00  0.0000E+00
    -18.771  0.0000E+00  0.0000E+00  0.0000E+00  0.0000E+00  0.0000E+00  0.0000E+00  0.0000E+00  0.0000E+00  0.0000E+00
    -18.672  0.0000E+00  0.0000E+00  0.0000E+00  0.0000E+00  0.0000E+00  0.0000E+00  0.0000E+00  0.0000E+00  0.0000E+00
    -18.572  0.0000E+00  0.0000E+00  0.0000E+00  0.0000E+00  0.0000E+00  0.0000E+00  0.0000E+00  0.0000E+00  0.0000E+00
    -18.473  0.0000E+00  0.0000E+00  0.0000E+00  0.0000E+00  0.0000E+00  0.0000E+00  0.0000E+00  0.0000E+00  0.0000E+00
    -18.373  0.0000E+00  0.0000E+00  0.0000E+00  0.0000E+00  0.0000E+00  0.0000E+00  0.0000E+00  0.0000E+00  0.0000E+00
    -18.274  0.0000E+00  0.0000E+00  0.0000E+00  0.0000E+00  0.0000E+00  0.0000E+00  0.0000E+00  0.0000E+00  0.0000E+00
    -18.175  0.0000E+00  0.0000E+00  0.0000E+00  0.0000E+00  0.0000E+00  0.0000E+00  0.0000E+00  0.0000E+00  0.0000E+00
    -18.075  0.0000E+00  0.0000E+00  0.0000E+00  0.0000E+00  0.0000E+00  0.0000E+00  0.0000E+00  0.0000E+00  0.0000E+00
    -17.976  0.0000E+00  0.0000E+00  0.0000E+00  0.0000E+00  0.0000E+00  0.0000E+00  0.0000E+00  0.0000E+00  0.0000E+00
    -17.876  0.1659E-17  0.4507E-18  0.3231E-26  0.9252E-21  0.0000E+00  0.0000E+00  0.0000E+00  0.0000E+00  0.0000E+00
    -17.777  0.1259E-12  0.3380E-13  0.2449E-21  0.9287E-16  0.0000E+00  0.0000E+00  0.0000E+00  0.0000E+00  0.0000E+00
    -17.677  0.1084E-08  0.2913E-09  0.2110E-17  0.9250E-12  0.0000E+00  0.0000E+00  0.0000E+00  0.0000E+00  0.0000E+00
    -17.578  0.1440E-05  0.3875E-06  0.2806E-14  0.1481E-08  0.0000E+00  0.0000E+00  0.0000E+00  0.0000E+00  0.0000E+00
    -17.479  0.3133E-03  0.8445E-04  0.6117E-12  0.4119E-06  0.0000E+00  0.0000E+00  0.0000E+00  0.0000E+00  0.0000E+00
    -17.379  0.1243E-01  0.3360E-02  0.2434E-10  0.2272E-04  0.0000E+00  0.0000E+00  0.0000E+00  0.0000E+00  0.0000E+00
    -17.280  0.1090E+00  0.2962E-01  0.2151E-09  0.3103E-03  0.0000E+00  0.0000E+00  0.0000E+00  0.0000E+00  0.0000E+00
    -17.180  0.3022E+00  0.8211E-01  0.6059E-09  0.1483E-02  0.0000E+00  0.0000E+00  0.0000E+00  0.0000E+00  0.0000E+00
    -17.081  0.4867E+00  0.1271E+00  0.1006E-08  0.3866E-02  0.0000E+00  0.0000E+00  0.0000E+00  0.0000E+00  0.0000E+00
    -16.982  0.6361E+00  0.1746E+00  0.1340E-08  0.7451E-02  0.0000E+00  0.0000E+00  0.0000E+00  0.0000E+00  0.0000E+00
    -16.882  0.4969E+00  0.2113E+00  0.1030E-08  0.1118E-01  0.0000E+00  0.0000E+00  0.0000E+00  0.0000E+00  0.0000E+00
    -16.783  0.2458E+00  0.1753E+00  0.4906E-09  0.1177E-01  0.0000E+00  0.0000E+00  0.0000E+00  0.0000E+00  0.0000E+00
    -16.683  0.9617E-01  0.9780E-01  0.1849E-09  0.8593E-02  0.0000E+00  0.0000E+00  0.0000E+00  0.0000E+00  0.0000E+00
    -16.584  0.2694E-01  0.3725E-01  0.4789E-10  0.3841E-02  0.0000E+00  0.0000E+00  0.0000E+00  0.0000E+00  0.0000E+00
    -16.485  0.3730E-02  0.6190E-02  0.6098E-11  0.6756E-03  0.0000E+00  0.0000E+00  0.0000E+00  0.0000E+00  0.0000E+00
    -16.385  0.1544E-03  0.2769E-03  0.2396E-12  0.3077E-04  0.0000E+00  0.0000E+00  0.0000E+00  0.0000E+00  0.0000E+00
    -16.286  0.1346E-05  0.2494E-05  0.2028E-14  0.2789E-06  0.0000E+00  0.0000E+00  0.0000E+00  0.0000E+00  0.0000E+00
    -16.186  0.2055E-08  0.3869E-08  0.3046E-17  0.4340E-09  0.0000E+00  0.0000E+00  0.0000E+00  0.0000E+00  0.0000E+00
    -16.087  0.5006E-12  0.9511E-12  0.7346E-21  0.1068E-12  0.0000E+00  0.0000E+00  0.0000E+00  0.0000E+00  0.0000E+00
    -15.988  0.1847E-16  0.3531E-16  0.2690E-25  0.3969E-17  0.0000E+00  0.0000E+00  0.0000E+00  0.0000E+00  0.0000E+00
    -15.888  0.1010E-16  0.6706E-16  0.3649E-23  0.4734E-15  0.0000E+00  0.0000E+00  0.0000E+00  0.0000E+00  0.0000E+00
    -15.789  0.1513E-12  0.9991E-12  0.5434E-19  0.7050E-11  0.0000E+00  0.0000E+00  0.0000E+00  0.0000E+00  0.0000E+00
    -15.689  0.3372E-09  0.2191E-08  0.1190E-15  0.1544E-07  0.0000E+00  0.0000E+00  0.0000E+00  0.0000E+00  0.0000E+00
    -15.590  0.1214E-06  0.7414E-06  0.4019E-13  0.5210E-05  0.0000E+00  0.0000E+00  0.0000E+00  0.0000E+00  0.0000E+00
    -15.491  0.8542E-05  0.4277E-04  0.2316E-11  0.2991E-03  0.0000E+00  0.0000E+00  0.0000E+00  0.0000E+00  0.0000E+00
    -15.391  0.1565E-03  0.5102E-03  0.2788E-10  0.3545E-02  0.0000E+00  0.0000E+00  0.0000E+00  0.0000E+00  0.0000E+00
    -15.292  0.9150E-03  0.1727E-02  0.9692E-10  0.1189E-01  0.0000E+00  0.0000E+00  0.0000E+00  0.0000E+00  0.0000E+00
    -15.192  0.2505E-02  0.2665E-02  0.1598E-09  0.1813E-01  0.0000E+00  0.0000E+00  0.0000E+00  0.0000E+00  0.0000E+00
    -15.093  0.5115E-02  0.3343E-02  0.2261E-09  0.2247E-01  0.0000E+00  0.0000E+00  0.0000E+00  0.0000E+00  0.0000E+00
    -14.993  0.9334E-02  0.4272E-02  0.3316E-09  0.2678E-01  0.0000E+00  0.0000E+00  0.0000E+00  0.0000E+00  0.0000E+00
    -14.894  0.2156E-01  0.7900E-02  0.6585E-09  0.3691E-01  0.0000E+00  0.0000E+00  0.0000E+00  0.0000E+00  0.0000E+00
    -14.795  0.5734E-01  0.2119E-01  0.1638E-08  0.5485E-01  0.0000E+00  0.0000E+00  0.0000E+00  0.0000E+00  0.0000E+00
    -14.695  0.9027E-01  0.3561E-01  0.2583E-08  0.6977E-01  0.0000E+00  0.0000E+00  0.0000E+00  0.0000E+00  0.0000E+00
    -14.596  0.7244E-01  0.3219E-01  0.2171E-08  0.5910E-01  0.0000E+00  0.0000E+00  0.0000E+00  0.0000E+00  0.0000E+00
    -14.496  0.6186E-01  0.2990E-01  0.1915E-08  0.5502E-01  0.0000E+00  0.0000E+00  0.0000E+00  0.0000E+00  0.0000E+00
    -14.397  0.7888E-01  0.3593E-01  0.2253E-08  0.5311E-01  0.0000E+00  0.0000E+00  0.0000E+00  0.0000E+00  0.0000E+00
    -14.298  0.9562E-01  0.4066E-01  0.2595E-08  0.4283E-01  0.0000E+00  0.0000E+00  0.0000E+00  0.0000E+00  0.0000E+00
    -14.198  0.1022E+00  0.4337E-01  0.2837E-08  0.4124E-01  0.0000E+00  0.0000E+00  0.0000E+00  0.0000E+00  0.0000E+00
    -14.099  0.1156E+00  0.4904E-01  0.3320E-08  0.4783E-01  0.0000E+00  0.0000E+00  0.0000E+00  0.0000E+00  0.0000E+00
    -13.999  0.1367E+00  0.5621E-01  0.4079E-08  0.5969E-01  0.0000E+00  0.0000E+00  0.0000E+00  0.0000E+00  0.0000E+00
    -13.900  0.1176E+00  0.4994E-01  0.3774E-08  0.5555E-01  0.0000E+00  0.0000E+00  0.0000E+00  0.0000E+00  0.0000E+00
    -13.801  0.7262E-01  0.3483E-01  0.2709E-08  0.4061E-01  0.0000E+00  0.0000E+00  0.0000E+00  0.0000E+00  0.0000E+00
    -13.701  0.3741E-01  0.1992E-01  0.1609E-08  0.2420E-01  0.0000E+00  0.0000E+00  0.0000E+00  0.0000E+00  0.0000E+00
    -13.602  0.1039E-01  0.5721E-02  0.4758E-09  0.7045E-02  0.0000E+00  0.0000E+00  0.0000E+00  0.0000E+00  0.0000E+00
    -13.502  0.8428E-03  0.4667E-03  0.3953E-10  0.5786E-03  0.0000E+00  0.0000E+00  0.0000E+00  0.0000E+00  0.0000E+00
    -13.403  0.1463E-04  0.8105E-05  0.6950E-12  0.1011E-04  0.0000E+00  0.0000E+00  0.0000E+00  0.0000E+00  0.0000E+00
    -13.304  0.4633E-07  0.2566E-07  0.2218E-14  0.3213E-07  0.0000E+00  0.0000E+00  0.0000E+00  0.0000E+00  0.0000E+00
    -13.204  0.2469E-10  0.1673E-10  0.1180E-17  0.1753E-10  0.0000E+00  0.0000E+00  0.0000E+00  0.0000E+00  0.0000E+00
    -13.105  0.2272E-08  0.1379E-07  0.6443E-15  0.3087E-08  0.0000E+00  0.0000E+00  0.0000E+00  0.0000E+00  0.0000E+00
    -13.005  0.1456E-05  0.9033E-05  0.1031E-10  0.1985E-05  0.0000E+00  0.0000E+00  0.0000E+00  0.0000E+00  0.0000E+00
    -12.906  0.1586E-03  0.1008E-02  0.2850E-07  0.2180E-03  0.0000E+00  0.0000E+00  0.0000E+00  0.0000E+00  0.0000E+00
    -12.806  0.3278E-02  0.2117E-01  0.1259E-04  0.4584E-02  0.0000E+00  0.0000E+00  0.0000E+00  0.0000E+00  0.0000E+00
    -12.707  0.1579E-01  0.1005E+00  0.9622E-03  0.2307E-01  0.0000E+00  0.0000E+00  0.0000E+00  0.0000E+00  0.0000E+00
    -12.608  0.2636E-01  0.1560E+00  0.1477E-01  0.4209E-01  0.0000E+00  0.0000E+00  0.0000E+00  0.0000E+00  0.0000E+00
    -12.508  0.2582E-01  0.1364E+00  0.5948E-01  0.4569E-01  0.0000E+00  0.0000E+00  0.0000E+00  0.0000E+00  0.0000E+00
    -12.409  0.2195E-01  0.1046E+00  0.1012E+00  0.4152E-01  0.0000E+00  0.0000E+00  0.0000E+00  0.0000E+00  0.0000E+00
    -12.309  0.1944E-01  0.8624E-01  0.1212E+00  0.3931E-01  0.0000E+00  0.0000E+00  0.0000E+00  0.0000E+00  0.0000E+00
    -12.210  0.1886E-01  0.7856E-01  0.1084E+00  0.3916E-01  0.0000E+00  0.0000E+00  0.0000E+00  0.0000E+00  0.0000E+00
    -12.111  0.1767E-01  0.7289E-01  0.8381E-01  0.3861E-01  0.0000E+00  0.0000E+00  0.0000E+00  0.0000E+00  0.0000E+00
    -12.011  0.1779E-01  0.7029E-01  0.7022E-01  0.4017E-01  0.0000E+00  0.0000E+00  0.0000E+00  0.0000E+00  0.0000E+00
    -11.912  0.1806E-01  0.6912E-01  0.6272E-01  0.4109E-01  0.0000E+00  0.0000E+00  0.0000E+00  0.0000E+00  0.0000E+00
    -11.812  0.1698E-01  0.6685E-01  0.5798E-01  0.4057E-01  0.0000E+00  0.0000E+00  0.0000E+00  0.0000E+00  0.0000E+00
    -11.713  0.1816E-01  0.6367E-01  0.5491E-01  0.4337E-01  0.0000E+00  0.0000E+00  0.0000E+00  0.0000E+00  0.0000E+00
    -11.614  0.1871E-01  0.4483E-01  0.5304E-01  0.4241E-01  0.0000E+00  0.0000E+00  0.0000E+00  0.0000E+00  0.0000E+00
    -11.514  0.2053E-01  0.2782E-01  0.5297E-01  0.4202E-01  0.0000E+00  0.0000E+00  0.0000E+00  0.0000E+00  0.0000E+00
    -11.415  0.2906E-01  0.2491E-01  0.5631E-01  0.4380E-01  0.0000E+00  0.0000E+00  0.0000E+00  0.0000E+00  0.0000E+00
    -11.315  0.4147E-01  0.2898E-01  0.6425E-01  0.5095E-01  0.0000E+00  0.0000E+00  0.0000E+00  0.0000E+00  0.0000E+00
    -11.216  0.4438E-01  0.2995E-01  0.6288E-01  0.5195E-01  0.0000E+00  0.0000E+00  0.0000E+00  0.0000E+00  0.0000E+00
    -11.117  0.4532E-01  0.3153E-01  0.4860E-01  0.5362E-01  0.0000E+00  0.0000E+00  0.0000E+00  0.0000E+00  0.0000E+00
    -11.017  0.5142E-01  0.4097E-01  0.3771E-01  0.6718E-01  0.0000E+00  0.0000E+00  0.0000E+00  0.0000E+00  0.0000E+00
    -10.918  0.5265E-01  0.4176E-01  0.3087E-01  0.6674E-01  0.0000E+00  0.0000E+00  0.0000E+00  0.0000E+00  0.0000E+00
    -10.818  0.4411E-01  0.3700E-01  0.2524E-01  0.5313E-01  0.0000E+00  0.0000E+00  0.0000E+00  0.0000E+00  0.0000E+00
    -10.719  0.4716E-01  0.3369E-01  0.1665E-01  0.4651E-01  0.0000E+00  0.0000E+00  0.0000E+00  0.0000E+00  0.0000E+00
    -10.619  0.6430E-01  0.3780E-01  0.5236E-02  0.6527E-01  0.0000E+00  0.0000E+00  0.0000E+00  0.0000E+00  0.0000E+00
    -10.520  0.7462E-01  0.4210E-01  0.4742E-03  0.9312E-01  0.0000E+00  0.0000E+00  0.0000E+00  0.0000E+00  0.0000E+00
    -10.421  0.5313E-01  0.3182E-01  0.9108E-05  0.7947E-01  0.0000E+00  0.0000E+00  0.0000E+00  0.0000E+00  0.0000E+00
    -10.321  0.3282E-01  0.2197E-01  0.3261E-07  0.5360E-01  0.0000E+00  0.0000E+00  0.0000E+00  0.0000E+00  0.0000E+00
    -10.222  0.2662E-01  0.1797E-01  0.1268E-08  0.4767E-01  0.0000E+00  0.0000E+00  0.0000E+00  0.0000E+00  0.0000E+00
    -10.122  0.2265E-01  0.1429E-01  0.1127E-08  0.4367E-01  0.0000E+00  0.0000E+00  0.0000E+00  0.0000E+00  0.0000E+00
    -10.023  0.2174E-01  0.1800E-01  0.1338E-08  0.4922E-01  0.0000E+00  0.0000E+00  0.0000E+00  0.0000E+00  0.0000E+00
     -9.924  0.2271E-01  0.1805E-01  0.1291E-08  0.5730E-01  0.0000E+00  0.0000E+00  0.0000E+00  0.0000E+00  0.0000E+00
     -9.824  0.2552E-01  0.1598E-01  0.1216E-08  0.7166E-01  0.0000E+00  0.0000E+00  0.0000E+00  0.0000E+00  0.0000E+00
     -9.725  0.2588E-01  0.1316E-01  0.1604E-08  0.8163E-01  0.0000E+00  0.0000E+00  0.0000E+00  0.0000E+00  0.0000E+00
     -9.625  0.2942E-01  0.1291E-01  0.3613E-08  0.1100E+00  0.0000E+00  0.0000E+00  0.0000E+00  0.0000E+00  0.0000E+00
     -9.526  0.3059E-01  0.1655E-01  0.6148E-08  0.1440E+00  0.0000E+00  0.0000E+00  0.0000E+00  0.0000E+00  0.0000E+00
     -9.427  0.2240E-01  0.1701E-01  0.5502E-08  0.1359E+00  0.0000E+00  0.0000E+00  0.0000E+00  0.0000E+00  0.0000E+00
     -9.327  0.1297E-01  0.1477E-01  0.4140E-08  0.1065E+00  0.0000E+00  0.0000E+00  0.0000E+00  0.0000E+00  0.0000E+00
     -9.228  0.7556E-02  0.1491E-01  0.3174E-08  0.6737E-01  0.0000E+00  0.0000E+00  0.0000E+00  0.0000E+00  0.0000E+00
     -9.128  0.6181E-02  0.2026E-01  0.3189E-08  0.4844E-01  0.0000E+00  0.0000E+00  0.0000E+00  0.0000E+00  0.0000E+00
     -9.029  0.6286E-02  0.2251E-01  0.1437E-06  0.3990E-01  0.0000E+00  0.0000E+00  0.0000E+00  0.0000E+00  0.0000E+00
     -8.930  0.1260E-01  0.2721E-01  0.4300E-04  0.4311E-01  0.0000E+00  0.0000E+00  0.0000E+00  0.0000E+00  0.0000E+00
     -8.830  0.2288E-01  0.3246E-01  0.2327E-02  0.4881E-01  0.0000E+00  0.0000E+00  0.0000E+00  0.0000E+00  0.0000E+00
     -8.731  0.2874E-01  0.3620E-01  0.2634E-01  0.5390E-01  0.0000E+00  0.0000E+00  0.0000E+00  0.0000E+00  0.0000E+00
     -8.631  0.3635E-01  0.4653E-01  0.8348E-01  0.6278E-01  0.0000E+00  0.0000E+00  0.0000E+00  0.0000E+00  0.0000E+00
     -8.532  0.4175E-01  0.5423E-01  0.1217E+00  0.7357E-01  0.0000E+00  0.0000E+00  0.0000E+00  0.0000E+00  0.0000E+00
     -8.432  0.3786E-01  0.5274E-01  0.1447E+00  0.7330E-01  0.0000E+00  0.0000E+00  0.0000E+00  0.0000E+00  0.0000E+00
     -8.333  0.3133E-01  0.5251E-01  0.1768E+00  0.6882E-01  0.0000E+00  0.0000E+00  0.0000E+00  0.0000E+00  0.0000E+00
     -8.234  0.2731E-01  0.5515E-01  0.1832E+00  0.6559E-01  0.0000E+00  0.0000E+00  0.0000E+00  0.0000E+00  0.0000E+00
     -8.134  0.2557E-01  0.5689E-01  0.1554E+00  0.6425E-01  0.0000E+00  0.0000E+00  0.0000E+00  0.0000E+00  0.0000E+00
     -8.035  0.2302E-01  0.5669E-01  0.1403E+00  0.7270E-01  0.0000E+00  0.0000E+00  0.0000E+00  0.0000E+00  0.0000E+00
     -7.935  0.2554E-01  0.6690E-01  0.1306E+00  0.7540E-01  0.0000E+00  0.0000E+00  0.0000E+00  0.0000E+00  0.0000E+00
     -7.836  0.2710E-01  0.6226E-01  0.1001E+00  0.5548E-01  0.0000E+00  0.0000E+00  0.0000E+00  0.0000E+00  0.0000E+00
     -7.737  0.2394E-01  0.4796E-01  0.6410E-01  0.4363E-01  0.0000E+00  0.0000E+00  0.0000E+00  0.0000E+00  0.0000E+00
     -7.637  0.2545E-01  0.4714E-01  0.3967E-01  0.4110E-01  0.0000E+00  0.0000E+00  0.0000E+00  0.0000E+00  0.0000E+00
     -7.538  0.3010E-01  0.5777E-01  0.2303E-01  0.4247E-01  0.0000E+00  0.0000E+00  0.0000E+00  0.0000E+00  0.0000E+00
     -7.438  0.2950E-01  0.4557E-01  0.1125E-01  0.4443E-01  0.0000E+00  0.0000E+00  0.0000E+00  0.0000E+00  0.0000E+00
     -7.339  0.2587E-01  0.3362E-01  0.5290E-02  0.4129E-01  0.0000E+00  0.0000E+00  0.0000E+00  0.0000E+00  0.0000E+00
     -7.240  0.2981E-01  0.5433E-01  0.1961E-02  0.4216E-01  0.0000E+00  0.0000E+00  0.0000E+00  0.0000E+00  0.0000E+00
     -7.140  0.2950E-01  0.5189E-01  0.1015E-02  0.4333E-01  0.0000E+00  0.0000E+00  0.0000E+00  0.0000E+00  0.0000E+00
     -7.041  0.2342E-01  0.3873E-01  0.7757E-02  0.3801E-01  0.0000E+00  0.0000E+00  0.0000E+00  0.0000E+00  0.0000E+00
     -6.941  0.1762E-01  0.5702E-01  0.3653E-01  0.2216E-01  0.0000E+00  0.0000E+00  0.0000E+00  0.0000E+00  0.0000E+00
     -6.842  0.1424E-01  0.6649E-01  0.7790E-01  0.1454E-01  0.0000E+00  0.0000E+00  0.0000E+00  0.0000E+00  0.0000E+00
     -6.743  0.1422E-01  0.7062E-01  0.1055E+00  0.1650E-01  0.0000E+00  0.0000E+00  0.0000E+00  0.0000E+00  0.0000E+00
     -6.643  0.1333E-01  0.6782E-01  0.9879E-01  0.2009E-01  0.0000E+00  0.0000E+00  0.0000E+00  0.0000E+00  0.0000E+00
     -6.544  0.8165E-02  0.3813E-01  0.8971E-01  0.1758E-01  0.0000E+00  0.0000E+00  0.0000E+00  0.0000E+00  0.0000E+00
     -6.444  0.5295E-02  0.2366E-01  0.8987E-01  0.1440E-01  0.0000E+00  0.0000E+00  0.0000E+00  0.0000E+00  0.0000E+00
     -6.345  0.4352E-02  0.2033E-01  0.9583E-01  0.1344E-01  0.0000E+00  0.0000E+00  0.0000E+00  0.0000E+00  0.0000E+00
     -6.245  0.4852E-02  0.2151E-01  0.9592E-01  0.1700E-01  0.0000E+00  0.0000E+00  0.0000E+00  0.0000E+00  0.0000E+00
     -6.146  0.5006E-02  0.2210E-01  0.9363E-01  0.1868E-01  0.0000E+00  0.0000E+00  0.0000E+00  0.0000E+00  0.0000E+00
     -6.047  0.3665E-02  0.1811E-01  0.8793E-01  0.1460E-01  0.0000E+00  0.0000E+00  0.0000E+00  0.0000E+00  0.0000E+00
     -5.947  0.3301E-02  0.1935E-01  0.7747E-01  0.1407E-01  0.0000E+00  0.0000E+00  0.0000E+00  0.0000E+00  0.0000E+00
     -5.848  0.2287E-02  0.1321E-01  0.5584E-01  0.1052E-01  0.0000E+00  0.0000E+00  0.0000E+00  0.0000E+00  0.0000E+00
     -5.748  0.3603E-02  0.1880E-01  0.1944E-01  0.1775E-01  0.0000E+00  0.0000E+00  0.0000E+00  0.0000E+00  0.0000E+00
     -5.649  0.4174E-02  0.2404E-01  0.1962E-02  0.2080E-01  0.0000E+00  0.0000E+00  0.0000E+00  0.0000E+00  0.0000E+00
     -5.550  0.2287E-02  0.1514E-01  0.4227E-04  0.1117E-01  0.0000E+00  0.0000E+00  0.0000E+00  0.0000E+00  0.0000E+00
     -5.450  0.1552E-02  0.1140E-01  0.1637E-06  0.7249E-02  0.0000E+00  0.0000E+00  0.0000E+00  0.0000E+00  0.0000E+00
     -5.351  0.2892E-02  0.1938E-01  0.2030E-08  0.1480E-01  0.0000E+00  0.0000E+00  0.0000E+00  0.0000E+00  0.0000E+00
     -5.251  0.4412E-02  0.2679E-01  0.3320E-08  0.2176E-01  0.0000E+00  0.0000E+00  0.0000E+00  0.0000E+00  0.0000E+00
     -5.152  0.3380E-02  0.2010E-01  0.1673E-08  0.1186E-01  0.0000E+00  0.0000E+00  0.0000E+00  0.0000E+00  0.0000E+00
     -5.053  0.2006E-02  0.1480E-01  0.1177E-08  0.6210E-02  0.0000E+00  0.0000E+00  0.0000E+00  0.0000E+00  0.0000E+00
     -4.953  0.2248E-02  0.1817E-01  0.3404E-08  0.9514E-02  0.0000E+00  0.0000E+00  0.0000E+00  0.0000E+00  0.0000E+00
     -4.854  0.5794E-02  0.1981E-01  0.8536E-08  0.1464E-01  0.0000E+00  0.0000E+00  0.0000E+00  0.0000E+00  0.0000E+00
     -4.754  0.1598E-01  0.1490E-01  0.2078E-07  0.1003E-01  0.0000E+00  0.0000E+00  0.0000E+00  0.0000E+00  0.0000E+00
     -4.655  0.2245E-01  0.1285E-01  0.2948E-07  0.6220E-02  0.0000E+00  0.0000E+00  0.0000E+00  0.0000E+00  0.0000E+00
     -4.556  0.1950E-01  0.1701E-01  0.3075E-07  0.9778E-02  0.0000E+00  0.0000E+00  0.0000E+00  0.0000E+00  0.0000E+00
     -4.456  0.1460E-01  0.1863E-01  0.3446E-07  0.1590E-01  0.0000E+00  0.0000E+00  0.0000E+00  0.0000E+00  0.0000E+00
     -4.357  0.1093E-01  0.1747E-01  0.4315E-07  0.1829E-01  0.0000E+00  0.0000E+00  0.0000E+00  0.0000E+00  0.0000E+00
     -4.257  0.7360E-02  0.1814E-01  0.3195E-07  0.1591E-01  0.0000E+00  0.0000E+00  0.0000E+00  0.0000E+00  0.0000E+00
     -4.158  0.4413E-02  0.1888E-01  0.1183E-07  0.1038E-01  0.0000E+00  0.0000E+00  0.0000E+00  0.0000E+00  0.0000E+00
     -4.058  0.2536E-02  0.1581E-01  0.3658E-08  0.7775E-02  0.0000E+00  0.0000E+00  0.0000E+00  0.0000E+00  0.0000E+00
     -3.959  0.1698E-02  0.1336E-01  0.1649E-08  0.6964E-02  0.0000E+00  0.0000E+00  0.0000E+00  0.0000E+00  0.0000E+00
     -3.860  0.1136E-02  0.1278E-01  0.1374E-08  0.4881E-02  0.0000E+00  0.0000E+00  0.0000E+00  0.0000E+00  0.0000E+00
     -3.760  0.9229E-03  0.1228E-01  0.2133E-08  0.4926E-02  0.0000E+00  0.0000E+00  0.0000E+00  0.0000E+00  0.0000E+00
     -3.661  0.1001E-02  0.1309E-01  0.1490E-08  0.6886E-02  0.0000E+00  0.0000E+00  0.0000E+00  0.0000E+00  0.0000E+00
     -3.561  0.6237E-03  0.9681E-02  0.4786E-09  0.4220E-02  0.0000E+00  0.0000E+00  0.0000E+00  0.0000E+00  0.0000E+00
     -3.462  0.3923E-03  0.9069E-02  0.2483E-09  0.2392E-02  0.0000E+00  0.0000E+00  0.0000E+00  0.0000E+00  0.0000E+00
     -3.363  0.3376E-03  0.8419E-02  0.3279E-09  0.2908E-02  0.0000E+00  0.0000E+00  0.0000E+00  0.0000E+00  0.0000E+00
     -3.263  0.3913E-03  0.1094E-01  0.6078E-09  0.3972E-02  0.0000E+00  0.0000E+00  0.0000E+00  0.0000E+00  0.0000E+00
     -3.164  0.2237E-03  0.7596E-02  0.3958E-09  0.2201E-02  0.0000E+00  0.0000E+00  0.0000E+00  0.0000E+00  0.0000E+00
     -3.064  0.9284E-04  0.6153E-02  0.2639E-09  0.1018E-02  0.0000E+00  0.0000E+00  0.0000E+00  0.0000E+00  0.0000E+00
     -2.965  0.7517E-04  0.6618E-02  0.4731E-09  0.1018E-02  0.0000E+00  0.0000E+00  0.0000E+00  0.0000E+00  0.0000E+00
     -2.866  0.2700E-04  0.2625E-02  0.2478E-09  0.4155E-03  0.0000E+00  0.0000E+00  0.0000E+00  0.0000E+00  0.0000E+00
     -2.766  0.2476E-05  0.2487E-03  0.2535E-10  0.3977E-04  0.0000E+00  0.0000E+00  0.0000E+00  0.0000E+00  0.0000E+00
     -2.667  0.4209E-07  0.4259E-05  0.4408E-12  0.6822E-06  0.0000E+00  0.0000E+00  0.0000E+00  0.0000E+00  0.0000E+00
     -2.567  0.1139E-09  0.1154E-07  0.1198E-14  0.1849E-08  0.0000E+00  0.0000E+00  0.0000E+00  0.0000E+00  0.0000E+00
     -2.468  0.4607E-13  0.4668E-11  0.4848E-18  0.7482E-12  0.0000E+00  0.0000E+00  0.0000E+00  0.0000E+00  0.0000E+00
     -2.369  0.2711E-17  0.2747E-15  0.2853E-22  0.4403E-16  0.0000E+00  0.0000E+00  0.0000E+00  0.0000E+00  0.0000E+00
     -2.269  0.0000E+00  0.0000E+00  0.0000E+00  0.0000E+00  0.0000E+00  0.0000E+00  0.0000E+00  0.0000E+00  0.0000E+00
     -2.170  0.0000E+00  0.0000E+00  0.0000E+00  0.0000E+00  0.0000E+00  0.0000E+00  0.0000E+00  0.0000E+00  0.0000E+00
     -2.070  0.4312E-16  0.1244E-15  0.1838E-22  0.1278E-14  0.0000E+00  0.0000E+00  0.0000E+00  0.0000E+00  0.0000E+00
     -1.971  0.6639E-12  0.1913E-11  0.2818E-18  0.1966E-10  0.0000E+00  0.0000E+00  0.0000E+00  0.0000E+00  0.0000E+00
     -1.871  0.1503E-08  0.4319E-08  0.6313E-15  0.4437E-07  0.0000E+00  0.0000E+00  0.0000E+00  0.0000E+00  0.0000E+00
     -1.772  0.5222E-06  0.1491E-05  0.2136E-12  0.1529E-04  0.0000E+00  0.0000E+00  0.0000E+00  0.0000E+00  0.0000E+00
     -1.673  0.3020E-04  0.8492E-04  0.1164E-10  0.8688E-03  0.0000E+00  0.0000E+00  0.0000E+00  0.0000E+00  0.0000E+00
     -1.573  0.3331E-03  0.9092E-03  0.1210E-09  0.9244E-02  0.0000E+00  0.0000E+00  0.0000E+00  0.0000E+00  0.0000E+00
     -1.474  0.8918E-03  0.2282E-02  0.2012E-07  0.2278E-01  0.0000E+00  0.0000E+00  0.0000E+00  0.0000E+00  0.0000E+00
     -1.374  0.1065E-02  0.2528E-02  0.9403E-05  0.2277E-01  0.0000E+00  0.0000E+00  0.0000E+00  0.0000E+00  0.0000E+00
     -1.275  0.1665E-02  0.4401E-02  0.7940E-03  0.3115E-01  0.0000E+00  0.0000E+00  0.0000E+00  0.0000E+00  0.0000E+00
     -1.176  0.2490E-02  0.6166E-02  0.1358E-01  0.4085E-01  0.0000E+00  0.0000E+00  0.0000E+00  0.0000E+00  0.0000E+00
     -1.076  0.2385E-02  0.4722E-02  0.5984E-01  0.3032E-01  0.0000E+00  0.0000E+00  0.0000E+00  0.0000E+00  0.0000E+00
     -0.977  0.3345E-02  0.6523E-02  0.1089E+00  0.3582E-01  0.0000E+00  0.0000E+00  0.0000E+00  0.0000E+00  0.0000E+00
     -0.877  0.5494E-02  0.1157E-01  0.1367E+00  0.5502E-01  0.0000E+00  0.0000E+00  0.0000E+00  0.0000E+00  0.0000E+00
     -0.778  0.6207E-02  0.1106E-01  0.1429E+00  0.5224E-01  0.0000E+00  0.0000E+00  0.0000E+00  0.0000E+00  0.0000E+00
     -0.679  0.7785E-02  0.1149E-01  0.1466E+00  0.4768E-01  0.0000E+00  0.0000E+00  0.0000E+00  0.0000E+00  0.0000E+00
     -0.579  0.1261E-01  0.1901E-01  0.1452E+00  0.7171E-01  0.0000E+00  0.0000E+00  0.0000E+00  0.0000E+00  0.0000E+00
     -0.480  0.1713E-01  0.2393E-01  0.1133E+00  0.8316E-01  0.0000E+00  0.0000E+00  0.0000E+00  0.0000E+00  0.0000E+00
     -0.380  0.2611E-01  0.3200E-01  0.8348E-01  0.1014E+00  0.0000E+00  0.0000E+00  0.0000E+00  0.0000E+00  0.0000E+00
     -0.281  0.3842E-01  0.4405E-01  0.7522E-01  0.1288E+00  0.0000E+00  0.0000E+00  0.0000E+00  0.0000E+00  0.0000E+00
     -0.182  0.3803E-01  0.4053E-01  0.6431E-01  0.1042E+00  0.0000E+00  0.0000E+00  0.0000E+00  0.0000E+00  0.0000E+00
     -0.082  0.2996E-01  0.2782E-01  0.6921E-01  0.5613E-01  0.0000E+00  0.0000E+00  0.0000E+00  0.0000E+00  0.0000E+00
      0.017  0.2651E-01  0.2241E-01  0.1124E+00  0.3671E-01  0.0000E+00  0.0000E+00  0.0000E+00  0.0000E+00  0.0000E+00
      0.117  0.2603E-01  0.2225E-01  0.1263E+00  0.3431E-01  0.0000E+00  0.0000E+00  0.0000E+00  0.0000E+00  0.0000E+00
      0.216  0.2592E-01  0.2242E-01  0.8559E-01  0.3327E-01  0.0000E+00  0.0000E+00  0.0000E+00  0.0000E+00  0.0000E+00
      0.316  0.2512E-01  0.2095E-01  0.9126E-01  0.2805E-01  0.0000E+00  0.0000E+00  0.0000E+00  0.0000E+00  0.0000E+00
      0.415  0.2667E-01  0.2355E-01  0.1149E+00  0.2840E-01  0.0000E+00  0.0000E+00  0.0000E+00  0.0000E+00  0.0000E+00
      0.514  0.3039E-01  0.3545E-01  0.9796E-01  0.2834E-01  0.0000E+00  0.0000E+00  0.0000E+00  0.0000E+00  0.0000E+00
      0.614  0.4050E-01  0.5651E-01  0.9263E-01  0.2929E-01  0.0000E+00  0.0000E+00  0.0000E+00  0.0000E+00  0.0000E+00
      0.713  0.5177E-01  0.6779E-01  0.1214E+00  0.3146E-01  0.0000E+00  0.0000E+00  0.0000E+00  0.0000E+00  0.0000E+00
      0.813  0.5813E-01  0.7001E-01  0.1045E+00  0.3493E-01  0.0000E+00  0.0000E+00  0.0000E+00  0.0000E+00  0.0000E+00
      0.912  0.5490E-01  0.6292E-01  0.5299E-01  0.3683E-01  0.0000E+00  0.0000E+00  0.0000E+00  0.0000E+00  0.0000E+00
      1.011  0.5131E-01  0.5781E-01  0.3113E-01  0.3746E-01  0.0000E+00  0.0000E+00  0.0000E+00  0.0000E+00  0.0000E+00
      1.111  0.4517E-01  0.5004E-01  0.1917E-01  0.3417E-01  0.0000E+00  0.0000E+00  0.0000E+00  0.0000E+00  0.0000E+00
      1.210  0.4182E-01  0.4715E-01  0.7859E-02  0.3209E-01  0.0000E+00  0.0000E+00  0.0000E+00  0.0000E+00  0.0000E+00
      1.310  0.3695E-01  0.4443E-01  0.8685E-02  0.3065E-01  0.0000E+00  0.0000E+00  0.0000E+00  0.0000E+00  0.0000E+00
      1.409  0.2741E-01  0.3354E-01  0.1771E-01  0.2442E-01  0.0000E+00  0.0000E+00  0.0000E+00  0.0000E+00  0.0000E+00
      1.508  0.3045E-01  0.3069E-01  0.2918E-01  0.1574E-01  0.0000E+00  0.0000E+00  0.0000E+00  0.0000E+00  0.0000E+00
      1.608  0.4595E-01  0.4275E-01  0.3738E-01  0.1217E-01  0.0000E+00  0.0000E+00  0.0000E+00  0.0000E+00  0.0000E+00
      1.707  0.5343E-01  0.4866E-01  0.5204E-01  0.1443E-01  0.0000E+00  0.0000E+00  0.0000E+00  0.0000E+00  0.0000E+00
      1.807  0.5593E-01  0.4363E-01  0.6304E-01  0.1426E-01  0.0000E+00  0.0000E+00  0.0000E+00  0.0000E+00  0.0000E+00
      1.906  0.6423E-01  0.4603E-01  0.5700E-01  0.1386E-01  0.0000E+00  0.0000E+00  0.0000E+00  0.0000E+00  0.0000E+00
      2.005  0.5286E-01  0.3875E-01  0.4576E-01  0.1091E-01  0.0000E+00  0.0000E+00  0.0000E+00  0.0000E+00  0.0000E+00
      2.105  0.4408E-01  0.3329E-01  0.3726E-01  0.9363E-02  0.0000E+00  0.0000E+00  0.0000E+00  0.0000E+00  0.0000E+00
      2.204  0.3641E-01  0.2837E-01  0.4528E-01  0.7742E-02  0.0000E+00  0.0000E+00  0.0000E+00  0.0000E+00  0.0000E+00
      2.304  0.2613E-01  0.2186E-01  0.5804E-01  0.5226E-02  0.0000E+00  0.0000E+00  0.0000E+00  0.0000E+00  0.0000E+00
      2.403  0.2229E-01  0.1941E-01  0.5369E-01  0.4171E-02  0.0000E+00  0.0000E+00  0.0000E+00  0.0000E+00  0.0000E+00
      2.502  0.3828E-01  0.3416E-01  0.3792E-01  0.8153E-02  0.0000E+00  0.0000E+00  0.0000E+00  0.0000E+00  0.0000E+00
      2.602  0.5986E-01  0.5680E-01  0.3322E-01  0.1387E-01  0.0000E+00  0.0000E+00  0.0000E+00  0.0000E+00  0.0000E+00
      2.701  0.5606E-01  0.5821E-01  0.3450E-01  0.1332E-01  0.0000E+00  0.0000E+00  0.0000E+00  0.0000E+00  0.0000E+00
      2.801  0.4300E-01  0.4673E-01  0.3873E-01  0.1065E-01  0.0000E+00  0.0000E+00  0.0000E+00  0.0000E+00  0.0000E+00
      2.900  0.3197E-01  0.3960E-01  0.4654E-01  0.1049E-01  0.0000E+00  0.0000E+00  0.0000E+00  0.0000E+00  0.0000E+00
      3.000  0.2353E-01  0.3166E-01  0.5393E-01  0.9283E-02  0.0000E+00  0.0000E+00  0.0000E+00  0.0000E+00  0.0000E+00
      3.099  0.1979E-01  0.2441E-01  0.5090E-01  0.9028E-02  0.0000E+00  0.0000E+00  0.0000E+00  0.0000E+00  0.0000E+00
      3.198  0.2077E-01  0.2336E-01  0.4061E-01  0.1020E-01  0.0000E+00  0.0000E+00  0.0000E+00  0.0000E+00  0.0000E+00
      3.298  0.1786E-01  0.1856E-01  0.3247E-01  0.8842E-02  0.0000E+00  0.0000E+00  0.0000E+00  0.0000E+00  0.0000E+00
      3.397  0.1622E-01  0.1618E-01  0.2730E-01  0.9912E-02  0.0000E+00  0.0000E+00  0.0000E+00  0.0000E+00  0.0000E+00
      3.497  0.2044E-01  0.1509E-01  0.2430E-01  0.1224E-01  0.0000E+00  0.0000E+00  0.0000E+00  0.0000E+00  0.0000E+00
      3.596  0.2376E-01  0.1450E-01  0.1913E-01  0.1149E-01  0.0000E+00  0.0000E+00  0.0000E+00  0.0000E+00  0.0000E+00
      3.695  0.2304E-01  0.1399E-01  0.1965E-01  0.1051E-01  0.0000E+00  0.0000E+00  0.0000E+00  0.0000E+00  0.0000E+00
      3.795  0.1974E-01  0.9662E-02  0.1868E-01  0.7009E-02  0.0000E+00  0.0000E+00  0.0000E+00  0.0000E+00  0.0000E+00
      3.894  0.1663E-01  0.7726E-02  0.1461E-01  0.5387E-02  0.0000E+00  0.0000E+00  0.0000E+00  0.0000E+00  0.0000E+00
      3.994  0.1461E-01  0.8352E-02  0.1362E-01  0.5636E-02  0.0000E+00  0.0000E+00  0.0000E+00  0.0000E+00  0.0000E+00
      4.093  0.1386E-01  0.7379E-02  0.1431E-01  0.5188E-02  0.0000E+00  0.0000E+00  0.0000E+00  0.0000E+00  0.0000E+00
      4.192  0.1062E-01  0.4077E-02  0.1296E-01  0.3286E-02  0.0000E+00  0.0000E+00  0.0000E+00  0.0000E+00  0.0000E+00
      4.292  0.8075E-02  0.1992E-02  0.1075E-01  0.1983E-02  0.0000E+00  0.0000E+00  0.0000E+00  0.0000E+00  0.0000E+00
      4.391  0.6187E-02  0.1358E-02  0.9332E-02  0.1670E-02  0.0000E+00  0.0000E+00  0.0000E+00  0.0000E+00  0.0000E+00
      4.491  0.4422E-02  0.1247E-02  0.7648E-02  0.1795E-02  0.0000E+00  0.0000E+00  0.0000E+00  0.0000E+00  0.0000E+00
      4.590  0.3412E-02  0.1149E-02  0.5195E-02  0.1684E-02  0.0000E+00  0.0000E+00  0.0000E+00  0.0000E+00  0.0000E+00
      4.689  0.1816E-02  0.6577E-03  0.2832E-02  0.9911E-03  0.0000E+00  0.0000E+00  0.0000E+00  0.0000E+00  0.0000E+00
      4.789  0.7086E-03  0.4162E-03  0.1599E-02  0.4662E-03  0.0000E+00  0.0000E+00  0.0000E+00  0.0000E+00  0.0000E+00
      4.888  0.2967E-03  0.2366E-03  0.7723E-03  0.1867E-03  0.0000E+00  0.0000E+00  0.0000E+00  0.0000E+00  0.0000E+00
      4.988  0.6180E-04  0.6229E-04  0.1607E-03  0.3266E-04  0.0000E+00  0.0000E+00  0.0000E+00  0.0000E+00  0.0000E+00
      5.087  0.1937E-04  0.4407E-04  0.8442E-04  0.1165E-04  0.0000E+00  0.0000E+00  0.0000E+00  0.0000E+00  0.0000E+00
      5.187  0.5978E-05  0.1464E-04  0.2767E-04  0.3702E-05  0.0000E+00  0.0000E+00  0.0000E+00  0.0000E+00  0.0000E+00
      5.286  0.3620E-06  0.8875E-06  0.1677E-05  0.2243E-06  0.0000E+00  0.0000E+00  0.0000E+00  0.0000E+00  0.0000E+00
      5.385  0.3583E-08  0.8785E-08  0.1660E-07  0.2220E-08  0.0000E+00  0.0000E+00  0.0000E+00  0.0000E+00  0.0000E+00
      5.485  0.5433E-11  0.1332E-10  0.2518E-10  0.3367E-11  0.0000E+00  0.0000E+00  0.0000E+00  0.0000E+00  0.0000E+00
      5.584  0.1215E-14  0.2980E-14  0.5633E-14  0.7532E-15  0.0000E+00  0.0000E+00  0.0000E+00  0.0000E+00  0.0000E+00
      5.684  0.3789E-19  0.9291E-19  0.1756E-18  0.2348E-19  0.0000E+00  0.0000E+00  0.0000E+00  0.0000E+00  0.0000E+00
      5.783  0.0000E+00  0.0000E+00  0.0000E+00  0.0000E+00  0.0000E+00  0.0000E+00  0.0000E+00  0.0000E+00  0.0000E+00
      5.882  0.0000E+00  0.0000E+00  0.0000E+00  0.0000E+00  0.0000E+00  0.0000E+00  0.0000E+00  0.0000E+00  0.0000E+00
      5.982  0.0000E+00  0.0000E+00  0.0000E+00  0.0000E+00  0.0000E+00  0.0000E+00  0.0000E+00  0.0000E+00  0.0000E+00
      6.081  0.0000E+00  0.0000E+00  0.0000E+00  0.0000E+00  0.0000E+00  0.0000E+00  0.0000E+00  0.0000E+00  0.0000E+00
      6.181  0.0000E+00  0.0000E+00  0.0000E+00  0.0000E+00  0.0000E+00  0.0000E+00  0.0000E+00  0.0000E+00  0.0000E+00
      6.280  0.0000E+00  0.0000E+00  0.0000E+00  0.0000E+00  0.0000E+00  0.0000E+00  0.0000E+00  0.0000E+00  0.0000E+00
      6.379  0.0000E+00  0.0000E+00  0.0000E+00  0.0000E+00  0.0000E+00  0.0000E+00  0.0000E+00  0.0000E+00  0.0000E+00
      6.37943935    -23.44321047  301     -4.43334101      1.00000000
    -23.443  0.0000E+00  0.0000E+00  0.0000E+00  0.0000E+00  0.0000E+00  0.0000E+00  0.0000E+00  0.0000E+00  0.0000E+00
    -23.344  0.0000E+00  0.0000E+00  0.0000E+00  0.0000E+00  0.0000E+00  0.0000E+00  0.0000E+00  0.0000E+00  0.0000E+00
    -23.244  0.0000E+00  0.0000E+00  0.0000E+00  0.0000E+00  0.0000E+00  0.0000E+00  0.0000E+00  0.0000E+00  0.0000E+00
    -23.145  0.0000E+00  0.0000E+00  0.0000E+00  0.0000E+00  0.0000E+00  0.0000E+00  0.0000E+00  0.0000E+00  0.0000E+00
    -23.046  0.0000E+00  0.0000E+00  0.0000E+00  0.0000E+00  0.0000E+00  0.0000E+00  0.0000E+00  0.0000E+00  0.0000E+00
    -22.946  0.0000E+00  0.0000E+00  0.0000E+00  0.0000E+00  0.0000E+00  0.0000E+00  0.0000E+00  0.0000E+00  0.0000E+00
    -22.847  0.0000E+00  0.0000E+00  0.0000E+00  0.0000E+00  0.0000E+00  0.0000E+00  0.0000E+00  0.0000E+00  0.0000E+00
    -22.747  0.0000E+00  0.0000E+00  0.0000E+00  0.0000E+00  0.0000E+00  0.0000E+00  0.0000E+00  0.0000E+00  0.0000E+00
    -22.648  0.3518E-16  0.2200E-18  0.1064E-24  0.4979E-17  0.0000E+00  0.0000E+00  0.0000E+00  0.0000E+00  0.0000E+00
    -22.549  0.1274E-11  0.8090E-14  0.3858E-20  0.1809E-12  0.0000E+00  0.0000E+00  0.0000E+00  0.0000E+00  0.0000E+00
    -22.449  0.6904E-08  0.4452E-10  0.2093E-16  0.9827E-09  0.0000E+00  0.0000E+00  0.0000E+00  0.0000E+00  0.0000E+00
    -22.350  0.5861E-05  0.3873E-07  0.1781E-13  0.8382E-06  0.0000E+00  0.0000E+00  0.0000E+00  0.0000E+00  0.0000E+00
    -22.250  0.8389E-03  0.5769E-05  0.2561E-11  0.1209E-03  0.0000E+00  0.0000E+00  0.0000E+00  0.0000E+00  0.0000E+00
    -22.151  0.2302E-01  0.1694E-03  0.7084E-10  0.3366E-02  0.0000E+00  0.0000E+00  0.0000E+00  0.0000E+00  0.0000E+00
    -22.051  0.1477E+00  0.1214E-02  0.4616E-09  0.2220E-01  0.0000E+00  0.0000E+00  0.0000E+00  0.0000E+00  0.0000E+00
    -21.952  0.2871E+00  0.2825E-02  0.9308E-09  0.4595E-01  0.0000E+00  0.0000E+00  0.0000E+00  0.0000E+00  0.0000E+00
    -21.853  0.2511E+00  0.3357E-02  0.8878E-09  0.4626E-01  0.0000E+00  0.0000E+00  0.0000E+00  0.0000E+00  0.0000E+00
    -21.753  0.1816E+00  0.3629E-02  0.7415E-09  0.4140E-01  0.0000E+00  0.0000E+00  0.0000E+00  0.0000E+00  0.0000E+00
    -21.654  0.1491E+00  0.4335E-02  0.7127E-09  0.4187E-01  0.0000E+00  0.0000E+00  0.0000E+00  0.0000E+00  0.0000E+00
    -21.554  0.1336E+00  0.5530E-02  0.7539E-09  0.4585E-01  0.0000E+00  0.0000E+00  0.0000E+00  0.0000E+00  0.0000E+00
    -21.455  0.1284E+00  0.7647E-02  0.8767E-09  0.5433E-01  0.0000E+00  0.0000E+00  0.0000E+00  0.0000E+00  0.0000E+00
    -21.356  0.1373E+00  0.1199E-01  0.1173E-08  0.7280E-01  0.0000E+00  0.0000E+00  0.0000E+00  0.0000E+00  0.0000E+00
    -21.256  0.1438E+00  0.1647E-01  0.1474E-08  0.9091E-01  0.0000E+00  0.0000E+00  0.0000E+00  0.0000E+00  0.0000E+00
    -21.157  0.9577E-01  0.1237E-01  0.1088E-08  0.6687E-01  0.0000E+00  0.0000E+00  0.0000E+00  0.0000E+00  0.0000E+00
    -21.057  0.2803E-01  0.3802E-02  0.3363E-09  0.2067E-01  0.0000E+00  0.0000E+00  0.0000E+00  0.0000E+00  0.0000E+00
    -20.958  0.2495E-02  0.3464E-03  0.3079E-10  0.1893E-02  0.0000E+00  0.0000E+00  0.0000E+00  0.0000E+00  0.0000E+00
    -20.859  0.4908E-04  0.6899E-05  0.6145E-12  0.3778E-04  0.0000E+00  0.0000E+00  0.0000E+00  0.0000E+00  0.0000E+00
    -20.759  0.1751E-06  0.2480E-07  0.2211E-14  0.1359E-06  0.0000E+00  0.0000E+00  0.0000E+00  0.0000E+00  0.0000E+00
    -20.660  0.1019E-09  0.1449E-10  0.1293E-17  0.7947E-10  0.0000E+00  0.0000E+00  0.0000E+00  0.0000E+00  0.0000E+00
    -20.560  0.9118E-14  0.1301E-14  0.1161E-21  0.7135E-14  0.0000E+00  0.0000E+00  0.0000E+00  0.0000E+00  0.0000E+00
    -20.461  0.0000E+00  0.0000E+00  0.0000E+00  0.0000E+00  0.0000E+00  0.0000E+00  0.0000E+00  0.0000E+00  0.0000E+00
    -20.362  0.0000E+00  0.0000E+00  0.0000E+00  0.0000E+00  0.0000E+00  0.0000E+00  0.0000E+00  0.0000E+00  0.0000E+00
    -20.262  0.0000E+00  0.0000E+00  0.0000E+00  0.0000E+00  0.0000E+00  0.0000E+00  0.0000E+00  0.0000E+00  0.0000E+00
    -20.163  0.0000E+00  0.0000E+00  0.0000E+00  0.0000E+00  0.0000E+00  0.0000E+00  0.0000E+00  0.0000E+00  0.0000E+00
    -20.063  0.0000E+00  0.0000E+00  0.0000E+00  0.0000E+00  0.0000E+00  0.0000E+00  0.0000E+00  0.0000E+00  0.0000E+00
    -19.964  0.0000E+00  0.0000E+00  0.0000E+00  0.0000E+00  0.0000E+00  0.0000E+00  0.0000E+00  0.0000E+00  0.0000E+00
    -19.864  0.0000E+00  0.0000E+00  0.0000E+00  0.0000E+00  0.0000E+00  0.0000E+00  0.0000E+00  0.0000E+00  0.0000E+00
    -19.765  0.0000E+00  0.0000E+00  0.0000E+00  0.0000E+00  0.0000E+00  0.0000E+00  0.0000E+00  0.0000E+00  0.0000E+00
    -19.666  0.0000E+00  0.0000E+00  0.0000E+00  0.0000E+00  0.0000E+00  0.0000E+00  0.0000E+00  0.0000E+00  0.0000E+00
    -19.566  0.0000E+00  0.0000E+00  0.0000E+00  0.0000E+00  0.0000E+00  0.0000E+00  0.0000E+00  0.0000E+00  0.0000E+00
    -19.467  0.0000E+00  0.0000E+00  0.0000E+00  0.0000E+00  0.0000E+00  0.0000E+00  0.0000E+00  0.0000E+00  0.0000E+00
    -19.367  0.0000E+00  0.0000E+00  0.0000E+00  0.0000E+00  0.0000E+00  0.0000E+00  0.0000E+00  0.0000E+00  0.0000E+00
    -19.268  0.0000E+00  0.0000E+00  0.0000E+00  0.0000E+00  0.0000E+00  0.0000E+00  0.0000E+00  0.0000E+00  0.0000E+00
    -19.169  0.0000E+00  0.0000E+00  0.0000E+00  0.0000E+00  0.0000E+00  0.0000E+00  0.0000E+00  0.0000E+00  0.0000E+00
    -19.069  0.0000E+00  0.0000E+00  0.0000E+00  0.0000E+00  0.0000E+00  0.0000E+00  0.0000E+00  0.0000E+00  0.0000E+00
    -18.970  0.0000E+00  0.0000E+00  0.0000E+00  0.0000E+00  0.0000E+00  0.0000E+00  0.0000E+00  0.0000E+00  0.0000E+00
    -18.870  0.0000E+00  0.0000E+00  0.0000E+00  0.0000E+00  0.0000E+00  0.0000E+00  0.0000E+00  0.0000E+00  0.0000E+00
    -18.771  0.0000E+00  0.0000E+00  0.0000E+00  0.0000E+00  0.0000E+00  0.0000E+00  0.0000E+00  0.0000E+00  0.0000E+00
    -18.672  0.0000E+00  0.0000E+00  0.0000E+00  0.0000E+00  0.0000E+00  0.0000E+00  0.0000E+00  0.0000E+00  0.0000E+00
    -18.572  0.0000E+00  0.0000E+00  0.0000E+00  0.0000E+00  0.0000E+00  0.0000E+00  0.0000E+00  0.0000E+00  0.0000E+00
    -18.473  0.0000E+00  0.0000E+00  0.0000E+00  0.0000E+00  0.0000E+00  0.0000E+00  0.0000E+00  0.0000E+00  0.0000E+00
    -18.373  0.0000E+00  0.0000E+00  0.0000E+00  0.0000E+00  0.0000E+00  0.0000E+00  0.0000E+00  0.0000E+00  0.0000E+00
    -18.274  0.0000E+00  0.0000E+00  0.0000E+00  0.0000E+00  0.0000E+00  0.0000E+00  0.0000E+00  0.0000E+00  0.0000E+00
    -18.175  0.0000E+00  0.0000E+00  0.0000E+00  0.0000E+00  0.0000E+00  0.0000E+00  0.0000E+00  0.0000E+00  0.0000E+00
    -18.075  0.0000E+00  0.0000E+00  0.0000E+00  0.0000E+00  0.0000E+00  0.0000E+00  0.0000E+00  0.0000E+00  0.0000E+00
    -17.976  0.0000E+00  0.0000E+00  0.0000E+00  0.0000E+00  0.0000E+00  0.0000E+00  0.0000E+00  0.0000E+00  0.0000E+00
    -17.876  0.1659E-17  0.4507E-18  0.3231E-26  0.9252E-21  0.0000E+00  0.0000E+00  0.0000E+00  0.0000E+00  0.0000E+00
    -17.777  0.1259E-12  0.3380E-13  0.2449E-21  0.9287E-16  0.0000E+00  0.0000E+00  0.0000E+00  0.0000E+00  0.0000E+00
    -17.677  0.1084E-08  0.2913E-09  0.2110E-17  0.9250E-12  0.0000E+00  0.0000E+00  0.0000E+00  0.0000E+00  0.0000E+00
    -17.578  0.1440E-05  0.3875E-06  0.2806E-14  0.1481E-08  0.0000E+00  0.0000E+00  0.0000E+00  0.0000E+00  0.0000E+00
    -17.479  0.3133E-03  0.8445E-04  0.6117E-12  0.4119E-06  0.0000E+00  0.0000E+00  0.0000E+00  0.0000E+00  0.0000E+00
    -17.379  0.1243E-01  0.3360E-02  0.2434E-10  0.2272E-04  0.0000E+00  0.0000E+00  0.0000E+00  0.0000E+00  0.0000E+00
    -17.280  0.1090E+00  0.2962E-01  0.2151E-09  0.3103E-03  0.0000E+00  0.0000E+00  0.0000E+00  0.0000E+00  0.0000E+00
    -17.180  0.3022E+00  0.8211E-01  0.6059E-09  0.1483E-02  0.0000E+00  0.0000E+00  0.0000E+00  0.0000E+00  0.0000E+00
    -17.081  0.4867E+00  0.1271E+00  0.1006E-08  0.3866E-02  0.0000E+00  0.0000E+00  0.0000E+00  0.0000E+00  0.0000E+00
    -16.982  0.6361E+00  0.1746E+00  0.1340E-08  0.7451E-02  0.0000E+00  0.0000E+00  0.0000E+00  0.0000E+00  0.0000E+00
    -16.882  0.4969E+00  0.2113E+00  0.1030E-08  0.1118E-01  0.0000E+00  0.0000E+00  0.0000E+00  0.0000E+00  0.0000E+00
    -16.783  0.2458E+00  0.1753E+00  0.4906E-09  0.1177E-01  0.0000E+00  0.0000E+00  0.0000E+00  0.0000E+00  0.0000E+00
    -16.683  0.9617E-01  0.9780E-01  0.1849E-09  0.8593E-02  0.0000E+00  0.0000E+00  0.0000E+00  0.0000E+00  0.0000E+00
    -16.584  0.2694E-01  0.3725E-01  0.4789E-10  0.3841E-02  0.0000E+00  0.0000E+00  0.0000E+00  0.0000E+00  0.0000E+00
    -16.485  0.3730E-02  0.6190E-02  0.6098E-11  0.6756E-03  0.0000E+00  0.0000E+00  0.0000E+00  0.0000E+00  0.0000E+00
    -16.385  0.1544E-03  0.2769E-03  0.2396E-12  0.3077E-04  0.0000E+00  0.0000E+00  0.0000E+00  0.0000E+00  0.0000E+00
    -16.286  0.1346E-05  0.2494E-05  0.2028E-14  0.2789E-06  0.0000E+00  0.0000E+00  0.0000E+00  0.0000E+00  0.0000E+00
    -16.186  0.2055E-08  0.3869E-08  0.3046E-17  0.4340E-09  0.0000E+00  0.0000E+00  0.0000E+00  0.0000E+00  0.0000E+00
    -16.087  0.5006E-12  0.9511E-12  0.7346E-21  0.1068E-12  0.0000E+00  0.0000E+00  0.0000E+00  0.0000E+00  0.0000E+00
    -15.988  0.1847E-16  0.3531E-16  0.2690E-25  0.3969E-17  0.0000E+00  0.0000E+00  0.0000E+00  0.0000E+00  0.0000E+00
    -15.888  0.1010E-16  0.6706E-16  0.3649E-23  0.4734E-15  0.0000E+00  0.0000E+00  0.0000E+00  0.0000E+00  0.0000E+00
    -15.789  0.1513E-12  0.9991E-12  0.5434E-19  0.7050E-11  0.0000E+00  0.0000E+00  0.0000E+00  0.0000E+00  0.0000E+00
    -15.689  0.3372E-09  0.2191E-08  0.1190E-15  0.1544E-07  0.0000E+00  0.0000E+00  0.0000E+00  0.0000E+00  0.0000E+00
    -15.590  0.1214E-06  0.7414E-06  0.4019E-13  0.5210E-05  0.0000E+00  0.0000E+00  0.0000E+00  0.0000E+00  0.0000E+00
    -15.491  0.8542E-05  0.4277E-04  0.2316E-11  0.2991E-03  0.0000E+00  0.0000E+00  0.0000E+00  0.0000E+00  0.0000E+00
    -15.391  0.1565E-03  0.5102E-03  0.2788E-10  0.3545E-02  0.0000E+00  0.0000E+00  0.0000E+00  0.0000E+00  0.0000E+00
    -15.292  0.9150E-03  0.1727E-02  0.9692E-10  0.1189E-01  0.0000E+00  0.0000E+00  0.0000E+00  0.0000E+00  0.0000E+00
    -15.192  0.2505E-02  0.2665E-02  0.1598E-09  0.1813E-01  0.0000E+00  0.0000E+00  0.0000E+00  0.0000E+00  0.0000E+00
    -15.093  0.5115E-02  0.3343E-02  0.2261E-09  0.2247E-01  0.0000E+00  0.0000E+00  0.0000E+00  0.0000E+00  0.0000E+00
    -14.993  0.9334E-02  0.4272E-02  0.3316E-09  0.2678E-01  0.0000E+00  0.0000E+00  0.0000E+00  0.0000E+00  0.0000E+00
    -14.894  0.2156E-01  0.7900E-02  0.6585E-09  0.3691E-01  0.0000E+00  0.0000E+00  0.0000E+00  0.0000E+00  0.0000E+00
    -14.795  0.5734E-01  0.2119E-01  0.1638E-08  0.5485E-01  0.0000E+00  0.0000E+00  0.0000E+00  0.0000E+00  0.0000E+00
    -14.695  0.9027E-01  0.3561E-01  0.2583E-08  0.6977E-01  0.0000E+00  0.0000E+00  0.0000E+00  0.0000E+00  0.0000E+00
    -14.596  0.7244E-01  0.3219E-01  0.2171E-08  0.5910E-01  0.0000E+00  0.0000E+00  0.0000E+00  0.0000E+00  0.0000E+00
    -14.496  0.6186E-01  0.2990E-01  0.1915E-08  0.5502E-01  0.0000E+00  0.0000E+00  0.0000E+00  0.0000E+00  0.0000E+00
    -14.397  0.7888E-01  0.3593E-01  0.2253E-08  0.5311E-01  0.0000E+00  0.0000E+00  0.0000E+00  0.0000E+00  0.0000E+00
    -14.298  0.9562E-01  0.4066E-01  0.2595E-08  0.4283E-01  0.0000E+00  0.0000E+00  0.0000E+00  0.0000E+00  0.0000E+00
    -14.198  0.1022E+00  0.4337E-01  0.2837E-08  0.4124E-01  0.0000E+00  0.0000E+00  0.0000E+00  0.0000E+00  0.0000E+00
    -14.099  0.1156E+00  0.4904E-01  0.3320E-08  0.4783E-01  0.0000E+00  0.0000E+00  0.0000E+00  0.0000E+00  0.0000E+00
    -13.999  0.1367E+00  0.5621E-01  0.4079E-08  0.5969E-01  0.0000E+00  0.0000E+00  0.0000E+00  0.0000E+00  0.0000E+00
    -13.900  0.1176E+00  0.4994E-01  0.3774E-08  0.5555E-01  0.0000E+00  0.0000E+00  0.0000E+00  0.0000E+00  0.0000E+00
    -13.801  0.7262E-01  0.3483E-01  0.2709E-08  0.4061E-01  0.0000E+00  0.0000E+00  0.0000E+00  0.0000E+00  0.0000E+00
    -13.701  0.3741E-01  0.1992E-01  0.1609E-08  0.2420E-01  0.0000E+00  0.0000E+00  0.0000E+00  0.0000E+00  0.0000E+00
    -13.602  0.1039E-01  0.5721E-02  0.4758E-09  0.7045E-02  0.0000E+00  0.0000E+00  0.0000E+00  0.0000E+00  0.0000E+00
    -13.502  0.8428E-03  0.4667E-03  0.3953E-10  0.5786E-03  0.0000E+00  0.0000E+00  0.0000E+00  0.0000E+00  0.0000E+00
    -13.403  0.1463E-04  0.8105E-05  0.6950E-12  0.1011E-04  0.0000E+00  0.0000E+00  0.0000E+00  0.0000E+00  0.0000E+00
    -13.304  0.4633E-07  0.2566E-07  0.2218E-14  0.3213E-07  0.0000E+00  0.0000E+00  0.0000E+00  0.0000E+00  0.0000E+00
    -13.204  0.2469E-10  0.1673E-10  0.1180E-17  0.1753E-10  0.0000E+00  0.0000E+00  0.0000E+00  0.0000E+00  0.0000E+00
    -13.105  0.2272E-08  0.1379E-07  0.6443E-15  0.3087E-08  0.0000E+00  0.0000E+00  0.0000E+00  0.0000E+00  0.0000E+00
    -13.005  0.1456E-05  0.9033E-05  0.1031E-10  0.1985E-05  0.0000E+00  0.0000E+00  0.0000E+00  0.0000E+00  0.0000E+00
    -12.906  0.1586E-03  0.1008E-02  0.2850E-07  0.2180E-03  0.0000E+00  0.0000E+00  0.0000E+00  0.0000E+00  0.0000E+00
    -12.806  0.3278E-02  0.2117E-01  0.1259E-04  0.4584E-02  0.0000E+00  0.0000E+00  0.0000E+00  0.0000E+00  0.0000E+00
    -12.707  0.1579E-01  0.1005E+00  0.9622E-03  0.2307E-01  0.0000E+00  0.0000E+00  0.0000E+00  0.0000E+00  0.0000E+00
    -12.608  0.2636E-01  0.1560E+00  0.1477E-01  0.4209E-01  0.0000E+00  0.0000E+00  0.0000E+00  0.0000E+00  0.0000E+00
    -12.508  0.2582E-01  0.1364E+00  0.5948E-01  0.4569E-01  0.0000E+00  0.0000E+00  0.0000E+00  0.0000E+00  0.0000E+00
    -12.409  0.2195E-01  0.1046E+00  0.1012E+00  0.4152E-01  0.0000E+00  0.0000E+00  0.0000E+00  0.0000E+00  0.0000E+00
    -12.309  0.1944E-01  0.8624E-01  0.1212E+00  0.3931E-01  0.0000E+00  0.0000E+00  0.0000E+00  0.0000E+00  0.0000E+00
    -12.210  0.1886E-01  0.7856E-01  0.1084E+00  0.3916E-01  0.0000E+00  0.0000E+00  0.0000E+00  0.0000E+00  0.0000E+00
    -12.111  0.1767E-01  0.7289E-01  0.8381E-01  0.3861E-01  0.0000E+00  0.0000E+00  0.0000E+00  0.0000E+00  0.0000E+00
    -12.011  0.1779E-01  0.7029E-01  0.7022E-01  0.4017E-01  0.0000E+00  0.0000E+00  0.0000E+00  0.0000E+00  0.0000E+00
    -11.912  0.1806E-01  0.6912E-01  0.6272E-01  0.4109E-01  0.0000E+00  0.0000E+00  0.0000E+00  0.0000E+00  0.0000E+00
    -11.812  0.1698E-01  0.6685E-01  0.5798E-01  0.4057E-01  0.0000E+00  0.0000E+00  0.0000E+00  0.0000E+00  0.0000E+00
    -11.713  0.1816E-01  0.6367E-01  0.5491E-01  0.4337E-01  0.0000E+00  0.0000E+00  0.0000E+00  0.0000E+00  0.0000E+00
    -11.614  0.1871E-01  0.4483E-01  0.5304E-01  0.4241E-01  0.0000E+00  0.0000E+00  0.0000E+00  0.0000E+00  0.0000E+00
    -11.514  0.2053E-01  0.2782E-01  0.5297E-01  0.4202E-01  0.0000E+00  0.0000E+00  0.0000E+00  0.0000E+00  0.0000E+00
    -11.415  0.2906E-01  0.2491E-01  0.5631E-01  0.4380E-01  0.0000E+00  0.0000E+00  0.0000E+00  0.0000E+00  0.0000E+00
    -11.315  0.4147E-01  0.2898E-01  0.6425E-01  0.5095E-01  0.0000E+00  0.0000E+00  0.0000E+00  0.0000E+00  0.0000E+00
    -11.216  0.4438E-01  0.2995E-01  0.6288E-01  0.5195E-01  0.0000E+00  0.0000E+00  0.0000E+00  0.0000E+00  0.0000E+00
    -11.117  0.4532E-01  0.3153E-01  0.4860E-01  0.5362E-01  0.0000E+00  0.0000E+00  0.0000E+00  0.0000E+00  0.0000E+00
    -11.017  0.5142E-01  0.4097E-01  0.3771E-01  0.6718E-01  0.0000E+00  0.0000E+00  0.0000E+00  0.0000E+00  0.0000E+00
    -10.918  0.5265E-01  0.4176E-01  0.3087E-01  0.6674E-01  0.0000E+00  0.0000E+00  0.0000E+00  0.0000E+00  0.0000E+00
    -10.818  0.4411E-01  0.3700E-01  0.2524E-01  0.5313E-01  0.0000E+00  0.0000E+00  0.0000E+00  0.0000E+00  0.0000E+00
    -10.719  0.4716E-01  0.3369E-01  0.1665E-01  0.4651E-01  0.0000E+00  0.0000E+00  0.0000E+00  0.0000E+00  0.0000E+00
    -10.619  0.6430E-01  0.3780E-01  0.5236E-02  0.6527E-01  0.0000E+00  0.0000E+00  0.0000E+00  0.0000E+00  0.0000E+00
    -10.520  0.7462E-01  0.4210E-01  0.4742E-03  0.9312E-01  0.0000E+00  0.0000E+00  0.0000E+00  0.0000E+00  0.0000E+00
    -10.421  0.5313E-01  0.3182E-01  0.9108E-05  0.7947E-01  0.0000E+00  0.0000E+00  0.0000E+00  0.0000E+00  0.0000E+00
    -10.321  0.3282E-01  0.2197E-01  0.3261E-07  0.5360E-01  0.0000E+00  0.0000E+00  0.0000E+00  0.0000E+00  0.0000E+00
    -10.222  0.2662E-01  0.1797E-01  0.1268E-08  0.4767E-01  0.0000E+00  0.0000E+00  0.0000E+00  0.0000E+00  0.0000E+00
    -10.122  0.2265E-01  0.1429E-01  0.1127E-08  0.4367E-01  0.0000E+00  0.0000E+00  0.0000E+00  0.0000E+00  0.0000E+00
    -10.023  0.2174E-01  0.1800E-01  0.1338E-08  0.4922E-01  0.0000E+00  0.0000E+00  0.0000E+00  0.0000E+00  0.0000E+00
     -9.924  0.2271E-01  0.1805E-01  0.1291E-08  0.5730E-01  0.0000E+00  0.0000E+00  0.0000E+00  0.0000E+00  0.0000E+00
     -9.824  0.2552E-01  0.1598E-01  0.1216E-08  0.7166E-01  0.0000E+00  0.0000E+00  0.0000E+00  0.0000E+00  0.0000E+00
     -9.725  0.2588E-01  0.1316E-01  0.1604E-08  0.8163E-01  0.0000E+00  0.0000E+00  0.0000E+00  0.0000E+00  0.0000E+00
     -9.625  0.2942E-01  0.1291E-01  0.3613E-08  0.1100E+00  0.0000E+00  0.0000E+00  0.0000E+00  0.0000E+00  0.0000E+00
     -9.526  0.3059E-01  0.1655E-01  0.6148E-08  0.1440E+00  0.0000E+00  0.0000E+00  0.0000E+00  0.0000E+00  0.0000E+00
     -9.427  0.2240E-01  0.1701E-01  0.5502E-08  0.1359E+00  0.0000E+00  0.0000E+00  0.0000E+00  0.0000E+00  0.0000E+00
     -9.327  0.1297E-01  0.1477E-01  0.4140E-08  0.1065E+00  0.0000E+00  0.0000E+00  0.0000E+00  0.0000E+00  0.0000E+00
     -9.228  0.7556E-02  0.1491E-01  0.3174E-08  0.6737E-01  0.0000E+00  0.0000E+00  0.0000E+00  0.0000E+00  0.0000E+00
     -9.128  0.6181E-02  0.2026E-01  0.3189E-08  0.4844E-01  0.0000E+00  0.0000E+00  0.0000E+00  0.0000E+00  0.0000E+00
     -9.029  0.6286E-02  0.2251E-01  0.1437E-06  0.3990E-01  0.0000E+00  0.0000E+00  0.0000E+00  0.0000E+00  0.0000E+00
     -8.930  0.1260E-01  0.2721E-01  0.4300E-04  0.4311E-01  0.0000E+00  0.0000E+00  0.0000E+00  0.0000E+00  0.0000E+00
     -8.830  0.2288E-01  0.3246E-01  0.2327E-02  0.4881E-01  0.0000E+00  0.0000E+00  0.0000E+00  0.0000E+00  0.0000E+00
     -8.731  0.2874E-01  0.3620E-01  0.2634E-01  0.5390E-01  0.0000E+00  0.0000E+00  0.0000E+00  0.0000E+00  0.0000E+00
     -8.631  0.3635E-01  0.4653E-01  0.8348E-01  0.6278E-01  0.0000E+00  0.0000E+00  0.0000E+00  0.0000E+00  0.0000E+00
     -8.532  0.4175E-01  0.5423E-01  0.1217E+00  0.7357E-01  0.0000E+00  0.0000E+00  0.0000E+00  0.0000E+00  0.0000E+00
     -8.432  0.3786E-01  0.5274E-01  0.1447E+00  0.7330E-01  0.0000E+00  0.0000E+00  0.0000E+00  0.0000E+00  0.0000E+00
     -8.333  0.3133E-01  0.5251E-01  0.1768E+00  0.6882E-01  0.0000E+00  0.0000E+00  0.0000E+00  0.0000E+00  0.0000E+00
     -8.234  0.2731E-01  0.5515E-01  0.1832E+00  0.6559E-01  0.0000E+00  0.0000E+00  0.0000E+00  0.0000E+00  0.0000E+00
     -8.134  0.2557E-01  0.5689E-01  0.1554E+00  0.6425E-01  0.0000E+00  0.0000E+00  0.0000E+00  0.0000E+00  0.0000E+00
     -8.035  0.2302E-01  0.5669E-01  0.1403E+00  0.7270E-01  0.0000E+00  0.0000E+00  0.0000E+00  0.0000E+00  0.0000E+00
     -7.935  0.2554E-01  0.6690E-01  0.1306E+00  0.7540E-01  0.0000E+00  0.0000E+00  0.0000E+00  0.0000E+00  0.0000E+00
     -7.836  0.2710E-01  0.6226E-01  0.1001E+00  0.5548E-01  0.0000E+00  0.0000E+00  0.0000E+00  0.0000E+00  0.0000E+00
     -7.737  0.2394E-01  0.4796E-01  0.6410E-01  0.4363E-01  0.0000E+00  0.0000E+00  0.0000E+00  0.0000E+00  0.0000E+00
     -7.637  0.2545E-01  0.4714E-01  0.3967E-01  0.4110E-01  0.0000E+00  0.0000E+00  0.0000E+00  0.0000E+00  0.0000E+00
     -7.538  0.3010E-01  0.5777E-01  0.2303E-01  0.4247E-01  0.0000E+00  0.0000E+00  0.0000E+00  0.0000E+00  0.0000E+00
     -7.438  0.2950E-01  0.4557E-01  0.1125E-01  0.4443E-01  0.0000E+00  0.0000E+00  0.0000E+00  0.0000E+00  0.0000E+00
     -7.339  0.2587E-01  0.3362E-01  0.5290E-02  0.4129E-01  0.0000E+00  0.0000E+00  0.0000E+00  0.0000E+00  0.0000E+00
     -7.240  0.2981E-01  0.5433E-01  0.1961E-02  0.4216E-01  0.0000E+00  0.0000E+00  0.0000E+00  0.0000E+00  0.0000E+00
     -7.140  0.2950E-01  0.5189E-01  0.1015E-02  0.4333E-01  0.0000E+00  0.0000E+00  0.0000E+00  0.0000E+00  0.0000E+00
     -7.041  0.2342E-01  0.3873E-01  0.7757E-02  0.3801E-01  0.0000E+00  0.0000E+00  0.0000E+00  0.0000E+00  0.0000E+00
     -6.941  0.1762E-01  0.5702E-01  0.3653E-01  0.2216E-01  0.0000E+00  0.0000E+00  0.0000E+00  0.0000E+00  0.0000E+00
     -6.842  0.1424E-01  0.6649E-01  0.7790E-01  0.1454E-01  0.0000E+00  0.0000E+00  0.0000E+00  0.0000E+00  0.0000E+00
     -6.743  0.1422E-01  0.7062E-01  0.1055E+00  0.1650E-01  0.0000E+00  0.0000E+00  0.0000E+00  0.0000E+00  0.0000E+00
     -6.643  0.1333E-01  0.6782E-01  0.9879E-01  0.2009E-01  0.0000E+00  0.0000E+00  0.0000E+00  0.0000E+00  0.0000E+00
     -6.544  0.8165E-02  0.3813E-01  0.8971E-01  0.1758E-01  0.0000E+00  0.0000E+00  0.0000E+00  0.0000E+00  0.0000E+00
     -6.444  0.5295E-02  0.2366E-01  0.8987E-01  0.1440E-01  0.0000E+00  0.0000E+00  0.0000E+00  0.0000E+00  0.0000E+00
     -6.345  0.4352E-02  0.2033E-01  0.9583E-01  0.1344E-01  0.0000E+00  0.0000E+00  0.0000E+00  0.0000E+00  0.0000E+00
     -6.245  0.4852E-02  0.2151E-01  0.9592E-01  0.1700E-01  0.0000E+00  0.0000E+00  0.0000E+00  0.0000E+00  0.0000E+00
     -6.146  0.5006E-02  0.2210E-01  0.9363E-01  0.1868E-01  0.0000E+00  0.0000E+00  0.0000E+00  0.0000E+00  0.0000E+00
     -6.047  0.3665E-02  0.1811E-01  0.8793E-01  0.1460E-01  0.0000E+00  0.0000E+00  0.0000E+00  0.0000E+00  0.0000E+00
     -5.947  0.3301E-02  0.1935E-01  0.7747E-01  0.1407E-01  0.0000E+00  0.0000E+00  0.0000E+00  0.0000E+00  0.0000E+00
     -5.848  0.2287E-02  0.1321E-01  0.5584E-01  0.1052E-01  0.0000E+00  0.0000E+00  0.0000E+00  0.0000E+00  0.0000E+00
     -5.748  0.3603E-02  0.1880E-01  0.1944E-01  0.1775E-01  0.0000E+00  0.0000E+00  0.0000E+00  0.0000E+00  0.0000E+00
     -5.649  0.4174E-02  0.2404E-01  0.1962E-02  0.2080E-01  0.0000E+00  0.0000E+00  0.0000E+00  0.0000E+00  0.0000E+00
     -5.550  0.2287E-02  0.1514E-01  0.4227E-04  0.1117E-01  0.0000E+00  0.0000E+00  0.0000E+00  0.0000E+00  0.0000E+00
     -5.450  0.1552E-02  0.1140E-01  0.1637E-06  0.7249E-02  0.0000E+00  0.0000E+00  0.0000E+00  0.0000E+00  0.0000E+00
     -5.351  0.2892E-02  0.1938E-01  0.2030E-08  0.1480E-01  0.0000E+00  0.0000E+00  0.0000E+00  0.0000E+00  0.0000E+00
     -5.251  0.4412E-02  0.2679E-01  0.3320E-08  0.2176E-01  0.0000E+00  0.0000E+00  0.0000E+00  0.0000E+00  0.0000E+00
     -5.152  0.3380E-02  0.2010E-01  0.1673E-08  0.1186E-01  0.0000E+00  0.0000E+00  0.0000E+00  0.0000E+00  0.0000E+00
     -5.053  0.2006E-02  0.1480E-01  0.1177E-08  0.6210E-02  0.0000E+00  0.0000E+00  0.0000E+00  0.0000E+00  0.0000E+00
     -4.953  0.2248E-02  0.1817E-01  0.3404E-08  0.9514E-02  0.0000E+00  0.0000E+00  0.0000E+00  0.0000E+00  0.0000E+00
     -4.854  0.5794E-02  0.1981E-01  0.8536E-08  0.1464E-01  0.0000E+00  0.0000E+00  0.0000E+00  0.0000E+00  0.0000E+00
     -4.754  0.1598E-01  0.1490E-01  0.2078E-07  0.1003E-01  0.0000E+00  0.0000E+00  0.0000E+00  0.0000E+00  0.0000E+00
     -4.655  0.2245E-01  0.1285E-01  0.2948E-07  0.6220E-02  0.0000E+00  0.0000E+00  0.0000E+00  0.0000E+00  0.0000E+00
     -4.556  0.1950E-01  0.1701E-01  0.3075E-07  0.9778E-02  0.0000E+00  0.0000E+00  0.0000E+00  0.0000E+00  0.0000E+00
     -4.456  0.1460E-01  0.1863E-01  0.3446E-07  0.1590E-01  0.0000E+00  0.0000E+00  0.0000E+00  0.0000E+00  0.0000E+00
     -4.357  0.1093E-01  0.1747E-01  0.4315E-07  0.1829E-01  0.0000E+00  0.0000E+00  0.0000E+00  0.0000E+00  0.0000E+00
     -4.257  0.7360E-02  0.1814E-01  0.3195E-07  0.1591E-01  0.0000E+00  0.0000E+00  0.0000E+00  0.0000E+00  0.0000E+00
     -4.158  0.4413E-02  0.1888E-01  0.1183E-07  0.1038E-01  0.0000E+00  0.0000E+00  0.0000E+00  0.0000E+00  0.0000E+00
     -4.058  0.2536E-02  0.1581E-01  0.3658E-08  0.7775E-02  0.0000E+00  0.0000E+00  0.0000E+00  0.0000E+00  0.0000E+00
     -3.959  0.1698E-02  0.1336E-01  0.1649E-08  0.6964E-02  0.0000E+00  0.0000E+00  0.0000E+00  0.0000E+00  0.0000E+00
     -3.860  0.1136E-02  0.1278E-01  0.1374E-08  0.4881E-02  0.0000E+00  0.0000E+00  0.0000E+00  0.0000E+00  0.0000E+00
     -3.760  0.9229E-03  0.1228E-01  0.2133E-08  0.4926E-02  0.0000E+00  0.0000E+00  0.0000E+00  0.0000E+00  0.0000E+00
     -3.661  0.1001E-02  0.1309E-01  0.1490E-08  0.6886E-02  0.0000E+00  0.0000E+00  0.0000E+00  0.0000E+00  0.0000E+00
     -3.561  0.6237E-03  0.9681E-02  0.4786E-09  0.4220E-02  0.0000E+00  0.0000E+00  0.0000E+00  0.0000E+00  0.0000E+00
     -3.462  0.3923E-03  0.9069E-02  0.2483E-09  0.2392E-02  0.0000E+00  0.0000E+00  0.0000E+00  0.0000E+00  0.0000E+00
     -3.363  0.3376E-03  0.8419E-02  0.3279E-09  0.2908E-02  0.0000E+00  0.0000E+00  0.0000E+00  0.0000E+00  0.0000E+00
     -3.263  0.3913E-03  0.1094E-01  0.6078E-09  0.3972E-02  0.0000E+00  0.0000E+00  0.0000E+00  0.0000E+00  0.0000E+00
     -3.164  0.2237E-03  0.7596E-02  0.3958E-09  0.2201E-02  0.0000E+00  0.0000E+00  0.0000E+00  0.0000E+00  0.0000E+00
     -3.064  0.9284E-04  0.6153E-02  0.2639E-09  0.1018E-02  0.0000E+00  0.0000E+00  0.0000E+00  0.0000E+00  0.0000E+00
     -2.965  0.7517E-04  0.6618E-02  0.4731E-09  0.1018E-02  0.0000E+00  0.0000E+00  0.0000E+00  0.0000E+00  0.0000E+00
     -2.866  0.2700E-04  0.2625E-02  0.2478E-09  0.4155E-03  0.0000E+00  0.0000E+00  0.0000E+00  0.0000E+00  0.0000E+00
     -2.766  0.2476E-05  0.2487E-03  0.2535E-10  0.3977E-04  0.0000E+00  0.0000E+00  0.0000E+00  0.0000E+00  0.0000E+00
     -2.667  0.4209E-07  0.4259E-05  0.4408E-12  0.6822E-06  0.0000E+00  0.0000E+00  0.0000E+00  0.0000E+00  0.0000E+00
     -2.567  0.1139E-09  0.1154E-07  0.1198E-14  0.1849E-08  0.0000E+00  0.0000E+00  0.0000E+00  0.0000E+00  0.0000E+00
     -2.468  0.4607E-13  0.4668E-11  0.4848E-18  0.7482E-12  0.0000E+00  0.0000E+00  0.0000E+00  0.0000E+00  0.0000E+00
     -2.369  0.2711E-17  0.2747E-15  0.2853E-22  0.4403E-16  0.0000E+00  0.0000E+00  0.0000E+00  0.0000E+00  0.0000E+00
     -2.269  0.0000E+00  0.0000E+00  0.0000E+00  0.0000E+00  0.0000E+00  0.0000E+00  0.0000E+00  0.0000E+00  0.0000E+00
     -2.170  0.0000E+00  0.0000E+00  0.0000E+00  0.0000E+00  0.0000E+00  0.0000E+00  0.0000E+00  0.0000E+00  0.0000E+00
     -2.070  0.4312E-16  0.1244E-15  0.1838E-22  0.1278E-14  0.0000E+00  0.0000E+00  0.0000E+00  0.0000E+00  0.0000E+00
     -1.971  0.6639E-12  0.1913E-11  0.2818E-18  0.1966E-10  0.0000E+00  0.0000E+00  0.0000E+00  0.0000E+00  0.0000E+00
     -1.871  0.1503E-08  0.4319E-08  0.6313E-15  0.4437E-07  0.0000E+00  0.0000E+00  0.0000E+00  0.0000E+00  0.0000E+00
     -1.772  0.5222E-06  0.1491E-05  0.2136E-12  0.1529E-04  0.0000E+00  0.0000E+00  0.0000E+00  0.0000E+00  0.0000E+00
     -1.673  0.3020E-04  0.8492E-04  0.1164E-10  0.8688E-03  0.0000E+00  0.0000E+00  0.0000E+00  0.0000E+00  0.0000E+00
     -1.573  0.3331E-03  0.9092E-03  0.1210E-09  0.9244E-02  0.0000E+00  0.0000E+00  0.0000E+00  0.0000E+00  0.0000E+00
     -1.474  0.8918E-03  0.2282E-02  0.2012E-07  0.2278E-01  0.0000E+00  0.0000E+00  0.0000E+00  0.0000E+00  0.0000E+00
     -1.374  0.1065E-02  0.2528E-02  0.9403E-05  0.2277E-01  0.0000E+00  0.0000E+00  0.0000E+00  0.0000E+00  0.0000E+00
     -1.275  0.1665E-02  0.4401E-02  0.7940E-03  0.3115E-01  0.0000E+00  0.0000E+00  0.0000E+00  0.0000E+00  0.0000E+00
     -1.176  0.2490E-02  0.6166E-02  0.1358E-01  0.4085E-01  0.0000E+00  0.0000E+00  0.0000E+00  0.0000E+00  0.0000E+00
     -1.076  0.2385E-02  0.4722E-02  0.5984E-01  0.3032E-01  0.0000E+00  0.0000E+00  0.0000E+00  0.0000E+00  0.0000E+00
     -0.977  0.3345E-02  0.6523E-02  0.1089E+00  0.3582E-01  0.0000E+00  0.0000E+00  0.0000E+00  0.0000E+00  0.0000E+00
     -0.877  0.5494E-02  0.1157E-01  0.1367E+00  0.5502E-01  0.0000E+00  0.0000E+00  0.0000E+00  0.0000E+00  0.0000E+00
     -0.778  0.6207E-02  0.1106E-01  0.1429E+00  0.5224E-01  0.0000E+00  0.0000E+00  0.0000E+00  0.0000E+00  0.0000E+00
     -0.679  0.7785E-02  0.1149E-01  0.1466E+00  0.4768E-01  0.0000E+00  0.0000E+00  0.0000E+00  0.0000E+00  0.0000E+00
     -0.579  0.1261E-01  0.1901E-01  0.1452E+00  0.7171E-01  0.0000E+00  0.0000E+00  0.0000E+00  0.0000E+00  0.0000E+00
     -0.480  0.1713E-01  0.2393E-01  0.1133E+00  0.8316E-01  0.0000E+00  0.0000E+00  0.0000E+00  0.0000E+00  0.0000E+00
     -0.380  0.2611E-01  0.3200E-01  0.8348E-01  0.1014E+00  0.0000E+00  0.0000E+00  0.0000E+00  0.0000E+00  0.0000E+00
     -0.281  0.3842E-01  0.4405E-01  0.7522E-01  0.1288E+00  0.0000E+00  0.0000E+00  0.0000E+00  0.0000E+00  0.0000E+00
     -0.182  0.3803E-01  0.4053E-01  0.6431E-01  0.1042E+00  0.0000E+00  0.0000E+00  0.0000E+00  0.0000E+00  0.0000E+00
     -0.082  0.2996E-01  0.2782E-01  0.6921E-01  0.5613E-01  0.0000E+00  0.0000E+00  0.0000E+00  0.0000E+00  0.0000E+00
      0.017  0.2651E-01  0.2241E-01  0.1124E+00  0.3671E-01  0.0000E+00  0.0000E+00  0.0000E+00  0.0000E+00  0.0000E+00
      0.117  0.2603E-01  0.2225E-01  0.1263E+00  0.3431E-01  0.0000E+00  0.0000E+00  0.0000E+00  0.0000E+00  0.0000E+00
      0.216  0.2592E-01  0.2242E-01  0.8559E-01  0.3327E-01  0.0000E+00  0.0000E+00  0.0000E+00  0.0000E+00  0.0000E+00
      0.316  0.2512E-01  0.2095E-01  0.9126E-01  0.2805E-01  0.0000E+00  0.0000E+00  0.0000E+00  0.0000E+00  0.0000E+00
      0.415  0.2667E-01  0.2355E-01  0.1149E+00  0.2840E-01  0.0000E+00  0.0000E+00  0.0000E+00  0.0000E+00  0.0000E+00
      0.514  0.3039E-01  0.3545E-01  0.9796E-01  0.2834E-01  0.0000E+00  0.0000E+00  0.0000E+00  0.0000E+00  0.0000E+00
      0.614  0.4050E-01  0.5651E-01  0.9263E-01  0.2929E-01  0.0000E+00  0.0000E+00  0.0000E+00  0.0000E+00  0.0000E+00
      0.713  0.5177E-01  0.6779E-01  0.1214E+00  0.3146E-01  0.0000E+00  0.0000E+00  0.0000E+00  0.0000E+00  0.0000E+00
      0.813  0.5813E-01  0.7001E-01  0.1045E+00  0.3493E-01  0.0000E+00  0.0000E+00  0.0000E+00  0.0000E+00  0.0000E+00
      0.912  0.5490E-01  0.6292E-01  0.5299E-01  0.3683E-01  0.0000E+00  0.0000E+00  0.0000E+00  0.0000E+00  0.0000E+00
      1.011  0.5131E-01  0.5781E-01  0.3113E-01  0.3746E-01  0.0000E+00  0.0000E+00  0.0000E+00  0.0000E+00  0.0000E+00
      1.111  0.4517E-01  0.5004E-01  0.1917E-01  0.3417E-01  0.0000E+00  0.0000E+00  0.0000E+00  0.0000E+00  0.0000E+00
      1.210  0.4182E-01  0.4715E-01  0.7859E-02  0.3209E-01  0.0000E+00  0.0000E+00  0.0000E+00  0.0000E+00  0.0000E+00
      1.310  0.3695E-01  0.4443E-01  0.8685E-02  0.3065E-01  0.0000E+00  0.0000E+00  0.0000E+00  0.0000E+00  0.0000E+00
      1.409  0.2741E-01  0.3354E-01  0.1771E-01  0.2442E-01  0.0000E+00  0.0000E+00  0.0000E+00  0.0000E+00  0.0000E+00
      1.508  0.3045E-01  0.3069E-01  0.2918E-01  0.1574E-01  0.0000E+00  0.0000E+00  0.0000E+00  0.0000E+00  0.0000E+00
      1.608  0.4595E-01  0.4275E-01  0.3738E-01  0.1217E-01  0.0000E+00  0.0000E+00  0.0000E+00  0.0000E+00  0.0000E+00
      1.707  0.5343E-01  0.4866E-01  0.5204E-01  0.1443E-01  0.0000E+00  0.0000E+00  0.0000E+00  0.0000E+00  0.0000E+00
      1.807  0.5593E-01  0.4363E-01  0.6304E-01  0.1426E-01  0.0000E+00  0.0000E+00  0.0000E+00  0.0000E+00  0.0000E+00
      1.906  0.6423E-01  0.4603E-01  0.5700E-01  0.1386E-01  0.0000E+00  0.0000E+00  0.0000E+00  0.0000E+00  0.0000E+00
      2.005  0.5286E-01  0.3875E-01  0.4576E-01  0.1091E-01  0.0000E+00  0.0000E+00  0.0000E+00  0.0000E+00  0.0000E+00
      2.105  0.4408E-01  0.3329E-01  0.3726E-01  0.9363E-02  0.0000E+00  0.0000E+00  0.0000E+00  0.0000E+00  0.0000E+00
      2.204  0.3641E-01  0.2837E-01  0.4528E-01  0.7742E-02  0.0000E+00  0.0000E+00  0.0000E+00  0.0000E+00  0.0000E+00
      2.304  0.2613E-01  0.2186E-01  0.5804E-01  0.5226E-02  0.0000E+00  0.0000E+00  0.0000E+00  0.0000E+00  0.0000E+00
      2.403  0.2229E-01  0.1941E-01  0.5369E-01  0.4171E-02  0.0000E+00  0.0000E+00  0.0000E+00  0.0000E+00  0.0000E+00
      2.502  0.3828E-01  0.3416E-01  0.3792E-01  0.8153E-02  0.0000E+00  0.0000E+00  0.0000E+00  0.0000E+00  0.0000E+00
      2.602  0.5986E-01  0.5680E-01  0.3322E-01  0.1387E-01  0.0000E+00  0.0000E+00  0.0000E+00  0.0000E+00  0.0000E+00
      2.701  0.5606E-01  0.5821E-01  0.3450E-01  0.1332E-01  0.0000E+00  0.0000E+00  0.0000E+00  0.0000E+00  0.0000E+00
      2.801  0.4300E-01  0.4673E-01  0.3873E-01  0.1065E-01  0.0000E+00  0.0000E+00  0.0000E+00  0.0000E+00  0.0000E+00
      2.900  0.3197E-01  0.3960E-01  0.4654E-01  0.1049E-01  0.0000E+00  0.0000E+00  0.0000E+00  0.0000E+00  0.0000E+00
      3.000  0.2353E-01  0.3166E-01  0.5393E-01  0.9283E-02  0.0000E+00  0.0000E+00  0.0000E+00  0.0000E+00  0.0000E+00
      3.099  0.1979E-01  0.2441E-01  0.5090E-01  0.9028E-02  0.0000E+00  0.0000E+00  0.0000E+00  0.0000E+00  0.0000E+00
      3.198  0.2077E-01  0.2336E-01  0.4061E-01  0.1020E-01  0.0000E+00  0.0000E+00  0.0000E+00  0.0000E+00  0.0000E+00
      3.298  0.1786E-01  0.1856E-01  0.3247E-01  0.8842E-02  0.0000E+00  0.0000E+00  0.0000E+00  0.0000E+00  0.0000E+00
      3.397  0.1622E-01  0.1618E-01  0.2730E-01  0.9912E-02  0.0000E+00  0.0000E+00  0.0000E+00  0.0000E+00  0.0000E+00
      3.497  0.2044E-01  0.1509E-01  0.2430E-01  0.1224E-01  0.0000E+00  0.0000E+00  0.0000E+00  0.0000E+00  0.0000E+00
      3.596  0.2376E-01  0.1450E-01  0.1913E-01  0.1149E-01  0.0000E+00  0.0000E+00  0.0000E+00  0.0000E+00  0.0000E+00
      3.695  0.2304E-01  0.1399E-01  0.1965E-01  0.1051E-01  0.0000E+00  0.0000E+00  0.0000E+00  0.0000E+00  0.0000E+00
      3.795  0.1974E-01  0.9662E-02  0.1868E-01  0.7009E-02  0.0000E+00  0.0000E+00  0.0000E+00  0.0000E+00  0.0000E+00
      3.894  0.1663E-01  0.7726E-02  0.1461E-01  0.5387E-02  0.0000E+00  0.0000E+00  0.0000E+00  0.0000E+00  0.0000E+00
      3.994  0.1461E-01  0.8352E-02  0.1362E-01  0.5636E-02  0.0000E+00  0.0000E+00  0.0000E+00  0.0000E+00  0.0000E+00
      4.093  0.1386E-01  0.7379E-02  0.1431E-01  0.5188E-02  0.0000E+00  0.0000E+00  0.0000E+00  0.0000E+00  0.0000E+00
      4.192  0.1062E-01  0.4077E-02  0.1296E-01  0.3286E-02  0.0000E+00  0.0000E+00  0.0000E+00  0.0000E+00  0.0000E+00
      4.292  0.8075E-02  0.1992E-02  0.1075E-01  0.1983E-02  0.0000E+00  0.0000E+00  0.0000E+00  0.0000E+00  0.0000E+00
      4.391  0.6187E-02  0.1358E-02  0.9332E-02  0.1670E-02  0.0000E+00  0.0000E+00  0.0000E+00  0.0000E+00  0.0000E+00
      4.491  0.4422E-02  0.1247E-02  0.7648E-02  0.1795E-02  0.0000E+00  0.0000E+00  0.0000E+00  0.0000E+00  0.0000E+00
      4.590  0.3412E-02  0.1149E-02  0.5195E-02  0.1684E-02  0.0000E+00  0.0000E+00  0.0000E+00  0.0000E+00  0.0000E+00
      4.689  0.1816E-02  0.6577E-03  0.2832E-02  0.9911E-03  0.0000E+00  0.0000E+00  0.0000E+00  0.0000E+00  0.0000E+00
      4.789  0.7086E-03  0.4162E-03  0.1599E-02  0.4662E-03  0.0000E+00  0.0000E+00  0.0000E+00  0.0000E+00  0.0000E+00
      4.888  0.2967E-03  0.2366E-03  0.7723E-03  0.1867E-03  0.0000E+00  0.0000E+00  0.0000E+00  0.0000E+00  0.0000E+00
      4.988  0.6180E-04  0.6229E-04  0.1607E-03  0.3266E-04  0.0000E+00  0.0000E+00  0.0000E+00  0.0000E+00  0.0000E+00
      5.087  0.1937E-04  0.4407E-04  0.8442E-04  0.1165E-04  0.0000E+00  0.0000E+00  0.0000E+00  0.0000E+00  0.0000E+00
      5.187  0.5978E-05  0.1464E-04  0.2767E-04  0.3702E-05  0.0000E+00  0.0000E+00  0.0000E+00  0.0000E+00  0.0000E+00
      5.286  0.3620E-06  0.8875E-06  0.1677E-05  0.2243E-06  0.0000E+00  0.0000E+00  0.0000E+00  0.0000E+00  0.0000E+00
      5.385  0.3583E-08  0.8785E-08  0.1660E-07  0.2220E-08  0.0000E+00  0.0000E+00  0.0000E+00  0.0000E+00  0.0000E+00
      5.485  0.5433E-11  0.1332E-10  0.2518E-10  0.3367E-11  0.0000E+00  0.0000E+00  0.0000E+00  0.0000E+00  0.0000E+00
      5.584  0.1215E-14  0.2980E-14  0.5633E-14  0.7532E-15  0.0000E+00  0.0000E+00  0.0000E+00  0.0000E+00  0.0000E+00
      5.684  0.3789E-19  0.9291E-19  0.1756E-18  0.2348E-19  0.0000E+00  0.0000E+00  0.0000E+00  0.0000E+00  0.0000E+00
      5.783  0.0000E+00  0.0000E+00  0.0000E+00  0.0000E+00  0.0000E+00  0.0000E+00  0.0000E+00  0.0000E+00  0.0000E+00
      5.882  0.0000E+00  0.0000E+00  0.0000E+00  0.0000E+00  0.0000E+00  0.0000E+00  0.0000E+00  0.0000E+00  0.0000E+00
      5.982  0.0000E+00  0.0000E+00  0.0000E+00  0.0000E+00  0.0000E+00  0.0000E+00  0.0000E+00  0.0000E+00  0.0000E+00
      6.081  0.0000E+00  0.0000E+00  0.0000E+00  0.0000E+00  0.0000E+00  0.0000E+00  0.0000E+00  0.0000E+00  0.0000E+00
      6.181  0.0000E+00  0.0000E+00  0.0000E+00  0.0000E+00  0.0000E+00  0.0000E+00  0.0000E+00  0.0000E+00  0.0000E+00
      6.280  0.0000E+00  0.0000E+00  0.0000E+00  0.0000E+00  0.0000E+00  0.0000E+00  0.0000E+00  0.0000E+00  0.0000E+00
      6.379  0.0000E+00  0.0000E+00  0.0000E+00  0.0000E+00  0.0000E+00  0.0000E+00  0.0000E+00  0.0000E+00  0.0000E+00
      6.37943935    -23.44321047  301     -4.43334101      1.00000000
    -23.443  0.0000E+00  0.0000E+00  0.0000E+00  0.0000E+00  0.0000E+00  0.0000E+00  0.0000E+00  0.0000E+00  0.0000E+00
    -23.344  0.0000E+00  0.0000E+00  0.0000E+00  0.0000E+00  0.0000E+00  0.0000E+00  0.0000E+00  0.0000E+00  0.0000E+00
    -23.244  0.0000E+00  0.0000E+00  0.0000E+00  0.0000E+00  0.0000E+00  0.0000E+00  0.0000E+00  0.0000E+00  0.0000E+00
    -23.145  0.0000E+00  0.0000E+00  0.0000E+00  0.0000E+00  0.0000E+00  0.0000E+00  0.0000E+00  0.0000E+00  0.0000E+00
    -23.046  0.0000E+00  0.0000E+00  0.0000E+00  0.0000E+00  0.0000E+00  0.0000E+00  0.0000E+00  0.0000E+00  0.0000E+00
    -22.946  0.0000E+00  0.0000E+00  0.0000E+00  0.0000E+00  0.0000E+00  0.0000E+00  0.0000E+00  0.0000E+00  0.0000E+00
    -22.847  0.0000E+00  0.0000E+00  0.0000E+00  0.0000E+00  0.0000E+00  0.0000E+00  0.0000E+00  0.0000E+00  0.0000E+00
    -22.747  0.0000E+00  0.0000E+00  0.0000E+00  0.0000E+00  0.0000E+00  0.0000E+00  0.0000E+00  0.0000E+00  0.0000E+00
    -22.648  0.3518E-16  0.2200E-18  0.1064E-24  0.4979E-17  0.0000E+00  0.0000E+00  0.0000E+00  0.0000E+00  0.0000E+00
    -22.549  0.1274E-11  0.8090E-14  0.3858E-20  0.1809E-12  0.0000E+00  0.0000E+00  0.0000E+00  0.0000E+00  0.0000E+00
    -22.449  0.6904E-08  0.4452E-10  0.2093E-16  0.9827E-09  0.0000E+00  0.0000E+00  0.0000E+00  0.0000E+00  0.0000E+00
    -22.350  0.5861E-05  0.3873E-07  0.1781E-13  0.8382E-06  0.0000E+00  0.0000E+00  0.0000E+00  0.0000E+00  0.0000E+00
    -22.250  0.8389E-03  0.5769E-05  0.2561E-11  0.1209E-03  0.0000E+00  0.0000E+00  0.0000E+00  0.0000E+00  0.0000E+00
    -22.151  0.2302E-01  0.1694E-03  0.7084E-10  0.3366E-02  0.0000E+00  0.0000E+00  0.0000E+00  0.0000E+00  0.0000E+00
    -22.051  0.1477E+00  0.1214E-02  0.4616E-09  0.2220E-01  0.0000E+00  0.0000E+00  0.0000E+00  0.0000E+00  0.0000E+00
    -21.952  0.2871E+00  0.2825E-02  0.9308E-09  0.4595E-01  0.0000E+00  0.0000E+00  0.0000E+00  0.0000E+00  0.0000E+00
    -21.853  0.2511E+00  0.3357E-02  0.8878E-09  0.4626E-01  0.0000E+00  0.0000E+00  0.0000E+00  0.0000E+00  0.0000E+00
    -21.753  0.1816E+00  0.3629E-02  0.7415E-09  0.4140E-01  0.0000E+00  0.0000E+00  0.0000E+00  0.0000E+00  0.0000E+00
    -21.654  0.1491E+00  0.4335E-02  0.7127E-09  0.4187E-01  0.0000E+00  0.0000E+00  0.0000E+00  0.0000E+00  0.0000E+00
    -21.554  0.1336E+00  0.5530E-02  0.7539E-09  0.4585E-01  0.0000E+00  0.0000E+00  0.0000E+00  0.0000E+00  0.0000E+00
    -21.455  0.1284E+00  0.7647E-02  0.8767E-09  0.5433E-01  0.0000E+00  0.0000E+00  0.0000E+00  0.0000E+00  0.0000E+00
    -21.356  0.1373E+00  0.1199E-01  0.1173E-08  0.7280E-01  0.0000E+00  0.0000E+00  0.0000E+00  0.0000E+00  0.0000E+00
    -21.256  0.1438E+00  0.1647E-01  0.1474E-08  0.9091E-01  0.0000E+00  0.0000E+00  0.0000E+00  0.0000E+00  0.0000E+00
    -21.157  0.9577E-01  0.1237E-01  0.1088E-08  0.6687E-01  0.0000E+00  0.0000E+00  0.0000E+00  0.0000E+00  0.0000E+00
    -21.057  0.2803E-01  0.3802E-02  0.3363E-09  0.2067E-01  0.0000E+00  0.0000E+00  0.0000E+00  0.0000E+00  0.0000E+00
    -20.958  0.2495E-02  0.3464E-03  0.3079E-10  0.1893E-02  0.0000E+00  0.0000E+00  0.0000E+00  0.0000E+00  0.0000E+00
    -20.859  0.4908E-04  0.6899E-05  0.6145E-12  0.3778E-04  0.0000E+00  0.0000E+00  0.0000E+00  0.0000E+00  0.0000E+00
    -20.759  0.1751E-06  0.2480E-07  0.2211E-14  0.1359E-06  0.0000E+00  0.0000E+00  0.0000E+00  0.0000E+00  0.0000E+00
    -20.660  0.1019E-09  0.1449E-10  0.1293E-17  0.7947E-10  0.0000E+00  0.0000E+00  0.0000E+00  0.0000E+00  0.0000E+00
    -20.560  0.9118E-14  0.1301E-14  0.1161E-21  0.7135E-14  0.0000E+00  0.0000E+00  0.0000E+00  0.0000E+00  0.0000E+00
    -20.461  0.0000E+00  0.0000E+00  0.0000E+00  0.0000E+00  0.0000E+00  0.0000E+00  0.0000E+00  0.0000E+00  0.0000E+00
    -20.362  0.0000E+00  0.0000E+00  0.0000E+00  0.0000E+00  0.0000E+00  0.0000E+00  0.0000E+00  0.0000E+00  0.0000E+00
    -20.262  0.0000E+00  0.0000E+00  0.0000E+00  0.0000E+00  0.0000E+00  0.0000E+00  0.0000E+00  0.0000E+00  0.0000E+00
    -20.163  0.0000E+00  0.0000E+00  0.0000E+00  0.0000E+00  0.0000E+00  0.0000E+00  0.0000E+00  0.0000E+00  0.0000E+00
    -20.063  0.0000E+00  0.0000E+00  0.0000E+00  0.0000E+00  0.0000E+00  0.0000E+00  0.0000E+00  0.0000E+00  0.0000E+00
    -19.964  0.0000E+00  0.0000E+00  0.0000E+00  0.0000E+00  0.0000E+00  0.0000E+00  0.0000E+00  0.0000E+00  0.0000E+00
    -19.864  0.0000E+00  0.0000E+00  0.0000E+00  0.0000E+00  0.0000E+00  0.0000E+00  0.0000E+00  0.0000E+00  0.0000E+00
    -19.765  0.0000E+00  0.0000E+00  0.0000E+00  0.0000E+00  0.0000E+00  0.0000E+00  0.0000E+00  0.0000E+00  0.0000E+00
    -19.666  0.0000E+00  0.0000E+00  0.0000E+00  0.0000E+00  0.0000E+00  0.0000E+00  0.0000E+00  0.0000E+00  0.0000E+00
    -19.566  0.0000E+00  0.0000E+00  0.0000E+00  0.0000E+00  0.0000E+00  0.0000E+00  0.0000E+00  0.0000E+00  0.0000E+00
    -19.467  0.0000E+00  0.0000E+00  0.0000E+00  0.0000E+00  0.0000E+00  0.0000E+00  0.0000E+00  0.0000E+00  0.0000E+00
    -19.367  0.0000E+00  0.0000E+00  0.0000E+00  0.0000E+00  0.0000E+00  0.0000E+00  0.0000E+00  0.0000E+00  0.0000E+00
    -19.268  0.0000E+00  0.0000E+00  0.0000E+00  0.0000E+00  0.0000E+00  0.0000E+00  0.0000E+00  0.0000E+00  0.0000E+00
    -19.169  0.0000E+00  0.0000E+00  0.0000E+00  0.0000E+00  0.0000E+00  0.0000E+00  0.0000E+00  0.0000E+00  0.0000E+00
    -19.069  0.0000E+00  0.0000E+00  0.0000E+00  0.0000E+00  0.0000E+00  0.0000E+00  0.0000E+00  0.0000E+00  0.0000E+00
    -18.970  0.0000E+00  0.0000E+00  0.0000E+00  0.0000E+00  0.0000E+00  0.0000E+00  0.0000E+00  0.0000E+00  0.0000E+00
    -18.870  0.0000E+00  0.0000E+00  0.0000E+00  0.0000E+00  0.0000E+00  0.0000E+00  0.0000E+00  0.0000E+00  0.0000E+00
    -18.771  0.0000E+00  0.0000E+00  0.0000E+00  0.0000E+00  0.0000E+00  0.0000E+00  0.0000E+00  0.0000E+00  0.0000E+00
    -18.672  0.0000E+00  0.0000E+00  0.0000E+00  0.0000E+00  0.0000E+00  0.0000E+00  0.0000E+00  0.0000E+00  0.0000E+00
    -18.572  0.0000E+00  0.0000E+00  0.0000E+00  0.0000E+00  0.0000E+00  0.0000E+00  0.0000E+00  0.0000E+00  0.0000E+00
    -18.473  0.0000E+00  0.0000E+00  0.0000E+00  0.0000E+00  0.0000E+00  0.0000E+00  0.0000E+00  0.0000E+00  0.0000E+00
    -18.373  0.0000E+00  0.0000E+00  0.0000E+00  0.0000E+00  0.0000E+00  0.0000E+00  0.0000E+00  0.0000E+00  0.0000E+00
    -18.274  0.0000E+00  0.0000E+00  0.0000E+00  0.0000E+00  0.0000E+00  0.0000E+00  0.0000E+00  0.0000E+00  0.0000E+00
    -18.175  0.0000E+00  0.0000E+00  0.0000E+00  0.0000E+00  0.0000E+00  0.0000E+00  0.0000E+00  0.0000E+00  0.0000E+00
    -18.075  0.0000E+00  0.0000E+00  0.0000E+00  0.0000E+00  0.0000E+00  0.0000E+00  0.0000E+00  0.0000E+00  0.0000E+00
    -17.976  0.0000E+00  0.0000E+00  0.0000E+00  0.0000E+00  0.0000E+00  0.0000E+00  0.0000E+00  0.0000E+00  0.0000E+00
    -17.876  0.1659E-17  0.4507E-18  0.3231E-26  0.9252E-21  0.0000E+00  0.0000E+00  0.0000E+00  0.0000E+00  0.0000E+00
    -17.777  0.1259E-12  0.3380E-13  0.2449E-21  0.9287E-16  0.0000E+00  0.0000E+00  0.0000E+00  0.0000E+00  0.0000E+00
    -17.677  0.1084E-08  0.2913E-09  0.2110E-17  0.9250E-12  0.0000E+00  0.0000E+00  0.0000E+00  0.0000E+00  0.0000E+00
    -17.578  0.1440E-05  0.3875E-06  0.2806E-14  0.1481E-08  0.0000E+00  0.0000E+00  0.0000E+00  0.0000E+00  0.0000E+00
    -17.479  0.3133E-03  0.8445E-04  0.6117E-12  0.4119E-06  0.0000E+00  0.0000E+00  0.0000E+00  0.0000E+00  0.0000E+00
    -17.379  0.1243E-01  0.3360E-02  0.2434E-10  0.2272E-04  0.0000E+00  0.0000E+00  0.0000E+00  0.0000E+00  0.0000E+00
    -17.280  0.1090E+00  0.2962E-01  0.2151E-09  0.3103E-03  0.0000E+00  0.0000E+00  0.0000E+00  0.0000E+00  0.0000E+00
    -17.180  0.3022E+00  0.8211E-01  0.6059E-09  0.1483E-02  0.0000E+00  0.0000E+00  0.0000E+00  0.0000E+00  0.0000E+00
    -17.081  0.4867E+00  0.1271E+00  0.1006E-08  0.3866E-02  0.0000E+00  0.0000E+00  0.0000E+00  0.0000E+00  0.0000E+00
    -16.982  0.6361E+00  0.1746E+00  0.1340E-08  0.7451E-02  0.0000E+00  0.0000E+00  0.0000E+00  0.0000E+00  0.0000E+00
    -16.882  0.4969E+00  0.2113E+00  0.1030E-08  0.1118E-01  0.0000E+00  0.0000E+00  0.0000E+00  0.0000E+00  0.0000E+00
    -16.783  0.2458E+00  0.1753E+00  0.4906E-09  0.1177E-01  0.0000E+00  0.0000E+00  0.0000E+00  0.0000E+00  0.0000E+00
    -16.683  0.9617E-01  0.9780E-01  0.1849E-09  0.8593E-02  0.0000E+00  0.0000E+00  0.0000E+00  0.0000E+00  0.0000E+00
    -16.584  0.2694E-01  0.3725E-01  0.4789E-10  0.3841E-02  0.0000E+00  0.0000E+00  0.0000E+00  0.0000E+00  0.0000E+00
    -16.485  0.3730E-02  0.6190E-02  0.6098E-11  0.6756E-03  0.0000E+00  0.0000E+00  0.0000E+00  0.0000E+00  0.0000E+00
    -16.385  0.1544E-03  0.2769E-03  0.2396E-12  0.3077E-04  0.0000E+00  0.0000E+00  0.0000E+00  0.0000E+00  0.0000E+00
    -16.286  0.1346E-05  0.2494E-05  0.2028E-14  0.2789E-06  0.0000E+00  0.0000E+00  0.0000E+00  0.0000E+00  0.0000E+00
    -16.186  0.2055E-08  0.3869E-08  0.3046E-17  0.4340E-09  0.0000E+00  0.0000E+00  0.0000E+00  0.0000E+00  0.0000E+00
    -16.087  0.5006E-12  0.9511E-12  0.7346E-21  0.1068E-12  0.0000E+00  0.0000E+00  0.0000E+00  0.0000E+00  0.0000E+00
    -15.988  0.1847E-16  0.3531E-16  0.2690E-25  0.3969E-17  0.0000E+00  0.0000E+00  0.0000E+00  0.0000E+00  0.0000E+00
    -15.888  0.1010E-16  0.6706E-16  0.3649E-23  0.4734E-15  0.0000E+00  0.0000E+00  0.0000E+00  0.0000E+00  0.0000E+00
    -15.789  0.1513E-12  0.9991E-12  0.5434E-19  0.7050E-11  0.0000E+00  0.0000E+00  0.0000E+00  0.0000E+00  0.0000E+00
    -15.689  0.3372E-09  0.2191E-08  0.1190E-15  0.1544E-07  0.0000E+00  0.0000E+00  0.0000E+00  0.0000E+00  0.0000E+00
    -15.590  0.1214E-06  0.7414E-06  0.4019E-13  0.5210E-05  0.0000E+00  0.0000E+00  0.0000E+00  0.0000E+00  0.0000E+00
    -15.491  0.8542E-05  0.4277E-04  0.2316E-11  0.2991E-03  0.0000E+00  0.0000E+00  0.0000E+00  0.0000E+00  0.0000E+00
    -15.391  0.1565E-03  0.5102E-03  0.2788E-10  0.3545E-02  0.0000E+00  0.0000E+00  0.0000E+00  0.0000E+00  0.0000E+00
    -15.292  0.9150E-03  0.1727E-02  0.9692E-10  0.1189E-01  0.0000E+00  0.0000E+00  0.0000E+00  0.0000E+00  0.0000E+00
    -15.192  0.2505E-02  0.2665E-02  0.1598E-09  0.1813E-01  0.0000E+00  0.0000E+00  0.0000E+00  0.0000E+00  0.0000E+00
    -15.093  0.5115E-02  0.3343E-02  0.2261E-09  0.2247E-01  0.0000E+00  0.0000E+00  0.0000E+00  0.0000E+00  0.0000E+00
    -14.993  0.9334E-02  0.4272E-02  0.3316E-09  0.2678E-01  0.0000E+00  0.0000E+00  0.0000E+00  0.0000E+00  0.0000E+00
    -14.894  0.2156E-01  0.7900E-02  0.6585E-09  0.3691E-01  0.0000E+00  0.0000E+00  0.0000E+00  0.0000E+00  0.0000E+00
    -14.795  0.5734E-01  0.2119E-01  0.1638E-08  0.5485E-01  0.0000E+00  0.0000E+00  0.0000E+00  0.0000E+00  0.0000E+00
    -14.695  0.9027E-01  0.3561E-01  0.2583E-08  0.6977E-01  0.0000E+00  0.0000E+00  0.0000E+00  0.0000E+00  0.0000E+00
    -14.596  0.7244E-01  0.3219E-01  0.2171E-08  0.5910E-01  0.0000E+00  0.0000E+00  0.0000E+00  0.0000E+00  0.0000E+00
    -14.496  0.6186E-01  0.2990E-01  0.1915E-08  0.5502E-01  0.0000E+00  0.0000E+00  0.0000E+00  0.0000E+00  0.0000E+00
    -14.397  0.7888E-01  0.3593E-01  0.2253E-08  0.5311E-01  0.0000E+00  0.0000E+00  0.0000E+00  0.0000E+00  0.0000E+00
    -14.298  0.9562E-01  0.4066E-01  0.2595E-08  0.4283E-01  0.0000E+00  0.0000E+00  0.0000E+00  0.0000E+00  0.0000E+00
    -14.198  0.1022E+00  0.4337E-01  0.2837E-08  0.4124E-01  0.0000E+00  0.0000E+00  0.0000E+00  0.0000E+00  0.0000E+00
    -14.099  0.1156E+00  0.4904E-01  0.3320E-08  0.4783E-01  0.0000E+00  0.0000E+00  0.0000E+00  0.0000E+00  0.0000E+00
    -13.999  0.1367E+00  0.5621E-01  0.4079E-08  0.5969E-01  0.0000E+00  0.0000E+00  0.0000E+00  0.0000E+00  0.0000E+00
    -13.900  0.1176E+00  0.4994E-01  0.3774E-08  0.5555E-01  0.0000E+00  0.0000E+00  0.0000E+00  0.0000E+00  0.0000E+00
    -13.801  0.7262E-01  0.3483E-01  0.2709E-08  0.4061E-01  0.0000E+00  0.0000E+00  0.0000E+00  0.0000E+00  0.0000E+00
    -13.701  0.3741E-01  0.1992E-01  0.1609E-08  0.2420E-01  0.0000E+00  0.0000E+00  0.0000E+00  0.0000E+00  0.0000E+00
    -13.602  0.1039E-01  0.5721E-02  0.4758E-09  0.7045E-02  0.0000E+00  0.0000E+00  0.0000E+00  0.0000E+00  0.0000E+00
    -13.502  0.8428E-03  0.4667E-03  0.3953E-10  0.5786E-03  0.0000E+00  0.0000E+00  0.0000E+00  0.0000E+00  0.0000E+00
    -13.403  0.1463E-04  0.8105E-05  0.6950E-12  0.1011E-04  0.0000E+00  0.0000E+00  0.0000E+00  0.0000E+00  0.0000E+00
    -13.304  0.4633E-07  0.2566E-07  0.2218E-14  0.3213E-07  0.0000E+00  0.0000E+00  0.0000E+00  0.0000E+00  0.0000E+00
    -13.204  0.2469E-10  0.1673E-10  0.1180E-17  0.1753E-10  0.0000E+00  0.0000E+00  0.0000E+00  0.0000E+00  0.0000E+00
    -13.105  0.2272E-08  0.1379E-07  0.6443E-15  0.3087E-08  0.0000E+00  0.0000E+00  0.0000E+00  0.0000E+00  0.0000E+00
    -13.005  0.1456E-05  0.9033E-05  0.1031E-10  0.1985E-05  0.0000E+00  0.0000E+00  0.0000E+00  0.0000E+00  0.0000E+00
    -12.906  0.1586E-03  0.1008E-02  0.2850E-07  0.2180E-03  0.0000E+00  0.0000E+00  0.0000E+00  0.0000E+00  0.0000E+00
    -12.806  0.3278E-02  0.2117E-01  0.1259E-04  0.4584E-02  0.0000E+00  0.0000E+00  0.0000E+00  0.0000E+00  0.0000E+00
    -12.707  0.1579E-01  0.1005E+00  0.9622E-03  0.2307E-01  0.0000E+00  0.0000E+00  0.0000E+00  0.0000E+00  0.0000E+00
    -12.608  0.2636E-01  0.1560E+00  0.1477E-01  0.4209E-01  0.0000E+00  0.0000E+00  0.0000E+00  0.0000E+00  0.0000E+00
    -12.508  0.2582E-01  0.1364E+00  0.5948E-01  0.4569E-01  0.0000E+00  0.0000E+00  0.0000E+00  0.0000E+00  0.0000E+00
    -12.409  0.2195E-01  0.1046E+00  0.1012E+00  0.4152E-01  0.0000E+00  0.0000E+00  0.0000E+00  0.0000E+00  0.0000E+00
    -12.309  0.1944E-01  0.8624E-01  0.1212E+00  0.3931E-01  0.0000E+00  0.0000E+00  0.0000E+00  0.0000E+00  0.0000E+00
    -12.210  0.1886E-01  0.7856E-01  0.1084E+00  0.3916E-01  0.0000E+00  0.0000E+00  0.0000E+00  0.0000E+00  0.0000E+00
    -12.111  0.1767E-01  0.7289E-01  0.8381E-01  0.3861E-01  0.0000E+00  0.0000E+00  0.0000E+00  0.0000E+00  0.0000E+00
    -12.011  0.1779E-01  0.7029E-01  0.7022E-01  0.4017E-01  0.0000E+00  0.0000E+00  0.0000E+00  0.0000E+00  0.0000E+00
    -11.912  0.1806E-01  0.6912E-01  0.6272E-01  0.4109E-01  0.0000E+00  0.0000E+00  0.0000E+00  0.0000E+00  0.0000E+00
    -11.812  0.1698E-01  0.6685E-01  0.5798E-01  0.4057E-01  0.0000E+00  0.0000E+00  0.0000E+00  0.0000E+00  0.0000E+00
    -11.713  0.1816E-01  0.6367E-01  0.5491E-01  0.4337E-01  0.0000E+00  0.0000E+00  0.0000E+00  0.0000E+00  0.0000E+00
    -11.614  0.1871E-01  0.4483E-01  0.5304E-01  0.4241E-01  0.0000E+00  0.0000E+00  0.0000E+00  0.0000E+00  0.0000E+00
    -11.514  0.2053E-01  0.2782E-01  0.5297E-01  0.4202E-01  0.0000E+00  0.0000E+00  0.0000E+00  0.0000E+00  0.0000E+00
    -11.415  0.2906E-01  0.2491E-01  0.5631E-01  0.4380E-01  0.0000E+00  0.0000E+00  0.0000E+00  0.0000E+00  0.0000E+00
    -11.315  0.4147E-01  0.2898E-01  0.6425E-01  0.5095E-01  0.0000E+00  0.0000E+00  0.0000E+00  0.0000E+00  0.0000E+00
    -11.216  0.4438E-01  0.2995E-01  0.6288E-01  0.5195E-01  0.0000E+00  0.0000E+00  0.0000E+00  0.0000E+00  0.0000E+00
    -11.117  0.4532E-01  0.3153E-01  0.4860E-01  0.5362E-01  0.0000E+00  0.0000E+00  0.0000E+00  0.0000E+00  0.0000E+00
    -11.017  0.5142E-01  0.4097E-01  0.3771E-01  0.6718E-01  0.0000E+00  0.0000E+00  0.0000E+00  0.0000E+00  0.0000E+00
    -10.918  0.5265E-01  0.4176E-01  0.3087E-01  0.6674E-01  0.0000E+00  0.0000E+00  0.0000E+00  0.0000E+00  0.0000E+00
    -10.818  0.4411E-01  0.3700E-01  0.2524E-01  0.5313E-01  0.0000E+00  0.0000E+00  0.0000E+00  0.0000E+00  0.0000E+00
    -10.719  0.4716E-01  0.3369E-01  0.1665E-01  0.4651E-01  0.0000E+00  0.0000E+00  0.0000E+00  0.0000E+00  0.0000E+00
    -10.619  0.6430E-01  0.3780E-01  0.5236E-02  0.6527E-01  0.0000E+00  0.0000E+00  0.0000E+00  0.0000E+00  0.0000E+00
    -10.520  0.7462E-01  0.4210E-01  0.4742E-03  0.9312E-01  0.0000E+00  0.0000E+00  0.0000E+00  0.0000E+00  0.0000E+00
    -10.421  0.5313E-01  0.3182E-01  0.9108E-05  0.7947E-01  0.0000E+00  0.0000E+00  0.0000E+00  0.0000E+00  0.0000E+00
    -10.321  0.3282E-01  0.2197E-01  0.3261E-07  0.5360E-01  0.0000E+00  0.0000E+00  0.0000E+00  0.0000E+00  0.0000E+00
    -10.222  0.2662E-01  0.1797E-01  0.1268E-08  0.4767E-01  0.0000E+00  0.0000E+00  0.0000E+00  0.0000E+00  0.0000E+00
    -10.122  0.2265E-01  0.1429E-01  0.1127E-08  0.4367E-01  0.0000E+00  0.0000E+00  0.0000E+00  0.0000E+00  0.0000E+00
    -10.023  0.2174E-01  0.1800E-01  0.1338E-08  0.4922E-01  0.0000E+00  0.0000E+00  0.0000E+00  0.0000E+00  0.0000E+00
     -9.924  0.2271E-01  0.1805E-01  0.1291E-08  0.5730E-01  0.0000E+00  0.0000E+00  0.0000E+00  0.0000E+00  0.0000E+00
     -9.824  0.2552E-01  0.1598E-01  0.1216E-08  0.7166E-01  0.0000E+00  0.0000E+00  0.0000E+00  0.0000E+00  0.0000E+00
     -9.725  0.2588E-01  0.1316E-01  0.1604E-08  0.8163E-01  0.0000E+00  0.0000E+00  0.0000E+00  0.0000E+00  0.0000E+00
     -9.625  0.2942E-01  0.1291E-01  0.3613E-08  0.1100E+00  0.0000E+00  0.0000E+00  0.0000E+00  0.0000E+00  0.0000E+00
     -9.526  0.3059E-01  0.1655E-01  0.6148E-08  0.1440E+00  0.0000E+00  0.0000E+00  0.0000E+00  0.0000E+00  0.0000E+00
     -9.427  0.2240E-01  0.1701E-01  0.5502E-08  0.1359E+00  0.0000E+00  0.0000E+00  0.0000E+00  0.0000E+00  0.0000E+00
     -9.327  0.1297E-01  0.1477E-01  0.4140E-08  0.1065E+00  0.0000E+00  0.0000E+00  0.0000E+00  0.0000E+00  0.0000E+00
     -9.228  0.7556E-02  0.1491E-01  0.3174E-08  0.6737E-01  0.0000E+00  0.0000E+00  0.0000E+00  0.0000E+00  0.0000E+00
     -9.128  0.6181E-02  0.2026E-01  0.3189E-08  0.4844E-01  0.0000E+00  0.0000E+00  0.0000E+00  0.0000E+00  0.0000E+00
     -9.029  0.6286E-02  0.2251E-01  0.1437E-06  0.3990E-01  0.0000E+00  0.0000E+00  0.0000E+00  0.0000E+00  0.0000E+00
     -8.930  0.1260E-01  0.2721E-01  0.4300E-04  0.4311E-01  0.0000E+00  0.0000E+00  0.0000E+00  0.0000E+00  0.0000E+00
     -8.830  0.2288E-01  0.3246E-01  0.2327E-02  0.4881E-01  0.0000E+00  0.0000E+00  0.0000E+00  0.0000E+00  0.0000E+00
     -8.731  0.2874E-01  0.3620E-01  0.2634E-01  0.5390E-01  0.0000E+00  0.0000E+00  0.0000E+00  0.0000E+00  0.0000E+00
     -8.631  0.3635E-01  0.4653E-01  0.8348E-01  0.6278E-01  0.0000E+00  0.0000E+00  0.0000E+00  0.0000E+00  0.0000E+00
     -8.532  0.4175E-01  0.5423E-01  0.1217E+00  0.7357E-01  0.0000E+00  0.0000E+00  0.0000E+00  0.0000E+00  0.0000E+00
     -8.432  0.3786E-01  0.5274E-01  0.1447E+00  0.7330E-01  0.0000E+00  0.0000E+00  0.0000E+00  0.0000E+00  0.0000E+00
     -8.333  0.3133E-01  0.5251E-01  0.1768E+00  0.6882E-01  0.0000E+00  0.0000E+00  0.0000E+00  0.0000E+00  0.0000E+00
     -8.234  0.2731E-01  0.5515E-01  0.1832E+00  0.6559E-01  0.0000E+00  0.0000E+00  0.0000E+00  0.0000E+00  0.0000E+00
     -8.134  0.2557E-01  0.5689E-01  0.1554E+00  0.6425E-01  0.0000E+00  0.0000E+00  0.0000E+00  0.0000E+00  0.0000E+00
     -8.035  0.2302E-01  0.5669E-01  0.1403E+00  0.7270E-01  0.0000E+00  0.0000E+00  0.0000E+00  0.0000E+00  0.0000E+00
     -7.935  0.2554E-01  0.6690E-01  0.1306E+00  0.7540E-01  0.0000E+00  0.0000E+00  0.0000E+00  0.0000E+00  0.0000E+00
     -7.836  0.2710E-01  0.6226E-01  0.1001E+00  0.5548E-01  0.0000E+00  0.0000E+00  0.0000E+00  0.0000E+00  0.0000E+00
     -7.737  0.2394E-01  0.4796E-01  0.6410E-01  0.4363E-01  0.0000E+00  0.0000E+00  0.0000E+00  0.0000E+00  0.0000E+00
     -7.637  0.2545E-01  0.4714E-01  0.3967E-01  0.4110E-01  0.0000E+00  0.0000E+00  0.0000E+00  0.0000E+00  0.0000E+00
     -7.538  0.3010E-01  0.5777E-01  0.2303E-01  0.4247E-01  0.0000E+00  0.0000E+00  0.0000E+00  0.0000E+00  0.0000E+00
     -7.438  0.2950E-01  0.4557E-01  0.1125E-01  0.4443E-01  0.0000E+00  0.0000E+00  0.0000E+00  0.0000E+00  0.0000E+00
     -7.339  0.2587E-01  0.3362E-01  0.5290E-02  0.4129E-01  0.0000E+00  0.0000E+00  0.0000E+00  0.0000E+00  0.0000E+00
     -7.240  0.2981E-01  0.5433E-01  0.1961E-02  0.4216E-01  0.0000E+00  0.0000E+00  0.0000E+00  0.0000E+00  0.0000E+00
     -7.140  0.2950E-01  0.5189E-01  0.1015E-02  0.4333E-01  0.0000E+00  0.0000E+00  0.0000E+00  0.0000E+00  0.0000E+00
     -7.041  0.2342E-01  0.3873E-01  0.7757E-02  0.3801E-01  0.0000E+00  0.0000E+00  0.0000E+00  0.0000E+00  0.0000E+00
     -6.941  0.1762E-01  0.5702E-01  0.3653E-01  0.2216E-01  0.0000E+00  0.0000E+00  0.0000E+00  0.0000E+00  0.0000E+00
     -6.842  0.1424E-01  0.6649E-01  0.7790E-01  0.1454E-01  0.0000E+00  0.0000E+00  0.0000E+00  0.0000E+00  0.0000E+00
     -6.743  0.1422E-01  0.7062E-01  0.1055E+00  0.1650E-01  0.0000E+00  0.0000E+00  0.0000E+00  0.0000E+00  0.0000E+00
     -6.643  0.1333E-01  0.6782E-01  0.9879E-01  0.2009E-01  0.0000E+00  0.0000E+00  0.0000E+00  0.0000E+00  0.0000E+00
     -6.544  0.8165E-02  0.3813E-01  0.8971E-01  0.1758E-01  0.0000E+00  0.0000E+00  0.0000E+00  0.0000E+00  0.0000E+00
     -6.444  0.5295E-02  0.2366E-01  0.8987E-01  0.1440E-01  0.0000E+00  0.0000E+00  0.0000E+00  0.0000E+00  0.0000E+00
     -6.345  0.4352E-02  0.2033E-01  0.9583E-01  0.1344E-01  0.0000E+00  0.0000E+00  0.0000E+00  0.0000E+00  0.0000E+00
     -6.245  0.4852E-02  0.2151E-01  0.9592E-01  0.1700E-01  0.0000E+00  0.0000E+00  0.0000E+00  0.0000E+00  0.0000E+00
     -6.146  0.5006E-02  0.2210E-01  0.9363E-01  0.1868E-01  0.0000E+00  0.0000E+00  0.0000E+00  0.0000E+00  0.0000E+00
     -6.047  0.3665E-02  0.1811E-01  0.8793E-01  0.1460E-01  0.0000E+00  0.0000E+00  0.0000E+00  0.0000E+00  0.0000E+00
     -5.947  0.3301E-02  0.1935E-01  0.7747E-01  0.1407E-01  0.0000E+00  0.0000E+00  0.0000E+00  0.0000E+00  0.0000E+00
     -5.848  0.2287E-02  0.1321E-01  0.5584E-01  0.1052E-01  0.0000E+00  0.0000E+00  0.0000E+00  0.0000E+00  0.0000E+00
     -5.748  0.3603E-02  0.1880E-01  0.1944E-01  0.1775E-01  0.0000E+00  0.0000E+00  0.0000E+00  0.0000E+00  0.0000E+00
     -5.649  0.4174E-02  0.2404E-01  0.1962E-02  0.2080E-01  0.0000E+00  0.0000E+00  0.0000E+00  0.0000E+00  0.0000E+00
     -5.550  0.2287E-02  0.1514E-01  0.4227E-04  0.1117E-01  0.0000E+00  0.0000E+00  0.0000E+00  0.0000E+00  0.0000E+00
     -5.450  0.1552E-02  0.1140E-01  0.1637E-06  0.7249E-02  0.0000E+00  0.0000E+00  0.0000E+00  0.0000E+00  0.0000E+00
     -5.351  0.2892E-02  0.1938E-01  0.2030E-08  0.1480E-01  0.0000E+00  0.0000E+00  0.0000E+00  0.0000E+00  0.0000E+00
     -5.251  0.4412E-02  0.2679E-01  0.3320E-08  0.2176E-01  0.0000E+00  0.0000E+00  0.0000E+00  0.0000E+00  0.0000E+00
     -5.152  0.3380E-02  0.2010E-01  0.1673E-08  0.1186E-01  0.0000E+00  0.0000E+00  0.0000E+00  0.0000E+00  0.0000E+00
     -5.053  0.2006E-02  0.1480E-01  0.1177E-08  0.6210E-02  0.0000E+00  0.0000E+00  0.0000E+00  0.0000E+00  0.0000E+00
     -4.953  0.2248E-02  0.1817E-01  0.3404E-08  0.9514E-02  0.0000E+00  0.0000E+00  0.0000E+00  0.0000E+00  0.0000E+00
     -4.854  0.5794E-02  0.1981E-01  0.8536E-08  0.1464E-01  0.0000E+00  0.0000E+00  0.0000E+00  0.0000E+00  0.0000E+00
     -4.754  0.1598E-01  0.1490E-01  0.2078E-07  0.1003E-01  0.0000E+00  0.0000E+00  0.0000E+00  0.0000E+00  0.0000E+00
     -4.655  0.2245E-01  0.1285E-01  0.2948E-07  0.6220E-02  0.0000E+00  0.0000E+00  0.0000E+00  0.0000E+00  0.0000E+00
     -4.556  0.1950E-01  0.1701E-01  0.3075E-07  0.9778E-02  0.0000E+00  0.0000E+00  0.0000E+00  0.0000E+00  0.0000E+00
     -4.456  0.1460E-01  0.1863E-01  0.3446E-07  0.1590E-01  0.0000E+00  0.0000E+00  0.0000E+00  0.0000E+00  0.0000E+00
     -4.357  0.1093E-01  0.1747E-01  0.4315E-07  0.1829E-01  0.0000E+00  0.0000E+00  0.0000E+00  0.0000E+00  0.0000E+00
     -4.257  0.7360E-02  0.1814E-01  0.3195E-07  0.1591E-01  0.0000E+00  0.0000E+00  0.0000E+00  0.0000E+00  0.0000E+00
     -4.158  0.4413E-02  0.1888E-01  0.1183E-07  0.1038E-01  0.0000E+00  0.0000E+00  0.0000E+00  0.0000E+00  0.0000E+00
     -4.058  0.2536E-02  0.1581E-01  0.3658E-08  0.7775E-02  0.0000E+00  0.0000E+00  0.0000E+00  0.0000E+00  0.0000E+00
     -3.959  0.1698E-02  0.1336E-01  0.1649E-08  0.6964E-02  0.0000E+00  0.0000E+00  0.0000E+00  0.0000E+00  0.0000E+00
     -3.860  0.1136E-02  0.1278E-01  0.1374E-08  0.4881E-02  0.0000E+00  0.0000E+00  0.0000E+00  0.0000E+00  0.0000E+00
     -3.760  0.9229E-03  0.1228E-01  0.2133E-08  0.4926E-02  0.0000E+00  0.0000E+00  0.0000E+00  0.0000E+00  0.0000E+00
     -3.661  0.1001E-02  0.1309E-01  0.1490E-08  0.6886E-02  0.0000E+00  0.0000E+00  0.0000E+00  0.0000E+00  0.0000E+00
     -3.561  0.6237E-03  0.9681E-02  0.4786E-09  0.4220E-02  0.0000E+00  0.0000E+00  0.0000E+00  0.0000E+00  0.0000E+00
     -3.462  0.3923E-03  0.9069E-02  0.2483E-09  0.2392E-02  0.0000E+00  0.0000E+00  0.0000E+00  0.0000E+00  0.0000E+00
     -3.363  0.3376E-03  0.8419E-02  0.3279E-09  0.2908E-02  0.0000E+00  0.0000E+00  0.0000E+00  0.0000E+00  0.0000E+00
     -3.263  0.3913E-03  0.1094E-01  0.6078E-09  0.3972E-02  0.0000E+00  0.0000E+00  0.0000E+00  0.0000E+00  0.0000E+00
     -3.164  0.2237E-03  0.7596E-02  0.3958E-09  0.2201E-02  0.0000E+00  0.0000E+00  0.0000E+00  0.0000E+00  0.0000E+00
     -3.064  0.9284E-04  0.6153E-02  0.2639E-09  0.1018E-02  0.0000E+00  0.0000E+00  0.0000E+00  0.0000E+00  0.0000E+00
     -2.965  0.7517E-04  0.6618E-02  0.4731E-09  0.1018E-02  0.0000E+00  0.0000E+00  0.0000E+00  0.0000E+00  0.0000E+00
     -2.866  0.2700E-04  0.2625E-02  0.2478E-09  0.4155E-03  0.0000E+00  0.0000E+00  0.0000E+00  0.0000E+00  0.0000E+00
     -2.766  0.2476E-05  0.2487E-03  0.2535E-10  0.3977E-04  0.0000E+00  0.0000E+00  0.0000E+00  0.0000E+00  0.0000E+00
     -2.667  0.4209E-07  0.4259E-05  0.4408E-12  0.6822E-06  0.0000E+00  0.0000E+00  0.0000E+00  0.0000E+00  0.0000E+00
     -2.567  0.1139E-09  0.1154E-07  0.1198E-14  0.1849E-08  0.0000E+00  0.0000E+00  0.0000E+00  0.0000E+00  0.0000E+00
     -2.468  0.4607E-13  0.4668E-11  0.4848E-18  0.7482E-12  0.0000E+00  0.0000E+00  0.0000E+00  0.0000E+00  0.0000E+00
     -2.369  0.2711E-17  0.2747E-15  0.2853E-22  0.4403E-16  0.0000E+00  0.0000E+00  0.0000E+00  0.0000E+00  0.0000E+00
     -2.269  0.0000E+00  0.0000E+00  0.0000E+00  0.0000E+00  0.0000E+00  0.0000E+00  0.0000E+00  0.0000E+00  0.0000E+00
     -2.170  0.0000E+00  0.0000E+00  0.0000E+00  0.0000E+00  0.0000E+00  0.0000E+00  0.0000E+00  0.0000E+00  0.0000E+00
     -2.070  0.4312E-16  0.1244E-15  0.1838E-22  0.1278E-14  0.0000E+00  0.0000E+00  0.0000E+00  0.0000E+00  0.0000E+00
     -1.971  0.6639E-12  0.1913E-11  0.2818E-18  0.1966E-10  0.0000E+00  0.0000E+00  0.0000E+00  0.0000E+00  0.0000E+00
     -1.871  0.1503E-08  0.4319E-08  0.6313E-15  0.4437E-07  0.0000E+00  0.0000E+00  0.0000E+00  0.0000E+00  0.0000E+00
     -1.772  0.5222E-06  0.1491E-05  0.2136E-12  0.1529E-04  0.0000E+00  0.0000E+00  0.0000E+00  0.0000E+00  0.0000E+00
     -1.673  0.3020E-04  0.8492E-04  0.1164E-10  0.8688E-03  0.0000E+00  0.0000E+00  0.0000E+00  0.0000E+00  0.0000E+00
     -1.573  0.3331E-03  0.9092E-03  0.1210E-09  0.9244E-02  0.0000E+00  0.0000E+00  0.0000E+00  0.0000E+00  0.0000E+00
     -1.474  0.8918E-03  0.2282E-02  0.2012E-07  0.2278E-01  0.0000E+00  0.0000E+00  0.0000E+00  0.0000E+00  0.0000E+00
     -1.374  0.1065E-02  0.2528E-02  0.9403E-05  0.2277E-01  0.0000E+00  0.0000E+00  0.0000E+00  0.0000E+00  0.0000E+00
     -1.275  0.1665E-02  0.4401E-02  0.7940E-03  0.3115E-01  0.0000E+00  0.0000E+00  0.0000E+00  0.0000E+00  0.0000E+00
     -1.176  0.2490E-02  0.6166E-02  0.1358E-01  0.4085E-01  0.0000E+00  0.0000E+00  0.0000E+00  0.0000E+00  0.0000E+00
     -1.076  0.2385E-02  0.4722E-02  0.5984E-01  0.3032E-01  0.0000E+00  0.0000E+00  0.0000E+00  0.0000E+00  0.0000E+00
     -0.977  0.3345E-02  0.6523E-02  0.1089E+00  0.3582E-01  0.0000E+00  0.0000E+00  0.0000E+00  0.0000E+00  0.0000E+00
     -0.877  0.5494E-02  0.1157E-01  0.1367E+00  0.5502E-01  0.0000E+00  0.0000E+00  0.0000E+00  0.0000E+00  0.0000E+00
     -0.778  0.6207E-02  0.1106E-01  0.1429E+00  0.5224E-01  0.0000E+00  0.0000E+00  0.0000E+00  0.0000E+00  0.0000E+00
     -0.679  0.7785E-02  0.1149E-01  0.1466E+00  0.4768E-01  0.0000E+00  0.0000E+00  0.0000E+00  0.0000E+00  0.0000E+00
     -0.579  0.1261E-01  0.1901E-01  0.1452E+00  0.7171E-01  0.0000E+00  0.0000E+00  0.0000E+00  0.0000E+00  0.0000E+00
     -0.480  0.1713E-01  0.2393E-01  0.1133E+00  0.8316E-01  0.0000E+00  0.0000E+00  0.0000E+00  0.0000E+00  0.0000E+00
     -0.380  0.2611E-01  0.3200E-01  0.8348E-01  0.1014E+00  0.0000E+00  0.0000E+00  0.0000E+00  0.0000E+00  0.0000E+00
     -0.281  0.3842E-01  0.4405E-01  0.7522E-01  0.1288E+00  0.0000E+00  0.0000E+00  0.0000E+00  0.0000E+00  0.0000E+00
     -0.182  0.3803E-01  0.4053E-01  0.6431E-01  0.1042E+00  0.0000E+00  0.0000E+00  0.0000E+00  0.0000E+00  0.0000E+00
     -0.082  0.2996E-01  0.2782E-01  0.6921E-01  0.5613E-01  0.0000E+00  0.0000E+00  0.0000E+00  0.0000E+00  0.0000E+00
      0.017  0.2651E-01  0.2241E-01  0.1124E+00  0.3671E-01  0.0000E+00  0.0000E+00  0.0000E+00  0.0000E+00  0.0000E+00
      0.117  0.2603E-01  0.2225E-01  0.1263E+00  0.3431E-01  0.0000E+00  0.0000E+00  0.0000E+00  0.0000E+00  0.0000E+00
      0.216  0.2592E-01  0.2242E-01  0.8559E-01  0.3327E-01  0.0000E+00  0.0000E+00  0.0000E+00  0.0000E+00  0.0000E+00
      0.316  0.2512E-01  0.2095E-01  0.9126E-01  0.2805E-01  0.0000E+00  0.0000E+00  0.0000E+00  0.0000E+00  0.0000E+00
      0.415  0.2667E-01  0.2355E-01  0.1149E+00  0.2840E-01  0.0000E+00  0.0000E+00  0.0000E+00  0.0000E+00  0.0000E+00
      0.514  0.3039E-01  0.3545E-01  0.9796E-01  0.2834E-01  0.0000E+00  0.0000E+00  0.0000E+00  0.0000E+00  0.0000E+00
      0.614  0.4050E-01  0.5651E-01  0.9263E-01  0.2929E-01  0.0000E+00  0.0000E+00  0.0000E+00  0.0000E+00  0.0000E+00
      0.713  0.5177E-01  0.6779E-01  0.1214E+00  0.3146E-01  0.0000E+00  0.0000E+00  0.0000E+00  0.0000E+00  0.0000E+00
      0.813  0.5813E-01  0.7001E-01  0.1045E+00  0.3493E-01  0.0000E+00  0.0000E+00  0.0000E+00  0.0000E+00  0.0000E+00
      0.912  0.5490E-01  0.6292E-01  0.5299E-01  0.3683E-01  0.0000E+00  0.0000E+00  0.0000E+00  0.0000E+00  0.0000E+00
      1.011  0.5131E-01  0.5781E-01  0.3113E-01  0.3746E-01  0.0000E+00  0.0000E+00  0.0000E+00  0.0000E+00  0.0000E+00
      1.111  0.4517E-01  0.5004E-01  0.1917E-01  0.3417E-01  0.0000E+00  0.0000E+00  0.0000E+00  0.0000E+00  0.0000E+00
      1.210  0.4182E-01  0.4715E-01  0.7859E-02  0.3209E-01  0.0000E+00  0.0000E+00  0.0000E+00  0.0000E+00  0.0000E+00
      1.310  0.3695E-01  0.4443E-01  0.8685E-02  0.3065E-01  0.0000E+00  0.0000E+00  0.0000E+00  0.0000E+00  0.0000E+00
      1.409  0.2741E-01  0.3354E-01  0.1771E-01  0.2442E-01  0.0000E+00  0.0000E+00  0.0000E+00  0.0000E+00  0.0000E+00
      1.508  0.3045E-01  0.3069E-01  0.2918E-01  0.1574E-01  0.0000E+00  0.0000E+00  0.0000E+00  0.0000E+00  0.0000E+00
      1.608  0.4595E-01  0.4275E-01  0.3738E-01  0.1217E-01  0.0000E+00  0.0000E+00  0.0000E+00  0.0000E+00  0.0000E+00
      1.707  0.5343E-01  0.4866E-01  0.5204E-01  0.1443E-01  0.0000E+00  0.0000E+00  0.0000E+00  0.0000E+00  0.0000E+00
      1.807  0.5593E-01  0.4363E-01  0.6304E-01  0.1426E-01  0.0000E+00  0.0000E+00  0.0000E+00  0.0000E+00  0.0000E+00
      1.906  0.6423E-01  0.4603E-01  0.5700E-01  0.1386E-01  0.0000E+00  0.0000E+00  0.0000E+00  0.0000E+00  0.0000E+00
      2.005  0.5286E-01  0.3875E-01  0.4576E-01  0.1091E-01  0.0000E+00  0.0000E+00  0.0000E+00  0.0000E+00  0.0000E+00
      2.105  0.4408E-01  0.3329E-01  0.3726E-01  0.9363E-02  0.0000E+00  0.0000E+00  0.0000E+00  0.0000E+00  0.0000E+00
      2.204  0.3641E-01  0.2837E-01  0.4528E-01  0.7742E-02  0.0000E+00  0.0000E+00  0.0000E+00  0.0000E+00  0.0000E+00
      2.304  0.2613E-01  0.2186E-01  0.5804E-01  0.5226E-02  0.0000E+00  0.0000E+00  0.0000E+00  0.0000E+00  0.0000E+00
      2.403  0.2229E-01  0.1941E-01  0.5369E-01  0.4171E-02  0.0000E+00  0.0000E+00  0.0000E+00  0.0000E+00  0.0000E+00
      2.502  0.3828E-01  0.3416E-01  0.3792E-01  0.8153E-02  0.0000E+00  0.0000E+00  0.0000E+00  0.0000E+00  0.0000E+00
      2.602  0.5986E-01  0.5680E-01  0.3322E-01  0.1387E-01  0.0000E+00  0.0000E+00  0.0000E+00  0.0000E+00  0.0000E+00
      2.701  0.5606E-01  0.5821E-01  0.3450E-01  0.1332E-01  0.0000E+00  0.0000E+00  0.0000E+00  0.0000E+00  0.0000E+00
      2.801  0.4300E-01  0.4673E-01  0.3873E-01  0.1065E-01  0.0000E+00  0.0000E+00  0.0000E+00  0.0000E+00  0.0000E+00
      2.900  0.3197E-01  0.3960E-01  0.4654E-01  0.1049E-01  0.0000E+00  0.0000E+00  0.0000E+00  0.0000E+00  0.0000E+00
      3.000  0.2353E-01  0.3166E-01  0.5393E-01  0.9283E-02  0.0000E+00  0.0000E+00  0.0000E+00  0.0000E+00  0.0000E+00
      3.099  0.1979E-01  0.2441E-01  0.5090E-01  0.9028E-02  0.0000E+00  0.0000E+00  0.0000E+00  0.0000E+00  0.0000E+00
      3.198  0.2077E-01  0.2336E-01  0.4061E-01  0.1020E-01  0.0000E+00  0.0000E+00  0.0000E+00  0.0000E+00  0.0000E+00
      3.298  0.1786E-01  0.1856E-01  0.3247E-01  0.8842E-02  0.0000E+00  0.0000E+00  0.0000E+00  0.0000E+00  0.0000E+00
      3.397  0.1622E-01  0.1618E-01  0.2730E-01  0.9912E-02  0.0000E+00  0.0000E+00  0.0000E+00  0.0000E+00  0.0000E+00
      3.497  0.2044E-01  0.1509E-01  0.2430E-01  0.1224E-01  0.0000E+00  0.0000E+00  0.0000E+00  0.0000E+00  0.0000E+00
      3.596  0.2376E-01  0.1450E-01  0.1913E-01  0.1149E-01  0.0000E+00  0.0000E+00  0.0000E+00  0.0000E+00  0.0000E+00
      3.695  0.2304E-01  0.1399E-01  0.1965E-01  0.1051E-01  0.0000E+00  0.0000E+00  0.0000E+00  0.0000E+00  0.0000E+00
      3.795  0.1974E-01  0.9662E-02  0.1868E-01  0.7009E-02  0.0000E+00  0.0000E+00  0.0000E+00  0.0000E+00  0.0000E+00
      3.894  0.1663E-01  0.7726E-02  0.1461E-01  0.5387E-02  0.0000E+00  0.0000E+00  0.0000E+00  0.0000E+00  0.0000E+00
      3.994  0.1461E-01  0.8352E-02  0.1362E-01  0.5636E-02  0.0000E+00  0.0000E+00  0.0000E+00  0.0000E+00  0.0000E+00
      4.093  0.1386E-01  0.7379E-02  0.1431E-01  0.5188E-02  0.0000E+00  0.0000E+00  0.0000E+00  0.0000E+00  0.0000E+00
      4.192  0.1062E-01  0.4077E-02  0.1296E-01  0.3286E-02  0.0000E+00  0.0000E+00  0.0000E+00  0.0000E+00  0.0000E+00
      4.292  0.8075E-02  0.1992E-02  0.1075E-01  0.1983E-02  0.0000E+00  0.0000E+00  0.0000E+00  0.0000E+00  0.0000E+00
      4.391  0.6187E-02  0.1358E-02  0.9332E-02  0.1670E-02  0.0000E+00  0.0000E+00  0.0000E+00  0.0000E+00  0.0000E+00
      4.491  0.4422E-02  0.1247E-02  0.7648E-02  0.1795E-02  0.0000E+00  0.0000E+00  0.0000E+00  0.0000E+00  0.0000E+00
      4.590  0.3412E-02  0.1149E-02  0.5195E-02  0.1684E-02  0.0000E+00  0.0000E+00  0.0000E+00  0.0000E+00  0.0000E+00
      4.689  0.1816E-02  0.6577E-03  0.2832E-02  0.9911E-03  0.0000E+00  0.0000E+00  0.0000E+00  0.0000E+00  0.0000E+00
      4.789  0.7086E-03  0.4162E-03  0.1599E-02  0.4662E-03  0.0000E+00  0.0000E+00  0.0000E+00  0.0000E+00  0.0000E+00
      4.888  0.2967E-03  0.2366E-03  0.7723E-03  0.1867E-03  0.0000E+00  0.0000E+00  0.0000E+00  0.0000E+00  0.0000E+00
      4.988  0.6180E-04  0.6229E-04  0.1607E-03  0.3266E-04  0.0000E+00  0.0000E+00  0.0000E+00  0.0000E+00  0.0000E+00
      5.087  0.1937E-04  0.4407E-04  0.8442E-04  0.1165E-04  0.0000E+00  0.0000E+00  0.0000E+00  0.0000E+00  0.0000E+00
      5.187  0.5978E-05  0.1464E-04  0.2767E-04  0.3702E-05  0.0000E+00  0.0000E+00  0.0000E+00  0.0000E+00  0.0000E+00
      5.286  0.3620E-06  0.8875E-06  0.1677E-05  0.2243E-06  0.0000E+00  0.0000E+00  0.0000E+00  0.0000E+00  0.0000E+00
      5.385  0.3583E-08  0.8785E-08  0.1660E-07  0.2220E-08  0.0000E+00  0.0000E+00  0.0000E+00  0.0000E+00  0.0000E+00
      5.485  0.5433E-11  0.1332E-10  0.2518E-10  0.3367E-11  0.0000E+00  0.0000E+00  0.0000E+00  0.0000E+00  0.0000E+00
      5.584  0.1215E-14  0.2980E-14  0.5633E-14  0.7532E-15  0.0000E+00  0.0000E+00  0.0000E+00  0.0000E+00  0.0000E+00
      5.684  0.3789E-19  0.9291E-19  0.1756E-18  0.2348E-19  0.0000E+00  0.0000E+00  0.0000E+00  0.0000E+00  0.0000E+00
      5.783  0.0000E+00  0.0000E+00  0.0000E+00  0.0000E+00  0.0000E+00  0.0000E+00  0.0000E+00  0.0000E+00  0.0000E+00
      5.882  0.0000E+00  0.0000E+00  0.0000E+00  0.0000E+00  0.0000E+00  0.0000E+00  0.0000E+00  0.0000E+00  0.0000E+00
      5.982  0.0000E+00  0.0000E+00  0.0000E+00  0.0000E+00  0.0000E+00  0.0000E+00  0.0000E+00  0.0000E+00  0.0000E+00
      6.081  0.0000E+00  0.0000E+00  0.0000E+00  0.0000E+00  0.0000E+00  0.0000E+00  0.0000E+00  0.0000E+00  0.0000E+00
      6.181  0.0000E+00  0.0000E+00  0.0000E+00  0.0000E+00  0.0000E+00  0.0000E+00  0.0000E+00  0.0000E+00  0.0000E+00
      6.280  0.0000E+00  0.0000E+00  0.0000E+00  0.0000E+00  0.0000E+00  0.0000E+00  0.0000E+00  0.0000E+00  0.0000E+00
      6.379  0.0000E+00  0.0000E+00  0.0000E+00  0.0000E+00  0.0000E+00  0.0000E+00  0.0000E+00  0.0000E+00  0.0000E+00
      6.37943935    -23.44321047  301     -4.43334101      1.00000000
    -23.443  0.0000E+00  0.0000E+00  0.0000E+00  0.0000E+00  0.0000E+00  0.0000E+00  0.0000E+00  0.0000E+00  0.0000E+00
    -23.344  0.0000E+00  0.0000E+00  0.0000E+00  0.0000E+00  0.0000E+00  0.0000E+00  0.0000E+00  0.0000E+00  0.0000E+00
    -23.244  0.0000E+00  0.0000E+00  0.0000E+00  0.0000E+00  0.0000E+00  0.0000E+00  0.0000E+00  0.0000E+00  0.0000E+00
    -23.145  0.0000E+00  0.0000E+00  0.0000E+00  0.0000E+00  0.0000E+00  0.0000E+00  0.0000E+00  0.0000E+00  0.0000E+00
    -23.046  0.0000E+00  0.0000E+00  0.0000E+00  0.0000E+00  0.0000E+00  0.0000E+00  0.0000E+00  0.0000E+00  0.0000E+00
    -22.946  0.0000E+00  0.0000E+00  0.0000E+00  0.0000E+00  0.0000E+00  0.0000E+00  0.0000E+00  0.0000E+00  0.0000E+00
    -22.847  0.0000E+00  0.0000E+00  0.0000E+00  0.0000E+00  0.0000E+00  0.0000E+00  0.0000E+00  0.0000E+00  0.0000E+00
    -22.747  0.0000E+00  0.0000E+00  0.0000E+00  0.0000E+00  0.0000E+00  0.0000E+00  0.0000E+00  0.0000E+00  0.0000E+00
    -22.648  0.3518E-16  0.2200E-18  0.1064E-24  0.4979E-17  0.0000E+00  0.0000E+00  0.0000E+00  0.0000E+00  0.0000E+00
    -22.549  0.1274E-11  0.8090E-14  0.3858E-20  0.1809E-12  0.0000E+00  0.0000E+00  0.0000E+00  0.0000E+00  0.0000E+00
    -22.449  0.6904E-08  0.4452E-10  0.2093E-16  0.9827E-09  0.0000E+00  0.0000E+00  0.0000E+00  0.0000E+00  0.0000E+00
    -22.350  0.5861E-05  0.3873E-07  0.1781E-13  0.8382E-06  0.0000E+00  0.0000E+00  0.0000E+00  0.0000E+00  0.0000E+00
    -22.250  0.8389E-03  0.5769E-05  0.2561E-11  0.1209E-03  0.0000E+00  0.0000E+00  0.0000E+00  0.0000E+00  0.0000E+00
    -22.151  0.2302E-01  0.1694E-03  0.7084E-10  0.3366E-02  0.0000E+00  0.0000E+00  0.0000E+00  0.0000E+00  0.0000E+00
    -22.051  0.1477E+00  0.1214E-02  0.4616E-09  0.2220E-01  0.0000E+00  0.0000E+00  0.0000E+00  0.0000E+00  0.0000E+00
    -21.952  0.2871E+00  0.2825E-02  0.9308E-09  0.4595E-01  0.0000E+00  0.0000E+00  0.0000E+00  0.0000E+00  0.0000E+00
    -21.853  0.2511E+00  0.3357E-02  0.8878E-09  0.4626E-01  0.0000E+00  0.0000E+00  0.0000E+00  0.0000E+00  0.0000E+00
    -21.753  0.1816E+00  0.3629E-02  0.7415E-09  0.4140E-01  0.0000E+00  0.0000E+00  0.0000E+00  0.0000E+00  0.0000E+00
    -21.654  0.1491E+00  0.4335E-02  0.7127E-09  0.4187E-01  0.0000E+00  0.0000E+00  0.0000E+00  0.0000E+00  0.0000E+00
    -21.554  0.1336E+00  0.5530E-02  0.7539E-09  0.4585E-01  0.0000E+00  0.0000E+00  0.0000E+00  0.0000E+00  0.0000E+00
    -21.455  0.1284E+00  0.7647E-02  0.8767E-09  0.5433E-01  0.0000E+00  0.0000E+00  0.0000E+00  0.0000E+00  0.0000E+00
    -21.356  0.1373E+00  0.1199E-01  0.1173E-08  0.7280E-01  0.0000E+00  0.0000E+00  0.0000E+00  0.0000E+00  0.0000E+00
    -21.256  0.1438E+00  0.1647E-01  0.1474E-08  0.9091E-01  0.0000E+00  0.0000E+00  0.0000E+00  0.0000E+00  0.0000E+00
    -21.157  0.9577E-01  0.1237E-01  0.1088E-08  0.6687E-01  0.0000E+00  0.0000E+00  0.0000E+00  0.0000E+00  0.0000E+00
    -21.057  0.2803E-01  0.3802E-02  0.3363E-09  0.2067E-01  0.0000E+00  0.0000E+00  0.0000E+00  0.0000E+00  0.0000E+00
    -20.958  0.2495E-02  0.3464E-03  0.3079E-10  0.1893E-02  0.0000E+00  0.0000E+00  0.0000E+00  0.0000E+00  0.0000E+00
    -20.859  0.4908E-04  0.6899E-05  0.6145E-12  0.3778E-04  0.0000E+00  0.0000E+00  0.0000E+00  0.0000E+00  0.0000E+00
    -20.759  0.1751E-06  0.2480E-07  0.2211E-14  0.1359E-06  0.0000E+00  0.0000E+00  0.0000E+00  0.0000E+00  0.0000E+00
    -20.660  0.1019E-09  0.1449E-10  0.1293E-17  0.7947E-10  0.0000E+00  0.0000E+00  0.0000E+00  0.0000E+00  0.0000E+00
    -20.560  0.9118E-14  0.1301E-14  0.1161E-21  0.7135E-14  0.0000E+00  0.0000E+00  0.0000E+00  0.0000E+00  0.0000E+00
    -20.461  0.0000E+00  0.0000E+00  0.0000E+00  0.0000E+00  0.0000E+00  0.0000E+00  0.0000E+00  0.0000E+00  0.0000E+00
    -20.362  0.0000E+00  0.0000E+00  0.0000E+00  0.0000E+00  0.0000E+00  0.0000E+00  0.0000E+00  0.0000E+00  0.0000E+00
    -20.262  0.0000E+00  0.0000E+00  0.0000E+00  0.0000E+00  0.0000E+00  0.0000E+00  0.0000E+00  0.0000E+00  0.0000E+00
    -20.163  0.0000E+00  0.0000E+00  0.0000E+00  0.0000E+00  0.0000E+00  0.0000E+00  0.0000E+00  0.0000E+00  0.0000E+00
    -20.063  0.0000E+00  0.0000E+00  0.0000E+00  0.0000E+00  0.0000E+00  0.0000E+00  0.0000E+00  0.0000E+00  0.0000E+00
    -19.964  0.0000E+00  0.0000E+00  0.0000E+00  0.0000E+00  0.0000E+00  0.0000E+00  0.0000E+00  0.0000E+00  0.0000E+00
    -19.864  0.0000E+00  0.0000E+00  0.0000E+00  0.0000E+00  0.0000E+00  0.0000E+00  0.0000E+00  0.0000E+00  0.0000E+00
    -19.765  0.0000E+00  0.0000E+00  0.0000E+00  0.0000E+00  0.0000E+00  0.0000E+00  0.0000E+00  0.0000E+00  0.0000E+00
    -19.666  0.0000E+00  0.0000E+00  0.0000E+00  0.0000E+00  0.0000E+00  0.0000E+00  0.0000E+00  0.0000E+00  0.0000E+00
    -19.566  0.0000E+00  0.0000E+00  0.0000E+00  0.0000E+00  0.0000E+00  0.0000E+00  0.0000E+00  0.0000E+00  0.0000E+00
    -19.467  0.0000E+00  0.0000E+00  0.0000E+00  0.0000E+00  0.0000E+00  0.0000E+00  0.0000E+00  0.0000E+00  0.0000E+00
    -19.367  0.0000E+00  0.0000E+00  0.0000E+00  0.0000E+00  0.0000E+00  0.0000E+00  0.0000E+00  0.0000E+00  0.0000E+00
    -19.268  0.0000E+00  0.0000E+00  0.0000E+00  0.0000E+00  0.0000E+00  0.0000E+00  0.0000E+00  0.0000E+00  0.0000E+00
    -19.169  0.0000E+00  0.0000E+00  0.0000E+00  0.0000E+00  0.0000E+00  0.0000E+00  0.0000E+00  0.0000E+00  0.0000E+00
    -19.069  0.0000E+00  0.0000E+00  0.0000E+00  0.0000E+00  0.0000E+00  0.0000E+00  0.0000E+00  0.0000E+00  0.0000E+00
    -18.970  0.0000E+00  0.0000E+00  0.0000E+00  0.0000E+00  0.0000E+00  0.0000E+00  0.0000E+00  0.0000E+00  0.0000E+00
    -18.870  0.0000E+00  0.0000E+00  0.0000E+00  0.0000E+00  0.0000E+00  0.0000E+00  0.0000E+00  0.0000E+00  0.0000E+00
    -18.771  0.0000E+00  0.0000E+00  0.0000E+00  0.0000E+00  0.0000E+00  0.0000E+00  0.0000E+00  0.0000E+00  0.0000E+00
    -18.672  0.0000E+00  0.0000E+00  0.0000E+00  0.0000E+00  0.0000E+00  0.0000E+00  0.0000E+00  0.0000E+00  0.0000E+00
    -18.572  0.0000E+00  0.0000E+00  0.0000E+00  0.0000E+00  0.0000E+00  0.0000E+00  0.0000E+00  0.0000E+00  0.0000E+00
    -18.473  0.0000E+00  0.0000E+00  0.0000E+00  0.0000E+00  0.0000E+00  0.0000E+00  0.0000E+00  0.0000E+00  0.0000E+00
    -18.373  0.0000E+00  0.0000E+00  0.0000E+00  0.0000E+00  0.0000E+00  0.0000E+00  0.0000E+00  0.0000E+00  0.0000E+00
    -18.274  0.0000E+00  0.0000E+00  0.0000E+00  0.0000E+00  0.0000E+00  0.0000E+00  0.0000E+00  0.0000E+00  0.0000E+00
    -18.175  0.0000E+00  0.0000E+00  0.0000E+00  0.0000E+00  0.0000E+00  0.0000E+00  0.0000E+00  0.0000E+00  0.0000E+00
    -18.075  0.0000E+00  0.0000E+00  0.0000E+00  0.0000E+00  0.0000E+00  0.0000E+00  0.0000E+00  0.0000E+00  0.0000E+00
    -17.976  0.0000E+00  0.0000E+00  0.0000E+00  0.0000E+00  0.0000E+00  0.0000E+00  0.0000E+00  0.0000E+00  0.0000E+00
    -17.876  0.1659E-17  0.4507E-18  0.3231E-26  0.9252E-21  0.0000E+00  0.0000E+00  0.0000E+00  0.0000E+00  0.0000E+00
    -17.777  0.1259E-12  0.3380E-13  0.2449E-21  0.9287E-16  0.0000E+00  0.0000E+00  0.0000E+00  0.0000E+00  0.0000E+00
    -17.677  0.1084E-08  0.2913E-09  0.2110E-17  0.9250E-12  0.0000E+00  0.0000E+00  0.0000E+00  0.0000E+00  0.0000E+00
    -17.578  0.1440E-05  0.3875E-06  0.2806E-14  0.1481E-08  0.0000E+00  0.0000E+00  0.0000E+00  0.0000E+00  0.0000E+00
    -17.479  0.3133E-03  0.8445E-04  0.6117E-12  0.4119E-06  0.0000E+00  0.0000E+00  0.0000E+00  0.0000E+00  0.0000E+00
    -17.379  0.1243E-01  0.3360E-02  0.2434E-10  0.2272E-04  0.0000E+00  0.0000E+00  0.0000E+00  0.0000E+00  0.0000E+00
    -17.280  0.1090E+00  0.2962E-01  0.2151E-09  0.3103E-03  0.0000E+00  0.0000E+00  0.0000E+00  0.0000E+00  0.0000E+00
    -17.180  0.3022E+00  0.8211E-01  0.6059E-09  0.1483E-02  0.0000E+00  0.0000E+00  0.0000E+00  0.0000E+00  0.0000E+00
    -17.081  0.4867E+00  0.1271E+00  0.1006E-08  0.3866E-02  0.0000E+00  0.0000E+00  0.0000E+00  0.0000E+00  0.0000E+00
    -16.982  0.6361E+00  0.1746E+00  0.1340E-08  0.7451E-02  0.0000E+00  0.0000E+00  0.0000E+00  0.0000E+00  0.0000E+00
    -16.882  0.4969E+00  0.2113E+00  0.1030E-08  0.1118E-01  0.0000E+00  0.0000E+00  0.0000E+00  0.0000E+00  0.0000E+00
    -16.783  0.2458E+00  0.1753E+00  0.4906E-09  0.1177E-01  0.0000E+00  0.0000E+00  0.0000E+00  0.0000E+00  0.0000E+00
    -16.683  0.9617E-01  0.9780E-01  0.1849E-09  0.8593E-02  0.0000E+00  0.0000E+00  0.0000E+00  0.0000E+00  0.0000E+00
    -16.584  0.2694E-01  0.3725E-01  0.4789E-10  0.3841E-02  0.0000E+00  0.0000E+00  0.0000E+00  0.0000E+00  0.0000E+00
    -16.485  0.3730E-02  0.6190E-02  0.6098E-11  0.6756E-03  0.0000E+00  0.0000E+00  0.0000E+00  0.0000E+00  0.0000E+00
    -16.385  0.1544E-03  0.2769E-03  0.2396E-12  0.3077E-04  0.0000E+00  0.0000E+00  0.0000E+00  0.0000E+00  0.0000E+00
    -16.286  0.1346E-05  0.2494E-05  0.2028E-14  0.2789E-06  0.0000E+00  0.0000E+00  0.0000E+00  0.0000E+00  0.0000E+00
    -16.186  0.2055E-08  0.3869E-08  0.3046E-17  0.4340E-09  0.0000E+00  0.0000E+00  0.0000E+00  0.0000E+00  0.0000E+00
    -16.087  0.5006E-12  0.9511E-12  0.7346E-21  0.1068E-12  0.0000E+00  0.0000E+00  0.0000E+00  0.0000E+00  0.0000E+00
    -15.988  0.1847E-16  0.3531E-16  0.2690E-25  0.3969E-17  0.0000E+00  0.0000E+00  0.0000E+00  0.0000E+00  0.0000E+00
    -15.888  0.1010E-16  0.6706E-16  0.3649E-23  0.4734E-15  0.0000E+00  0.0000E+00  0.0000E+00  0.0000E+00  0.0000E+00
    -15.789  0.1513E-12  0.9991E-12  0.5434E-19  0.7050E-11  0.0000E+00  0.0000E+00  0.0000E+00  0.0000E+00  0.0000E+00
    -15.689  0.3372E-09  0.2191E-08  0.1190E-15  0.1544E-07  0.0000E+00  0.0000E+00  0.0000E+00  0.0000E+00  0.0000E+00
    -15.590  0.1214E-06  0.7414E-06  0.4019E-13  0.5210E-05  0.0000E+00  0.0000E+00  0.0000E+00  0.0000E+00  0.0000E+00
    -15.491  0.8542E-05  0.4277E-04  0.2316E-11  0.2991E-03  0.0000E+00  0.0000E+00  0.0000E+00  0.0000E+00  0.0000E+00
    -15.391  0.1565E-03  0.5102E-03  0.2788E-10  0.3545E-02  0.0000E+00  0.0000E+00  0.0000E+00  0.0000E+00  0.0000E+00
    -15.292  0.9150E-03  0.1727E-02  0.9692E-10  0.1189E-01  0.0000E+00  0.0000E+00  0.0000E+00  0.0000E+00  0.0000E+00
    -15.192  0.2505E-02  0.2665E-02  0.1598E-09  0.1813E-01  0.0000E+00  0.0000E+00  0.0000E+00  0.0000E+00  0.0000E+00
    -15.093  0.5115E-02  0.3343E-02  0.2261E-09  0.2247E-01  0.0000E+00  0.0000E+00  0.0000E+00  0.0000E+00  0.0000E+00
    -14.993  0.9334E-02  0.4272E-02  0.3316E-09  0.2678E-01  0.0000E+00  0.0000E+00  0.0000E+00  0.0000E+00  0.0000E+00
    -14.894  0.2156E-01  0.7900E-02  0.6585E-09  0.3691E-01  0.0000E+00  0.0000E+00  0.0000E+00  0.0000E+00  0.0000E+00
    -14.795  0.5734E-01  0.2119E-01  0.1638E-08  0.5485E-01  0.0000E+00  0.0000E+00  0.0000E+00  0.0000E+00  0.0000E+00
    -14.695  0.9027E-01  0.3561E-01  0.2583E-08  0.6977E-01  0.0000E+00  0.0000E+00  0.0000E+00  0.0000E+00  0.0000E+00
    -14.596  0.7244E-01  0.3219E-01  0.2171E-08  0.5910E-01  0.0000E+00  0.0000E+00  0.0000E+00  0.0000E+00  0.0000E+00
    -14.496  0.6186E-01  0.2990E-01  0.1915E-08  0.5502E-01  0.0000E+00  0.0000E+00  0.0000E+00  0.0000E+00  0.0000E+00
    -14.397  0.7888E-01  0.3593E-01  0.2253E-08  0.5311E-01  0.0000E+00  0.0000E+00  0.0000E+00  0.0000E+00  0.0000E+00
    -14.298  0.9562E-01  0.4066E-01  0.2595E-08  0.4283E-01  0.0000E+00  0.0000E+00  0.0000E+00  0.0000E+00  0.0000E+00
    -14.198  0.1022E+00  0.4337E-01  0.2837E-08  0.4124E-01  0.0000E+00  0.0000E+00  0.0000E+00  0.0000E+00  0.0000E+00
    -14.099  0.1156E+00  0.4904E-01  0.3320E-08  0.4783E-01  0.0000E+00  0.0000E+00  0.0000E+00  0.0000E+00  0.0000E+00
    -13.999  0.1367E+00  0.5621E-01  0.4079E-08  0.5969E-01  0.0000E+00  0.0000E+00  0.0000E+00  0.0000E+00  0.0000E+00
    -13.900  0.1176E+00  0.4994E-01  0.3774E-08  0.5555E-01  0.0000E+00  0.0000E+00  0.0000E+00  0.0000E+00  0.0000E+00
    -13.801  0.7262E-01  0.3483E-01  0.2709E-08  0.4061E-01  0.0000E+00  0.0000E+00  0.0000E+00  0.0000E+00  0.0000E+00
    -13.701  0.3741E-01  0.1992E-01  0.1609E-08  0.2420E-01  0.0000E+00  0.0000E+00  0.0000E+00  0.0000E+00  0.0000E+00
    -13.602  0.1039E-01  0.5721E-02  0.4758E-09  0.7045E-02  0.0000E+00  0.0000E+00  0.0000E+00  0.0000E+00  0.0000E+00
    -13.502  0.8428E-03  0.4667E-03  0.3953E-10  0.5786E-03  0.0000E+00  0.0000E+00  0.0000E+00  0.0000E+00  0.0000E+00
    -13.403  0.1463E-04  0.8105E-05  0.6950E-12  0.1011E-04  0.0000E+00  0.0000E+00  0.0000E+00  0.0000E+00  0.0000E+00
    -13.304  0.4633E-07  0.2566E-07  0.2218E-14  0.3213E-07  0.0000E+00  0.0000E+00  0.0000E+00  0.0000E+00  0.0000E+00
    -13.204  0.2469E-10  0.1673E-10  0.1180E-17  0.1753E-10  0.0000E+00  0.0000E+00  0.0000E+00  0.0000E+00  0.0000E+00
    -13.105  0.2272E-08  0.1379E-07  0.6443E-15  0.3087E-08  0.0000E+00  0.0000E+00  0.0000E+00  0.0000E+00  0.0000E+00
    -13.005  0.1456E-05  0.9033E-05  0.1031E-10  0.1985E-05  0.0000E+00  0.0000E+00  0.0000E+00  0.0000E+00  0.0000E+00
    -12.906  0.1586E-03  0.1008E-02  0.2850E-07  0.2180E-03  0.0000E+00  0.0000E+00  0.0000E+00  0.0000E+00  0.0000E+00
    -12.806  0.3278E-02  0.2117E-01  0.1259E-04  0.4584E-02  0.0000E+00  0.0000E+00  0.0000E+00  0.0000E+00  0.0000E+00
    -12.707  0.1579E-01  0.1005E+00  0.9622E-03  0.2307E-01  0.0000E+00  0.0000E+00  0.0000E+00  0.0000E+00  0.0000E+00
    -12.608  0.2636E-01  0.1560E+00  0.1477E-01  0.4209E-01  0.0000E+00  0.0000E+00  0.0000E+00  0.0000E+00  0.0000E+00
    -12.508  0.2582E-01  0.1364E+00  0.5948E-01  0.4569E-01  0.0000E+00  0.0000E+00  0.0000E+00  0.0000E+00  0.0000E+00
    -12.409  0.2195E-01  0.1046E+00  0.1012E+00  0.4152E-01  0.0000E+00  0.0000E+00  0.0000E+00  0.0000E+00  0.0000E+00
    -12.309  0.1944E-01  0.8624E-01  0.1212E+00  0.3931E-01  0.0000E+00  0.0000E+00  0.0000E+00  0.0000E+00  0.0000E+00
    -12.210  0.1886E-01  0.7856E-01  0.1084E+00  0.3916E-01  0.0000E+00  0.0000E+00  0.0000E+00  0.0000E+00  0.0000E+00
    -12.111  0.1767E-01  0.7289E-01  0.8381E-01  0.3861E-01  0.0000E+00  0.0000E+00  0.0000E+00  0.0000E+00  0.0000E+00
    -12.011  0.1779E-01  0.7029E-01  0.7022E-01  0.4017E-01  0.0000E+00  0.0000E+00  0.0000E+00  0.0000E+00  0.0000E+00
    -11.912  0.1806E-01  0.6912E-01  0.6272E-01  0.4109E-01  0.0000E+00  0.0000E+00  0.0000E+00  0.0000E+00  0.0000E+00
    -11.812  0.1698E-01  0.6685E-01  0.5798E-01  0.4057E-01  0.0000E+00  0.0000E+00  0.0000E+00  0.0000E+00  0.0000E+00
    -11.713  0.1816E-01  0.6367E-01  0.5491E-01  0.4337E-01  0.0000E+00  0.0000E+00  0.0000E+00  0.0000E+00  0.0000E+00
    -11.614  0.1871E-01  0.4483E-01  0.5304E-01  0.4241E-01  0.0000E+00  0.0000E+00  0.0000E+00  0.0000E+00  0.0000E+00
    -11.514  0.2053E-01  0.2782E-01  0.5297E-01  0.4202E-01  0.0000E+00  0.0000E+00  0.0000E+00  0.0000E+00  0.0000E+00
    -11.415  0.2906E-01  0.2491E-01  0.5631E-01  0.4380E-01  0.0000E+00  0.0000E+00  0.0000E+00  0.0000E+00  0.0000E+00
    -11.315  0.4147E-01  0.2898E-01  0.6425E-01  0.5095E-01  0.0000E+00  0.0000E+00  0.0000E+00  0.0000E+00  0.0000E+00
    -11.216  0.4438E-01  0.2995E-01  0.6288E-01  0.5195E-01  0.0000E+00  0.0000E+00  0.0000E+00  0.0000E+00  0.0000E+00
    -11.117  0.4532E-01  0.3153E-01  0.4860E-01  0.5362E-01  0.0000E+00  0.0000E+00  0.0000E+00  0.0000E+00  0.0000E+00
    -11.017  0.5142E-01  0.4097E-01  0.3771E-01  0.6718E-01  0.0000E+00  0.0000E+00  0.0000E+00  0.0000E+00  0.0000E+00
    -10.918  0.5265E-01  0.4176E-01  0.3087E-01  0.6674E-01  0.0000E+00  0.0000E+00  0.0000E+00  0.0000E+00  0.0000E+00
    -10.818  0.4411E-01  0.3700E-01  0.2524E-01  0.5313E-01  0.0000E+00  0.0000E+00  0.0000E+00  0.0000E+00  0.0000E+00
    -10.719  0.4716E-01  0.3369E-01  0.1665E-01  0.4651E-01  0.0000E+00  0.0000E+00  0.0000E+00  0.0000E+00  0.0000E+00
    -10.619  0.6430E-01  0.3780E-01  0.5236E-02  0.6527E-01  0.0000E+00  0.0000E+00  0.0000E+00  0.0000E+00  0.0000E+00
    -10.520  0.7462E-01  0.4210E-01  0.4742E-03  0.9312E-01  0.0000E+00  0.0000E+00  0.0000E+00  0.0000E+00  0.0000E+00
    -10.421  0.5313E-01  0.3182E-01  0.9108E-05  0.7947E-01  0.0000E+00  0.0000E+00  0.0000E+00  0.0000E+00  0.0000E+00
    -10.321  0.3282E-01  0.2197E-01  0.3261E-07  0.5360E-01  0.0000E+00  0.0000E+00  0.0000E+00  0.0000E+00  0.0000E+00
    -10.222  0.2662E-01  0.1797E-01  0.1268E-08  0.4767E-01  0.0000E+00  0.0000E+00  0.0000E+00  0.0000E+00  0.0000E+00
    -10.122  0.2265E-01  0.1429E-01  0.1127E-08  0.4367E-01  0.0000E+00  0.0000E+00  0.0000E+00  0.0000E+00  0.0000E+00
    -10.023  0.2174E-01  0.1800E-01  0.1338E-08  0.4922E-01  0.0000E+00  0.0000E+00  0.0000E+00  0.0000E+00  0.0000E+00
     -9.924  0.2271E-01  0.1805E-01  0.1291E-08  0.5730E-01  0.0000E+00  0.0000E+00  0.0000E+00  0.0000E+00  0.0000E+00
     -9.824  0.2552E-01  0.1598E-01  0.1216E-08  0.7166E-01  0.0000E+00  0.0000E+00  0.0000E+00  0.0000E+00  0.0000E+00
     -9.725  0.2588E-01  0.1316E-01  0.1604E-08  0.8163E-01  0.0000E+00  0.0000E+00  0.0000E+00  0.0000E+00  0.0000E+00
     -9.625  0.2942E-01  0.1291E-01  0.3613E-08  0.1100E+00  0.0000E+00  0.0000E+00  0.0000E+00  0.0000E+00  0.0000E+00
     -9.526  0.3059E-01  0.1655E-01  0.6148E-08  0.1440E+00  0.0000E+00  0.0000E+00  0.0000E+00  0.0000E+00  0.0000E+00
     -9.427  0.2240E-01  0.1701E-01  0.5502E-08  0.1359E+00  0.0000E+00  0.0000E+00  0.0000E+00  0.0000E+00  0.0000E+00
     -9.327  0.1297E-01  0.1477E-01  0.4140E-08  0.1065E+00  0.0000E+00  0.0000E+00  0.0000E+00  0.0000E+00  0.0000E+00
     -9.228  0.7556E-02  0.1491E-01  0.3174E-08  0.6737E-01  0.0000E+00  0.0000E+00  0.0000E+00  0.0000E+00  0.0000E+00
     -9.128  0.6181E-02  0.2026E-01  0.3189E-08  0.4844E-01  0.0000E+00  0.0000E+00  0.0000E+00  0.0000E+00  0.0000E+00
     -9.029  0.6286E-02  0.2251E-01  0.1437E-06  0.3990E-01  0.0000E+00  0.0000E+00  0.0000E+00  0.0000E+00  0.0000E+00
     -8.930  0.1260E-01  0.2721E-01  0.4300E-04  0.4311E-01  0.0000E+00  0.0000E+00  0.0000E+00  0.0000E+00  0.0000E+00
     -8.830  0.2288E-01  0.3246E-01  0.2327E-02  0.4881E-01  0.0000E+00  0.0000E+00  0.0000E+00  0.0000E+00  0.0000E+00
     -8.731  0.2874E-01  0.3620E-01  0.2634E-01  0.5390E-01  0.0000E+00  0.0000E+00  0.0000E+00  0.0000E+00  0.0000E+00
     -8.631  0.3635E-01  0.4653E-01  0.8348E-01  0.6278E-01  0.0000E+00  0.0000E+00  0.0000E+00  0.0000E+00  0.0000E+00
     -8.532  0.4175E-01  0.5423E-01  0.1217E+00  0.7357E-01  0.0000E+00  0.0000E+00  0.0000E+00  0.0000E+00  0.0000E+00
     -8.432  0.3786E-01  0.5274E-01  0.1447E+00  0.7330E-01  0.0000E+00  0.0000E+00  0.0000E+00  0.0000E+00  0.0000E+00
     -8.333  0.3133E-01  0.5251E-01  0.1768E+00  0.6882E-01  0.0000E+00  0.0000E+00  0.0000E+00  0.0000E+00  0.0000E+00
     -8.234  0.2731E-01  0.5515E-01  0.1832E+00  0.6559E-01  0.0000E+00  0.0000E+00  0.0000E+00  0.0000E+00  0.0000E+00
     -8.134  0.2557E-01  0.5689E-01  0.1554E+00  0.6425E-01  0.0000E+00  0.0000E+00  0.0000E+00  0.0000E+00  0.0000E+00
     -8.035  0.2302E-01  0.5669E-01  0.1403E+00  0.7270E-01  0.0000E+00  0.0000E+00  0.0000E+00  0.0000E+00  0.0000E+00
     -7.935  0.2554E-01  0.6690E-01  0.1306E+00  0.7540E-01  0.0000E+00  0.0000E+00  0.0000E+00  0.0000E+00  0.0000E+00
     -7.836  0.2710E-01  0.6226E-01  0.1001E+00  0.5548E-01  0.0000E+00  0.0000E+00  0.0000E+00  0.0000E+00  0.0000E+00
     -7.737  0.2394E-01  0.4796E-01  0.6410E-01  0.4363E-01  0.0000E+00  0.0000E+00  0.0000E+00  0.0000E+00  0.0000E+00
     -7.637  0.2545E-01  0.4714E-01  0.3967E-01  0.4110E-01  0.0000E+00  0.0000E+00  0.0000E+00  0.0000E+00  0.0000E+00
     -7.538  0.3010E-01  0.5777E-01  0.2303E-01  0.4247E-01  0.0000E+00  0.0000E+00  0.0000E+00  0.0000E+00  0.0000E+00
     -7.438  0.2950E-01  0.4557E-01  0.1125E-01  0.4443E-01  0.0000E+00  0.0000E+00  0.0000E+00  0.0000E+00  0.0000E+00
     -7.339  0.2587E-01  0.3362E-01  0.5290E-02  0.4129E-01  0.0000E+00  0.0000E+00  0.0000E+00  0.0000E+00  0.0000E+00
     -7.240  0.2981E-01  0.5433E-01  0.1961E-02  0.4216E-01  0.0000E+00  0.0000E+00  0.0000E+00  0.0000E+00  0.0000E+00
     -7.140  0.2950E-01  0.5189E-01  0.1015E-02  0.4333E-01  0.0000E+00  0.0000E+00  0.0000E+00  0.0000E+00  0.0000E+00
     -7.041  0.2342E-01  0.3873E-01  0.7757E-02  0.3801E-01  0.0000E+00  0.0000E+00  0.0000E+00  0.0000E+00  0.0000E+00
     -6.941  0.1762E-01  0.5702E-01  0.3653E-01  0.2216E-01  0.0000E+00  0.0000E+00  0.0000E+00  0.0000E+00  0.0000E+00
     -6.842  0.1424E-01  0.6649E-01  0.7790E-01  0.1454E-01  0.0000E+00  0.0000E+00  0.0000E+00  0.0000E+00  0.0000E+00
     -6.743  0.1422E-01  0.7062E-01  0.1055E+00  0.1650E-01  0.0000E+00  0.0000E+00  0.0000E+00  0.0000E+00  0.0000E+00
     -6.643  0.1333E-01  0.6782E-01  0.9879E-01  0.2009E-01  0.0000E+00  0.0000E+00  0.0000E+00  0.0000E+00  0.0000E+00
     -6.544  0.8165E-02  0.3813E-01  0.8971E-01  0.1758E-01  0.0000E+00  0.0000E+00  0.0000E+00  0.0000E+00  0.0000E+00
     -6.444  0.5295E-02  0.2366E-01  0.8987E-01  0.1440E-01  0.0000E+00  0.0000E+00  0.0000E+00  0.0000E+00  0.0000E+00
     -6.345  0.4352E-02  0.2033E-01  0.9583E-01  0.1344E-01  0.0000E+00  0.0000E+00  0.0000E+00  0.0000E+00  0.0000E+00
     -6.245  0.4852E-02  0.2151E-01  0.9592E-01  0.1700E-01  0.0000E+00  0.0000E+00  0.0000E+00  0.0000E+00  0.0000E+00
     -6.146  0.5006E-02  0.2210E-01  0.9363E-01  0.1868E-01  0.0000E+00  0.0000E+00  0.0000E+00  0.0000E+00  0.0000E+00
     -6.047  0.3665E-02  0.1811E-01  0.8793E-01  0.1460E-01  0.0000E+00  0.0000E+00  0.0000E+00  0.0000E+00  0.0000E+00
     -5.947  0.3301E-02  0.1935E-01  0.7747E-01  0.1407E-01  0.0000E+00  0.0000E+00  0.0000E+00  0.0000E+00  0.0000E+00
     -5.848  0.2287E-02  0.1321E-01  0.5584E-01  0.1052E-01  0.0000E+00  0.0000E+00  0.0000E+00  0.0000E+00  0.0000E+00
     -5.748  0.3603E-02  0.1880E-01  0.1944E-01  0.1775E-01  0.0000E+00  0.0000E+00  0.0000E+00  0.0000E+00  0.0000E+00
     -5.649  0.4174E-02  0.2404E-01  0.1962E-02  0.2080E-01  0.0000E+00  0.0000E+00  0.0000E+00  0.0000E+00  0.0000E+00
     -5.550  0.2287E-02  0.1514E-01  0.4227E-04  0.1117E-01  0.0000E+00  0.0000E+00  0.0000E+00  0.0000E+00  0.0000E+00
     -5.450  0.1552E-02  0.1140E-01  0.1637E-06  0.7249E-02  0.0000E+00  0.0000E+00  0.0000E+00  0.0000E+00  0.0000E+00
     -5.351  0.2892E-02  0.1938E-01  0.2030E-08  0.1480E-01  0.0000E+00  0.0000E+00  0.0000E+00  0.0000E+00  0.0000E+00
     -5.251  0.4412E-02  0.2679E-01  0.3320E-08  0.2176E-01  0.0000E+00  0.0000E+00  0.0000E+00  0.0000E+00  0.0000E+00
     -5.152  0.3380E-02  0.2010E-01  0.1673E-08  0.1186E-01  0.0000E+00  0.0000E+00  0.0000E+00  0.0000E+00  0.0000E+00
     -5.053  0.2006E-02  0.1480E-01  0.1177E-08  0.6210E-02  0.0000E+00  0.0000E+00  0.0000E+00  0.0000E+00  0.0000E+00
     -4.953  0.2248E-02  0.1817E-01  0.3404E-08  0.9514E-02  0.0000E+00  0.0000E+00  0.0000E+00  0.0000E+00  0.0000E+00
     -4.854  0.5794E-02  0.1981E-01  0.8536E-08  0.1464E-01  0.0000E+00  0.0000E+00  0.0000E+00  0.0000E+00  0.0000E+00
     -4.754  0.1598E-01  0.1490E-01  0.2078E-07  0.1003E-01  0.0000E+00  0.0000E+00  0.0000E+00  0.0000E+00  0.0000E+00
     -4.655  0.2245E-01  0.1285E-01  0.2948E-07  0.6220E-02  0.0000E+00  0.0000E+00  0.0000E+00  0.0000E+00  0.0000E+00
     -4.556  0.1950E-01  0.1701E-01  0.3075E-07  0.9778E-02  0.0000E+00  0.0000E+00  0.0000E+00  0.0000E+00  0.0000E+00
     -4.456  0.1460E-01  0.1863E-01  0.3446E-07  0.1590E-01  0.0000E+00  0.0000E+00  0.0000E+00  0.0000E+00  0.0000E+00
     -4.357  0.1093E-01  0.1747E-01  0.4315E-07  0.1829E-01  0.0000E+00  0.0000E+00  0.0000E+00  0.0000E+00  0.0000E+00
     -4.257  0.7360E-02  0.1814E-01  0.3195E-07  0.1591E-01  0.0000E+00  0.0000E+00  0.0000E+00  0.0000E+00  0.0000E+00
     -4.158  0.4413E-02  0.1888E-01  0.1183E-07  0.1038E-01  0.0000E+00  0.0000E+00  0.0000E+00  0.0000E+00  0.0000E+00
     -4.058  0.2536E-02  0.1581E-01  0.3658E-08  0.7775E-02  0.0000E+00  0.0000E+00  0.0000E+00  0.0000E+00  0.0000E+00
     -3.959  0.1698E-02  0.1336E-01  0.1649E-08  0.6964E-02  0.0000E+00  0.0000E+00  0.0000E+00  0.0000E+00  0.0000E+00
     -3.860  0.1136E-02  0.1278E-01  0.1374E-08  0.4881E-02  0.0000E+00  0.0000E+00  0.0000E+00  0.0000E+00  0.0000E+00
     -3.760  0.9229E-03  0.1228E-01  0.2133E-08  0.4926E-02  0.0000E+00  0.0000E+00  0.0000E+00  0.0000E+00  0.0000E+00
     -3.661  0.1001E-02  0.1309E-01  0.1490E-08  0.6886E-02  0.0000E+00  0.0000E+00  0.0000E+00  0.0000E+00  0.0000E+00
     -3.561  0.6237E-03  0.9681E-02  0.4786E-09  0.4220E-02  0.0000E+00  0.0000E+00  0.0000E+00  0.0000E+00  0.0000E+00
     -3.462  0.3923E-03  0.9069E-02  0.2483E-09  0.2392E-02  0.0000E+00  0.0000E+00  0.0000E+00  0.0000E+00  0.0000E+00
     -3.363  0.3376E-03  0.8419E-02  0.3279E-09  0.2908E-02  0.0000E+00  0.0000E+00  0.0000E+00  0.0000E+00  0.0000E+00
     -3.263  0.3913E-03  0.1094E-01  0.6078E-09  0.3972E-02  0.0000E+00  0.0000E+00  0.0000E+00  0.0000E+00  0.0000E+00
     -3.164  0.2237E-03  0.7596E-02  0.3958E-09  0.2201E-02  0.0000E+00  0.0000E+00  0.0000E+00  0.0000E+00  0.0000E+00
     -3.064  0.9284E-04  0.6153E-02  0.2639E-09  0.1018E-02  0.0000E+00  0.0000E+00  0.0000E+00  0.0000E+00  0.0000E+00
     -2.965  0.7517E-04  0.6618E-02  0.4731E-09  0.1018E-02  0.0000E+00  0.0000E+00  0.0000E+00  0.0000E+00  0.0000E+00
     -2.866  0.2700E-04  0.2625E-02  0.2478E-09  0.4155E-03  0.0000E+00  0.0000E+00  0.0000E+00  0.0000E+00  0.0000E+00
     -2.766  0.2476E-05  0.2487E-03  0.2535E-10  0.3977E-04  0.0000E+00  0.0000E+00  0.0000E+00  0.0000E+00  0.0000E+00
     -2.667  0.4209E-07  0.4259E-05  0.4408E-12  0.6822E-06  0.0000E+00  0.0000E+00  0.0000E+00  0.0000E+00  0.0000E+00
     -2.567  0.1139E-09  0.1154E-07  0.1198E-14  0.1849E-08  0.0000E+00  0.0000E+00  0.0000E+00  0.0000E+00  0.0000E+00
     -2.468  0.4607E-13  0.4668E-11  0.4848E-18  0.7482E-12  0.0000E+00  0.0000E+00  0.0000E+00  0.0000E+00  0.0000E+00
     -2.369  0.2711E-17  0.2747E-15  0.2853E-22  0.4403E-16  0.0000E+00  0.0000E+00  0.0000E+00  0.0000E+00  0.0000E+00
     -2.269  0.0000E+00  0.0000E+00  0.0000E+00  0.0000E+00  0.0000E+00  0.0000E+00  0.0000E+00  0.0000E+00  0.0000E+00
     -2.170  0.0000E+00  0.0000E+00  0.0000E+00  0.0000E+00  0.0000E+00  0.0000E+00  0.0000E+00  0.0000E+00  0.0000E+00
     -2.070  0.4312E-16  0.1244E-15  0.1838E-22  0.1278E-14  0.0000E+00  0.0000E+00  0.0000E+00  0.0000E+00  0.0000E+00
     -1.971  0.6639E-12  0.1913E-11  0.2818E-18  0.1966E-10  0.0000E+00  0.0000E+00  0.0000E+00  0.0000E+00  0.0000E+00
     -1.871  0.1503E-08  0.4319E-08  0.6313E-15  0.4437E-07  0.0000E+00  0.0000E+00  0.0000E+00  0.0000E+00  0.0000E+00
     -1.772  0.5222E-06  0.1491E-05  0.2136E-12  0.1529E-04  0.0000E+00  0.0000E+00  0.0000E+00  0.0000E+00  0.0000E+00
     -1.673  0.3020E-04  0.8492E-04  0.1164E-10  0.8688E-03  0.0000E+00  0.0000E+00  0.0000E+00  0.0000E+00  0.0000E+00
     -1.573  0.3331E-03  0.9092E-03  0.1210E-09  0.9244E-02  0.0000E+00  0.0000E+00  0.0000E+00  0.0000E+00  0.0000E+00
     -1.474  0.8918E-03  0.2282E-02  0.2012E-07  0.2278E-01  0.0000E+00  0.0000E+00  0.0000E+00  0.0000E+00  0.0000E+00
     -1.374  0.1065E-02  0.2528E-02  0.9403E-05  0.2277E-01  0.0000E+00  0.0000E+00  0.0000E+00  0.0000E+00  0.0000E+00
     -1.275  0.1665E-02  0.4401E-02  0.7940E-03  0.3115E-01  0.0000E+00  0.0000E+00  0.0000E+00  0.0000E+00  0.0000E+00
     -1.176  0.2490E-02  0.6166E-02  0.1358E-01  0.4085E-01  0.0000E+00  0.0000E+00  0.0000E+00  0.0000E+00  0.0000E+00
     -1.076  0.2385E-02  0.4722E-02  0.5984E-01  0.3032E-01  0.0000E+00  0.0000E+00  0.0000E+00  0.0000E+00  0.0000E+00
     -0.977  0.3345E-02  0.6523E-02  0.1089E+00  0.3582E-01  0.0000E+00  0.0000E+00  0.0000E+00  0.0000E+00  0.0000E+00
     -0.877  0.5494E-02  0.1157E-01  0.1367E+00  0.5502E-01  0.0000E+00  0.0000E+00  0.0000E+00  0.0000E+00  0.0000E+00
     -0.778  0.6207E-02  0.1106E-01  0.1429E+00  0.5224E-01  0.0000E+00  0.0000E+00  0.0000E+00  0.0000E+00  0.0000E+00
     -0.679  0.7785E-02  0.1149E-01  0.1466E+00  0.4768E-01  0.0000E+00  0.0000E+00  0.0000E+00  0.0000E+00  0.0000E+00
     -0.579  0.1261E-01  0.1901E-01  0.1452E+00  0.7171E-01  0.0000E+00  0.0000E+00  0.0000E+00  0.0000E+00  0.0000E+00
     -0.480  0.1713E-01  0.2393E-01  0.1133E+00  0.8316E-01  0.0000E+00  0.0000E+00  0.0000E+00  0.0000E+00  0.0000E+00
     -0.380  0.2611E-01  0.3200E-01  0.8348E-01  0.1014E+00  0.0000E+00  0.0000E+00  0.0000E+00  0.0000E+00  0.0000E+00
     -0.281  0.3842E-01  0.4405E-01  0.7522E-01  0.1288E+00  0.0000E+00  0.0000E+00  0.0000E+00  0.0000E+00  0.0000E+00
     -0.182  0.3803E-01  0.4053E-01  0.6431E-01  0.1042E+00  0.0000E+00  0.0000E+00  0.0000E+00  0.0000E+00  0.0000E+00
     -0.082  0.2996E-01  0.2782E-01  0.6921E-01  0.5613E-01  0.0000E+00  0.0000E+00  0.0000E+00  0.0000E+00  0.0000E+00
      0.017  0.2651E-01  0.2241E-01  0.1124E+00  0.3671E-01  0.0000E+00  0.0000E+00  0.0000E+00  0.0000E+00  0.0000E+00
      0.117  0.2603E-01  0.2225E-01  0.1263E+00  0.3431E-01  0.0000E+00  0.0000E+00  0.0000E+00  0.0000E+00  0.0000E+00
      0.216  0.2592E-01  0.2242E-01  0.8559E-01  0.3327E-01  0.0000E+00  0.0000E+00  0.0000E+00  0.0000E+00  0.0000E+00
      0.316  0.2512E-01  0.2095E-01  0.9126E-01  0.2805E-01  0.0000E+00  0.0000E+00  0.0000E+00  0.0000E+00  0.0000E+00
      0.415  0.2667E-01  0.2355E-01  0.1149E+00  0.2840E-01  0.0000E+00  0.0000E+00  0.0000E+00  0.0000E+00  0.0000E+00
      0.514  0.3039E-01  0.3545E-01  0.9796E-01  0.2834E-01  0.0000E+00  0.0000E+00  0.0000E+00  0.0000E+00  0.0000E+00
      0.614  0.4050E-01  0.5651E-01  0.9263E-01  0.2929E-01  0.0000E+00  0.0000E+00  0.0000E+00  0.0000E+00  0.0000E+00
      0.713  0.5177E-01  0.6779E-01  0.1214E+00  0.3146E-01  0.0000E+00  0.0000E+00  0.0000E+00  0.0000E+00  0.0000E+00
      0.813  0.5813E-01  0.7001E-01  0.1045E+00  0.3493E-01  0.0000E+00  0.0000E+00  0.0000E+00  0.0000E+00  0.0000E+00
      0.912  0.5490E-01  0.6292E-01  0.5299E-01  0.3683E-01  0.0000E+00  0.0000E+00  0.0000E+00  0.0000E+00  0.0000E+00
      1.011  0.5131E-01  0.5781E-01  0.3113E-01  0.3746E-01  0.0000E+00  0.0000E+00  0.0000E+00  0.0000E+00  0.0000E+00
      1.111  0.4517E-01  0.5004E-01  0.1917E-01  0.3417E-01  0.0000E+00  0.0000E+00  0.0000E+00  0.0000E+00  0.0000E+00
      1.210  0.4182E-01  0.4715E-01  0.7859E-02  0.3209E-01  0.0000E+00  0.0000E+00  0.0000E+00  0.0000E+00  0.0000E+00
      1.310  0.3695E-01  0.4443E-01  0.8685E-02  0.3065E-01  0.0000E+00  0.0000E+00  0.0000E+00  0.0000E+00  0.0000E+00
      1.409  0.2741E-01  0.3354E-01  0.1771E-01  0.2442E-01  0.0000E+00  0.0000E+00  0.0000E+00  0.0000E+00  0.0000E+00
      1.508  0.3045E-01  0.3069E-01  0.2918E-01  0.1574E-01  0.0000E+00  0.0000E+00  0.0000E+00  0.0000E+00  0.0000E+00
      1.608  0.4595E-01  0.4275E-01  0.3738E-01  0.1217E-01  0.0000E+00  0.0000E+00  0.0000E+00  0.0000E+00  0.0000E+00
      1.707  0.5343E-01  0.4866E-01  0.5204E-01  0.1443E-01  0.0000E+00  0.0000E+00  0.0000E+00  0.0000E+00  0.0000E+00
      1.807  0.5593E-01  0.4363E-01  0.6304E-01  0.1426E-01  0.0000E+00  0.0000E+00  0.0000E+00  0.0000E+00  0.0000E+00
      1.906  0.6423E-01  0.4603E-01  0.5700E-01  0.1386E-01  0.0000E+00  0.0000E+00  0.0000E+00  0.0000E+00  0.0000E+00
      2.005  0.5286E-01  0.3875E-01  0.4576E-01  0.1091E-01  0.0000E+00  0.0000E+00  0.0000E+00  0.0000E+00  0.0000E+00
      2.105  0.4408E-01  0.3329E-01  0.3726E-01  0.9363E-02  0.0000E+00  0.0000E+00  0.0000E+00  0.0000E+00  0.0000E+00
      2.204  0.3641E-01  0.2837E-01  0.4528E-01  0.7742E-02  0.0000E+00  0.0000E+00  0.0000E+00  0.0000E+00  0.0000E+00
      2.304  0.2613E-01  0.2186E-01  0.5804E-01  0.5226E-02  0.0000E+00  0.0000E+00  0.0000E+00  0.0000E+00  0.0000E+00
      2.403  0.2229E-01  0.1941E-01  0.5369E-01  0.4171E-02  0.0000E+00  0.0000E+00  0.0000E+00  0.0000E+00  0.0000E+00
      2.502  0.3828E-01  0.3416E-01  0.3792E-01  0.8153E-02  0.0000E+00  0.0000E+00  0.0000E+00  0.0000E+00  0.0000E+00
      2.602  0.5986E-01  0.5680E-01  0.3322E-01  0.1387E-01  0.0000E+00  0.0000E+00  0.0000E+00  0.0000E+00  0.0000E+00
      2.701  0.5606E-01  0.5821E-01  0.3450E-01  0.1332E-01  0.0000E+00  0.0000E+00  0.0000E+00  0.0000E+00  0.0000E+00
      2.801  0.4300E-01  0.4673E-01  0.3873E-01  0.1065E-01  0.0000E+00  0.0000E+00  0.0000E+00  0.0000E+00  0.0000E+00
      2.900  0.3197E-01  0.3960E-01  0.4654E-01  0.1049E-01  0.0000E+00  0.0000E+00  0.0000E+00  0.0000E+00  0.0000E+00
      3.000  0.2353E-01  0.3166E-01  0.5393E-01  0.9283E-02  0.0000E+00  0.0000E+00  0.0000E+00  0.0000E+00  0.0000E+00
      3.099  0.1979E-01  0.2441E-01  0.5090E-01  0.9028E-02  0.0000E+00  0.0000E+00  0.0000E+00  0.0000E+00  0.0000E+00
      3.198  0.2077E-01  0.2336E-01  0.4061E-01  0.1020E-01  0.0000E+00  0.0000E+00  0.0000E+00  0.0000E+00  0.0000E+00
      3.298  0.1786E-01  0.1856E-01  0.3247E-01  0.8842E-02  0.0000E+00  0.0000E+00  0.0000E+00  0.0000E+00  0.0000E+00
      3.397  0.1622E-01  0.1618E-01  0.2730E-01  0.9912E-02  0.0000E+00  0.0000E+00  0.0000E+00  0.0000E+00  0.0000E+00
      3.497  0.2044E-01  0.1509E-01  0.2430E-01  0.1224E-01  0.0000E+00  0.0000E+00  0.0000E+00  0.0000E+00  0.0000E+00
      3.596  0.2376E-01  0.1450E-01  0.1913E-01  0.1149E-01  0.0000E+00  0.0000E+00  0.0000E+00  0.0000E+00  0.0000E+00
      3.695  0.2304E-01  0.1399E-01  0.1965E-01  0.1051E-01  0.0000E+00  0.0000E+00  0.0000E+00  0.0000E+00  0.0000E+00
      3.795  0.1974E-01  0.9662E-02  0.1868E-01  0.7009E-02  0.0000E+00  0.0000E+00  0.0000E+00  0.0000E+00  0.0000E+00
      3.894  0.1663E-01  0.7726E-02  0.1461E-01  0.5387E-02  0.0000E+00  0.0000E+00  0.0000E+00  0.0000E+00  0.0000E+00
      3.994  0.1461E-01  0.8352E-02  0.1362E-01  0.5636E-02  0.0000E+00  0.0000E+00  0.0000E+00  0.0000E+00  0.0000E+00
      4.093  0.1386E-01  0.7379E-02  0.1431E-01  0.5188E-02  0.0000E+00  0.0000E+00  0.0000E+00  0.0000E+00  0.0000E+00
      4.192  0.1062E-01  0.4077E-02  0.1296E-01  0.3286E-02  0.0000E+00  0.0000E+00  0.0000E+00  0.0000E+00  0.0000E+00
      4.292  0.8075E-02  0.1992E-02  0.1075E-01  0.1983E-02  0.0000E+00  0.0000E+00  0.0000E+00  0.0000E+00  0.0000E+00
      4.391  0.6187E-02  0.1358E-02  0.9332E-02  0.1670E-02  0.0000E+00  0.0000E+00  0.0000E+00  0.0000E+00  0.0000E+00
      4.491  0.4422E-02  0.1247E-02  0.7648E-02  0.1795E-02  0.0000E+00  0.0000E+00  0.0000E+00  0.0000E+00  0.0000E+00
      4.590  0.3412E-02  0.1149E-02  0.5195E-02  0.1684E-02  0.0000E+00  0.0000E+00  0.0000E+00  0.0000E+00  0.0000E+00
      4.689  0.1816E-02  0.6577E-03  0.2832E-02  0.9911E-03  0.0000E+00  0.0000E+00  0.0000E+00  0.0000E+00  0.0000E+00
      4.789  0.7086E-03  0.4162E-03  0.1599E-02  0.4662E-03  0.0000E+00  0.0000E+00  0.0000E+00  0.0000E+00  0.0000E+00
      4.888  0.2967E-03  0.2366E-03  0.7723E-03  0.1867E-03  0.0000E+00  0.0000E+00  0.0000E+00  0.0000E+00  0.0000E+00
      4.988  0.6180E-04  0.6229E-04  0.1607E-03  0.3266E-04  0.0000E+00  0.0000E+00  0.0000E+00  0.0000E+00  0.0000E+00
      5.087  0.1937E-04  0.4407E-04  0.8442E-04  0.1165E-04  0.0000E+00  0.0000E+00  0.0000E+00  0.0000E+00  0.0000E+00
      5.187  0.5978E-05  0.1464E-04  0.2767E-04  0.3702E-05  0.0000E+00  0.0000E+00  0.0000E+00  0.0000E+00  0.0000E+00
      5.286  0.3620E-06  0.8875E-06  0.1677E-05  0.2243E-06  0.0000E+00  0.0000E+00  0.0000E+00  0.0000E+00  0.0000E+00
      5.385  0.3583E-08  0.8785E-08  0.1660E-07  0.2220E-08  0.0000E+00  0.0000E+00  0.0000E+00  0.0000E+00  0.0000E+00
      5.485  0.5433E-11  0.1332E-10  0.2518E-10  0.3367E-11  0.0000E+00  0.0000E+00  0.0000E+00  0.0000E+00  0.0000E+00
      5.584  0.1215E-14  0.2980E-14  0.5633E-14  0.7532E-15  0.0000E+00  0.0000E+00  0.0000E+00  0.0000E+00  0.0000E+00
      5.684  0.3789E-19  0.9291E-19  0.1756E-18  0.2348E-19  0.0000E+00  0.0000E+00  0.0000E+00  0.0000E+00  0.0000E+00
      5.783  0.0000E+00  0.0000E+00  0.0000E+00  0.0000E+00  0.0000E+00  0.0000E+00  0.0000E+00  0.0000E+00  0.0000E+00
      5.882  0.0000E+00  0.0000E+00  0.0000E+00  0.0000E+00  0.0000E+00  0.0000E+00  0.0000E+00  0.0000E+00  0.0000E+00
      5.982  0.0000E+00  0.0000E+00  0.0000E+00  0.0000E+00  0.0000E+00  0.0000E+00  0.0000E+00  0.0000E+00  0.0000E+00
      6.081  0.0000E+00  0.0000E+00  0.0000E+00  0.0000E+00  0.0000E+00  0.0000E+00  0.0000E+00  0.0000E+00  0.0000E+00
      6.181  0.0000E+00  0.0000E+00  0.0000E+00  0.0000E+00  0.0000E+00  0.0000E+00  0.0000E+00  0.0000E+00  0.0000E+00
      6.280  0.0000E+00  0.0000E+00  0.0000E+00  0.0000E+00  0.0000E+00  0.0000E+00  0.0000E+00  0.0000E+00  0.0000E+00
      6.379  0.0000E+00  0.0000E+00  0.0000E+00  0.0000E+00  0.0000E+00  0.0000E+00  0.0000E+00  0.0000E+00  0.0000E+00
      6.37943935    -23.44321047  301     -4.43334101      1.00000000
    -23.443  0.0000E+00  0.0000E+00  0.0000E+00  0.0000E+00  0.0000E+00  0.0000E+00  0.0000E+00  0.0000E+00  0.0000E+00
    -23.344  0.0000E+00  0.0000E+00  0.0000E+00  0.0000E+00  0.0000E+00  0.0000E+00  0.0000E+00  0.0000E+00  0.0000E+00
    -23.244  0.0000E+00  0.0000E+00  0.0000E+00  0.0000E+00  0.0000E+00  0.0000E+00  0.0000E+00  0.0000E+00  0.0000E+00
    -23.145  0.0000E+00  0.0000E+00  0.0000E+00  0.0000E+00  0.0000E+00  0.0000E+00  0.0000E+00  0.0000E+00  0.0000E+00
    -23.046  0.0000E+00  0.0000E+00  0.0000E+00  0.0000E+00  0.0000E+00  0.0000E+00  0.0000E+00  0.0000E+00  0.0000E+00
    -22.946  0.0000E+00  0.0000E+00  0.0000E+00  0.0000E+00  0.0000E+00  0.0000E+00  0.0000E+00  0.0000E+00  0.0000E+00
    -22.847  0.0000E+00  0.0000E+00  0.0000E+00  0.0000E+00  0.0000E+00  0.0000E+00  0.0000E+00  0.0000E+00  0.0000E+00
    -22.747  0.0000E+00  0.0000E+00  0.0000E+00  0.0000E+00  0.0000E+00  0.0000E+00  0.0000E+00  0.0000E+00  0.0000E+00
    -22.648  0.1545E-16  0.3958E-17  0.9053E-25  0.1787E-17  0.0000E+00  0.0000E+00  0.0000E+00  0.0000E+00  0.0000E+00
    -22.549  0.5579E-12  0.1442E-12  0.3289E-20  0.6502E-13  0.0000E+00  0.0000E+00  0.0000E+00  0.0000E+00  0.0000E+00
    -22.449  0.3013E-08  0.7859E-09  0.1787E-16  0.3539E-09  0.0000E+00  0.0000E+00  0.0000E+00  0.0000E+00  0.0000E+00
    -22.350  0.2544E-05  0.6737E-06  0.1524E-13  0.3028E-06  0.0000E+00  0.0000E+00  0.0000E+00  0.0000E+00  0.0000E+00
    -22.250  0.3606E-03  0.9806E-04  0.2199E-11  0.4393E-04  0.0000E+00  0.0000E+00  0.0000E+00  0.0000E+00  0.0000E+00
    -22.151  0.9717E-02  0.2773E-02  0.6126E-10  0.1235E-02  0.0000E+00  0.0000E+00  0.0000E+00  0.0000E+00  0.0000E+00
    -22.051  0.6066E-01  0.1866E-01  0.4032E-09  0.8249E-02  0.0000E+00  0.0000E+00  0.0000E+00  0.0000E+00  0.0000E+00
    -21.952  0.1160E+00  0.3863E-01  0.8195E-09  0.1707E-01  0.0000E+00  0.0000E+00  0.0000E+00  0.0000E+00  0.0000E+00
    -21.853  0.1061E+00  0.3654E-01  0.7791E-09  0.1652E-01  0.0000E+00  0.0000E+00  0.0000E+00  0.0000E+00  0.0000E+00
    -21.753  0.8618E-01  0.2926E-01  0.6422E-09  0.1382E-01  0.0000E+00  0.0000E+00  0.0000E+00  0.0000E+00  0.0000E+00
    -21.654  0.8092E-01  0.2698E-01  0.6097E-09  0.1326E-01  0.0000E+00  0.0000E+00  0.0000E+00  0.0000E+00  0.0000E+00
    -21.554  0.8408E-01  0.2748E-01  0.6385E-09  0.1396E-01  0.0000E+00  0.0000E+00  0.0000E+00  0.0000E+00  0.0000E+00
    -21.455  0.9662E-01  0.3064E-01  0.7360E-09  0.1604E-01  0.0000E+00  0.0000E+00  0.0000E+00  0.0000E+00  0.0000E+00
    -21.356  0.1284E+00  0.3899E-01  0.9735E-09  0.2093E-01  0.0000E+00  0.0000E+00  0.0000E+00  0.0000E+00  0.0000E+00
    -21.256  0.1573E+00  0.4799E-01  0.1219E-08  0.2606E-01  0.0000E+00  0.0000E+00  0.0000E+00  0.0000E+00  0.0000E+00
    -21.157  0.1088E+00  0.3640E-01  0.9093E-09  0.1968E-01  0.0000E+00  0.0000E+00  0.0000E+00  0.0000E+00  0.0000E+00
    -21.057  0.3146E-01  0.1166E-01  0.2850E-09  0.6258E-02  0.0000E+00  0.0000E+00  0.0000E+00  0.0000E+00  0.0000E+00
    -20.958  0.2772E-02  0.1088E-02  0.2630E-10  0.5820E-03  0.0000E+00  0.0000E+00  0.0000E+00  0.0000E+00  0.0000E+00
    -20.859  0.5430E-04  0.2191E-04  0.5267E-12  0.1170E-04  0.0000E+00  0.0000E+00  0.0000E+00  0.0000E+00  0.0000E+00
    -20.759  0.1935E-06  0.7917E-07  0.1899E-14  0.4225E-07  0.0000E+00  0.0000E+00  0.0000E+00  0.0000E+00  0.0000E+00
    -20.660  0.1125E-09  0.4641E-10  0.1111E-17  0.2475E-10  0.0000E+00  0.0000E+00  0.0000E+00  0.0000E+00  0.0000E+00
    -20.560  0.1006E-13  0.4174E-14  0.9986E-22  0.2226E-14  0.0000E+00  0.0000E+00  0.0000E+00  0.0000E+00  0.0000E+00
    -20.461  0.0000E+00  0.0000E+00  0.0000E+00  0.0000E+00  0.0000E+00  0.0000E+00  0.0000E+00  0.0000E+00  0.0000E+00
    -20.362  0.0000E+00  0.0000E+00  0.0000E+00  0.0000E+00  0.0000E+00  0.0000E+00  0.0000E+00  0.0000E+00  0.0000E+00
    -20.262  0.0000E+00  0.0000E+00  0.0000E+00  0.0000E+00  0.0000E+00  0.0000E+00  0.0000E+00  0.0000E+00  0.0000E+00
    -20.163  0.0000E+00  0.0000E+00  0.0000E+00  0.0000E+00  0.0000E+00  0.0000E+00  0.0000E+00  0.0000E+00  0.0000E+00
    -20.063  0.0000E+00  0.0000E+00  0.0000E+00  0.0000E+00  0.0000E+00  0.0000E+00  0.0000E+00  0.0000E+00  0.0000E+00
    -19.964  0.0000E+00  0.0000E+00  0.0000E+00  0.0000E+00  0.0000E+00  0.0000E+00  0.0000E+00  0.0000E+00  0.0000E+00
    -19.864  0.0000E+00  0.0000E+00  0.0000E+00  0.0000E+00  0.0000E+00  0.0000E+00  0.0000E+00  0.0000E+00  0.0000E+00
    -19.765  0.0000E+00  0.0000E+00  0.0000E+00  0.0000E+00  0.0000E+00  0.0000E+00  0.0000E+00  0.0000E+00  0.0000E+00
    -19.666  0.0000E+00  0.0000E+00  0.0000E+00  0.0000E+00  0.0000E+00  0.0000E+00  0.0000E+00  0.0000E+00  0.0000E+00
    -19.566  0.0000E+00  0.0000E+00  0.0000E+00  0.0000E+00  0.0000E+00  0.0000E+00  0.0000E+00  0.0000E+00  0.0000E+00
    -19.467  0.0000E+00  0.0000E+00  0.0000E+00  0.0000E+00  0.0000E+00  0.0000E+00  0.0000E+00  0.0000E+00  0.0000E+00
    -19.367  0.0000E+00  0.0000E+00  0.0000E+00  0.0000E+00  0.0000E+00  0.0000E+00  0.0000E+00  0.0000E+00  0.0000E+00
    -19.268  0.0000E+00  0.0000E+00  0.0000E+00  0.0000E+00  0.0000E+00  0.0000E+00  0.0000E+00  0.0000E+00  0.0000E+00
    -19.169  0.0000E+00  0.0000E+00  0.0000E+00  0.0000E+00  0.0000E+00  0.0000E+00  0.0000E+00  0.0000E+00  0.0000E+00
    -19.069  0.0000E+00  0.0000E+00  0.0000E+00  0.0000E+00  0.0000E+00  0.0000E+00  0.0000E+00  0.0000E+00  0.0000E+00
    -18.970  0.0000E+00  0.0000E+00  0.0000E+00  0.0000E+00  0.0000E+00  0.0000E+00  0.0000E+00  0.0000E+00  0.0000E+00
    -18.870  0.0000E+00  0.0000E+00  0.0000E+00  0.0000E+00  0.0000E+00  0.0000E+00  0.0000E+00  0.0000E+00  0.0000E+00
    -18.771  0.0000E+00  0.0000E+00  0.0000E+00  0.0000E+00  0.0000E+00  0.0000E+00  0.0000E+00  0.0000E+00  0.0000E+00
    -18.672  0.0000E+00  0.0000E+00  0.0000E+00  0.0000E+00  0.0000E+00  0.0000E+00  0.0000E+00  0.0000E+00  0.0000E+00
    -18.572  0.0000E+00  0.0000E+00  0.0000E+00  0.0000E+00  0.0000E+00  0.0000E+00  0.0000E+00  0.0000E+00  0.0000E+00
    -18.473  0.0000E+00  0.0000E+00  0.0000E+00  0.0000E+00  0.0000E+00  0.0000E+00  0.0000E+00  0.0000E+00  0.0000E+00
    -18.373  0.0000E+00  0.0000E+00  0.0000E+00  0.0000E+00  0.0000E+00  0.0000E+00  0.0000E+00  0.0000E+00  0.0000E+00
    -18.274  0.0000E+00  0.0000E+00  0.0000E+00  0.0000E+00  0.0000E+00  0.0000E+00  0.0000E+00  0.0000E+00  0.0000E+00
    -18.175  0.0000E+00  0.0000E+00  0.0000E+00  0.0000E+00  0.0000E+00  0.0000E+00  0.0000E+00  0.0000E+00  0.0000E+00
    -18.075  0.0000E+00  0.0000E+00  0.0000E+00  0.0000E+00  0.0000E+00  0.0000E+00  0.0000E+00  0.0000E+00  0.0000E+00
    -17.976  0.0000E+00  0.0000E+00  0.0000E+00  0.0000E+00  0.0000E+00  0.0000E+00  0.0000E+00  0.0000E+00  0.0000E+00
    -17.876  0.8340E-18  0.5156E-19  0.5239E-26  0.9197E-19  0.0000E+00  0.0000E+00  0.0000E+00  0.0000E+00  0.0000E+00
    -17.777  0.6208E-13  0.3965E-14  0.3908E-21  0.6787E-14  0.0000E+00  0.0000E+00  0.0000E+00  0.0000E+00  0.0000E+00
    -17.677  0.5337E-09  0.3435E-10  0.3369E-17  0.5850E-10  0.0000E+00  0.0000E+00  0.0000E+00  0.0000E+00  0.0000E+00
    -17.578  0.7071E-06  0.4607E-07  0.4484E-14  0.7781E-07  0.0000E+00  0.0000E+00  0.0000E+00  0.0000E+00  0.0000E+00
    -17.479  0.1532E-03  0.1018E-04  0.9783E-12  0.1696E-04  0.0000E+00  0.0000E+00  0.0000E+00  0.0000E+00  0.0000E+00
    -17.379  0.6022E-02  0.4146E-03  0.3900E-10  0.6750E-03  0.0000E+00  0.0000E+00  0.0000E+00  0.0000E+00  0.0000E+00
    -17.280  0.5180E-01  0.3835E-02  0.3453E-09  0.5950E-02  0.0000E+00  0.0000E+00  0.0000E+00  0.0000E+00  0.0000E+00
    -17.180  0.1356E+00  0.1179E-01  0.9647E-09  0.1645E-01  0.0000E+00  0.0000E+00  0.0000E+00  0.0000E+00  0.0000E+00
    -17.081  0.1861E+00  0.2200E-01  0.1507E-08  0.2514E-01  0.0000E+00  0.0000E+00  0.0000E+00  0.0000E+00  0.0000E+00
    -16.982  0.2227E+00  0.3430E-01  0.2129E-08  0.3520E-01  0.0000E+00  0.0000E+00  0.0000E+00  0.0000E+00  0.0000E+00
    -16.882  0.2591E+00  0.3744E-01  0.2768E-08  0.4798E-01  0.0000E+00  0.0000E+00  0.0000E+00  0.0000E+00  0.0000E+00
    -16.783  0.2135E+00  0.2797E-01  0.2506E-08  0.4708E-01  0.0000E+00  0.0000E+00  0.0000E+00  0.0000E+00  0.0000E+00
    -16.683  0.1151E+00  0.1569E-01  0.1553E-08  0.3200E-01  0.0000E+00  0.0000E+00  0.0000E+00  0.0000E+00  0.0000E+00
    -16.584  0.4205E-01  0.6185E-02  0.6430E-09  0.1405E-01  0.0000E+00  0.0000E+00  0.0000E+00  0.0000E+00  0.0000E+00
    -16.485  0.6770E-02  0.1059E-02  0.1113E-09  0.2486E-02  0.0000E+00  0.0000E+00  0.0000E+00  0.0000E+00  0.0000E+00
    -16.385  0.2970E-03  0.4828E-04  0.5062E-11  0.1140E-03  0.0000E+00  0.0000E+00  0.0000E+00  0.0000E+00  0.0000E+00
    -16.286  0.2645E-05  0.4398E-06  0.4595E-13  0.1039E-05  0.0000E+00  0.0000E+00  0.0000E+00  0.0000E+00  0.0000E+00
    -16.186  0.4076E-08  0.6873E-09  0.7159E-16  0.1622E-08  0.0000E+00  0.0000E+00  0.0000E+00  0.0000E+00  0.0000E+00
    -16.087  0.9974E-12  0.1697E-12  0.1764E-19  0.4001E-12  0.0000E+00  0.0000E+00  0.0000E+00  0.0000E+00  0.0000E+00
    -15.988  0.3690E-16  0.6319E-17  0.6559E-24  0.1489E-16  0.0000E+00  0.0000E+00  0.0000E+00  0.0000E+00  0.0000E+00
    -15.888  0.9710E-15  0.1682E-16  0.3508E-23  0.1115E-16  0.0000E+00  0.0000E+00  0.0000E+00  0.0000E+00  0.0000E+00
    -15.789  0.1446E-10  0.2511E-12  0.5228E-19  0.1673E-12  0.0000E+00  0.0000E+00  0.0000E+00  0.0000E+00  0.0000E+00
    -15.689  0.3164E-07  0.5543E-09  0.1147E-15  0.3736E-09  0.0000E+00  0.0000E+00  0.0000E+00  0.0000E+00  0.0000E+00
    -15.590  0.1066E-04  0.1910E-06  0.3892E-13  0.1321E-06  0.0000E+00  0.0000E+00  0.0000E+00  0.0000E+00  0.0000E+00
    -15.491  0.6095E-03  0.1154E-04  0.2260E-11  0.8358E-05  0.0000E+00  0.0000E+00  0.0000E+00  0.0000E+00  0.0000E+00
    -15.391  0.7156E-02  0.1521E-03  0.2740E-10  0.1173E-03  0.0000E+00  0.0000E+00  0.0000E+00  0.0000E+00  0.0000E+00
    -15.292  0.2357E-01  0.6105E-03  0.9613E-10  0.5171E-03  0.0000E+00  0.0000E+00  0.0000E+00  0.0000E+00  0.0000E+00
    -15.192  0.3491E-01  0.1189E-02  0.1584E-09  0.1137E-02  0.0000E+00  0.0000E+00  0.0000E+00  0.0000E+00  0.0000E+00
    -15.093  0.4239E-01  0.1825E-02  0.2137E-09  0.1949E-02  0.0000E+00  0.0000E+00  0.0000E+00  0.0000E+00  0.0000E+00
    -14.993  0.5164E-01  0.2589E-02  0.2797E-09  0.3115E-02  0.0000E+00  0.0000E+00  0.0000E+00  0.0000E+00  0.0000E+00
    -14.894  0.8128E-01  0.4732E-02  0.4408E-09  0.5892E-02  0.0000E+00  0.0000E+00  0.0000E+00  0.0000E+00  0.0000E+00
    -14.795  0.1621E+00  0.1185E-01  0.8472E-09  0.1368E-01  0.0000E+00  0.0000E+00  0.0000E+00  0.0000E+00  0.0000E+00
    -14.695  0.2347E+00  0.1993E-01  0.1266E-08  0.2145E-01  0.0000E+00  0.0000E+00  0.0000E+00  0.0000E+00  0.0000E+00
    -14.596  0.1896E+00  0.1827E-01  0.1202E-08  0.2004E-01  0.0000E+00  0.0000E+00  0.0000E+00  0.0000E+00  0.0000E+00
    -14.496  0.1565E+00  0.1734E-01  0.1235E-08  0.1948E-01  0.0000E+00  0.0000E+00  0.0000E+00  0.0000E+00  0.0000E+00
    -14.397  0.1595E+00  0.2056E-01  0.1391E-08  0.2093E-01  0.0000E+00  0.0000E+00  0.0000E+00  0.0000E+00  0.0000E+00
    -14.298  0.1514E+00  0.2492E-01  0.1366E-08  0.1887E-01  0.0000E+00  0.0000E+00  0.0000E+00  0.0000E+00  0.0000E+00
    -14.198  0.1403E+00  0.3087E-01  0.1471E-08  0.1764E-01  0.0000E+00  0.0000E+00  0.0000E+00  0.0000E+00  0.0000E+00
    -14.099  0.1389E+00  0.4100E-01  0.1817E-08  0.1863E-01  0.0000E+00  0.0000E+00  0.0000E+00  0.0000E+00  0.0000E+00
    -13.999  0.1439E+00  0.5451E-01  0.2317E-08  0.2036E-01  0.0000E+00  0.0000E+00  0.0000E+00  0.0000E+00  0.0000E+00
    -13.900  0.1195E+00  0.5099E-01  0.2225E-08  0.1836E-01  0.0000E+00  0.0000E+00  0.0000E+00  0.0000E+00  0.0000E+00
    -13.801  0.8050E-01  0.3465E-01  0.1687E-08  0.1413E-01  0.0000E+00  0.0000E+00  0.0000E+00  0.0000E+00  0.0000E+00
    -13.701  0.4514E-01  0.1936E-01  0.1036E-08  0.8705E-02  0.0000E+00  0.0000E+00  0.0000E+00  0.0000E+00  0.0000E+00
    -13.602  0.1277E-01  0.5570E-02  0.3071E-09  0.2538E-02  0.0000E+00  0.0000E+00  0.0000E+00  0.0000E+00  0.0000E+00
    -13.502  0.1034E-02  0.4576E-03  0.2545E-10  0.2073E-03  0.0000E+00  0.0000E+00  0.0000E+00  0.0000E+00  0.0000E+00
    -13.403  0.1788E-04  0.8002E-05  0.4468E-12  0.3604E-05  0.0000E+00  0.0000E+00  0.0000E+00  0.0000E+00  0.0000E+00
    -13.304  0.5647E-07  0.2546E-07  0.1425E-14  0.1142E-07  0.0000E+00  0.0000E+00  0.0000E+00  0.0000E+00  0.0000E+00
    -13.204  0.3327E-10  0.1383E-10  0.7629E-18  0.6688E-11  0.0000E+00  0.0000E+00  0.0000E+00  0.0000E+00  0.0000E+00
    -13.105  0.1599E-07  0.2193E-08  0.3459E-15  0.3016E-08  0.0000E+00  0.0000E+00  0.0000E+00  0.0000E+00  0.0000E+00
    -13.005  0.1044E-04  0.1409E-05  0.5030E-11  0.1959E-05  0.0000E+00  0.0000E+00  0.0000E+00  0.0000E+00  0.0000E+00
    -12.906  0.1161E-02  0.1554E-03  0.1382E-07  0.2167E-03  0.0000E+00  0.0000E+00  0.0000E+00  0.0000E+00  0.0000E+00
    -12.806  0.2421E-01  0.3331E-02  0.6086E-05  0.4513E-02  0.0000E+00  0.0000E+00  0.0000E+00  0.0000E+00  0.0000E+00
    -12.707  0.1134E+00  0.1781E-01  0.4625E-03  0.2137E-01  0.0000E+00  0.0000E+00  0.0000E+00  0.0000E+00  0.0000E+00
    -12.608  0.1713E+00  0.3638E-01  0.7018E-02  0.3347E-01  0.0000E+00  0.0000E+00  0.0000E+00  0.0000E+00  0.0000E+00
    -12.508  0.1453E+00  0.4206E-01  0.2748E-01  0.2958E-01  0.0000E+00  0.0000E+00  0.0000E+00  0.0000E+00  0.0000E+00
    -12.409  0.1082E+00  0.3734E-01  0.4346E-01  0.2238E-01  0.0000E+00  0.0000E+00  0.0000E+00  0.0000E+00  0.0000E+00
    -12.309  0.8713E-01  0.3447E-01  0.4724E-01  0.1794E-01  0.0000E+00  0.0000E+00  0.0000E+00  0.0000E+00  0.0000E+00
    -12.210  0.7594E-01  0.3376E-01  0.4197E-01  0.1561E-01  0.0000E+00  0.0000E+00  0.0000E+00  0.0000E+00  0.0000E+00
    -12.111  0.6858E-01  0.3338E-01  0.3507E-01  0.1374E-01  0.0000E+00  0.0000E+00  0.0000E+00  0.0000E+00  0.0000E+00
    -12.011  0.6371E-01  0.3459E-01  0.3188E-01  0.1255E-01  0.0000E+00  0.0000E+00  0.0000E+00  0.0000E+00  0.0000E+00
    -11.912  0.5942E-01  0.3496E-01  0.3078E-01  0.1126E-01  0.0000E+00  0.0000E+00  0.0000E+00  0.0000E+00  0.0000E+00
    -11.812  0.5633E-01  0.3526E-01  0.3092E-01  0.1008E-01  0.0000E+00  0.0000E+00  0.0000E+00  0.0000E+00  0.0000E+00
    -11.713  0.5319E-01  0.3652E-01  0.3217E-01  0.9230E-02  0.0000E+00  0.0000E+00  0.0000E+00  0.0000E+00  0.0000E+00
    -11.614  0.4402E-01  0.3012E-01  0.3470E-01  0.7981E-02  0.0000E+00  0.0000E+00  0.0000E+00  0.0000E+00  0.0000E+00
    -11.514  0.4010E-01  0.2697E-01  0.3984E-01  0.9321E-02  0.0000E+00  0.0000E+00  0.0000E+00  0.0000E+00  0.0000E+00
    -11.415  0.4037E-01  0.2816E-01  0.5207E-01  0.1817E-01  0.0000E+00  0.0000E+00  0.0000E+00  0.0000E+00  0.0000E+00
    -11.315  0.4717E-01  0.3100E-01  0.7668E-01  0.2999E-01  0.0000E+00  0.0000E+00  0.0000E+00  0.0000E+00  0.0000E+00
    -11.216  0.5063E-01  0.3235E-01  0.8402E-01  0.3325E-01  0.0000E+00  0.0000E+00  0.0000E+00  0.0000E+00  0.0000E+00
    -11.117  0.5207E-01  0.3393E-01  0.6222E-01  0.3479E-01  0.0000E+00  0.0000E+00  0.0000E+00  0.0000E+00  0.0000E+00
    -11.017  0.6255E-01  0.3820E-01  0.4540E-01  0.3556E-01  0.0000E+00  0.0000E+00  0.0000E+00  0.0000E+00  0.0000E+00
    -10.918  0.6232E-01  0.3622E-01  0.3590E-01  0.3693E-01  0.0000E+00  0.0000E+00  0.0000E+00  0.0000E+00  0.0000E+00
    -10.818  0.5121E-01  0.3111E-01  0.2871E-01  0.3478E-01  0.0000E+00  0.0000E+00  0.0000E+00  0.0000E+00  0.0000E+00
    -10.719  0.4790E-01  0.2917E-01  0.1868E-01  0.4011E-01  0.0000E+00  0.0000E+00  0.0000E+00  0.0000E+00  0.0000E+00
    -10.619  0.6335E-01  0.4106E-01  0.5836E-02  0.5340E-01  0.0000E+00  0.0000E+00  0.0000E+00  0.0000E+00  0.0000E+00
    -10.520  0.7733E-01  0.5358E-01  0.5269E-03  0.5971E-01  0.0000E+00  0.0000E+00  0.0000E+00  0.0000E+00  0.0000E+00
    -10.421  0.5665E-01  0.4407E-01  0.1011E-04  0.4043E-01  0.0000E+00  0.0000E+00  0.0000E+00  0.0000E+00  0.0000E+00
    -10.321  0.3456E-01  0.3205E-01  0.3640E-07  0.2047E-01  0.0000E+00  0.0000E+00  0.0000E+00  0.0000E+00  0.0000E+00
    -10.222  0.2759E-01  0.2816E-01  0.1486E-08  0.1415E-01  0.0000E+00  0.0000E+00  0.0000E+00  0.0000E+00  0.0000E+00
    -10.122  0.2255E-01  0.2429E-01  0.1163E-08  0.9440E-02  0.0000E+00  0.0000E+00  0.0000E+00  0.0000E+00  0.0000E+00
    -10.023  0.2380E-01  0.2490E-01  0.1422E-08  0.1175E-01  0.0000E+00  0.0000E+00  0.0000E+00  0.0000E+00  0.0000E+00
     -9.924  0.2287E-01  0.2187E-01  0.1649E-08  0.1575E-01  0.0000E+00  0.0000E+00  0.0000E+00  0.0000E+00  0.0000E+00
     -9.824  0.2204E-01  0.1925E-01  0.2004E-08  0.2325E-01  0.0000E+00  0.0000E+00  0.0000E+00  0.0000E+00  0.0000E+00
     -9.725  0.2412E-01  0.2269E-01  0.2580E-08  0.3707E-01  0.0000E+00  0.0000E+00  0.0000E+00  0.0000E+00  0.0000E+00
     -9.625  0.3675E-01  0.4544E-01  0.4118E-08  0.7118E-01  0.0000E+00  0.0000E+00  0.0000E+00  0.0000E+00  0.0000E+00
     -9.526  0.4915E-01  0.7143E-01  0.5222E-08  0.9705E-01  0.0000E+00  0.0000E+00  0.0000E+00  0.0000E+00  0.0000E+00
     -9.427  0.3915E-01  0.6113E-01  0.3995E-08  0.7367E-01  0.0000E+00  0.0000E+00  0.0000E+00  0.0000E+00  0.0000E+00
     -9.327  0.2651E-01  0.4689E-01  0.2665E-08  0.4880E-01  0.0000E+00  0.0000E+00  0.0000E+00  0.0000E+00  0.0000E+00
     -9.228  0.1903E-01  0.4141E-01  0.1932E-08  0.3770E-01  0.0000E+00  0.0000E+00  0.0000E+00  0.0000E+00  0.0000E+00
     -9.128  0.1689E-01  0.4259E-01  0.1848E-08  0.3876E-01  0.0000E+00  0.0000E+00  0.0000E+00  0.0000E+00  0.0000E+00
     -9.029  0.1629E-01  0.4512E-01  0.1272E-06  0.4465E-01  0.0000E+00  0.0000E+00  0.0000E+00  0.0000E+00  0.0000E+00
     -8.930  0.2463E-01  0.6200E-01  0.3825E-04  0.7020E-01  0.0000E+00  0.0000E+00  0.0000E+00  0.0000E+00  0.0000E+00
     -8.830  0.3671E-01  0.8293E-01  0.2068E-02  0.1078E+00  0.0000E+00  0.0000E+00  0.0000E+00  0.0000E+00  0.0000E+00
     -8.731  0.4237E-01  0.9728E-01  0.2337E-01  0.1295E+00  0.0000E+00  0.0000E+00  0.0000E+00  0.0000E+00  0.0000E+00
     -8.631  0.4759E-01  0.1179E+00  0.7381E-01  0.1661E+00  0.0000E+00  0.0000E+00  0.0000E+00  0.0000E+00  0.0000E+00
     -8.532  0.4932E-01  0.1314E+00  0.1067E+00  0.1921E+00  0.0000E+00  0.0000E+00  0.0000E+00  0.0000E+00  0.0000E+00
     -8.432  0.4402E-01  0.1280E+00  0.1246E+00  0.1835E+00  0.0000E+00  0.0000E+00  0.0000E+00  0.0000E+00  0.0000E+00
     -8.333  0.3648E-01  0.1179E+00  0.1483E+00  0.1669E+00  0.0000E+00  0.0000E+00  0.0000E+00  0.0000E+00  0.0000E+00
     -8.234  0.3354E-01  0.1184E+00  0.1528E+00  0.1672E+00  0.0000E+00  0.0000E+00  0.0000E+00  0.0000E+00  0.0000E+00
     -8.134  0.3413E-01  0.1322E+00  0.1307E+00  0.1719E+00  0.0000E+00  0.0000E+00  0.0000E+00  0.0000E+00  0.0000E+00
     -8.035  0.4053E-01  0.1639E+00  0.1195E+00  0.1775E+00  0.0000E+00  0.0000E+00  0.0000E+00  0.0000E+00  0.0000E+00
     -7.935  0.4300E-01  0.1798E+00  0.1203E+00  0.1730E+00  0.0000E+00  0.0000E+00  0.0000E+00  0.0000E+00  0.0000E+00
     -7.836  0.3382E-01  0.1396E+00  0.1059E+00  0.1183E+00  0.0000E+00  0.0000E+00  0.0000E+00  0.0000E+00  0.0000E+00
     -7.737  0.2892E-01  0.1073E+00  0.7822E-01  0.7366E-01  0.0000E+00  0.0000E+00  0.0000E+00  0.0000E+00  0.0000E+00
     -7.637  0.2657E-01  0.9174E-01  0.5606E-01  0.6484E-01  0.0000E+00  0.0000E+00  0.0000E+00  0.0000E+00  0.0000E+00
     -7.538  0.2391E-01  0.8496E-01  0.3987E-01  0.7629E-01  0.0000E+00  0.0000E+00  0.0000E+00  0.0000E+00  0.0000E+00
     -7.438  0.2106E-01  0.7546E-01  0.2515E-01  0.5477E-01  0.0000E+00  0.0000E+00  0.0000E+00  0.0000E+00  0.0000E+00
     -7.339  0.1853E-01  0.6208E-01  0.1563E-01  0.3696E-01  0.0000E+00  0.0000E+00  0.0000E+00  0.0000E+00  0.0000E+00
     -7.240  0.1829E-01  0.6613E-01  0.7781E-02  0.5955E-01  0.0000E+00  0.0000E+00  0.0000E+00  0.0000E+00  0.0000E+00
     -7.140  0.1677E-01  0.6270E-01  0.3190E-02  0.5633E-01  0.0000E+00  0.0000E+00  0.0000E+00  0.0000E+00  0.0000E+00
     -7.041  0.1256E-01  0.5149E-01  0.1092E-01  0.3877E-01  0.0000E+00  0.0000E+00  0.0000E+00  0.0000E+00  0.0000E+00
     -6.941  0.7364E-02  0.4344E-01  0.4827E-01  0.5425E-01  0.0000E+00  0.0000E+00  0.0000E+00  0.0000E+00  0.0000E+00
     -6.842  0.4859E-02  0.4093E-01  0.1000E+00  0.6022E-01  0.0000E+00  0.0000E+00  0.0000E+00  0.0000E+00  0.0000E+00
     -6.743  0.4790E-02  0.4440E-01  0.1328E+00  0.6044E-01  0.0000E+00  0.0000E+00  0.0000E+00  0.0000E+00  0.0000E+00
     -6.643  0.4304E-02  0.4391E-01  0.1197E+00  0.6036E-01  0.0000E+00  0.0000E+00  0.0000E+00  0.0000E+00  0.0000E+00
     -6.544  0.2526E-02  0.3221E-01  0.1036E+00  0.3324E-01  0.0000E+00  0.0000E+00  0.0000E+00  0.0000E+00  0.0000E+00
     -6.444  0.1716E-02  0.2536E-01  0.9943E-01  0.1921E-01  0.0000E+00  0.0000E+00  0.0000E+00  0.0000E+00  0.0000E+00
     -6.345  0.1446E-02  0.2285E-01  0.1044E+00  0.1677E-01  0.0000E+00  0.0000E+00  0.0000E+00  0.0000E+00  0.0000E+00
     -6.245  0.1339E-02  0.2437E-01  0.1170E+00  0.2052E-01  0.0000E+00  0.0000E+00  0.0000E+00  0.0000E+00  0.0000E+00
     -6.146  0.1300E-02  0.2521E-01  0.1247E+00  0.2243E-01  0.0000E+00  0.0000E+00  0.0000E+00  0.0000E+00  0.0000E+00
     -6.047  0.1130E-02  0.2086E-01  0.1061E+00  0.1819E-01  0.0000E+00  0.0000E+00  0.0000E+00  0.0000E+00  0.0000E+00
     -5.947  0.1256E-02  0.2282E-01  0.8704E-01  0.1818E-01  0.0000E+00  0.0000E+00  0.0000E+00  0.0000E+00  0.0000E+00
     -5.848  0.7696E-03  0.1598E-01  0.6162E-01  0.1349E-01  0.0000E+00  0.0000E+00  0.0000E+00  0.0000E+00  0.0000E+00
     -5.748  0.9108E-03  0.2217E-01  0.2132E-01  0.2234E-01  0.0000E+00  0.0000E+00  0.0000E+00  0.0000E+00  0.0000E+00
     -5.649  0.1274E-02  0.2806E-01  0.2147E-02  0.2768E-01  0.0000E+00  0.0000E+00  0.0000E+00  0.0000E+00  0.0000E+00
     -5.550  0.8782E-03  0.1878E-01  0.4619E-04  0.1684E-01  0.0000E+00  0.0000E+00  0.0000E+00  0.0000E+00  0.0000E+00
     -5.450  0.6689E-03  0.1524E-01  0.1793E-06  0.1306E-01  0.0000E+00  0.0000E+00  0.0000E+00  0.0000E+00  0.0000E+00
     -5.351  0.9888E-03  0.2469E-01  0.3308E-08  0.2413E-01  0.0000E+00  0.0000E+00  0.0000E+00  0.0000E+00  0.0000E+00
     -5.251  0.1298E-02  0.3415E-01  0.5277E-08  0.3525E-01  0.0000E+00  0.0000E+00  0.0000E+00  0.0000E+00  0.0000E+00
     -5.152  0.1166E-02  0.2826E-01  0.2499E-08  0.2645E-01  0.0000E+00  0.0000E+00  0.0000E+00  0.0000E+00  0.0000E+00
     -5.053  0.1047E-02  0.2069E-01  0.1282E-08  0.1827E-01  0.0000E+00  0.0000E+00  0.0000E+00  0.0000E+00  0.0000E+00
     -4.953  0.1605E-02  0.2391E-01  0.3216E-08  0.2174E-01  0.0000E+00  0.0000E+00  0.0000E+00  0.0000E+00  0.0000E+00
     -4.854  0.4112E-02  0.2727E-01  0.6926E-08  0.2408E-01  0.0000E+00  0.0000E+00  0.0000E+00  0.0000E+00  0.0000E+00
     -4.754  0.1038E-01  0.2391E-01  0.1255E-07  0.1902E-01  0.0000E+00  0.0000E+00  0.0000E+00  0.0000E+00  0.0000E+00
     -4.655  0.1615E-01  0.1912E-01  0.1878E-07  0.1990E-01  0.0000E+00  0.0000E+00  0.0000E+00  0.0000E+00  0.0000E+00
     -4.556  0.1889E-01  0.2332E-01  0.2387E-07  0.2582E-01  0.0000E+00  0.0000E+00  0.0000E+00  0.0000E+00  0.0000E+00
     -4.456  0.2150E-01  0.2926E-01  0.3493E-07  0.2705E-01  0.0000E+00  0.0000E+00  0.0000E+00  0.0000E+00  0.0000E+00
     -4.357  0.2538E-01  0.3300E-01  0.5470E-07  0.2435E-01  0.0000E+00  0.0000E+00  0.0000E+00  0.0000E+00  0.0000E+00
     -4.257  0.2282E-01  0.2791E-01  0.5201E-07  0.2570E-01  0.0000E+00  0.0000E+00  0.0000E+00  0.0000E+00  0.0000E+00
     -4.158  0.1196E-01  0.1885E-01  0.2383E-07  0.2644E-01  0.0000E+00  0.0000E+00  0.0000E+00  0.0000E+00  0.0000E+00
     -4.058  0.4265E-02  0.1295E-01  0.6572E-08  0.2226E-01  0.0000E+00  0.0000E+00  0.0000E+00  0.0000E+00  0.0000E+00
     -3.959  0.1971E-02  0.1059E-01  0.2512E-08  0.1916E-01  0.0000E+00  0.0000E+00  0.0000E+00  0.0000E+00  0.0000E+00
     -3.860  0.9190E-03  0.1087E-01  0.1250E-08  0.1733E-01  0.0000E+00  0.0000E+00  0.0000E+00  0.0000E+00  0.0000E+00
     -3.760  0.5774E-03  0.1060E-01  0.9412E-09  0.1695E-01  0.0000E+00  0.0000E+00  0.0000E+00  0.0000E+00  0.0000E+00
     -3.661  0.6554E-03  0.1107E-01  0.7156E-09  0.1912E-01  0.0000E+00  0.0000E+00  0.0000E+00  0.0000E+00  0.0000E+00
     -3.561  0.3952E-03  0.8309E-02  0.2820E-09  0.1391E-01  0.0000E+00  0.0000E+00  0.0000E+00  0.0000E+00  0.0000E+00
     -3.462  0.2256E-03  0.8014E-02  0.9519E-10  0.1251E-01  0.0000E+00  0.0000E+00  0.0000E+00  0.0000E+00  0.0000E+00
     -3.363  0.2090E-03  0.7412E-02  0.9631E-10  0.1220E-01  0.0000E+00  0.0000E+00  0.0000E+00  0.0000E+00  0.0000E+00
     -3.263  0.2604E-03  0.9642E-02  0.1543E-09  0.1632E-01  0.0000E+00  0.0000E+00  0.0000E+00  0.0000E+00  0.0000E+00
     -3.164  0.1604E-03  0.6740E-02  0.9136E-10  0.1124E-01  0.0000E+00  0.0000E+00  0.0000E+00  0.0000E+00  0.0000E+00
     -3.064  0.1028E-03  0.5536E-02  0.2231E-10  0.9170E-02  0.0000E+00  0.0000E+00  0.0000E+00  0.0000E+00  0.0000E+00
     -2.965  0.1066E-03  0.5979E-02  0.2118E-10  0.1003E-01  0.0000E+00  0.0000E+00  0.0000E+00  0.0000E+00  0.0000E+00
     -2.866  0.4231E-04  0.2374E-02  0.1035E-10  0.4019E-02  0.0000E+00  0.0000E+00  0.0000E+00  0.0000E+00  0.0000E+00
     -2.766  0.4012E-05  0.2251E-03  0.1044E-11  0.3822E-03  0.0000E+00  0.0000E+00  0.0000E+00  0.0000E+00  0.0000E+00
     -2.667  0.6870E-07  0.3854E-05  0.1810E-13  0.6548E-05  0.0000E+00  0.0000E+00  0.0000E+00  0.0000E+00  0.0000E+00
     -2.567  0.1861E-09  0.1044E-07  0.4915E-16  0.1774E-07  0.0000E+00  0.0000E+00  0.0000E+00  0.0000E+00  0.0000E+00
     -2.468  0.7531E-13  0.4225E-11  0.1990E-19  0.7179E-11  0.0000E+00  0.0000E+00  0.0000E+00  0.0000E+00  0.0000E+00
     -2.369  0.4432E-17  0.2487E-15  0.1171E-23  0.4225E-15  0.0000E+00  0.0000E+00  0.0000E+00  0.0000E+00  0.0000E+00
     -2.269  0.0000E+00  0.0000E+00  0.0000E+00  0.0000E+00  0.0000E+00  0.0000E+00  0.0000E+00  0.0000E+00  0.0000E+00
     -2.170  0.0000E+00  0.0000E+00  0.0000E+00  0.0000E+00  0.0000E+00  0.0000E+00  0.0000E+00  0.0000E+00  0.0000E+00
     -2.070  0.9649E-17  0.6267E-16  0.2442E-22  0.2576E-15  0.0000E+00  0.0000E+00  0.0000E+00  0.0000E+00  0.0000E+00
     -1.971  0.1487E-12  0.9640E-12  0.3790E-18  0.3960E-11  0.0000E+00  0.0000E+00  0.0000E+00  0.0000E+00  0.0000E+00
     -1.871  0.3378E-09  0.2177E-08  0.8761E-15  0.8931E-08  0.0000E+00  0.0000E+00  0.0000E+00  0.0000E+00  0.0000E+00
     -1.772  0.1183E-06  0.7513E-06  0.3198E-12  0.3074E-05  0.0000E+00  0.0000E+00  0.0000E+00  0.0000E+00  0.0000E+00
     -1.673  0.6954E-05  0.4281E-04  0.2043E-10  0.1740E-03  0.0000E+00  0.0000E+00  0.0000E+00  0.0000E+00  0.0000E+00
     -1.573  0.7925E-04  0.4587E-03  0.2684E-09  0.1838E-02  0.0000E+00  0.0000E+00  0.0000E+00  0.0000E+00  0.0000E+00
     -1.474  0.2271E-03  0.1156E-02  0.1591E-07  0.4457E-02  0.0000E+00  0.0000E+00  0.0000E+00  0.0000E+00  0.0000E+00
     -1.374  0.3109E-03  0.1355E-02  0.6729E-05  0.4474E-02  0.0000E+00  0.0000E+00  0.0000E+00  0.0000E+00  0.0000E+00
     -1.275  0.5458E-03  0.2691E-02  0.5245E-03  0.7028E-02  0.0000E+00  0.0000E+00  0.0000E+00  0.0000E+00  0.0000E+00
     -1.176  0.8318E-03  0.3832E-02  0.8332E-02  0.9179E-02  0.0000E+00  0.0000E+00  0.0000E+00  0.0000E+00  0.0000E+00
     -1.076  0.8070E-03  0.2862E-02  0.3709E-01  0.5897E-02  0.0000E+00  0.0000E+00  0.0000E+00  0.0000E+00  0.0000E+00
     -0.977  0.1163E-02  0.4177E-02  0.7715E-01  0.7362E-02  0.0000E+00  0.0000E+00  0.0000E+00  0.0000E+00  0.0000E+00
     -0.877  0.1910E-02  0.7857E-02  0.1086E+00  0.1323E-01  0.0000E+00  0.0000E+00  0.0000E+00  0.0000E+00  0.0000E+00
     -0.778  0.2047E-02  0.7310E-02  0.1274E+00  0.1039E-01  0.0000E+00  0.0000E+00  0.0000E+00  0.0000E+00  0.0000E+00
     -0.679  0.2342E-02  0.7793E-02  0.1488E+00  0.8565E-02  0.0000E+00  0.0000E+00  0.0000E+00  0.0000E+00  0.0000E+00
     -0.579  0.3752E-02  0.1332E-01  0.1507E+00  0.1384E-01  0.0000E+00  0.0000E+00  0.0000E+00  0.0000E+00  0.0000E+00
     -0.480  0.4669E-02  0.1736E-01  0.1223E+00  0.1600E-01  0.0000E+00  0.0000E+00  0.0000E+00  0.0000E+00  0.0000E+00
     -0.380  0.6019E-02  0.2375E-01  0.1043E+00  0.1515E-01  0.0000E+00  0.0000E+00  0.0000E+00  0.0000E+00  0.0000E+00
     -0.281  0.7923E-02  0.3383E-01  0.9308E-01  0.1766E-01  0.0000E+00  0.0000E+00  0.0000E+00  0.0000E+00  0.0000E+00
     -0.182  0.7704E-02  0.3341E-01  0.7993E-01  0.1996E-01  0.0000E+00  0.0000E+00  0.0000E+00  0.0000E+00  0.0000E+00
     -0.082  0.6116E-02  0.2561E-01  0.6945E-01  0.1854E-01  0.0000E+00  0.0000E+00  0.0000E+00  0.0000E+00  0.0000E+00
      0.017  0.5452E-02  0.2210E-01  0.8428E-01  0.1630E-01  0.0000E+00  0.0000E+00  0.0000E+00  0.0000E+00  0.0000E+00
      0.117  0.5889E-02  0.2241E-01  0.9356E-01  0.1757E-01  0.0000E+00  0.0000E+00  0.0000E+00  0.0000E+00  0.0000E+00
      0.216  0.6338E-02  0.2294E-01  0.6260E-01  0.1880E-01  0.0000E+00  0.0000E+00  0.0000E+00  0.0000E+00  0.0000E+00
      0.316  0.6237E-02  0.2200E-01  0.7843E-01  0.1756E-01  0.0000E+00  0.0000E+00  0.0000E+00  0.0000E+00  0.0000E+00
      0.415  0.7183E-02  0.2360E-01  0.1096E+00  0.1942E-01  0.0000E+00  0.0000E+00  0.0000E+00  0.0000E+00  0.0000E+00
      0.514  0.7866E-02  0.2696E-01  0.8836E-01  0.2379E-01  0.0000E+00  0.0000E+00  0.0000E+00  0.0000E+00  0.0000E+00
      0.614  0.8954E-02  0.3373E-01  0.8794E-01  0.3415E-01  0.0000E+00  0.0000E+00  0.0000E+00  0.0000E+00  0.0000E+00
      0.713  0.1069E-01  0.3813E-01  0.1204E+00  0.4621E-01  0.0000E+00  0.0000E+00  0.0000E+00  0.0000E+00  0.0000E+00
      0.813  0.1300E-01  0.4160E-01  0.1017E+00  0.5276E-01  0.0000E+00  0.0000E+00  0.0000E+00  0.0000E+00  0.0000E+00
      0.912  0.1556E-01  0.4034E-01  0.6395E-01  0.4988E-01  0.0000E+00  0.0000E+00  0.0000E+00  0.0000E+00  0.0000E+00
      1.011  0.1729E-01  0.3926E-01  0.4511E-01  0.4362E-01  0.0000E+00  0.0000E+00  0.0000E+00  0.0000E+00  0.0000E+00
      1.111  0.1727E-01  0.3435E-01  0.2582E-01  0.3440E-01  0.0000E+00  0.0000E+00  0.0000E+00  0.0000E+00  0.0000E+00
      1.210  0.1634E-01  0.3311E-01  0.9840E-02  0.2907E-01  0.0000E+00  0.0000E+00  0.0000E+00  0.0000E+00  0.0000E+00
      1.310  0.1444E-01  0.3081E-01  0.1439E-01  0.2649E-01  0.0000E+00  0.0000E+00  0.0000E+00  0.0000E+00  0.0000E+00
      1.409  0.1080E-01  0.2494E-01  0.2815E-01  0.2121E-01  0.0000E+00  0.0000E+00  0.0000E+00  0.0000E+00  0.0000E+00
      1.508  0.1599E-01  0.2647E-01  0.4342E-01  0.1949E-01  0.0000E+00  0.0000E+00  0.0000E+00  0.0000E+00  0.0000E+00
      1.608  0.3105E-01  0.3817E-01  0.5178E-01  0.2384E-01  0.0000E+00  0.0000E+00  0.0000E+00  0.0000E+00  0.0000E+00
      1.707  0.3965E-01  0.4220E-01  0.6547E-01  0.2530E-01  0.0000E+00  0.0000E+00  0.0000E+00  0.0000E+00  0.0000E+00
      1.807  0.4276E-01  0.3969E-01  0.8386E-01  0.1813E-01  0.0000E+00  0.0000E+00  0.0000E+00  0.0000E+00  0.0000E+00
      1.906  0.4695E-01  0.4481E-01  0.7279E-01  0.1345E-01  0.0000E+00  0.0000E+00  0.0000E+00  0.0000E+00  0.0000E+00
      2.005  0.3786E-01  0.3812E-01  0.5045E-01  0.8840E-02  0.0000E+00  0.0000E+00  0.0000E+00  0.0000E+00  0.0000E+00
      2.105  0.3053E-01  0.3308E-01  0.4784E-01  0.6297E-02  0.0000E+00  0.0000E+00  0.0000E+00  0.0000E+00  0.0000E+00
      2.204  0.2466E-01  0.2856E-01  0.5171E-01  0.4835E-02  0.0000E+00  0.0000E+00  0.0000E+00  0.0000E+00  0.0000E+00
      2.304  0.1933E-01  0.2140E-01  0.4756E-01  0.3353E-02  0.0000E+00  0.0000E+00  0.0000E+00  0.0000E+00  0.0000E+00
      2.403  0.2450E-01  0.1864E-01  0.3989E-01  0.3206E-02  0.0000E+00  0.0000E+00  0.0000E+00  0.0000E+00  0.0000E+00
      2.502  0.4860E-01  0.3082E-01  0.3554E-01  0.6620E-02  0.0000E+00  0.0000E+00  0.0000E+00  0.0000E+00  0.0000E+00
      2.602  0.7659E-01  0.4665E-01  0.3897E-01  0.1346E-01  0.0000E+00  0.0000E+00  0.0000E+00  0.0000E+00  0.0000E+00
      2.701  0.8203E-01  0.4323E-01  0.4227E-01  0.1958E-01  0.0000E+00  0.0000E+00  0.0000E+00  0.0000E+00  0.0000E+00
      2.801  0.7233E-01  0.3451E-01  0.4043E-01  0.2227E-01  0.0000E+00  0.0000E+00  0.0000E+00  0.0000E+00  0.0000E+00
      2.900  0.5874E-01  0.3077E-01  0.3605E-01  0.2060E-01  0.0000E+00  0.0000E+00  0.0000E+00  0.0000E+00  0.0000E+00
      3.000  0.4003E-01  0.2497E-01  0.3120E-01  0.1591E-01  0.0000E+00  0.0000E+00  0.0000E+00  0.0000E+00  0.0000E+00
      3.099  0.3174E-01  0.1839E-01  0.2613E-01  0.1275E-01  0.0000E+00  0.0000E+00  0.0000E+00  0.0000E+00  0.0000E+00
      3.198  0.3006E-01  0.1870E-01  0.2145E-01  0.1295E-01  0.0000E+00  0.0000E+00  0.0000E+00  0.0000E+00  0.0000E+00
      3.298  0.2337E-01  0.1637E-01  0.2049E-01  0.1027E-01  0.0000E+00  0.0000E+00  0.0000E+00  0.0000E+00  0.0000E+00
      3.397  0.2365E-01  0.1459E-01  0.1949E-01  0.1013E-01  0.0000E+00  0.0000E+00  0.0000E+00  0.0000E+00  0.0000E+00
      3.497  0.2833E-01  0.1453E-01  0.1687E-01  0.1353E-01  0.0000E+00  0.0000E+00  0.0000E+00  0.0000E+00  0.0000E+00
      3.596  0.2921E-01  0.1314E-01  0.1615E-01  0.1539E-01  0.0000E+00  0.0000E+00  0.0000E+00  0.0000E+00  0.0000E+00
      3.695  0.2635E-01  0.1268E-01  0.1779E-01  0.1562E-01  0.0000E+00  0.0000E+00  0.0000E+00  0.0000E+00  0.0000E+00
      3.795  0.1942E-01  0.9571E-02  0.1360E-01  0.1475E-01  0.0000E+00  0.0000E+00  0.0000E+00  0.0000E+00  0.0000E+00
      3.894  0.1792E-01  0.7295E-02  0.9409E-02  0.1269E-01  0.0000E+00  0.0000E+00  0.0000E+00  0.0000E+00  0.0000E+00
      3.994  0.1689E-01  0.7253E-02  0.8259E-02  0.1079E-01  0.0000E+00  0.0000E+00  0.0000E+00  0.0000E+00  0.0000E+00
      4.093  0.1340E-01  0.6802E-02  0.7716E-02  0.9894E-02  0.0000E+00  0.0000E+00  0.0000E+00  0.0000E+00  0.0000E+00
      4.192  0.8860E-02  0.4154E-02  0.7195E-02  0.6876E-02  0.0000E+00  0.0000E+00  0.0000E+00  0.0000E+00  0.0000E+00
      4.292  0.6041E-02  0.2222E-02  0.5300E-02  0.4743E-02  0.0000E+00  0.0000E+00  0.0000E+00  0.0000E+00  0.0000E+00
      4.391  0.4585E-02  0.1417E-02  0.5309E-02  0.3800E-02  0.0000E+00  0.0000E+00  0.0000E+00  0.0000E+00  0.0000E+00
      4.491  0.3212E-02  0.9352E-03  0.5082E-02  0.3077E-02  0.0000E+00  0.0000E+00  0.0000E+00  0.0000E+00  0.0000E+00
      4.590  0.2778E-02  0.6269E-03  0.3037E-02  0.2912E-02  0.0000E+00  0.0000E+00  0.0000E+00  0.0000E+00  0.0000E+00
      4.689  0.1648E-02  0.3802E-03  0.1456E-02  0.1843E-02  0.0000E+00  0.0000E+00  0.0000E+00  0.0000E+00  0.0000E+00
      4.789  0.6150E-03  0.2271E-03  0.1400E-02  0.7177E-03  0.0000E+00  0.0000E+00  0.0000E+00  0.0000E+00  0.0000E+00
      4.888  0.2399E-03  0.9442E-04  0.9011E-03  0.2609E-03  0.0000E+00  0.0000E+00  0.0000E+00  0.0000E+00  0.0000E+00
      4.988  0.5363E-04  0.2251E-04  0.1882E-03  0.5680E-04  0.0000E+00  0.0000E+00  0.0000E+00  0.0000E+00  0.0000E+00
      5.087  0.2569E-04  0.1487E-04  0.8862E-04  0.2776E-04  0.0000E+00  0.0000E+00  0.0000E+00  0.0000E+00  0.0000E+00
      5.187  0.8312E-05  0.4917E-05  0.2883E-04  0.9001E-05  0.0000E+00  0.0000E+00  0.0000E+00  0.0000E+00  0.0000E+00
      5.286  0.5038E-06  0.2981E-06  0.1748E-05  0.5456E-06  0.0000E+00  0.0000E+00  0.0000E+00  0.0000E+00  0.0000E+00
      5.385  0.4987E-08  0.2951E-08  0.1730E-07  0.5401E-08  0.0000E+00  0.0000E+00  0.0000E+00  0.0000E+00  0.0000E+00
      5.485  0.7562E-11  0.4475E-11  0.2623E-10  0.8189E-11  0.0000E+00  0.0000E+00  0.0000E+00  0.0000E+00  0.0000E+00
      5.584  0.1692E-14  0.1001E-14  0.5869E-14  0.1832E-14  0.0000E+00  0.0000E+00  0.0000E+00  0.0000E+00  0.0000E+00
      5.684  0.5274E-19  0.3121E-19  0.1830E-18  0.5712E-19  0.0000E+00  0.0000E+00  0.0000E+00  0.0000E+00  0.0000E+00
      5.783  0.0000E+00  0.0000E+00  0.0000E+00  0.0000E+00  0.0000E+00  0.0000E+00  0.0000E+00  0.0000E+00  0.0000E+00
      5.882  0.0000E+00  0.0000E+00  0.0000E+00  0.0000E+00  0.0000E+00  0.0000E+00  0.0000E+00  0.0000E+00  0.0000E+00
      5.982  0.0000E+00  0.0000E+00  0.0000E+00  0.0000E+00  0.0000E+00  0.0000E+00  0.0000E+00  0.0000E+00  0.0000E+00
      6.081  0.0000E+00  0.0000E+00  0.0000E+00  0.0000E+00  0.0000E+00  0.0000E+00  0.0000E+00  0.0000E+00  0.0000E+00
      6.181  0.0000E+00  0.0000E+00  0.0000E+00  0.0000E+00  0.0000E+00  0.0000E+00  0.0000E+00  0.0000E+00  0.0000E+00
      6.280  0.0000E+00  0.0000E+00  0.0000E+00  0.0000E+00  0.0000E+00  0.0000E+00  0.0000E+00  0.0000E+00  0.0000E+00
      6.379  0.0000E+00  0.0000E+00  0.0000E+00  0.0000E+00  0.0000E+00  0.0000E+00  0.0000E+00  0.0000E+00  0.0000E+00
      6.37943935    -23.44321047  301     -4.43334101      1.00000000
    -23.443  0.0000E+00  0.0000E+00  0.0000E+00  0.0000E+00  0.0000E+00  0.0000E+00  0.0000E+00  0.0000E+00  0.0000E+00
    -23.344  0.0000E+00  0.0000E+00  0.0000E+00  0.0000E+00  0.0000E+00  0.0000E+00  0.0000E+00  0.0000E+00  0.0000E+00
    -23.244  0.0000E+00  0.0000E+00  0.0000E+00  0.0000E+00  0.0000E+00  0.0000E+00  0.0000E+00  0.0000E+00  0.0000E+00
    -23.145  0.0000E+00  0.0000E+00  0.0000E+00  0.0000E+00  0.0000E+00  0.0000E+00  0.0000E+00  0.0000E+00  0.0000E+00
    -23.046  0.0000E+00  0.0000E+00  0.0000E+00  0.0000E+00  0.0000E+00  0.0000E+00  0.0000E+00  0.0000E+00  0.0000E+00
    -22.946  0.0000E+00  0.0000E+00  0.0000E+00  0.0000E+00  0.0000E+00  0.0000E+00  0.0000E+00  0.0000E+00  0.0000E+00
    -22.847  0.0000E+00  0.0000E+00  0.0000E+00  0.0000E+00  0.0000E+00  0.0000E+00  0.0000E+00  0.0000E+00  0.0000E+00
    -22.747  0.0000E+00  0.0000E+00  0.0000E+00  0.0000E+00  0.0000E+00  0.0000E+00  0.0000E+00  0.0000E+00  0.0000E+00
    -22.648  0.1545E-16  0.3958E-17  0.9053E-25  0.1787E-17  0.0000E+00  0.0000E+00  0.0000E+00  0.0000E+00  0.0000E+00
    -22.549  0.5579E-12  0.1442E-12  0.3289E-20  0.6502E-13  0.0000E+00  0.0000E+00  0.0000E+00  0.0000E+00  0.0000E+00
    -22.449  0.3013E-08  0.7859E-09  0.1787E-16  0.3539E-09  0.0000E+00  0.0000E+00  0.0000E+00  0.0000E+00  0.0000E+00
    -22.350  0.2544E-05  0.6737E-06  0.1524E-13  0.3028E-06  0.0000E+00  0.0000E+00  0.0000E+00  0.0000E+00  0.0000E+00
    -22.250  0.3606E-03  0.9806E-04  0.2199E-11  0.4393E-04  0.0000E+00  0.0000E+00  0.0000E+00  0.0000E+00  0.0000E+00
    -22.151  0.9717E-02  0.2773E-02  0.6126E-10  0.1235E-02  0.0000E+00  0.0000E+00  0.0000E+00  0.0000E+00  0.0000E+00
    -22.051  0.6066E-01  0.1866E-01  0.4032E-09  0.8249E-02  0.0000E+00  0.0000E+00  0.0000E+00  0.0000E+00  0.0000E+00
    -21.952  0.1160E+00  0.3863E-01  0.8195E-09  0.1707E-01  0.0000E+00  0.0000E+00  0.0000E+00  0.0000E+00  0.0000E+00
    -21.853  0.1061E+00  0.3654E-01  0.7791E-09  0.1652E-01  0.0000E+00  0.0000E+00  0.0000E+00  0.0000E+00  0.0000E+00
    -21.753  0.8618E-01  0.2926E-01  0.6422E-09  0.1382E-01  0.0000E+00  0.0000E+00  0.0000E+00  0.0000E+00  0.0000E+00
    -21.654  0.8092E-01  0.2698E-01  0.6097E-09  0.1326E-01  0.0000E+00  0.0000E+00  0.0000E+00  0.0000E+00  0.0000E+00
    -21.554  0.8408E-01  0.2748E-01  0.6385E-09  0.1396E-01  0.0000E+00  0.0000E+00  0.0000E+00  0.0000E+00  0.0000E+00
    -21.455  0.9662E-01  0.3064E-01  0.7360E-09  0.1604E-01  0.0000E+00  0.0000E+00  0.0000E+00  0.0000E+00  0.0000E+00
    -21.356  0.1284E+00  0.3899E-01  0.9735E-09  0.2093E-01  0.0000E+00  0.0000E+00  0.0000E+00  0.0000E+00  0.0000E+00
    -21.256  0.1573E+00  0.4799E-01  0.1219E-08  0.2606E-01  0.0000E+00  0.0000E+00  0.0000E+00  0.0000E+00  0.0000E+00
    -21.157  0.1088E+00  0.3640E-01  0.9093E-09  0.1968E-01  0.0000E+00  0.0000E+00  0.0000E+00  0.0000E+00  0.0000E+00
    -21.057  0.3146E-01  0.1166E-01  0.2850E-09  0.6258E-02  0.0000E+00  0.0000E+00  0.0000E+00  0.0000E+00  0.0000E+00
    -20.958  0.2772E-02  0.1088E-02  0.2630E-10  0.5820E-03  0.0000E+00  0.0000E+00  0.0000E+00  0.0000E+00  0.0000E+00
    -20.859  0.5430E-04  0.2191E-04  0.5267E-12  0.1170E-04  0.0000E+00  0.0000E+00  0.0000E+00  0.0000E+00  0.0000E+00
    -20.759  0.1935E-06  0.7917E-07  0.1899E-14  0.4225E-07  0.0000E+00  0.0000E+00  0.0000E+00  0.0000E+00  0.0000E+00
    -20.660  0.1125E-09  0.4641E-10  0.1111E-17  0.2475E-10  0.0000E+00  0.0000E+00  0.0000E+00  0.0000E+00  0.0000E+00
    -20.560  0.1006E-13  0.4174E-14  0.9986E-22  0.2226E-14  0.0000E+00  0.0000E+00  0.0000E+00  0.0000E+00  0.0000E+00
    -20.461  0.0000E+00  0.0000E+00  0.0000E+00  0.0000E+00  0.0000E+00  0.0000E+00  0.0000E+00  0.0000E+00  0.0000E+00
    -20.362  0.0000E+00  0.0000E+00  0.0000E+00  0.0000E+00  0.0000E+00  0.0000E+00  0.0000E+00  0.0000E+00  0.0000E+00
    -20.262  0.0000E+00  0.0000E+00  0.0000E+00  0.0000E+00  0.0000E+00  0.0000E+00  0.0000E+00  0.0000E+00  0.0000E+00
    -20.163  0.0000E+00  0.0000E+00  0.0000E+00  0.0000E+00  0.0000E+00  0.0000E+00  0.0000E+00  0.0000E+00  0.0000E+00
    -20.063  0.0000E+00  0.0000E+00  0.0000E+00  0.0000E+00  0.0000E+00  0.0000E+00  0.0000E+00  0.0000E+00  0.0000E+00
    -19.964  0.0000E+00  0.0000E+00  0.0000E+00  0.0000E+00  0.0000E+00  0.0000E+00  0.0000E+00  0.0000E+00  0.0000E+00
    -19.864  0.0000E+00  0.0000E+00  0.0000E+00  0.0000E+00  0.0000E+00  0.0000E+00  0.0000E+00  0.0000E+00  0.0000E+00
    -19.765  0.0000E+00  0.0000E+00  0.0000E+00  0.0000E+00  0.0000E+00  0.0000E+00  0.0000E+00  0.0000E+00  0.0000E+00
    -19.666  0.0000E+00  0.0000E+00  0.0000E+00  0.0000E+00  0.0000E+00  0.0000E+00  0.0000E+00  0.0000E+00  0.0000E+00
    -19.566  0.0000E+00  0.0000E+00  0.0000E+00  0.0000E+00  0.0000E+00  0.0000E+00  0.0000E+00  0.0000E+00  0.0000E+00
    -19.467  0.0000E+00  0.0000E+00  0.0000E+00  0.0000E+00  0.0000E+00  0.0000E+00  0.0000E+00  0.0000E+00  0.0000E+00
    -19.367  0.0000E+00  0.0000E+00  0.0000E+00  0.0000E+00  0.0000E+00  0.0000E+00  0.0000E+00  0.0000E+00  0.0000E+00
    -19.268  0.0000E+00  0.0000E+00  0.0000E+00  0.0000E+00  0.0000E+00  0.0000E+00  0.0000E+00  0.0000E+00  0.0000E+00
    -19.169  0.0000E+00  0.0000E+00  0.0000E+00  0.0000E+00  0.0000E+00  0.0000E+00  0.0000E+00  0.0000E+00  0.0000E+00
    -19.069  0.0000E+00  0.0000E+00  0.0000E+00  0.0000E+00  0.0000E+00  0.0000E+00  0.0000E+00  0.0000E+00  0.0000E+00
    -18.970  0.0000E+00  0.0000E+00  0.0000E+00  0.0000E+00  0.0000E+00  0.0000E+00  0.0000E+00  0.0000E+00  0.0000E+00
    -18.870  0.0000E+00  0.0000E+00  0.0000E+00  0.0000E+00  0.0000E+00  0.0000E+00  0.0000E+00  0.0000E+00  0.0000E+00
    -18.771  0.0000E+00  0.0000E+00  0.0000E+00  0.0000E+00  0.0000E+00  0.0000E+00  0.0000E+00  0.0000E+00  0.0000E+00
    -18.672  0.0000E+00  0.0000E+00  0.0000E+00  0.0000E+00  0.0000E+00  0.0000E+00  0.0000E+00  0.0000E+00  0.0000E+00
    -18.572  0.0000E+00  0.0000E+00  0.0000E+00  0.0000E+00  0.0000E+00  0.0000E+00  0.0000E+00  0.0000E+00  0.0000E+00
    -18.473  0.0000E+00  0.0000E+00  0.0000E+00  0.0000E+00  0.0000E+00  0.0000E+00  0.0000E+00  0.0000E+00  0.0000E+00
    -18.373  0.0000E+00  0.0000E+00  0.0000E+00  0.0000E+00  0.0000E+00  0.0000E+00  0.0000E+00  0.0000E+00  0.0000E+00
    -18.274  0.0000E+00  0.0000E+00  0.0000E+00  0.0000E+00  0.0000E+00  0.0000E+00  0.0000E+00  0.0000E+00  0.0000E+00
    -18.175  0.0000E+00  0.0000E+00  0.0000E+00  0.0000E+00  0.0000E+00  0.0000E+00  0.0000E+00  0.0000E+00  0.0000E+00
    -18.075  0.0000E+00  0.0000E+00  0.0000E+00  0.0000E+00  0.0000E+00  0.0000E+00  0.0000E+00  0.0000E+00  0.0000E+00
    -17.976  0.0000E+00  0.0000E+00  0.0000E+00  0.0000E+00  0.0000E+00  0.0000E+00  0.0000E+00  0.0000E+00  0.0000E+00
    -17.876  0.8340E-18  0.5156E-19  0.5239E-26  0.9197E-19  0.0000E+00  0.0000E+00  0.0000E+00  0.0000E+00  0.0000E+00
    -17.777  0.6208E-13  0.3965E-14  0.3908E-21  0.6787E-14  0.0000E+00  0.0000E+00  0.0000E+00  0.0000E+00  0.0000E+00
    -17.677  0.5337E-09  0.3435E-10  0.3369E-17  0.5850E-10  0.0000E+00  0.0000E+00  0.0000E+00  0.0000E+00  0.0000E+00
    -17.578  0.7071E-06  0.4607E-07  0.4484E-14  0.7781E-07  0.0000E+00  0.0000E+00  0.0000E+00  0.0000E+00  0.0000E+00
    -17.479  0.1532E-03  0.1018E-04  0.9783E-12  0.1696E-04  0.0000E+00  0.0000E+00  0.0000E+00  0.0000E+00  0.0000E+00
    -17.379  0.6022E-02  0.4146E-03  0.3900E-10  0.6750E-03  0.0000E+00  0.0000E+00  0.0000E+00  0.0000E+00  0.0000E+00
    -17.280  0.5180E-01  0.3835E-02  0.3453E-09  0.5950E-02  0.0000E+00  0.0000E+00  0.0000E+00  0.0000E+00  0.0000E+00
    -17.180  0.1356E+00  0.1179E-01  0.9647E-09  0.1645E-01  0.0000E+00  0.0000E+00  0.0000E+00  0.0000E+00  0.0000E+00
    -17.081  0.1861E+00  0.2200E-01  0.1507E-08  0.2514E-01  0.0000E+00  0.0000E+00  0.0000E+00  0.0000E+00  0.0000E+00
    -16.982  0.2227E+00  0.3430E-01  0.2129E-08  0.3520E-01  0.0000E+00  0.0000E+00  0.0000E+00  0.0000E+00  0.0000E+00
    -16.882  0.2591E+00  0.3744E-01  0.2768E-08  0.4798E-01  0.0000E+00  0.0000E+00  0.0000E+00  0.0000E+00  0.0000E+00
    -16.783  0.2135E+00  0.2797E-01  0.2506E-08  0.4708E-01  0.0000E+00  0.0000E+00  0.0000E+00  0.0000E+00  0.0000E+00
    -16.683  0.1151E+00  0.1569E-01  0.1553E-08  0.3200E-01  0.0000E+00  0.0000E+00  0.0000E+00  0.0000E+00  0.0000E+00
    -16.584  0.4205E-01  0.6185E-02  0.6430E-09  0.1405E-01  0.0000E+00  0.0000E+00  0.0000E+00  0.0000E+00  0.0000E+00
    -16.485  0.6770E-02  0.1059E-02  0.1113E-09  0.2486E-02  0.0000E+00  0.0000E+00  0.0000E+00  0.0000E+00  0.0000E+00
    -16.385  0.2970E-03  0.4828E-04  0.5062E-11  0.1140E-03  0.0000E+00  0.0000E+00  0.0000E+00  0.0000E+00  0.0000E+00
    -16.286  0.2645E-05  0.4398E-06  0.4595E-13  0.1039E-05  0.0000E+00  0.0000E+00  0.0000E+00  0.0000E+00  0.0000E+00
    -16.186  0.4076E-08  0.6873E-09  0.7159E-16  0.1622E-08  0.0000E+00  0.0000E+00  0.0000E+00  0.0000E+00  0.0000E+00
    -16.087  0.9974E-12  0.1697E-12  0.1764E-19  0.4001E-12  0.0000E+00  0.0000E+00  0.0000E+00  0.0000E+00  0.0000E+00
    -15.988  0.3690E-16  0.6319E-17  0.6559E-24  0.1489E-16  0.0000E+00  0.0000E+00  0.0000E+00  0.0000E+00  0.0000E+00
    -15.888  0.9710E-15  0.1682E-16  0.3508E-23  0.1115E-16  0.0000E+00  0.0000E+00  0.0000E+00  0.0000E+00  0.0000E+00
    -15.789  0.1446E-10  0.2511E-12  0.5228E-19  0.1673E-12  0.0000E+00  0.0000E+00  0.0000E+00  0.0000E+00  0.0000E+00
    -15.689  0.3164E-07  0.5543E-09  0.1147E-15  0.3736E-09  0.0000E+00  0.0000E+00  0.0000E+00  0.0000E+00  0.0000E+00
    -15.590  0.1066E-04  0.1910E-06  0.3892E-13  0.1321E-06  0.0000E+00  0.0000E+00  0.0000E+00  0.0000E+00  0.0000E+00
    -15.491  0.6095E-03  0.1154E-04  0.2260E-11  0.8358E-05  0.0000E+00  0.0000E+00  0.0000E+00  0.0000E+00  0.0000E+00
    -15.391  0.7156E-02  0.1521E-03  0.2740E-10  0.1173E-03  0.0000E+00  0.0000E+00  0.0000E+00  0.0000E+00  0.0000E+00
    -15.292  0.2357E-01  0.6105E-03  0.9613E-10  0.5171E-03  0.0000E+00  0.0000E+00  0.0000E+00  0.0000E+00  0.0000E+00
    -15.192  0.3491E-01  0.1189E-02  0.1584E-09  0.1137E-02  0.0000E+00  0.0000E+00  0.0000E+00  0.0000E+00  0.0000E+00
    -15.093  0.4239E-01  0.1825E-02  0.2137E-09  0.1949E-02  0.0000E+00  0.0000E+00  0.0000E+00  0.0000E+00  0.0000E+00
    -14.993  0.5164E-01  0.2589E-02  0.2797E-09  0.3115E-02  0.0000E+00  0.0000E+00  0.0000E+00  0.0000E+00  0.0000E+00
    -14.894  0.8128E-01  0.4732E-02  0.4408E-09  0.5892E-02  0.0000E+00  0.0000E+00  0.0000E+00  0.0000E+00  0.0000E+00
    -14.795  0.1621E+00  0.1185E-01  0.8472E-09  0.1368E-01  0.0000E+00  0.0000E+00  0.0000E+00  0.0000E+00  0.0000E+00
    -14.695  0.2347E+00  0.1993E-01  0.1266E-08  0.2145E-01  0.0000E+00  0.0000E+00  0.0000E+00  0.0000E+00  0.0000E+00
    -14.596  0.1896E+00  0.1827E-01  0.1202E-08  0.2004E-01  0.0000E+00  0.0000E+00  0.0000E+00  0.0000E+00  0.0000E+00
    -14.496  0.1565E+00  0.1734E-01  0.1235E-08  0.1948E-01  0.0000E+00  0.0000E+00  0.0000E+00  0.0000E+00  0.0000E+00
    -14.397  0.1595E+00  0.2056E-01  0.1391E-08  0.2093E-01  0.0000E+00  0.0000E+00  0.0000E+00  0.0000E+00  0.0000E+00
    -14.298  0.1514E+00  0.2492E-01  0.1366E-08  0.1887E-01  0.0000E+00  0.0000E+00  0.0000E+00  0.0000E+00  0.0000E+00
    -14.198  0.1403E+00  0.3087E-01  0.1471E-08  0.1764E-01  0.0000E+00  0.0000E+00  0.0000E+00  0.0000E+00  0.0000E+00
    -14.099  0.1389E+00  0.4100E-01  0.1817E-08  0.1863E-01  0.0000E+00  0.0000E+00  0.0000E+00  0.0000E+00  0.0000E+00
    -13.999  0.1439E+00  0.5451E-01  0.2317E-08  0.2036E-01  0.0000E+00  0.0000E+00  0.0000E+00  0.0000E+00  0.0000E+00
    -13.900  0.1195E+00  0.5099E-01  0.2225E-08  0.1836E-01  0.0000E+00  0.0000E+00  0.0000E+00  0.0000E+00  0.0000E+00
    -13.801  0.8050E-01  0.3465E-01  0.1687E-08  0.1413E-01  0.0000E+00  0.0000E+00  0.0000E+00  0.0000E+00  0.0000E+00
    -13.701  0.4514E-01  0.1936E-01  0.1036E-08  0.8705E-02  0.0000E+00  0.0000E+00  0.0000E+00  0.0000E+00  0.0000E+00
    -13.602  0.1277E-01  0.5570E-02  0.3071E-09  0.2538E-02  0.0000E+00  0.0000E+00  0.0000E+00  0.0000E+00  0.0000E+00
    -13.502  0.1034E-02  0.4576E-03  0.2545E-10  0.2073E-03  0.0000E+00  0.0000E+00  0.0000E+00  0.0000E+00  0.0000E+00
    -13.403  0.1788E-04  0.8002E-05  0.4468E-12  0.3604E-05  0.0000E+00  0.0000E+00  0.0000E+00  0.0000E+00  0.0000E+00
    -13.304  0.5647E-07  0.2546E-07  0.1425E-14  0.1142E-07  0.0000E+00  0.0000E+00  0.0000E+00  0.0000E+00  0.0000E+00
    -13.204  0.3327E-10  0.1383E-10  0.7629E-18  0.6688E-11  0.0000E+00  0.0000E+00  0.0000E+00  0.0000E+00  0.0000E+00
    -13.105  0.1599E-07  0.2193E-08  0.3459E-15  0.3016E-08  0.0000E+00  0.0000E+00  0.0000E+00  0.0000E+00  0.0000E+00
    -13.005  0.1044E-04  0.1409E-05  0.5030E-11  0.1959E-05  0.0000E+00  0.0000E+00  0.0000E+00  0.0000E+00  0.0000E+00
    -12.906  0.1161E-02  0.1554E-03  0.1382E-07  0.2167E-03  0.0000E+00  0.0000E+00  0.0000E+00  0.0000E+00  0.0000E+00
    -12.806  0.2421E-01  0.3331E-02  0.6086E-05  0.4513E-02  0.0000E+00  0.0000E+00  0.0000E+00  0.0000E+00  0.0000E+00
    -12.707  0.1134E+00  0.1781E-01  0.4625E-03  0.2137E-01  0.0000E+00  0.0000E+00  0.0000E+00  0.0000E+00  0.0000E+00
    -12.608  0.1713E+00  0.3638E-01  0.7018E-02  0.3347E-01  0.0000E+00  0.0000E+00  0.0000E+00  0.0000E+00  0.0000E+00
    -12.508  0.1453E+00  0.4206E-01  0.2748E-01  0.2958E-01  0.0000E+00  0.0000E+00  0.0000E+00  0.0000E+00  0.0000E+00
    -12.409  0.1082E+00  0.3734E-01  0.4346E-01  0.2238E-01  0.0000E+00  0.0000E+00  0.0000E+00  0.0000E+00  0.0000E+00
    -12.309  0.8713E-01  0.3447E-01  0.4724E-01  0.1794E-01  0.0000E+00  0.0000E+00  0.0000E+00  0.0000E+00  0.0000E+00
    -12.210  0.7594E-01  0.3376E-01  0.4197E-01  0.1561E-01  0.0000E+00  0.0000E+00  0.0000E+00  0.0000E+00  0.0000E+00
    -12.111  0.6858E-01  0.3338E-01  0.3507E-01  0.1374E-01  0.0000E+00  0.0000E+00  0.0000E+00  0.0000E+00  0.0000E+00
    -12.011  0.6371E-01  0.3459E-01  0.3188E-01  0.1255E-01  0.0000E+00  0.0000E+00  0.0000E+00  0.0000E+00  0.0000E+00
    -11.912  0.5942E-01  0.3496E-01  0.3078E-01  0.1126E-01  0.0000E+00  0.0000E+00  0.0000E+00  0.0000E+00  0.0000E+00
    -11.812  0.5633E-01  0.3526E-01  0.3092E-01  0.1008E-01  0.0000E+00  0.0000E+00  0.0000E+00  0.0000E+00  0.0000E+00
    -11.713  0.5319E-01  0.3652E-01  0.3217E-01  0.9230E-02  0.0000E+00  0.0000E+00  0.0000E+00  0.0000E+00  0.0000E+00
    -11.614  0.4402E-01  0.3012E-01  0.3470E-01  0.7981E-02  0.0000E+00  0.0000E+00  0.0000E+00  0.0000E+00  0.0000E+00
    -11.514  0.4010E-01  0.2697E-01  0.3984E-01  0.9321E-02  0.0000E+00  0.0000E+00  0.0000E+00  0.0000E+00  0.0000E+00
    -11.415  0.4037E-01  0.2816E-01  0.5207E-01  0.1817E-01  0.0000E+00  0.0000E+00  0.0000E+00  0.0000E+00  0.0000E+00
    -11.315  0.4717E-01  0.3100E-01  0.7668E-01  0.2999E-01  0.0000E+00  0.0000E+00  0.0000E+00  0.0000E+00  0.0000E+00
    -11.216  0.5063E-01  0.3235E-01  0.8402E-01  0.3325E-01  0.0000E+00  0.0000E+00  0.0000E+00  0.0000E+00  0.0000E+00
    -11.117  0.5207E-01  0.3393E-01  0.6222E-01  0.3479E-01  0.0000E+00  0.0000E+00  0.0000E+00  0.0000E+00  0.0000E+00
    -11.017  0.6255E-01  0.3820E-01  0.4540E-01  0.3556E-01  0.0000E+00  0.0000E+00  0.0000E+00  0.0000E+00  0.0000E+00
    -10.918  0.6232E-01  0.3622E-01  0.3590E-01  0.3693E-01  0.0000E+00  0.0000E+00  0.0000E+00  0.0000E+00  0.0000E+00
    -10.818  0.5121E-01  0.3111E-01  0.2871E-01  0.3478E-01  0.0000E+00  0.0000E+00  0.0000E+00  0.0000E+00  0.0000E+00
    -10.719  0.4790E-01  0.2917E-01  0.1868E-01  0.4011E-01  0.0000E+00  0.0000E+00  0.0000E+00  0.0000E+00  0.0000E+00
    -10.619  0.6335E-01  0.4106E-01  0.5836E-02  0.5340E-01  0.0000E+00  0.0000E+00  0.0000E+00  0.0000E+00  0.0000E+00
    -10.520  0.7733E-01  0.5358E-01  0.5269E-03  0.5971E-01  0.0000E+00  0.0000E+00  0.0000E+00  0.0000E+00  0.0000E+00
    -10.421  0.5665E-01  0.4407E-01  0.1011E-04  0.4043E-01  0.0000E+00  0.0000E+00  0.0000E+00  0.0000E+00  0.0000E+00
    -10.321  0.3456E-01  0.3205E-01  0.3640E-07  0.2047E-01  0.0000E+00  0.0000E+00  0.0000E+00  0.0000E+00  0.0000E+00
    -10.222  0.2759E-01  0.2816E-01  0.1486E-08  0.1415E-01  0.0000E+00  0.0000E+00  0.0000E+00  0.0000E+00  0.0000E+00
    -10.122  0.2255E-01  0.2429E-01  0.1163E-08  0.9440E-02  0.0000E+00  0.0000E+00  0.0000E+00  0.0000E+00  0.0000E+00
    -10.023  0.2380E-01  0.2490E-01  0.1422E-08  0.1175E-01  0.0000E+00  0.0000E+00  0.0000E+00  0.0000E+00  0.0000E+00
     -9.924  0.2287E-01  0.2187E-01  0.1649E-08  0.1575E-01  0.0000E+00  0.0000E+00  0.0000E+00  0.0000E+00  0.0000E+00
     -9.824  0.2204E-01  0.1925E-01  0.2004E-08  0.2325E-01  0.0000E+00  0.0000E+00  0.0000E+00  0.0000E+00  0.0000E+00
     -9.725  0.2412E-01  0.2269E-01  0.2580E-08  0.3707E-01  0.0000E+00  0.0000E+00  0.0000E+00  0.0000E+00  0.0000E+00
     -9.625  0.3675E-01  0.4544E-01  0.4118E-08  0.7118E-01  0.0000E+00  0.0000E+00  0.0000E+00  0.0000E+00  0.0000E+00
     -9.526  0.4915E-01  0.7143E-01  0.5222E-08  0.9705E-01  0.0000E+00  0.0000E+00  0.0000E+00  0.0000E+00  0.0000E+00
     -9.427  0.3915E-01  0.6113E-01  0.3995E-08  0.7367E-01  0.0000E+00  0.0000E+00  0.0000E+00  0.0000E+00  0.0000E+00
     -9.327  0.2651E-01  0.4689E-01  0.2665E-08  0.4880E-01  0.0000E+00  0.0000E+00  0.0000E+00  0.0000E+00  0.0000E+00
     -9.228  0.1903E-01  0.4141E-01  0.1932E-08  0.3770E-01  0.0000E+00  0.0000E+00  0.0000E+00  0.0000E+00  0.0000E+00
     -9.128  0.1689E-01  0.4259E-01  0.1848E-08  0.3876E-01  0.0000E+00  0.0000E+00  0.0000E+00  0.0000E+00  0.0000E+00
     -9.029  0.1629E-01  0.4512E-01  0.1272E-06  0.4465E-01  0.0000E+00  0.0000E+00  0.0000E+00  0.0000E+00  0.0000E+00
     -8.930  0.2463E-01  0.6200E-01  0.3825E-04  0.7020E-01  0.0000E+00  0.0000E+00  0.0000E+00  0.0000E+00  0.0000E+00
     -8.830  0.3671E-01  0.8293E-01  0.2068E-02  0.1078E+00  0.0000E+00  0.0000E+00  0.0000E+00  0.0000E+00  0.0000E+00
     -8.731  0.4237E-01  0.9728E-01  0.2337E-01  0.1295E+00  0.0000E+00  0.0000E+00  0.0000E+00  0.0000E+00  0.0000E+00
     -8.631  0.4759E-01  0.1179E+00  0.7381E-01  0.1661E+00  0.0000E+00  0.0000E+00  0.0000E+00  0.0000E+00  0.0000E+00
     -8.532  0.4932E-01  0.1314E+00  0.1067E+00  0.1921E+00  0.0000E+00  0.0000E+00  0.0000E+00  0.0000E+00  0.0000E+00
     -8.432  0.4402E-01  0.1280E+00  0.1246E+00  0.1835E+00  0.0000E+00  0.0000E+00  0.0000E+00  0.0000E+00  0.0000E+00
     -8.333  0.3648E-01  0.1179E+00  0.1483E+00  0.1669E+00  0.0000E+00  0.0000E+00  0.0000E+00  0.0000E+00  0.0000E+00
     -8.234  0.3354E-01  0.1184E+00  0.1528E+00  0.1672E+00  0.0000E+00  0.0000E+00  0.0000E+00  0.0000E+00  0.0000E+00
     -8.134  0.3413E-01  0.1322E+00  0.1307E+00  0.1719E+00  0.0000E+00  0.0000E+00  0.0000E+00  0.0000E+00  0.0000E+00
     -8.035  0.4053E-01  0.1639E+00  0.1195E+00  0.1775E+00  0.0000E+00  0.0000E+00  0.0000E+00  0.0000E+00  0.0000E+00
     -7.935  0.4300E-01  0.1798E+00  0.1203E+00  0.1730E+00  0.0000E+00  0.0000E+00  0.0000E+00  0.0000E+00  0.0000E+00
     -7.836  0.3382E-01  0.1396E+00  0.1059E+00  0.1183E+00  0.0000E+00  0.0000E+00  0.0000E+00  0.0000E+00  0.0000E+00
     -7.737  0.2892E-01  0.1073E+00  0.7822E-01  0.7366E-01  0.0000E+00  0.0000E+00  0.0000E+00  0.0000E+00  0.0000E+00
     -7.637  0.2657E-01  0.9174E-01  0.5606E-01  0.6484E-01  0.0000E+00  0.0000E+00  0.0000E+00  0.0000E+00  0.0000E+00
     -7.538  0.2391E-01  0.8496E-01  0.3987E-01  0.7629E-01  0.0000E+00  0.0000E+00  0.0000E+00  0.0000E+00  0.0000E+00
     -7.438  0.2106E-01  0.7546E-01  0.2515E-01  0.5477E-01  0.0000E+00  0.0000E+00  0.0000E+00  0.0000E+00  0.0000E+00
     -7.339  0.1853E-01  0.6208E-01  0.1563E-01  0.3696E-01  0.0000E+00  0.0000E+00  0.0000E+00  0.0000E+00  0.0000E+00
     -7.240  0.1829E-01  0.6613E-01  0.7781E-02  0.5955E-01  0.0000E+00  0.0000E+00  0.0000E+00  0.0000E+00  0.0000E+00
     -7.140  0.1677E-01  0.6270E-01  0.3190E-02  0.5633E-01  0.0000E+00  0.0000E+00  0.0000E+00  0.0000E+00  0.0000E+00
     -7.041  0.1256E-01  0.5149E-01  0.1092E-01  0.3877E-01  0.0000E+00  0.0000E+00  0.0000E+00  0.0000E+00  0.0000E+00
     -6.941  0.7364E-02  0.4344E-01  0.4827E-01  0.5425E-01  0.0000E+00  0.0000E+00  0.0000E+00  0.0000E+00  0.0000E+00
     -6.842  0.4859E-02  0.4093E-01  0.1000E+00  0.6022E-01  0.0000E+00  0.0000E+00  0.0000E+00  0.0000E+00  0.0000E+00
     -6.743  0.4790E-02  0.4440E-01  0.1328E+00  0.6044E-01  0.0000E+00  0.0000E+00  0.0000E+00  0.0000E+00  0.0000E+00
     -6.643  0.4304E-02  0.4391E-01  0.1197E+00  0.6036E-01  0.0000E+00  0.0000E+00  0.0000E+00  0.0000E+00  0.0000E+00
     -6.544  0.2526E-02  0.3221E-01  0.1036E+00  0.3324E-01  0.0000E+00  0.0000E+00  0.0000E+00  0.0000E+00  0.0000E+00
     -6.444  0.1716E-02  0.2536E-01  0.9943E-01  0.1921E-01  0.0000E+00  0.0000E+00  0.0000E+00  0.0000E+00  0.0000E+00
     -6.345  0.1446E-02  0.2285E-01  0.1044E+00  0.1677E-01  0.0000E+00  0.0000E+00  0.0000E+00  0.0000E+00  0.0000E+00
     -6.245  0.1339E-02  0.2437E-01  0.1170E+00  0.2052E-01  0.0000E+00  0.0000E+00  0.0000E+00  0.0000E+00  0.0000E+00
     -6.146  0.1300E-02  0.2521E-01  0.1247E+00  0.2243E-01  0.0000E+00  0.0000E+00  0.0000E+00  0.0000E+00  0.0000E+00
     -6.047  0.1130E-02  0.2086E-01  0.1061E+00  0.1819E-01  0.0000E+00  0.0000E+00  0.0000E+00  0.0000E+00  0.0000E+00
     -5.947  0.1256E-02  0.2282E-01  0.8704E-01  0.1818E-01  0.0000E+00  0.0000E+00  0.0000E+00  0.0000E+00  0.0000E+00
     -5.848  0.7696E-03  0.1598E-01  0.6162E-01  0.1349E-01  0.0000E+00  0.0000E+00  0.0000E+00  0.0000E+00  0.0000E+00
     -5.748  0.9108E-03  0.2217E-01  0.2132E-01  0.2234E-01  0.0000E+00  0.0000E+00  0.0000E+00  0.0000E+00  0.0000E+00
     -5.649  0.1274E-02  0.2806E-01  0.2147E-02  0.2768E-01  0.0000E+00  0.0000E+00  0.0000E+00  0.0000E+00  0.0000E+00
     -5.550  0.8782E-03  0.1878E-01  0.4619E-04  0.1684E-01  0.0000E+00  0.0000E+00  0.0000E+00  0.0000E+00  0.0000E+00
     -5.450  0.6689E-03  0.1524E-01  0.1793E-06  0.1306E-01  0.0000E+00  0.0000E+00  0.0000E+00  0.0000E+00  0.0000E+00
     -5.351  0.9888E-03  0.2469E-01  0.3308E-08  0.2413E-01  0.0000E+00  0.0000E+00  0.0000E+00  0.0000E+00  0.0000E+00
     -5.251  0.1298E-02  0.3415E-01  0.5277E-08  0.3525E-01  0.0000E+00  0.0000E+00  0.0000E+00  0.0000E+00  0.0000E+00
     -5.152  0.1166E-02  0.2826E-01  0.2499E-08  0.2645E-01  0.0000E+00  0.0000E+00  0.0000E+00  0.0000E+00  0.0000E+00
     -5.053  0.1047E-02  0.2069E-01  0.1282E-08  0.1827E-01  0.0000E+00  0.0000E+00  0.0000E+00  0.0000E+00  0.0000E+00
     -4.953  0.1605E-02  0.2391E-01  0.3216E-08  0.2174E-01  0.0000E+00  0.0000E+00  0.0000E+00  0.0000E+00  0.0000E+00
     -4.854  0.4112E-02  0.2727E-01  0.6926E-08  0.2408E-01  0.0000E+00  0.0000E+00  0.0000E+00  0.0000E+00  0.0000E+00
     -4.754  0.1038E-01  0.2391E-01  0.1255E-07  0.1902E-01  0.0000E+00  0.0000E+00  0.0000E+00  0.0000E+00  0.0000E+00
     -4.655  0.1615E-01  0.1912E-01  0.1878E-07  0.1990E-01  0.0000E+00  0.0000E+00  0.0000E+00  0.0000E+00  0.0000E+00
     -4.556  0.1889E-01  0.2332E-01  0.2387E-07  0.2582E-01  0.0000E+00  0.0000E+00  0.0000E+00  0.0000E+00  0.0000E+00
     -4.456  0.2150E-01  0.2926E-01  0.3493E-07  0.2705E-01  0.0000E+00  0.0000E+00  0.0000E+00  0.0000E+00  0.0000E+00
     -4.357  0.2538E-01  0.3300E-01  0.5470E-07  0.2435E-01  0.0000E+00  0.0000E+00  0.0000E+00  0.0000E+00  0.0000E+00
     -4.257  0.2282E-01  0.2791E-01  0.5201E-07  0.2570E-01  0.0000E+00  0.0000E+00  0.0000E+00  0.0000E+00  0.0000E+00
     -4.158  0.1196E-01  0.1885E-01  0.2383E-07  0.2644E-01  0.0000E+00  0.0000E+00  0.0000E+00  0.0000E+00  0.0000E+00
     -4.058  0.4265E-02  0.1295E-01  0.6572E-08  0.2226E-01  0.0000E+00  0.0000E+00  0.0000E+00  0.0000E+00  0.0000E+00
     -3.959  0.1971E-02  0.1059E-01  0.2512E-08  0.1916E-01  0.0000E+00  0.0000E+00  0.0000E+00  0.0000E+00  0.0000E+00
     -3.860  0.9190E-03  0.1087E-01  0.1250E-08  0.1733E-01  0.0000E+00  0.0000E+00  0.0000E+00  0.0000E+00  0.0000E+00
     -3.760  0.5774E-03  0.1060E-01  0.9412E-09  0.1695E-01  0.0000E+00  0.0000E+00  0.0000E+00  0.0000E+00  0.0000E+00
     -3.661  0.6554E-03  0.1107E-01  0.7156E-09  0.1912E-01  0.0000E+00  0.0000E+00  0.0000E+00  0.0000E+00  0.0000E+00
     -3.561  0.3952E-03  0.8309E-02  0.2820E-09  0.1391E-01  0.0000E+00  0.0000E+00  0.0000E+00  0.0000E+00  0.0000E+00
     -3.462  0.2256E-03  0.8014E-02  0.9519E-10  0.1251E-01  0.0000E+00  0.0000E+00  0.0000E+00  0.0000E+00  0.0000E+00
     -3.363  0.2090E-03  0.7412E-02  0.9631E-10  0.1220E-01  0.0000E+00  0.0000E+00  0.0000E+00  0.0000E+00  0.0000E+00
     -3.263  0.2604E-03  0.9642E-02  0.1543E-09  0.1632E-01  0.0000E+00  0.0000E+00  0.0000E+00  0.0000E+00  0.0000E+00
     -3.164  0.1604E-03  0.6740E-02  0.9136E-10  0.1124E-01  0.0000E+00  0.0000E+00  0.0000E+00  0.0000E+00  0.0000E+00
     -3.064  0.1028E-03  0.5536E-02  0.2231E-10  0.9170E-02  0.0000E+00  0.0000E+00  0.0000E+00  0.0000E+00  0.0000E+00
     -2.965  0.1066E-03  0.5979E-02  0.2118E-10  0.1003E-01  0.0000E+00  0.0000E+00  0.0000E+00  0.0000E+00  0.0000E+00
     -2.866  0.4231E-04  0.2374E-02  0.1035E-10  0.4019E-02  0.0000E+00  0.0000E+00  0.0000E+00  0.0000E+00  0.0000E+00
     -2.766  0.4012E-05  0.2251E-03  0.1044E-11  0.3822E-03  0.0000E+00  0.0000E+00  0.0000E+00  0.0000E+00  0.0000E+00
     -2.667  0.6870E-07  0.3854E-05  0.1810E-13  0.6548E-05  0.0000E+00  0.0000E+00  0.0000E+00  0.0000E+00  0.0000E+00
     -2.567  0.1861E-09  0.1044E-07  0.4915E-16  0.1774E-07  0.0000E+00  0.0000E+00  0.0000E+00  0.0000E+00  0.0000E+00
     -2.468  0.7531E-13  0.4225E-11  0.1990E-19  0.7179E-11  0.0000E+00  0.0000E+00  0.0000E+00  0.0000E+00  0.0000E+00
     -2.369  0.4432E-17  0.2487E-15  0.1171E-23  0.4225E-15  0.0000E+00  0.0000E+00  0.0000E+00  0.0000E+00  0.0000E+00
     -2.269  0.0000E+00  0.0000E+00  0.0000E+00  0.0000E+00  0.0000E+00  0.0000E+00  0.0000E+00  0.0000E+00  0.0000E+00
     -2.170  0.0000E+00  0.0000E+00  0.0000E+00  0.0000E+00  0.0000E+00  0.0000E+00  0.0000E+00  0.0000E+00  0.0000E+00
     -2.070  0.9649E-17  0.6267E-16  0.2442E-22  0.2576E-15  0.0000E+00  0.0000E+00  0.0000E+00  0.0000E+00  0.0000E+00
     -1.971  0.1487E-12  0.9640E-12  0.3790E-18  0.3960E-11  0.0000E+00  0.0000E+00  0.0000E+00  0.0000E+00  0.0000E+00
     -1.871  0.3378E-09  0.2177E-08  0.8761E-15  0.8931E-08  0.0000E+00  0.0000E+00  0.0000E+00  0.0000E+00  0.0000E+00
     -1.772  0.1183E-06  0.7513E-06  0.3198E-12  0.3074E-05  0.0000E+00  0.0000E+00  0.0000E+00  0.0000E+00  0.0000E+00
     -1.673  0.6954E-05  0.4281E-04  0.2043E-10  0.1740E-03  0.0000E+00  0.0000E+00  0.0000E+00  0.0000E+00  0.0000E+00
     -1.573  0.7925E-04  0.4587E-03  0.2684E-09  0.1838E-02  0.0000E+00  0.0000E+00  0.0000E+00  0.0000E+00  0.0000E+00
     -1.474  0.2271E-03  0.1156E-02  0.1591E-07  0.4457E-02  0.0000E+00  0.0000E+00  0.0000E+00  0.0000E+00  0.0000E+00
     -1.374  0.3109E-03  0.1355E-02  0.6729E-05  0.4474E-02  0.0000E+00  0.0000E+00  0.0000E+00  0.0000E+00  0.0000E+00
     -1.275  0.5458E-03  0.2691E-02  0.5245E-03  0.7028E-02  0.0000E+00  0.0000E+00  0.0000E+00  0.0000E+00  0.0000E+00
     -1.176  0.8318E-03  0.3832E-02  0.8332E-02  0.9179E-02  0.0000E+00  0.0000E+00  0.0000E+00  0.0000E+00  0.0000E+00
     -1.076  0.8070E-03  0.2862E-02  0.3709E-01  0.5897E-02  0.0000E+00  0.0000E+00  0.0000E+00  0.0000E+00  0.0000E+00
     -0.977  0.1163E-02  0.4177E-02  0.7715E-01  0.7362E-02  0.0000E+00  0.0000E+00  0.0000E+00  0.0000E+00  0.0000E+00
     -0.877  0.1910E-02  0.7857E-02  0.1086E+00  0.1323E-01  0.0000E+00  0.0000E+00  0.0000E+00  0.0000E+00  0.0000E+00
     -0.778  0.2047E-02  0.7310E-02  0.1274E+00  0.1039E-01  0.0000E+00  0.0000E+00  0.0000E+00  0.0000E+00  0.0000E+00
     -0.679  0.2342E-02  0.7793E-02  0.1488E+00  0.8565E-02  0.0000E+00  0.0000E+00  0.0000E+00  0.0000E+00  0.0000E+00
     -0.579  0.3752E-02  0.1332E-01  0.1507E+00  0.1384E-01  0.0000E+00  0.0000E+00  0.0000E+00  0.0000E+00  0.0000E+00
     -0.480  0.4669E-02  0.1736E-01  0.1223E+00  0.1600E-01  0.0000E+00  0.0000E+00  0.0000E+00  0.0000E+00  0.0000E+00
     -0.380  0.6019E-02  0.2375E-01  0.1043E+00  0.1515E-01  0.0000E+00  0.0000E+00  0.0000E+00  0.0000E+00  0.0000E+00
     -0.281  0.7923E-02  0.3383E-01  0.9308E-01  0.1766E-01  0.0000E+00  0.0000E+00  0.0000E+00  0.0000E+00  0.0000E+00
     -0.182  0.7704E-02  0.3341E-01  0.7993E-01  0.1996E-01  0.0000E+00  0.0000E+00  0.0000E+00  0.0000E+00  0.0000E+00
     -0.082  0.6116E-02  0.2561E-01  0.6945E-01  0.1854E-01  0.0000E+00  0.0000E+00  0.0000E+00  0.0000E+00  0.0000E+00
      0.017  0.5452E-02  0.2210E-01  0.8428E-01  0.1630E-01  0.0000E+00  0.0000E+00  0.0000E+00  0.0000E+00  0.0000E+00
      0.117  0.5889E-02  0.2241E-01  0.9356E-01  0.1757E-01  0.0000E+00  0.0000E+00  0.0000E+00  0.0000E+00  0.0000E+00
      0.216  0.6338E-02  0.2294E-01  0.6260E-01  0.1880E-01  0.0000E+00  0.0000E+00  0.0000E+00  0.0000E+00  0.0000E+00
      0.316  0.6237E-02  0.2200E-01  0.7843E-01  0.1756E-01  0.0000E+00  0.0000E+00  0.0000E+00  0.0000E+00  0.0000E+00
      0.415  0.7183E-02  0.2360E-01  0.1096E+00  0.1942E-01  0.0000E+00  0.0000E+00  0.0000E+00  0.0000E+00  0.0000E+00
      0.514  0.7866E-02  0.2696E-01  0.8836E-01  0.2379E-01  0.0000E+00  0.0000E+00  0.0000E+00  0.0000E+00  0.0000E+00
      0.614  0.8954E-02  0.3373E-01  0.8794E-01  0.3415E-01  0.0000E+00  0.0000E+00  0.0000E+00  0.0000E+00  0.0000E+00
      0.713  0.1069E-01  0.3813E-01  0.1204E+00  0.4621E-01  0.0000E+00  0.0000E+00  0.0000E+00  0.0000E+00  0.0000E+00
      0.813  0.1300E-01  0.4160E-01  0.1017E+00  0.5276E-01  0.0000E+00  0.0000E+00  0.0000E+00  0.0000E+00  0.0000E+00
      0.912  0.1556E-01  0.4034E-01  0.6395E-01  0.4988E-01  0.0000E+00  0.0000E+00  0.0000E+00  0.0000E+00  0.0000E+00
      1.011  0.1729E-01  0.3926E-01  0.4511E-01  0.4362E-01  0.0000E+00  0.0000E+00  0.0000E+00  0.0000E+00  0.0000E+00
      1.111  0.1727E-01  0.3435E-01  0.2582E-01  0.3440E-01  0.0000E+00  0.0000E+00  0.0000E+00  0.0000E+00  0.0000E+00
      1.210  0.1634E-01  0.3311E-01  0.9840E-02  0.2907E-01  0.0000E+00  0.0000E+00  0.0000E+00  0.0000E+00  0.0000E+00
      1.310  0.1444E-01  0.3081E-01  0.1439E-01  0.2649E-01  0.0000E+00  0.0000E+00  0.0000E+00  0.0000E+00  0.0000E+00
      1.409  0.1080E-01  0.2494E-01  0.2815E-01  0.2121E-01  0.0000E+00  0.0000E+00  0.0000E+00  0.0000E+00  0.0000E+00
      1.508  0.1599E-01  0.2647E-01  0.4342E-01  0.1949E-01  0.0000E+00  0.0000E+00  0.0000E+00  0.0000E+00  0.0000E+00
      1.608  0.3105E-01  0.3817E-01  0.5178E-01  0.2384E-01  0.0000E+00  0.0000E+00  0.0000E+00  0.0000E+00  0.0000E+00
      1.707  0.3965E-01  0.4220E-01  0.6547E-01  0.2530E-01  0.0000E+00  0.0000E+00  0.0000E+00  0.0000E+00  0.0000E+00
      1.807  0.4276E-01  0.3969E-01  0.8386E-01  0.1813E-01  0.0000E+00  0.0000E+00  0.0000E+00  0.0000E+00  0.0000E+00
      1.906  0.4695E-01  0.4481E-01  0.7279E-01  0.1345E-01  0.0000E+00  0.0000E+00  0.0000E+00  0.0000E+00  0.0000E+00
      2.005  0.3786E-01  0.3812E-01  0.5045E-01  0.8840E-02  0.0000E+00  0.0000E+00  0.0000E+00  0.0000E+00  0.0000E+00
      2.105  0.3053E-01  0.3308E-01  0.4784E-01  0.6297E-02  0.0000E+00  0.0000E+00  0.0000E+00  0.0000E+00  0.0000E+00
      2.204  0.2466E-01  0.2856E-01  0.5171E-01  0.4835E-02  0.0000E+00  0.0000E+00  0.0000E+00  0.0000E+00  0.0000E+00
      2.304  0.1933E-01  0.2140E-01  0.4756E-01  0.3353E-02  0.0000E+00  0.0000E+00  0.0000E+00  0.0000E+00  0.0000E+00
      2.403  0.2450E-01  0.1864E-01  0.3989E-01  0.3206E-02  0.0000E+00  0.0000E+00  0.0000E+00  0.0000E+00  0.0000E+00
      2.502  0.4860E-01  0.3082E-01  0.3554E-01  0.6620E-02  0.0000E+00  0.0000E+00  0.0000E+00  0.0000E+00  0.0000E+00
      2.602  0.7659E-01  0.4665E-01  0.3897E-01  0.1346E-01  0.0000E+00  0.0000E+00  0.0000E+00  0.0000E+00  0.0000E+00
      2.701  0.8203E-01  0.4323E-01  0.4227E-01  0.1958E-01  0.0000E+00  0.0000E+00  0.0000E+00  0.0000E+00  0.0000E+00
      2.801  0.7233E-01  0.3451E-01  0.4043E-01  0.2227E-01  0.0000E+00  0.0000E+00  0.0000E+00  0.0000E+00  0.0000E+00
      2.900  0.5874E-01  0.3077E-01  0.3605E-01  0.2060E-01  0.0000E+00  0.0000E+00  0.0000E+00  0.0000E+00  0.0000E+00
      3.000  0.4003E-01  0.2497E-01  0.3120E-01  0.1591E-01  0.0000E+00  0.0000E+00  0.0000E+00  0.0000E+00  0.0000E+00
      3.099  0.3174E-01  0.1839E-01  0.2613E-01  0.1275E-01  0.0000E+00  0.0000E+00  0.0000E+00  0.0000E+00  0.0000E+00
      3.198  0.3006E-01  0.1870E-01  0.2145E-01  0.1295E-01  0.0000E+00  0.0000E+00  0.0000E+00  0.0000E+00  0.0000E+00
      3.298  0.2337E-01  0.1637E-01  0.2049E-01  0.1027E-01  0.0000E+00  0.0000E+00  0.0000E+00  0.0000E+00  0.0000E+00
      3.397  0.2365E-01  0.1459E-01  0.1949E-01  0.1013E-01  0.0000E+00  0.0000E+00  0.0000E+00  0.0000E+00  0.0000E+00
      3.497  0.2833E-01  0.1453E-01  0.1687E-01  0.1353E-01  0.0000E+00  0.0000E+00  0.0000E+00  0.0000E+00  0.0000E+00
      3.596  0.2921E-01  0.1314E-01  0.1615E-01  0.1539E-01  0.0000E+00  0.0000E+00  0.0000E+00  0.0000E+00  0.0000E+00
      3.695  0.2635E-01  0.1268E-01  0.1779E-01  0.1562E-01  0.0000E+00  0.0000E+00  0.0000E+00  0.0000E+00  0.0000E+00
      3.795  0.1942E-01  0.9571E-02  0.1360E-01  0.1475E-01  0.0000E+00  0.0000E+00  0.0000E+00  0.0000E+00  0.0000E+00
      3.894  0.1792E-01  0.7295E-02  0.9409E-02  0.1269E-01  0.0000E+00  0.0000E+00  0.0000E+00  0.0000E+00  0.0000E+00
      3.994  0.1689E-01  0.7253E-02  0.8259E-02  0.1079E-01  0.0000E+00  0.0000E+00  0.0000E+00  0.0000E+00  0.0000E+00
      4.093  0.1340E-01  0.6802E-02  0.7716E-02  0.9894E-02  0.0000E+00  0.0000E+00  0.0000E+00  0.0000E+00  0.0000E+00
      4.192  0.8860E-02  0.4154E-02  0.7195E-02  0.6876E-02  0.0000E+00  0.0000E+00  0.0000E+00  0.0000E+00  0.0000E+00
      4.292  0.6041E-02  0.2222E-02  0.5300E-02  0.4743E-02  0.0000E+00  0.0000E+00  0.0000E+00  0.0000E+00  0.0000E+00
      4.391  0.4585E-02  0.1417E-02  0.5309E-02  0.3800E-02  0.0000E+00  0.0000E+00  0.0000E+00  0.0000E+00  0.0000E+00
      4.491  0.3212E-02  0.9352E-03  0.5082E-02  0.3077E-02  0.0000E+00  0.0000E+00  0.0000E+00  0.0000E+00  0.0000E+00
      4.590  0.2778E-02  0.6269E-03  0.3037E-02  0.2912E-02  0.0000E+00  0.0000E+00  0.0000E+00  0.0000E+00  0.0000E+00
      4.689  0.1648E-02  0.3802E-03  0.1456E-02  0.1843E-02  0.0000E+00  0.0000E+00  0.0000E+00  0.0000E+00  0.0000E+00
      4.789  0.6150E-03  0.2271E-03  0.1400E-02  0.7177E-03  0.0000E+00  0.0000E+00  0.0000E+00  0.0000E+00  0.0000E+00
      4.888  0.2399E-03  0.9442E-04  0.9011E-03  0.2609E-03  0.0000E+00  0.0000E+00  0.0000E+00  0.0000E+00  0.0000E+00
      4.988  0.5363E-04  0.2251E-04  0.1882E-03  0.5680E-04  0.0000E+00  0.0000E+00  0.0000E+00  0.0000E+00  0.0000E+00
      5.087  0.2569E-04  0.1487E-04  0.8862E-04  0.2776E-04  0.0000E+00  0.0000E+00  0.0000E+00  0.0000E+00  0.0000E+00
      5.187  0.8312E-05  0.4917E-05  0.2883E-04  0.9001E-05  0.0000E+00  0.0000E+00  0.0000E+00  0.0000E+00  0.0000E+00
      5.286  0.5038E-06  0.2981E-06  0.1748E-05  0.5456E-06  0.0000E+00  0.0000E+00  0.0000E+00  0.0000E+00  0.0000E+00
      5.385  0.4987E-08  0.2951E-08  0.1730E-07  0.5401E-08  0.0000E+00  0.0000E+00  0.0000E+00  0.0000E+00  0.0000E+00
      5.485  0.7562E-11  0.4475E-11  0.2623E-10  0.8189E-11  0.0000E+00  0.0000E+00  0.0000E+00  0.0000E+00  0.0000E+00
      5.584  0.1692E-14  0.1001E-14  0.5869E-14  0.1832E-14  0.0000E+00  0.0000E+00  0.0000E+00  0.0000E+00  0.0000E+00
      5.684  0.5274E-19  0.3121E-19  0.1830E-18  0.5712E-19  0.0000E+00  0.0000E+00  0.0000E+00  0.0000E+00  0.0000E+00
      5.783  0.0000E+00  0.0000E+00  0.0000E+00  0.0000E+00  0.0000E+00  0.0000E+00  0.0000E+00  0.0000E+00  0.0000E+00
      5.882  0.0000E+00  0.0000E+00  0.0000E+00  0.0000E+00  0.0000E+00  0.0000E+00  0.0000E+00  0.0000E+00  0.0000E+00
      5.982  0.0000E+00  0.0000E+00  0.0000E+00  0.0000E+00  0.0000E+00  0.0000E+00  0.0000E+00  0.0000E+00  0.0000E+00
      6.081  0.0000E+00  0.0000E+00  0.0000E+00  0.0000E+00  0.0000E+00  0.0000E+00  0.0000E+00  0.0000E+00  0.0000E+00
      6.181  0.0000E+00  0.0000E+00  0.0000E+00  0.0000E+00  0.0000E+00  0.0000E+00  0.0000E+00  0.0000E+00  0.0000E+00
      6.280  0.0000E+00  0.0000E+00  0.0000E+00  0.0000E+00  0.0000E+00  0.0000E+00  0.0000E+00  0.0000E+00  0.0000E+00
      6.379  0.0000E+00  0.0000E+00  0.0000E+00  0.0000E+00  0.0000E+00  0.0000E+00  0.0000E+00  0.0000E+00  0.0000E+00
      6.37943935    -23.44321047  301     -4.43334101      1.00000000
    -23.443  0.0000E+00  0.0000E+00  0.0000E+00  0.0000E+00  0.0000E+00  0.0000E+00  0.0000E+00  0.0000E+00  0.0000E+00
    -23.344  0.0000E+00  0.0000E+00  0.0000E+00  0.0000E+00  0.0000E+00  0.0000E+00  0.0000E+00  0.0000E+00  0.0000E+00
    -23.244  0.0000E+00  0.0000E+00  0.0000E+00  0.0000E+00  0.0000E+00  0.0000E+00  0.0000E+00  0.0000E+00  0.0000E+00
    -23.145  0.0000E+00  0.0000E+00  0.0000E+00  0.0000E+00  0.0000E+00  0.0000E+00  0.0000E+00  0.0000E+00  0.0000E+00
    -23.046  0.0000E+00  0.0000E+00  0.0000E+00  0.0000E+00  0.0000E+00  0.0000E+00  0.0000E+00  0.0000E+00  0.0000E+00
    -22.946  0.0000E+00  0.0000E+00  0.0000E+00  0.0000E+00  0.0000E+00  0.0000E+00  0.0000E+00  0.0000E+00  0.0000E+00
    -22.847  0.0000E+00  0.0000E+00  0.0000E+00  0.0000E+00  0.0000E+00  0.0000E+00  0.0000E+00  0.0000E+00  0.0000E+00
    -22.747  0.0000E+00  0.0000E+00  0.0000E+00  0.0000E+00  0.0000E+00  0.0000E+00  0.0000E+00  0.0000E+00  0.0000E+00
    -22.648  0.1545E-16  0.3958E-17  0.9053E-25  0.1787E-17  0.0000E+00  0.0000E+00  0.0000E+00  0.0000E+00  0.0000E+00
    -22.549  0.5579E-12  0.1442E-12  0.3289E-20  0.6502E-13  0.0000E+00  0.0000E+00  0.0000E+00  0.0000E+00  0.0000E+00
    -22.449  0.3013E-08  0.7859E-09  0.1787E-16  0.3539E-09  0.0000E+00  0.0000E+00  0.0000E+00  0.0000E+00  0.0000E+00
    -22.350  0.2544E-05  0.6737E-06  0.1524E-13  0.3028E-06  0.0000E+00  0.0000E+00  0.0000E+00  0.0000E+00  0.0000E+00
    -22.250  0.3606E-03  0.9806E-04  0.2199E-11  0.4393E-04  0.0000E+00  0.0000E+00  0.0000E+00  0.0000E+00  0.0000E+00
    -22.151  0.9717E-02  0.2773E-02  0.6126E-10  0.1235E-02  0.0000E+00  0.0000E+00  0.0000E+00  0.0000E+00  0.0000E+00
    -22.051  0.6066E-01  0.1866E-01  0.4032E-09  0.8249E-02  0.0000E+00  0.0000E+00  0.0000E+00  0.0000E+00  0.0000E+00
    -21.952  0.1160E+00  0.3863E-01  0.8195E-09  0.1707E-01  0.0000E+00  0.0000E+00  0.0000E+00  0.0000E+00  0.0000E+00
    -21.853  0.1061E+00  0.3654E-01  0.7791E-09  0.1652E-01  0.0000E+00  0.0000E+00  0.0000E+00  0.0000E+00  0.0000E+00
    -21.753  0.8618E-01  0.2926E-01  0.6422E-09  0.1382E-01  0.0000E+00  0.0000E+00  0.0000E+00  0.0000E+00  0.0000E+00
    -21.654  0.8092E-01  0.2698E-01  0.6097E-09  0.1326E-01  0.0000E+00  0.0000E+00  0.0000E+00  0.0000E+00  0.0000E+00
    -21.554  0.8408E-01  0.2748E-01  0.6385E-09  0.1396E-01  0.0000E+00  0.0000E+00  0.0000E+00  0.0000E+00  0.0000E+00
    -21.455  0.9662E-01  0.3064E-01  0.7360E-09  0.1604E-01  0.0000E+00  0.0000E+00  0.0000E+00  0.0000E+00  0.0000E+00
    -21.356  0.1284E+00  0.3899E-01  0.9735E-09  0.2093E-01  0.0000E+00  0.0000E+00  0.0000E+00  0.0000E+00  0.0000E+00
    -21.256  0.1573E+00  0.4799E-01  0.1219E-08  0.2606E-01  0.0000E+00  0.0000E+00  0.0000E+00  0.0000E+00  0.0000E+00
    -21.157  0.1088E+00  0.3640E-01  0.9093E-09  0.1968E-01  0.0000E+00  0.0000E+00  0.0000E+00  0.0000E+00  0.0000E+00
    -21.057  0.3146E-01  0.1166E-01  0.2850E-09  0.6258E-02  0.0000E+00  0.0000E+00  0.0000E+00  0.0000E+00  0.0000E+00
    -20.958  0.2772E-02  0.1088E-02  0.2630E-10  0.5820E-03  0.0000E+00  0.0000E+00  0.0000E+00  0.0000E+00  0.0000E+00
    -20.859  0.5430E-04  0.2191E-04  0.5267E-12  0.1170E-04  0.0000E+00  0.0000E+00  0.0000E+00  0.0000E+00  0.0000E+00
    -20.759  0.1935E-06  0.7917E-07  0.1899E-14  0.4225E-07  0.0000E+00  0.0000E+00  0.0000E+00  0.0000E+00  0.0000E+00
    -20.660  0.1125E-09  0.4641E-10  0.1111E-17  0.2475E-10  0.0000E+00  0.0000E+00  0.0000E+00  0.0000E+00  0.0000E+00
    -20.560  0.1006E-13  0.4174E-14  0.9986E-22  0.2226E-14  0.0000E+00  0.0000E+00  0.0000E+00  0.0000E+00  0.0000E+00
    -20.461  0.0000E+00  0.0000E+00  0.0000E+00  0.0000E+00  0.0000E+00  0.0000E+00  0.0000E+00  0.0000E+00  0.0000E+00
    -20.362  0.0000E+00  0.0000E+00  0.0000E+00  0.0000E+00  0.0000E+00  0.0000E+00  0.0000E+00  0.0000E+00  0.0000E+00
    -20.262  0.0000E+00  0.0000E+00  0.0000E+00  0.0000E+00  0.0000E+00  0.0000E+00  0.0000E+00  0.0000E+00  0.0000E+00
    -20.163  0.0000E+00  0.0000E+00  0.0000E+00  0.0000E+00  0.0000E+00  0.0000E+00  0.0000E+00  0.0000E+00  0.0000E+00
    -20.063  0.0000E+00  0.0000E+00  0.0000E+00  0.0000E+00  0.0000E+00  0.0000E+00  0.0000E+00  0.0000E+00  0.0000E+00
    -19.964  0.0000E+00  0.0000E+00  0.0000E+00  0.0000E+00  0.0000E+00  0.0000E+00  0.0000E+00  0.0000E+00  0.0000E+00
    -19.864  0.0000E+00  0.0000E+00  0.0000E+00  0.0000E+00  0.0000E+00  0.0000E+00  0.0000E+00  0.0000E+00  0.0000E+00
    -19.765  0.0000E+00  0.0000E+00  0.0000E+00  0.0000E+00  0.0000E+00  0.0000E+00  0.0000E+00  0.0000E+00  0.0000E+00
    -19.666  0.0000E+00  0.0000E+00  0.0000E+00  0.0000E+00  0.0000E+00  0.0000E+00  0.0000E+00  0.0000E+00  0.0000E+00
    -19.566  0.0000E+00  0.0000E+00  0.0000E+00  0.0000E+00  0.0000E+00  0.0000E+00  0.0000E+00  0.0000E+00  0.0000E+00
    -19.467  0.0000E+00  0.0000E+00  0.0000E+00  0.0000E+00  0.0000E+00  0.0000E+00  0.0000E+00  0.0000E+00  0.0000E+00
    -19.367  0.0000E+00  0.0000E+00  0.0000E+00  0.0000E+00  0.0000E+00  0.0000E+00  0.0000E+00  0.0000E+00  0.0000E+00
    -19.268  0.0000E+00  0.0000E+00  0.0000E+00  0.0000E+00  0.0000E+00  0.0000E+00  0.0000E+00  0.0000E+00  0.0000E+00
    -19.169  0.0000E+00  0.0000E+00  0.0000E+00  0.0000E+00  0.0000E+00  0.0000E+00  0.0000E+00  0.0000E+00  0.0000E+00
    -19.069  0.0000E+00  0.0000E+00  0.0000E+00  0.0000E+00  0.0000E+00  0.0000E+00  0.0000E+00  0.0000E+00  0.0000E+00
    -18.970  0.0000E+00  0.0000E+00  0.0000E+00  0.0000E+00  0.0000E+00  0.0000E+00  0.0000E+00  0.0000E+00  0.0000E+00
    -18.870  0.0000E+00  0.0000E+00  0.0000E+00  0.0000E+00  0.0000E+00  0.0000E+00  0.0000E+00  0.0000E+00  0.0000E+00
    -18.771  0.0000E+00  0.0000E+00  0.0000E+00  0.0000E+00  0.0000E+00  0.0000E+00  0.0000E+00  0.0000E+00  0.0000E+00
    -18.672  0.0000E+00  0.0000E+00  0.0000E+00  0.0000E+00  0.0000E+00  0.0000E+00  0.0000E+00  0.0000E+00  0.0000E+00
    -18.572  0.0000E+00  0.0000E+00  0.0000E+00  0.0000E+00  0.0000E+00  0.0000E+00  0.0000E+00  0.0000E+00  0.0000E+00
    -18.473  0.0000E+00  0.0000E+00  0.0000E+00  0.0000E+00  0.0000E+00  0.0000E+00  0.0000E+00  0.0000E+00  0.0000E+00
    -18.373  0.0000E+00  0.0000E+00  0.0000E+00  0.0000E+00  0.0000E+00  0.0000E+00  0.0000E+00  0.0000E+00  0.0000E+00
    -18.274  0.0000E+00  0.0000E+00  0.0000E+00  0.0000E+00  0.0000E+00  0.0000E+00  0.0000E+00  0.0000E+00  0.0000E+00
    -18.175  0.0000E+00  0.0000E+00  0.0000E+00  0.0000E+00  0.0000E+00  0.0000E+00  0.0000E+00  0.0000E+00  0.0000E+00
    -18.075  0.0000E+00  0.0000E+00  0.0000E+00  0.0000E+00  0.0000E+00  0.0000E+00  0.0000E+00  0.0000E+00  0.0000E+00
    -17.976  0.0000E+00  0.0000E+00  0.0000E+00  0.0000E+00  0.0000E+00  0.0000E+00  0.0000E+00  0.0000E+00  0.0000E+00
    -17.876  0.8340E-18  0.5156E-19  0.5239E-26  0.9197E-19  0.0000E+00  0.0000E+00  0.0000E+00  0.0000E+00  0.0000E+00
    -17.777  0.6208E-13  0.3965E-14  0.3908E-21  0.6787E-14  0.0000E+00  0.0000E+00  0.0000E+00  0.0000E+00  0.0000E+00
    -17.677  0.5337E-09  0.3435E-10  0.3369E-17  0.5850E-10  0.0000E+00  0.0000E+00  0.0000E+00  0.0000E+00  0.0000E+00
    -17.578  0.7071E-06  0.4607E-07  0.4484E-14  0.7781E-07  0.0000E+00  0.0000E+00  0.0000E+00  0.0000E+00  0.0000E+00
    -17.479  0.1532E-03  0.1018E-04  0.9783E-12  0.1696E-04  0.0000E+00  0.0000E+00  0.0000E+00  0.0000E+00  0.0000E+00
    -17.379  0.6022E-02  0.4146E-03  0.3900E-10  0.6750E-03  0.0000E+00  0.0000E+00  0.0000E+00  0.0000E+00  0.0000E+00
    -17.280  0.5180E-01  0.3835E-02  0.3453E-09  0.5950E-02  0.0000E+00  0.0000E+00  0.0000E+00  0.0000E+00  0.0000E+00
    -17.180  0.1356E+00  0.1179E-01  0.9647E-09  0.1645E-01  0.0000E+00  0.0000E+00  0.0000E+00  0.0000E+00  0.0000E+00
    -17.081  0.1861E+00  0.2200E-01  0.1507E-08  0.2514E-01  0.0000E+00  0.0000E+00  0.0000E+00  0.0000E+00  0.0000E+00
    -16.982  0.2227E+00  0.3430E-01  0.2129E-08  0.3520E-01  0.0000E+00  0.0000E+00  0.0000E+00  0.0000E+00  0.0000E+00
    -16.882  0.2591E+00  0.3744E-01  0.2768E-08  0.4798E-01  0.0000E+00  0.0000E+00  0.0000E+00  0.0000E+00  0.0000E+00
    -16.783  0.2135E+00  0.2797E-01  0.2506E-08  0.4708E-01  0.0000E+00  0.0000E+00  0.0000E+00  0.0000E+00  0.0000E+00
    -16.683  0.1151E+00  0.1569E-01  0.1553E-08  0.3200E-01  0.0000E+00  0.0000E+00  0.0000E+00  0.0000E+00  0.0000E+00
    -16.584  0.4205E-01  0.6185E-02  0.6430E-09  0.1405E-01  0.0000E+00  0.0000E+00  0.0000E+00  0.0000E+00  0.0000E+00
    -16.485  0.6770E-02  0.1059E-02  0.1113E-09  0.2486E-02  0.0000E+00  0.0000E+00  0.0000E+00  0.0000E+00  0.0000E+00
    -16.385  0.2970E-03  0.4828E-04  0.5062E-11  0.1140E-03  0.0000E+00  0.0000E+00  0.0000E+00  0.0000E+00  0.0000E+00
    -16.286  0.2645E-05  0.4398E-06  0.4595E-13  0.1039E-05  0.0000E+00  0.0000E+00  0.0000E+00  0.0000E+00  0.0000E+00
    -16.186  0.4076E-08  0.6873E-09  0.7159E-16  0.1622E-08  0.0000E+00  0.0000E+00  0.0000E+00  0.0000E+00  0.0000E+00
    -16.087  0.9974E-12  0.1697E-12  0.1764E-19  0.4001E-12  0.0000E+00  0.0000E+00  0.0000E+00  0.0000E+00  0.0000E+00
    -15.988  0.3690E-16  0.6319E-17  0.6559E-24  0.1489E-16  0.0000E+00  0.0000E+00  0.0000E+00  0.0000E+00  0.0000E+00
    -15.888  0.9710E-15  0.1682E-16  0.3508E-23  0.1115E-16  0.0000E+00  0.0000E+00  0.0000E+00  0.0000E+00  0.0000E+00
    -15.789  0.1446E-10  0.2511E-12  0.5228E-19  0.1673E-12  0.0000E+00  0.0000E+00  0.0000E+00  0.0000E+00  0.0000E+00
    -15.689  0.3164E-07  0.5543E-09  0.1147E-15  0.3736E-09  0.0000E+00  0.0000E+00  0.0000E+00  0.0000E+00  0.0000E+00
    -15.590  0.1066E-04  0.1910E-06  0.3892E-13  0.1321E-06  0.0000E+00  0.0000E+00  0.0000E+00  0.0000E+00  0.0000E+00
    -15.491  0.6095E-03  0.1154E-04  0.2260E-11  0.8358E-05  0.0000E+00  0.0000E+00  0.0000E+00  0.0000E+00  0.0000E+00
    -15.391  0.7156E-02  0.1521E-03  0.2740E-10  0.1173E-03  0.0000E+00  0.0000E+00  0.0000E+00  0.0000E+00  0.0000E+00
    -15.292  0.2357E-01  0.6105E-03  0.9613E-10  0.5171E-03  0.0000E+00  0.0000E+00  0.0000E+00  0.0000E+00  0.0000E+00
    -15.192  0.3491E-01  0.1189E-02  0.1584E-09  0.1137E-02  0.0000E+00  0.0000E+00  0.0000E+00  0.0000E+00  0.0000E+00
    -15.093  0.4239E-01  0.1825E-02  0.2137E-09  0.1949E-02  0.0000E+00  0.0000E+00  0.0000E+00  0.0000E+00  0.0000E+00
    -14.993  0.5164E-01  0.2589E-02  0.2797E-09  0.3115E-02  0.0000E+00  0.0000E+00  0.0000E+00  0.0000E+00  0.0000E+00
    -14.894  0.8128E-01  0.4732E-02  0.4408E-09  0.5892E-02  0.0000E+00  0.0000E+00  0.0000E+00  0.0000E+00  0.0000E+00
    -14.795  0.1621E+00  0.1185E-01  0.8472E-09  0.1368E-01  0.0000E+00  0.0000E+00  0.0000E+00  0.0000E+00  0.0000E+00
    -14.695  0.2347E+00  0.1993E-01  0.1266E-08  0.2145E-01  0.0000E+00  0.0000E+00  0.0000E+00  0.0000E+00  0.0000E+00
    -14.596  0.1896E+00  0.1827E-01  0.1202E-08  0.2004E-01  0.0000E+00  0.0000E+00  0.0000E+00  0.0000E+00  0.0000E+00
    -14.496  0.1565E+00  0.1734E-01  0.1235E-08  0.1948E-01  0.0000E+00  0.0000E+00  0.0000E+00  0.0000E+00  0.0000E+00
    -14.397  0.1595E+00  0.2056E-01  0.1391E-08  0.2093E-01  0.0000E+00  0.0000E+00  0.0000E+00  0.0000E+00  0.0000E+00
    -14.298  0.1514E+00  0.2492E-01  0.1366E-08  0.1887E-01  0.0000E+00  0.0000E+00  0.0000E+00  0.0000E+00  0.0000E+00
    -14.198  0.1403E+00  0.3087E-01  0.1471E-08  0.1764E-01  0.0000E+00  0.0000E+00  0.0000E+00  0.0000E+00  0.0000E+00
    -14.099  0.1389E+00  0.4100E-01  0.1817E-08  0.1863E-01  0.0000E+00  0.0000E+00  0.0000E+00  0.0000E+00  0.0000E+00
    -13.999  0.1439E+00  0.5451E-01  0.2317E-08  0.2036E-01  0.0000E+00  0.0000E+00  0.0000E+00  0.0000E+00  0.0000E+00
    -13.900  0.1195E+00  0.5099E-01  0.2225E-08  0.1836E-01  0.0000E+00  0.0000E+00  0.0000E+00  0.0000E+00  0.0000E+00
    -13.801  0.8050E-01  0.3465E-01  0.1687E-08  0.1413E-01  0.0000E+00  0.0000E+00  0.0000E+00  0.0000E+00  0.0000E+00
    -13.701  0.4514E-01  0.1936E-01  0.1036E-08  0.8705E-02  0.0000E+00  0.0000E+00  0.0000E+00  0.0000E+00  0.0000E+00
    -13.602  0.1277E-01  0.5570E-02  0.3071E-09  0.2538E-02  0.0000E+00  0.0000E+00  0.0000E+00  0.0000E+00  0.0000E+00
    -13.502  0.1034E-02  0.4576E-03  0.2545E-10  0.2073E-03  0.0000E+00  0.0000E+00  0.0000E+00  0.0000E+00  0.0000E+00
    -13.403  0.1788E-04  0.8002E-05  0.4468E-12  0.3604E-05  0.0000E+00  0.0000E+00  0.0000E+00  0.0000E+00  0.0000E+00
    -13.304  0.5647E-07  0.2546E-07  0.1425E-14  0.1142E-07  0.0000E+00  0.0000E+00  0.0000E+00  0.0000E+00  0.0000E+00
    -13.204  0.3327E-10  0.1383E-10  0.7629E-18  0.6688E-11  0.0000E+00  0.0000E+00  0.0000E+00  0.0000E+00  0.0000E+00
    -13.105  0.1599E-07  0.2193E-08  0.3459E-15  0.3016E-08  0.0000E+00  0.0000E+00  0.0000E+00  0.0000E+00  0.0000E+00
    -13.005  0.1044E-04  0.1409E-05  0.5030E-11  0.1959E-05  0.0000E+00  0.0000E+00  0.0000E+00  0.0000E+00  0.0000E+00
    -12.906  0.1161E-02  0.1554E-03  0.1382E-07  0.2167E-03  0.0000E+00  0.0000E+00  0.0000E+00  0.0000E+00  0.0000E+00
    -12.806  0.2421E-01  0.3331E-02  0.6086E-05  0.4513E-02  0.0000E+00  0.0000E+00  0.0000E+00  0.0000E+00  0.0000E+00
    -12.707  0.1134E+00  0.1781E-01  0.4625E-03  0.2137E-01  0.0000E+00  0.0000E+00  0.0000E+00  0.0000E+00  0.0000E+00
    -12.608  0.1713E+00  0.3638E-01  0.7018E-02  0.3347E-01  0.0000E+00  0.0000E+00  0.0000E+00  0.0000E+00  0.0000E+00
    -12.508  0.1453E+00  0.4206E-01  0.2748E-01  0.2958E-01  0.0000E+00  0.0000E+00  0.0000E+00  0.0000E+00  0.0000E+00
    -12.409  0.1082E+00  0.3734E-01  0.4346E-01  0.2238E-01  0.0000E+00  0.0000E+00  0.0000E+00  0.0000E+00  0.0000E+00
    -12.309  0.8713E-01  0.3447E-01  0.4724E-01  0.1794E-01  0.0000E+00  0.0000E+00  0.0000E+00  0.0000E+00  0.0000E+00
    -12.210  0.7594E-01  0.3376E-01  0.4197E-01  0.1561E-01  0.0000E+00  0.0000E+00  0.0000E+00  0.0000E+00  0.0000E+00
    -12.111  0.6858E-01  0.3338E-01  0.3507E-01  0.1374E-01  0.0000E+00  0.0000E+00  0.0000E+00  0.0000E+00  0.0000E+00
    -12.011  0.6371E-01  0.3459E-01  0.3188E-01  0.1255E-01  0.0000E+00  0.0000E+00  0.0000E+00  0.0000E+00  0.0000E+00
    -11.912  0.5942E-01  0.3496E-01  0.3078E-01  0.1126E-01  0.0000E+00  0.0000E+00  0.0000E+00  0.0000E+00  0.0000E+00
    -11.812  0.5633E-01  0.3526E-01  0.3092E-01  0.1008E-01  0.0000E+00  0.0000E+00  0.0000E+00  0.0000E+00  0.0000E+00
    -11.713  0.5319E-01  0.3652E-01  0.3217E-01  0.9230E-02  0.0000E+00  0.0000E+00  0.0000E+00  0.0000E+00  0.0000E+00
    -11.614  0.4402E-01  0.3012E-01  0.3470E-01  0.7981E-02  0.0000E+00  0.0000E+00  0.0000E+00  0.0000E+00  0.0000E+00
    -11.514  0.4010E-01  0.2697E-01  0.3984E-01  0.9321E-02  0.0000E+00  0.0000E+00  0.0000E+00  0.0000E+00  0.0000E+00
    -11.415  0.4037E-01  0.2816E-01  0.5207E-01  0.1817E-01  0.0000E+00  0.0000E+00  0.0000E+00  0.0000E+00  0.0000E+00
    -11.315  0.4717E-01  0.3100E-01  0.7668E-01  0.2999E-01  0.0000E+00  0.0000E+00  0.0000E+00  0.0000E+00  0.0000E+00
    -11.216  0.5063E-01  0.3235E-01  0.8402E-01  0.3325E-01  0.0000E+00  0.0000E+00  0.0000E+00  0.0000E+00  0.0000E+00
    -11.117  0.5207E-01  0.3393E-01  0.6222E-01  0.3479E-01  0.0000E+00  0.0000E+00  0.0000E+00  0.0000E+00  0.0000E+00
    -11.017  0.6255E-01  0.3820E-01  0.4540E-01  0.3556E-01  0.0000E+00  0.0000E+00  0.0000E+00  0.0000E+00  0.0000E+00
    -10.918  0.6232E-01  0.3622E-01  0.3590E-01  0.3693E-01  0.0000E+00  0.0000E+00  0.0000E+00  0.0000E+00  0.0000E+00
    -10.818  0.5121E-01  0.3111E-01  0.2871E-01  0.3478E-01  0.0000E+00  0.0000E+00  0.0000E+00  0.0000E+00  0.0000E+00
    -10.719  0.4790E-01  0.2917E-01  0.1868E-01  0.4011E-01  0.0000E+00  0.0000E+00  0.0000E+00  0.0000E+00  0.0000E+00
    -10.619  0.6335E-01  0.4106E-01  0.5836E-02  0.5340E-01  0.0000E+00  0.0000E+00  0.0000E+00  0.0000E+00  0.0000E+00
    -10.520  0.7733E-01  0.5358E-01  0.5269E-03  0.5971E-01  0.0000E+00  0.0000E+00  0.0000E+00  0.0000E+00  0.0000E+00
    -10.421  0.5665E-01  0.4407E-01  0.1011E-04  0.4043E-01  0.0000E+00  0.0000E+00  0.0000E+00  0.0000E+00  0.0000E+00
    -10.321  0.3456E-01  0.3205E-01  0.3640E-07  0.2047E-01  0.0000E+00  0.0000E+00  0.0000E+00  0.0000E+00  0.0000E+00
    -10.222  0.2759E-01  0.2816E-01  0.1486E-08  0.1415E-01  0.0000E+00  0.0000E+00  0.0000E+00  0.0000E+00  0.0000E+00
    -10.122  0.2255E-01  0.2429E-01  0.1163E-08  0.9440E-02  0.0000E+00  0.0000E+00  0.0000E+00  0.0000E+00  0.0000E+00
    -10.023  0.2380E-01  0.2490E-01  0.1422E-08  0.1175E-01  0.0000E+00  0.0000E+00  0.0000E+00  0.0000E+00  0.0000E+00
     -9.924  0.2287E-01  0.2187E-01  0.1649E-08  0.1575E-01  0.0000E+00  0.0000E+00  0.0000E+00  0.0000E+00  0.0000E+00
     -9.824  0.2204E-01  0.1925E-01  0.2004E-08  0.2325E-01  0.0000E+00  0.0000E+00  0.0000E+00  0.0000E+00  0.0000E+00
     -9.725  0.2412E-01  0.2269E-01  0.2580E-08  0.3707E-01  0.0000E+00  0.0000E+00  0.0000E+00  0.0000E+00  0.0000E+00
     -9.625  0.3675E-01  0.4544E-01  0.4118E-08  0.7118E-01  0.0000E+00  0.0000E+00  0.0000E+00  0.0000E+00  0.0000E+00
     -9.526  0.4915E-01  0.7143E-01  0.5222E-08  0.9705E-01  0.0000E+00  0.0000E+00  0.0000E+00  0.0000E+00  0.0000E+00
     -9.427  0.3915E-01  0.6113E-01  0.3995E-08  0.7367E-01  0.0000E+00  0.0000E+00  0.0000E+00  0.0000E+00  0.0000E+00
     -9.327  0.2651E-01  0.4689E-01  0.2665E-08  0.4880E-01  0.0000E+00  0.0000E+00  0.0000E+00  0.0000E+00  0.0000E+00
     -9.228  0.1903E-01  0.4141E-01  0.1932E-08  0.3770E-01  0.0000E+00  0.0000E+00  0.0000E+00  0.0000E+00  0.0000E+00
     -9.128  0.1689E-01  0.4259E-01  0.1848E-08  0.3876E-01  0.0000E+00  0.0000E+00  0.0000E+00  0.0000E+00  0.0000E+00
     -9.029  0.1629E-01  0.4512E-01  0.1272E-06  0.4465E-01  0.0000E+00  0.0000E+00  0.0000E+00  0.0000E+00  0.0000E+00
     -8.930  0.2463E-01  0.6200E-01  0.3825E-04  0.7020E-01  0.0000E+00  0.0000E+00  0.0000E+00  0.0000E+00  0.0000E+00
     -8.830  0.3671E-01  0.8293E-01  0.2068E-02  0.1078E+00  0.0000E+00  0.0000E+00  0.0000E+00  0.0000E+00  0.0000E+00
     -8.731  0.4237E-01  0.9728E-01  0.2337E-01  0.1295E+00  0.0000E+00  0.0000E+00  0.0000E+00  0.0000E+00  0.0000E+00
     -8.631  0.4759E-01  0.1179E+00  0.7381E-01  0.1661E+00  0.0000E+00  0.0000E+00  0.0000E+00  0.0000E+00  0.0000E+00
     -8.532  0.4932E-01  0.1314E+00  0.1067E+00  0.1921E+00  0.0000E+00  0.0000E+00  0.0000E+00  0.0000E+00  0.0000E+00
     -8.432  0.4402E-01  0.1280E+00  0.1246E+00  0.1835E+00  0.0000E+00  0.0000E+00  0.0000E+00  0.0000E+00  0.0000E+00
     -8.333  0.3648E-01  0.1179E+00  0.1483E+00  0.1669E+00  0.0000E+00  0.0000E+00  0.0000E+00  0.0000E+00  0.0000E+00
     -8.234  0.3354E-01  0.1184E+00  0.1528E+00  0.1672E+00  0.0000E+00  0.0000E+00  0.0000E+00  0.0000E+00  0.0000E+00
     -8.134  0.3413E-01  0.1322E+00  0.1307E+00  0.1719E+00  0.0000E+00  0.0000E+00  0.0000E+00  0.0000E+00  0.0000E+00
     -8.035  0.4053E-01  0.1639E+00  0.1195E+00  0.1775E+00  0.0000E+00  0.0000E+00  0.0000E+00  0.0000E+00  0.0000E+00
     -7.935  0.4300E-01  0.1798E+00  0.1203E+00  0.1730E+00  0.0000E+00  0.0000E+00  0.0000E+00  0.0000E+00  0.0000E+00
     -7.836  0.3382E-01  0.1396E+00  0.1059E+00  0.1183E+00  0.0000E+00  0.0000E+00  0.0000E+00  0.0000E+00  0.0000E+00
     -7.737  0.2892E-01  0.1073E+00  0.7822E-01  0.7366E-01  0.0000E+00  0.0000E+00  0.0000E+00  0.0000E+00  0.0000E+00
     -7.637  0.2657E-01  0.9174E-01  0.5606E-01  0.6484E-01  0.0000E+00  0.0000E+00  0.0000E+00  0.0000E+00  0.0000E+00
     -7.538  0.2391E-01  0.8496E-01  0.3987E-01  0.7629E-01  0.0000E+00  0.0000E+00  0.0000E+00  0.0000E+00  0.0000E+00
     -7.438  0.2106E-01  0.7546E-01  0.2515E-01  0.5477E-01  0.0000E+00  0.0000E+00  0.0000E+00  0.0000E+00  0.0000E+00
     -7.339  0.1853E-01  0.6208E-01  0.1563E-01  0.3696E-01  0.0000E+00  0.0000E+00  0.0000E+00  0.0000E+00  0.0000E+00
     -7.240  0.1829E-01  0.6613E-01  0.7781E-02  0.5955E-01  0.0000E+00  0.0000E+00  0.0000E+00  0.0000E+00  0.0000E+00
     -7.140  0.1677E-01  0.6270E-01  0.3190E-02  0.5633E-01  0.0000E+00  0.0000E+00  0.0000E+00  0.0000E+00  0.0000E+00
     -7.041  0.1256E-01  0.5149E-01  0.1092E-01  0.3877E-01  0.0000E+00  0.0000E+00  0.0000E+00  0.0000E+00  0.0000E+00
     -6.941  0.7364E-02  0.4344E-01  0.4827E-01  0.5425E-01  0.0000E+00  0.0000E+00  0.0000E+00  0.0000E+00  0.0000E+00
     -6.842  0.4859E-02  0.4093E-01  0.1000E+00  0.6022E-01  0.0000E+00  0.0000E+00  0.0000E+00  0.0000E+00  0.0000E+00
     -6.743  0.4790E-02  0.4440E-01  0.1328E+00  0.6044E-01  0.0000E+00  0.0000E+00  0.0000E+00  0.0000E+00  0.0000E+00
     -6.643  0.4304E-02  0.4391E-01  0.1197E+00  0.6036E-01  0.0000E+00  0.0000E+00  0.0000E+00  0.0000E+00  0.0000E+00
     -6.544  0.2526E-02  0.3221E-01  0.1036E+00  0.3324E-01  0.0000E+00  0.0000E+00  0.0000E+00  0.0000E+00  0.0000E+00
     -6.444  0.1716E-02  0.2536E-01  0.9943E-01  0.1921E-01  0.0000E+00  0.0000E+00  0.0000E+00  0.0000E+00  0.0000E+00
     -6.345  0.1446E-02  0.2285E-01  0.1044E+00  0.1677E-01  0.0000E+00  0.0000E+00  0.0000E+00  0.0000E+00  0.0000E+00
     -6.245  0.1339E-02  0.2437E-01  0.1170E+00  0.2052E-01  0.0000E+00  0.0000E+00  0.0000E+00  0.0000E+00  0.0000E+00
     -6.146  0.1300E-02  0.2521E-01  0.1247E+00  0.2243E-01  0.0000E+00  0.0000E+00  0.0000E+00  0.0000E+00  0.0000E+00
     -6.047  0.1130E-02  0.2086E-01  0.1061E+00  0.1819E-01  0.0000E+00  0.0000E+00  0.0000E+00  0.0000E+00  0.0000E+00
     -5.947  0.1256E-02  0.2282E-01  0.8704E-01  0.1818E-01  0.0000E+00  0.0000E+00  0.0000E+00  0.0000E+00  0.0000E+00
     -5.848  0.7696E-03  0.1598E-01  0.6162E-01  0.1349E-01  0.0000E+00  0.0000E+00  0.0000E+00  0.0000E+00  0.0000E+00
     -5.748  0.9108E-03  0.2217E-01  0.2132E-01  0.2234E-01  0.0000E+00  0.0000E+00  0.0000E+00  0.0000E+00  0.0000E+00
     -5.649  0.1274E-02  0.2806E-01  0.2147E-02  0.2768E-01  0.0000E+00  0.0000E+00  0.0000E+00  0.0000E+00  0.0000E+00
     -5.550  0.8782E-03  0.1878E-01  0.4619E-04  0.1684E-01  0.0000E+00  0.0000E+00  0.0000E+00  0.0000E+00  0.0000E+00
     -5.450  0.6689E-03  0.1524E-01  0.1793E-06  0.1306E-01  0.0000E+00  0.0000E+00  0.0000E+00  0.0000E+00  0.0000E+00
     -5.351  0.9888E-03  0.2469E-01  0.3308E-08  0.2413E-01  0.0000E+00  0.0000E+00  0.0000E+00  0.0000E+00  0.0000E+00
     -5.251  0.1298E-02  0.3415E-01  0.5277E-08  0.3525E-01  0.0000E+00  0.0000E+00  0.0000E+00  0.0000E+00  0.0000E+00
     -5.152  0.1166E-02  0.2826E-01  0.2499E-08  0.2645E-01  0.0000E+00  0.0000E+00  0.0000E+00  0.0000E+00  0.0000E+00
     -5.053  0.1047E-02  0.2069E-01  0.1282E-08  0.1827E-01  0.0000E+00  0.0000E+00  0.0000E+00  0.0000E+00  0.0000E+00
     -4.953  0.1605E-02  0.2391E-01  0.3216E-08  0.2174E-01  0.0000E+00  0.0000E+00  0.0000E+00  0.0000E+00  0.0000E+00
     -4.854  0.4112E-02  0.2727E-01  0.6926E-08  0.2408E-01  0.0000E+00  0.0000E+00  0.0000E+00  0.0000E+00  0.0000E+00
     -4.754  0.1038E-01  0.2391E-01  0.1255E-07  0.1902E-01  0.0000E+00  0.0000E+00  0.0000E+00  0.0000E+00  0.0000E+00
     -4.655  0.1615E-01  0.1912E-01  0.1878E-07  0.1990E-01  0.0000E+00  0.0000E+00  0.0000E+00  0.0000E+00  0.0000E+00
     -4.556  0.1889E-01  0.2332E-01  0.2387E-07  0.2582E-01  0.0000E+00  0.0000E+00  0.0000E+00  0.0000E+00  0.0000E+00
     -4.456  0.2150E-01  0.2926E-01  0.3493E-07  0.2705E-01  0.0000E+00  0.0000E+00  0.0000E+00  0.0000E+00  0.0000E+00
     -4.357  0.2538E-01  0.3300E-01  0.5470E-07  0.2435E-01  0.0000E+00  0.0000E+00  0.0000E+00  0.0000E+00  0.0000E+00
     -4.257  0.2282E-01  0.2791E-01  0.5201E-07  0.2570E-01  0.0000E+00  0.0000E+00  0.0000E+00  0.0000E+00  0.0000E+00
     -4.158  0.1196E-01  0.1885E-01  0.2383E-07  0.2644E-01  0.0000E+00  0.0000E+00  0.0000E+00  0.0000E+00  0.0000E+00
     -4.058  0.4265E-02  0.1295E-01  0.6572E-08  0.2226E-01  0.0000E+00  0.0000E+00  0.0000E+00  0.0000E+00  0.0000E+00
     -3.959  0.1971E-02  0.1059E-01  0.2512E-08  0.1916E-01  0.0000E+00  0.0000E+00  0.0000E+00  0.0000E+00  0.0000E+00
     -3.860  0.9190E-03  0.1087E-01  0.1250E-08  0.1733E-01  0.0000E+00  0.0000E+00  0.0000E+00  0.0000E+00  0.0000E+00
     -3.760  0.5774E-03  0.1060E-01  0.9412E-09  0.1695E-01  0.0000E+00  0.0000E+00  0.0000E+00  0.0000E+00  0.0000E+00
     -3.661  0.6554E-03  0.1107E-01  0.7156E-09  0.1912E-01  0.0000E+00  0.0000E+00  0.0000E+00  0.0000E+00  0.0000E+00
     -3.561  0.3952E-03  0.8309E-02  0.2820E-09  0.1391E-01  0.0000E+00  0.0000E+00  0.0000E+00  0.0000E+00  0.0000E+00
     -3.462  0.2256E-03  0.8014E-02  0.9519E-10  0.1251E-01  0.0000E+00  0.0000E+00  0.0000E+00  0.0000E+00  0.0000E+00
     -3.363  0.2090E-03  0.7412E-02  0.9631E-10  0.1220E-01  0.0000E+00  0.0000E+00  0.0000E+00  0.0000E+00  0.0000E+00
     -3.263  0.2604E-03  0.9642E-02  0.1543E-09  0.1632E-01  0.0000E+00  0.0000E+00  0.0000E+00  0.0000E+00  0.0000E+00
     -3.164  0.1604E-03  0.6740E-02  0.9136E-10  0.1124E-01  0.0000E+00  0.0000E+00  0.0000E+00  0.0000E+00  0.0000E+00
     -3.064  0.1028E-03  0.5536E-02  0.2231E-10  0.9170E-02  0.0000E+00  0.0000E+00  0.0000E+00  0.0000E+00  0.0000E+00
     -2.965  0.1066E-03  0.5979E-02  0.2118E-10  0.1003E-01  0.0000E+00  0.0000E+00  0.0000E+00  0.0000E+00  0.0000E+00
     -2.866  0.4231E-04  0.2374E-02  0.1035E-10  0.4019E-02  0.0000E+00  0.0000E+00  0.0000E+00  0.0000E+00  0.0000E+00
     -2.766  0.4012E-05  0.2251E-03  0.1044E-11  0.3822E-03  0.0000E+00  0.0000E+00  0.0000E+00  0.0000E+00  0.0000E+00
     -2.667  0.6870E-07  0.3854E-05  0.1810E-13  0.6548E-05  0.0000E+00  0.0000E+00  0.0000E+00  0.0000E+00  0.0000E+00
     -2.567  0.1861E-09  0.1044E-07  0.4915E-16  0.1774E-07  0.0000E+00  0.0000E+00  0.0000E+00  0.0000E+00  0.0000E+00
     -2.468  0.7531E-13  0.4225E-11  0.1990E-19  0.7179E-11  0.0000E+00  0.0000E+00  0.0000E+00  0.0000E+00  0.0000E+00
     -2.369  0.4432E-17  0.2487E-15  0.1171E-23  0.4225E-15  0.0000E+00  0.0000E+00  0.0000E+00  0.0000E+00  0.0000E+00
     -2.269  0.0000E+00  0.0000E+00  0.0000E+00  0.0000E+00  0.0000E+00  0.0000E+00  0.0000E+00  0.0000E+00  0.0000E+00
     -2.170  0.0000E+00  0.0000E+00  0.0000E+00  0.0000E+00  0.0000E+00  0.0000E+00  0.0000E+00  0.0000E+00  0.0000E+00
     -2.070  0.9649E-17  0.6267E-16  0.2442E-22  0.2576E-15  0.0000E+00  0.0000E+00  0.0000E+00  0.0000E+00  0.0000E+00
     -1.971  0.1487E-12  0.9640E-12  0.3790E-18  0.3960E-11  0.0000E+00  0.0000E+00  0.0000E+00  0.0000E+00  0.0000E+00
     -1.871  0.3378E-09  0.2177E-08  0.8761E-15  0.8931E-08  0.0000E+00  0.0000E+00  0.0000E+00  0.0000E+00  0.0000E+00
     -1.772  0.1183E-06  0.7513E-06  0.3198E-12  0.3074E-05  0.0000E+00  0.0000E+00  0.0000E+00  0.0000E+00  0.0000E+00
     -1.673  0.6954E-05  0.4281E-04  0.2043E-10  0.1740E-03  0.0000E+00  0.0000E+00  0.0000E+00  0.0000E+00  0.0000E+00
     -1.573  0.7925E-04  0.4587E-03  0.2684E-09  0.1838E-02  0.0000E+00  0.0000E+00  0.0000E+00  0.0000E+00  0.0000E+00
     -1.474  0.2271E-03  0.1156E-02  0.1591E-07  0.4457E-02  0.0000E+00  0.0000E+00  0.0000E+00  0.0000E+00  0.0000E+00
     -1.374  0.3109E-03  0.1355E-02  0.6729E-05  0.4474E-02  0.0000E+00  0.0000E+00  0.0000E+00  0.0000E+00  0.0000E+00
     -1.275  0.5458E-03  0.2691E-02  0.5245E-03  0.7028E-02  0.0000E+00  0.0000E+00  0.0000E+00  0.0000E+00  0.0000E+00
     -1.176  0.8318E-03  0.3832E-02  0.8332E-02  0.9179E-02  0.0000E+00  0.0000E+00  0.0000E+00  0.0000E+00  0.0000E+00
     -1.076  0.8070E-03  0.2862E-02  0.3709E-01  0.5897E-02  0.0000E+00  0.0000E+00  0.0000E+00  0.0000E+00  0.0000E+00
     -0.977  0.1163E-02  0.4177E-02  0.7715E-01  0.7362E-02  0.0000E+00  0.0000E+00  0.0000E+00  0.0000E+00  0.0000E+00
     -0.877  0.1910E-02  0.7857E-02  0.1086E+00  0.1323E-01  0.0000E+00  0.0000E+00  0.0000E+00  0.0000E+00  0.0000E+00
     -0.778  0.2047E-02  0.7310E-02  0.1274E+00  0.1039E-01  0.0000E+00  0.0000E+00  0.0000E+00  0.0000E+00  0.0000E+00
     -0.679  0.2342E-02  0.7793E-02  0.1488E+00  0.8565E-02  0.0000E+00  0.0000E+00  0.0000E+00  0.0000E+00  0.0000E+00
     -0.579  0.3752E-02  0.1332E-01  0.1507E+00  0.1384E-01  0.0000E+00  0.0000E+00  0.0000E+00  0.0000E+00  0.0000E+00
     -0.480  0.4669E-02  0.1736E-01  0.1223E+00  0.1600E-01  0.0000E+00  0.0000E+00  0.0000E+00  0.0000E+00  0.0000E+00
     -0.380  0.6019E-02  0.2375E-01  0.1043E+00  0.1515E-01  0.0000E+00  0.0000E+00  0.0000E+00  0.0000E+00  0.0000E+00
     -0.281  0.7923E-02  0.3383E-01  0.9308E-01  0.1766E-01  0.0000E+00  0.0000E+00  0.0000E+00  0.0000E+00  0.0000E+00
     -0.182  0.7704E-02  0.3341E-01  0.7993E-01  0.1996E-01  0.0000E+00  0.0000E+00  0.0000E+00  0.0000E+00  0.0000E+00
     -0.082  0.6116E-02  0.2561E-01  0.6945E-01  0.1854E-01  0.0000E+00  0.0000E+00  0.0000E+00  0.0000E+00  0.0000E+00
      0.017  0.5452E-02  0.2210E-01  0.8428E-01  0.1630E-01  0.0000E+00  0.0000E+00  0.0000E+00  0.0000E+00  0.0000E+00
      0.117  0.5889E-02  0.2241E-01  0.9356E-01  0.1757E-01  0.0000E+00  0.0000E+00  0.0000E+00  0.0000E+00  0.0000E+00
      0.216  0.6338E-02  0.2294E-01  0.6260E-01  0.1880E-01  0.0000E+00  0.0000E+00  0.0000E+00  0.0000E+00  0.0000E+00
      0.316  0.6237E-02  0.2200E-01  0.7843E-01  0.1756E-01  0.0000E+00  0.0000E+00  0.0000E+00  0.0000E+00  0.0000E+00
      0.415  0.7183E-02  0.2360E-01  0.1096E+00  0.1942E-01  0.0000E+00  0.0000E+00  0.0000E+00  0.0000E+00  0.0000E+00
      0.514  0.7866E-02  0.2696E-01  0.8836E-01  0.2379E-01  0.0000E+00  0.0000E+00  0.0000E+00  0.0000E+00  0.0000E+00
      0.614  0.8954E-02  0.3373E-01  0.8794E-01  0.3415E-01  0.0000E+00  0.0000E+00  0.0000E+00  0.0000E+00  0.0000E+00
      0.713  0.1069E-01  0.3813E-01  0.1204E+00  0.4621E-01  0.0000E+00  0.0000E+00  0.0000E+00  0.0000E+00  0.0000E+00
      0.813  0.1300E-01  0.4160E-01  0.1017E+00  0.5276E-01  0.0000E+00  0.0000E+00  0.0000E+00  0.0000E+00  0.0000E+00
      0.912  0.1556E-01  0.4034E-01  0.6395E-01  0.4988E-01  0.0000E+00  0.0000E+00  0.0000E+00  0.0000E+00  0.0000E+00
      1.011  0.1729E-01  0.3926E-01  0.4511E-01  0.4362E-01  0.0000E+00  0.0000E+00  0.0000E+00  0.0000E+00  0.0000E+00
      1.111  0.1727E-01  0.3435E-01  0.2582E-01  0.3440E-01  0.0000E+00  0.0000E+00  0.0000E+00  0.0000E+00  0.0000E+00
      1.210  0.1634E-01  0.3311E-01  0.9840E-02  0.2907E-01  0.0000E+00  0.0000E+00  0.0000E+00  0.0000E+00  0.0000E+00
      1.310  0.1444E-01  0.3081E-01  0.1439E-01  0.2649E-01  0.0000E+00  0.0000E+00  0.0000E+00  0.0000E+00  0.0000E+00
      1.409  0.1080E-01  0.2494E-01  0.2815E-01  0.2121E-01  0.0000E+00  0.0000E+00  0.0000E+00  0.0000E+00  0.0000E+00
      1.508  0.1599E-01  0.2647E-01  0.4342E-01  0.1949E-01  0.0000E+00  0.0000E+00  0.0000E+00  0.0000E+00  0.0000E+00
      1.608  0.3105E-01  0.3817E-01  0.5178E-01  0.2384E-01  0.0000E+00  0.0000E+00  0.0000E+00  0.0000E+00  0.0000E+00
      1.707  0.3965E-01  0.4220E-01  0.6547E-01  0.2530E-01  0.0000E+00  0.0000E+00  0.0000E+00  0.0000E+00  0.0000E+00
      1.807  0.4276E-01  0.3969E-01  0.8386E-01  0.1813E-01  0.0000E+00  0.0000E+00  0.0000E+00  0.0000E+00  0.0000E+00
      1.906  0.4695E-01  0.4481E-01  0.7279E-01  0.1345E-01  0.0000E+00  0.0000E+00  0.0000E+00  0.0000E+00  0.0000E+00
      2.005  0.3786E-01  0.3812E-01  0.5045E-01  0.8840E-02  0.0000E+00  0.0000E+00  0.0000E+00  0.0000E+00  0.0000E+00
      2.105  0.3053E-01  0.3308E-01  0.4784E-01  0.6297E-02  0.0000E+00  0.0000E+00  0.0000E+00  0.0000E+00  0.0000E+00
      2.204  0.2466E-01  0.2856E-01  0.5171E-01  0.4835E-02  0.0000E+00  0.0000E+00  0.0000E+00  0.0000E+00  0.0000E+00
      2.304  0.1933E-01  0.2140E-01  0.4756E-01  0.3353E-02  0.0000E+00  0.0000E+00  0.0000E+00  0.0000E+00  0.0000E+00
      2.403  0.2450E-01  0.1864E-01  0.3989E-01  0.3206E-02  0.0000E+00  0.0000E+00  0.0000E+00  0.0000E+00  0.0000E+00
      2.502  0.4860E-01  0.3082E-01  0.3554E-01  0.6620E-02  0.0000E+00  0.0000E+00  0.0000E+00  0.0000E+00  0.0000E+00
      2.602  0.7659E-01  0.4665E-01  0.3897E-01  0.1346E-01  0.0000E+00  0.0000E+00  0.0000E+00  0.0000E+00  0.0000E+00
      2.701  0.8203E-01  0.4323E-01  0.4227E-01  0.1958E-01  0.0000E+00  0.0000E+00  0.0000E+00  0.0000E+00  0.0000E+00
      2.801  0.7233E-01  0.3451E-01  0.4043E-01  0.2227E-01  0.0000E+00  0.0000E+00  0.0000E+00  0.0000E+00  0.0000E+00
      2.900  0.5874E-01  0.3077E-01  0.3605E-01  0.2060E-01  0.0000E+00  0.0000E+00  0.0000E+00  0.0000E+00  0.0000E+00
      3.000  0.4003E-01  0.2497E-01  0.3120E-01  0.1591E-01  0.0000E+00  0.0000E+00  0.0000E+00  0.0000E+00  0.0000E+00
      3.099  0.3174E-01  0.1839E-01  0.2613E-01  0.1275E-01  0.0000E+00  0.0000E+00  0.0000E+00  0.0000E+00  0.0000E+00
      3.198  0.3006E-01  0.1870E-01  0.2145E-01  0.1295E-01  0.0000E+00  0.0000E+00  0.0000E+00  0.0000E+00  0.0000E+00
      3.298  0.2337E-01  0.1637E-01  0.2049E-01  0.1027E-01  0.0000E+00  0.0000E+00  0.0000E+00  0.0000E+00  0.0000E+00
      3.397  0.2365E-01  0.1459E-01  0.1949E-01  0.1013E-01  0.0000E+00  0.0000E+00  0.0000E+00  0.0000E+00  0.0000E+00
      3.497  0.2833E-01  0.1453E-01  0.1687E-01  0.1353E-01  0.0000E+00  0.0000E+00  0.0000E+00  0.0000E+00  0.0000E+00
      3.596  0.2921E-01  0.1314E-01  0.1615E-01  0.1539E-01  0.0000E+00  0.0000E+00  0.0000E+00  0.0000E+00  0.0000E+00
      3.695  0.2635E-01  0.1268E-01  0.1779E-01  0.1562E-01  0.0000E+00  0.0000E+00  0.0000E+00  0.0000E+00  0.0000E+00
      3.795  0.1942E-01  0.9571E-02  0.1360E-01  0.1475E-01  0.0000E+00  0.0000E+00  0.0000E+00  0.0000E+00  0.0000E+00
      3.894  0.1792E-01  0.7295E-02  0.9409E-02  0.1269E-01  0.0000E+00  0.0000E+00  0.0000E+00  0.0000E+00  0.0000E+00
      3.994  0.1689E-01  0.7253E-02  0.8259E-02  0.1079E-01  0.0000E+00  0.0000E+00  0.0000E+00  0.0000E+00  0.0000E+00
      4.093  0.1340E-01  0.6802E-02  0.7716E-02  0.9894E-02  0.0000E+00  0.0000E+00  0.0000E+00  0.0000E+00  0.0000E+00
      4.192  0.8860E-02  0.4154E-02  0.7195E-02  0.6876E-02  0.0000E+00  0.0000E+00  0.0000E+00  0.0000E+00  0.0000E+00
      4.292  0.6041E-02  0.2222E-02  0.5300E-02  0.4743E-02  0.0000E+00  0.0000E+00  0.0000E+00  0.0000E+00  0.0000E+00
      4.391  0.4585E-02  0.1417E-02  0.5309E-02  0.3800E-02  0.0000E+00  0.0000E+00  0.0000E+00  0.0000E+00  0.0000E+00
      4.491  0.3212E-02  0.9352E-03  0.5082E-02  0.3077E-02  0.0000E+00  0.0000E+00  0.0000E+00  0.0000E+00  0.0000E+00
      4.590  0.2778E-02  0.6269E-03  0.3037E-02  0.2912E-02  0.0000E+00  0.0000E+00  0.0000E+00  0.0000E+00  0.0000E+00
      4.689  0.1648E-02  0.3802E-03  0.1456E-02  0.1843E-02  0.0000E+00  0.0000E+00  0.0000E+00  0.0000E+00  0.0000E+00
      4.789  0.6150E-03  0.2271E-03  0.1400E-02  0.7177E-03  0.0000E+00  0.0000E+00  0.0000E+00  0.0000E+00  0.0000E+00
      4.888  0.2399E-03  0.9442E-04  0.9011E-03  0.2609E-03  0.0000E+00  0.0000E+00  0.0000E+00  0.0000E+00  0.0000E+00
      4.988  0.5363E-04  0.2251E-04  0.1882E-03  0.5680E-04  0.0000E+00  0.0000E+00  0.0000E+00  0.0000E+00  0.0000E+00
      5.087  0.2569E-04  0.1487E-04  0.8862E-04  0.2776E-04  0.0000E+00  0.0000E+00  0.0000E+00  0.0000E+00  0.0000E+00
      5.187  0.8312E-05  0.4917E-05  0.2883E-04  0.9001E-05  0.0000E+00  0.0000E+00  0.0000E+00  0.0000E+00  0.0000E+00
      5.286  0.5038E-06  0.2981E-06  0.1748E-05  0.5456E-06  0.0000E+00  0.0000E+00  0.0000E+00  0.0000E+00  0.0000E+00
      5.385  0.4987E-08  0.2951E-08  0.1730E-07  0.5401E-08  0.0000E+00  0.0000E+00  0.0000E+00  0.0000E+00  0.0000E+00
      5.485  0.7562E-11  0.4475E-11  0.2623E-10  0.8189E-11  0.0000E+00  0.0000E+00  0.0000E+00  0.0000E+00  0.0000E+00
      5.584  0.1692E-14  0.1001E-14  0.5869E-14  0.1832E-14  0.0000E+00  0.0000E+00  0.0000E+00  0.0000E+00  0.0000E+00
      5.684  0.5274E-19  0.3121E-19  0.1830E-18  0.5712E-19  0.0000E+00  0.0000E+00  0.0000E+00  0.0000E+00  0.0000E+00
      5.783  0.0000E+00  0.0000E+00  0.0000E+00  0.0000E+00  0.0000E+00  0.0000E+00  0.0000E+00  0.0000E+00  0.0000E+00
      5.882  0.0000E+00  0.0000E+00  0.0000E+00  0.0000E+00  0.0000E+00  0.0000E+00  0.0000E+00  0.0000E+00  0.0000E+00
      5.982  0.0000E+00  0.0000E+00  0.0000E+00  0.0000E+00  0.0000E+00  0.0000E+00  0.0000E+00  0.0000E+00  0.0000E+00
      6.081  0.0000E+00  0.0000E+00  0.0000E+00  0.0000E+00  0.0000E+00  0.0000E+00  0.0000E+00  0.0000E+00  0.0000E+00
      6.181  0.0000E+00  0.0000E+00  0.0000E+00  0.0000E+00  0.0000E+00  0.0000E+00  0.0000E+00  0.0000E+00  0.0000E+00
      6.280  0.0000E+00  0.0000E+00  0.0000E+00  0.0000E+00  0.0000E+00  0.0000E+00  0.0000E+00  0.0000E+00  0.0000E+00
      6.379  0.0000E+00  0.0000E+00  0.0000E+00  0.0000E+00  0.0000E+00  0.0000E+00  0.0000E+00  0.0000E+00  0.0000E+00
      6.37943935    -23.44321047  301     -4.43334101      1.00000000
    -23.443  0.0000E+00  0.0000E+00  0.0000E+00  0.0000E+00  0.0000E+00  0.0000E+00  0.0000E+00  0.0000E+00  0.0000E+00
    -23.344  0.0000E+00  0.0000E+00  0.0000E+00  0.0000E+00  0.0000E+00  0.0000E+00  0.0000E+00  0.0000E+00  0.0000E+00
    -23.244  0.0000E+00  0.0000E+00  0.0000E+00  0.0000E+00  0.0000E+00  0.0000E+00  0.0000E+00  0.0000E+00  0.0000E+00
    -23.145  0.0000E+00  0.0000E+00  0.0000E+00  0.0000E+00  0.0000E+00  0.0000E+00  0.0000E+00  0.0000E+00  0.0000E+00
    -23.046  0.0000E+00  0.0000E+00  0.0000E+00  0.0000E+00  0.0000E+00  0.0000E+00  0.0000E+00  0.0000E+00  0.0000E+00
    -22.946  0.0000E+00  0.0000E+00  0.0000E+00  0.0000E+00  0.0000E+00  0.0000E+00  0.0000E+00  0.0000E+00  0.0000E+00
    -22.847  0.0000E+00  0.0000E+00  0.0000E+00  0.0000E+00  0.0000E+00  0.0000E+00  0.0000E+00  0.0000E+00  0.0000E+00
    -22.747  0.0000E+00  0.0000E+00  0.0000E+00  0.0000E+00  0.0000E+00  0.0000E+00  0.0000E+00  0.0000E+00  0.0000E+00
    -22.648  0.1545E-16  0.3958E-17  0.9053E-25  0.1787E-17  0.0000E+00  0.0000E+00  0.0000E+00  0.0000E+00  0.0000E+00
    -22.549  0.5579E-12  0.1442E-12  0.3289E-20  0.6502E-13  0.0000E+00  0.0000E+00  0.0000E+00  0.0000E+00  0.0000E+00
    -22.449  0.3013E-08  0.7859E-09  0.1787E-16  0.3539E-09  0.0000E+00  0.0000E+00  0.0000E+00  0.0000E+00  0.0000E+00
    -22.350  0.2544E-05  0.6737E-06  0.1524E-13  0.3028E-06  0.0000E+00  0.0000E+00  0.0000E+00  0.0000E+00  0.0000E+00
    -22.250  0.3606E-03  0.9806E-04  0.2199E-11  0.4393E-04  0.0000E+00  0.0000E+00  0.0000E+00  0.0000E+00  0.0000E+00
    -22.151  0.9717E-02  0.2773E-02  0.6126E-10  0.1235E-02  0.0000E+00  0.0000E+00  0.0000E+00  0.0000E+00  0.0000E+00
    -22.051  0.6066E-01  0.1866E-01  0.4032E-09  0.8249E-02  0.0000E+00  0.0000E+00  0.0000E+00  0.0000E+00  0.0000E+00
    -21.952  0.1160E+00  0.3863E-01  0.8195E-09  0.1707E-01  0.0000E+00  0.0000E+00  0.0000E+00  0.0000E+00  0.0000E+00
    -21.853  0.1061E+00  0.3654E-01  0.7791E-09  0.1652E-01  0.0000E+00  0.0000E+00  0.0000E+00  0.0000E+00  0.0000E+00
    -21.753  0.8618E-01  0.2926E-01  0.6422E-09  0.1382E-01  0.0000E+00  0.0000E+00  0.0000E+00  0.0000E+00  0.0000E+00
    -21.654  0.8092E-01  0.2698E-01  0.6097E-09  0.1326E-01  0.0000E+00  0.0000E+00  0.0000E+00  0.0000E+00  0.0000E+00
    -21.554  0.8408E-01  0.2748E-01  0.6385E-09  0.1396E-01  0.0000E+00  0.0000E+00  0.0000E+00  0.0000E+00  0.0000E+00
    -21.455  0.9662E-01  0.3064E-01  0.7360E-09  0.1604E-01  0.0000E+00  0.0000E+00  0.0000E+00  0.0000E+00  0.0000E+00
    -21.356  0.1284E+00  0.3899E-01  0.9735E-09  0.2093E-01  0.0000E+00  0.0000E+00  0.0000E+00  0.0000E+00  0.0000E+00
    -21.256  0.1573E+00  0.4799E-01  0.1219E-08  0.2606E-01  0.0000E+00  0.0000E+00  0.0000E+00  0.0000E+00  0.0000E+00
    -21.157  0.1088E+00  0.3640E-01  0.9093E-09  0.1968E-01  0.0000E+00  0.0000E+00  0.0000E+00  0.0000E+00  0.0000E+00
    -21.057  0.3146E-01  0.1166E-01  0.2850E-09  0.6258E-02  0.0000E+00  0.0000E+00  0.0000E+00  0.0000E+00  0.0000E+00
    -20.958  0.2772E-02  0.1088E-02  0.2630E-10  0.5820E-03  0.0000E+00  0.0000E+00  0.0000E+00  0.0000E+00  0.0000E+00
    -20.859  0.5430E-04  0.2191E-04  0.5267E-12  0.1170E-04  0.0000E+00  0.0000E+00  0.0000E+00  0.0000E+00  0.0000E+00
    -20.759  0.1935E-06  0.7917E-07  0.1899E-14  0.4225E-07  0.0000E+00  0.0000E+00  0.0000E+00  0.0000E+00  0.0000E+00
    -20.660  0.1125E-09  0.4641E-10  0.1111E-17  0.2475E-10  0.0000E+00  0.0000E+00  0.0000E+00  0.0000E+00  0.0000E+00
    -20.560  0.1006E-13  0.4174E-14  0.9986E-22  0.2226E-14  0.0000E+00  0.0000E+00  0.0000E+00  0.0000E+00  0.0000E+00
    -20.461  0.0000E+00  0.0000E+00  0.0000E+00  0.0000E+00  0.0000E+00  0.0000E+00  0.0000E+00  0.0000E+00  0.0000E+00
    -20.362  0.0000E+00  0.0000E+00  0.0000E+00  0.0000E+00  0.0000E+00  0.0000E+00  0.0000E+00  0.0000E+00  0.0000E+00
    -20.262  0.0000E+00  0.0000E+00  0.0000E+00  0.0000E+00  0.0000E+00  0.0000E+00  0.0000E+00  0.0000E+00  0.0000E+00
    -20.163  0.0000E+00  0.0000E+00  0.0000E+00  0.0000E+00  0.0000E+00  0.0000E+00  0.0000E+00  0.0000E+00  0.0000E+00
    -20.063  0.0000E+00  0.0000E+00  0.0000E+00  0.0000E+00  0.0000E+00  0.0000E+00  0.0000E+00  0.0000E+00  0.0000E+00
    -19.964  0.0000E+00  0.0000E+00  0.0000E+00  0.0000E+00  0.0000E+00  0.0000E+00  0.0000E+00  0.0000E+00  0.0000E+00
    -19.864  0.0000E+00  0.0000E+00  0.0000E+00  0.0000E+00  0.0000E+00  0.0000E+00  0.0000E+00  0.0000E+00  0.0000E+00
    -19.765  0.0000E+00  0.0000E+00  0.0000E+00  0.0000E+00  0.0000E+00  0.0000E+00  0.0000E+00  0.0000E+00  0.0000E+00
    -19.666  0.0000E+00  0.0000E+00  0.0000E+00  0.0000E+00  0.0000E+00  0.0000E+00  0.0000E+00  0.0000E+00  0.0000E+00
    -19.566  0.0000E+00  0.0000E+00  0.0000E+00  0.0000E+00  0.0000E+00  0.0000E+00  0.0000E+00  0.0000E+00  0.0000E+00
    -19.467  0.0000E+00  0.0000E+00  0.0000E+00  0.0000E+00  0.0000E+00  0.0000E+00  0.0000E+00  0.0000E+00  0.0000E+00
    -19.367  0.0000E+00  0.0000E+00  0.0000E+00  0.0000E+00  0.0000E+00  0.0000E+00  0.0000E+00  0.0000E+00  0.0000E+00
    -19.268  0.0000E+00  0.0000E+00  0.0000E+00  0.0000E+00  0.0000E+00  0.0000E+00  0.0000E+00  0.0000E+00  0.0000E+00
    -19.169  0.0000E+00  0.0000E+00  0.0000E+00  0.0000E+00  0.0000E+00  0.0000E+00  0.0000E+00  0.0000E+00  0.0000E+00
    -19.069  0.0000E+00  0.0000E+00  0.0000E+00  0.0000E+00  0.0000E+00  0.0000E+00  0.0000E+00  0.0000E+00  0.0000E+00
    -18.970  0.0000E+00  0.0000E+00  0.0000E+00  0.0000E+00  0.0000E+00  0.0000E+00  0.0000E+00  0.0000E+00  0.0000E+00
    -18.870  0.0000E+00  0.0000E+00  0.0000E+00  0.0000E+00  0.0000E+00  0.0000E+00  0.0000E+00  0.0000E+00  0.0000E+00
    -18.771  0.0000E+00  0.0000E+00  0.0000E+00  0.0000E+00  0.0000E+00  0.0000E+00  0.0000E+00  0.0000E+00  0.0000E+00
    -18.672  0.0000E+00  0.0000E+00  0.0000E+00  0.0000E+00  0.0000E+00  0.0000E+00  0.0000E+00  0.0000E+00  0.0000E+00
    -18.572  0.0000E+00  0.0000E+00  0.0000E+00  0.0000E+00  0.0000E+00  0.0000E+00  0.0000E+00  0.0000E+00  0.0000E+00
    -18.473  0.0000E+00  0.0000E+00  0.0000E+00  0.0000E+00  0.0000E+00  0.0000E+00  0.0000E+00  0.0000E+00  0.0000E+00
    -18.373  0.0000E+00  0.0000E+00  0.0000E+00  0.0000E+00  0.0000E+00  0.0000E+00  0.0000E+00  0.0000E+00  0.0000E+00
    -18.274  0.0000E+00  0.0000E+00  0.0000E+00  0.0000E+00  0.0000E+00  0.0000E+00  0.0000E+00  0.0000E+00  0.0000E+00
    -18.175  0.0000E+00  0.0000E+00  0.0000E+00  0.0000E+00  0.0000E+00  0.0000E+00  0.0000E+00  0.0000E+00  0.0000E+00
    -18.075  0.0000E+00  0.0000E+00  0.0000E+00  0.0000E+00  0.0000E+00  0.0000E+00  0.0000E+00  0.0000E+00  0.0000E+00
    -17.976  0.0000E+00  0.0000E+00  0.0000E+00  0.0000E+00  0.0000E+00  0.0000E+00  0.0000E+00  0.0000E+00  0.0000E+00
    -17.876  0.8340E-18  0.5156E-19  0.5239E-26  0.9197E-19  0.0000E+00  0.0000E+00  0.0000E+00  0.0000E+00  0.0000E+00
    -17.777  0.6208E-13  0.3965E-14  0.3908E-21  0.6787E-14  0.0000E+00  0.0000E+00  0.0000E+00  0.0000E+00  0.0000E+00
    -17.677  0.5337E-09  0.3435E-10  0.3369E-17  0.5850E-10  0.0000E+00  0.0000E+00  0.0000E+00  0.0000E+00  0.0000E+00
    -17.578  0.7071E-06  0.4607E-07  0.4484E-14  0.7781E-07  0.0000E+00  0.0000E+00  0.0000E+00  0.0000E+00  0.0000E+00
    -17.479  0.1532E-03  0.1018E-04  0.9783E-12  0.1696E-04  0.0000E+00  0.0000E+00  0.0000E+00  0.0000E+00  0.0000E+00
    -17.379  0.6022E-02  0.4146E-03  0.3900E-10  0.6750E-03  0.0000E+00  0.0000E+00  0.0000E+00  0.0000E+00  0.0000E+00
    -17.280  0.5180E-01  0.3835E-02  0.3453E-09  0.5950E-02  0.0000E+00  0.0000E+00  0.0000E+00  0.0000E+00  0.0000E+00
    -17.180  0.1356E+00  0.1179E-01  0.9647E-09  0.1645E-01  0.0000E+00  0.0000E+00  0.0000E+00  0.0000E+00  0.0000E+00
    -17.081  0.1861E+00  0.2200E-01  0.1507E-08  0.2514E-01  0.0000E+00  0.0000E+00  0.0000E+00  0.0000E+00  0.0000E+00
    -16.982  0.2227E+00  0.3430E-01  0.2129E-08  0.3520E-01  0.0000E+00  0.0000E+00  0.0000E+00  0.0000E+00  0.0000E+00
    -16.882  0.2591E+00  0.3744E-01  0.2768E-08  0.4798E-01  0.0000E+00  0.0000E+00  0.0000E+00  0.0000E+00  0.0000E+00
    -16.783  0.2135E+00  0.2797E-01  0.2506E-08  0.4708E-01  0.0000E+00  0.0000E+00  0.0000E+00  0.0000E+00  0.0000E+00
    -16.683  0.1151E+00  0.1569E-01  0.1553E-08  0.3200E-01  0.0000E+00  0.0000E+00  0.0000E+00  0.0000E+00  0.0000E+00
    -16.584  0.4205E-01  0.6185E-02  0.6430E-09  0.1405E-01  0.0000E+00  0.0000E+00  0.0000E+00  0.0000E+00  0.0000E+00
    -16.485  0.6770E-02  0.1059E-02  0.1113E-09  0.2486E-02  0.0000E+00  0.0000E+00  0.0000E+00  0.0000E+00  0.0000E+00
    -16.385  0.2970E-03  0.4828E-04  0.5062E-11  0.1140E-03  0.0000E+00  0.0000E+00  0.0000E+00  0.0000E+00  0.0000E+00
    -16.286  0.2645E-05  0.4398E-06  0.4595E-13  0.1039E-05  0.0000E+00  0.0000E+00  0.0000E+00  0.0000E+00  0.0000E+00
    -16.186  0.4076E-08  0.6873E-09  0.7159E-16  0.1622E-08  0.0000E+00  0.0000E+00  0.0000E+00  0.0000E+00  0.0000E+00
    -16.087  0.9974E-12  0.1697E-12  0.1764E-19  0.4001E-12  0.0000E+00  0.0000E+00  0.0000E+00  0.0000E+00  0.0000E+00
    -15.988  0.3690E-16  0.6319E-17  0.6559E-24  0.1489E-16  0.0000E+00  0.0000E+00  0.0000E+00  0.0000E+00  0.0000E+00
    -15.888  0.9710E-15  0.1682E-16  0.3508E-23  0.1115E-16  0.0000E+00  0.0000E+00  0.0000E+00  0.0000E+00  0.0000E+00
    -15.789  0.1446E-10  0.2511E-12  0.5228E-19  0.1673E-12  0.0000E+00  0.0000E+00  0.0000E+00  0.0000E+00  0.0000E+00
    -15.689  0.3164E-07  0.5543E-09  0.1147E-15  0.3736E-09  0.0000E+00  0.0000E+00  0.0000E+00  0.0000E+00  0.0000E+00
    -15.590  0.1066E-04  0.1910E-06  0.3892E-13  0.1321E-06  0.0000E+00  0.0000E+00  0.0000E+00  0.0000E+00  0.0000E+00
    -15.491  0.6095E-03  0.1154E-04  0.2260E-11  0.8358E-05  0.0000E+00  0.0000E+00  0.0000E+00  0.0000E+00  0.0000E+00
    -15.391  0.7156E-02  0.1521E-03  0.2740E-10  0.1173E-03  0.0000E+00  0.0000E+00  0.0000E+00  0.0000E+00  0.0000E+00
    -15.292  0.2357E-01  0.6105E-03  0.9613E-10  0.5171E-03  0.0000E+00  0.0000E+00  0.0000E+00  0.0000E+00  0.0000E+00
    -15.192  0.3491E-01  0.1189E-02  0.1584E-09  0.1137E-02  0.0000E+00  0.0000E+00  0.0000E+00  0.0000E+00  0.0000E+00
    -15.093  0.4239E-01  0.1825E-02  0.2137E-09  0.1949E-02  0.0000E+00  0.0000E+00  0.0000E+00  0.0000E+00  0.0000E+00
    -14.993  0.5164E-01  0.2589E-02  0.2797E-09  0.3115E-02  0.0000E+00  0.0000E+00  0.0000E+00  0.0000E+00  0.0000E+00
    -14.894  0.8128E-01  0.4732E-02  0.4408E-09  0.5892E-02  0.0000E+00  0.0000E+00  0.0000E+00  0.0000E+00  0.0000E+00
    -14.795  0.1621E+00  0.1185E-01  0.8472E-09  0.1368E-01  0.0000E+00  0.0000E+00  0.0000E+00  0.0000E+00  0.0000E+00
    -14.695  0.2347E+00  0.1993E-01  0.1266E-08  0.2145E-01  0.0000E+00  0.0000E+00  0.0000E+00  0.0000E+00  0.0000E+00
    -14.596  0.1896E+00  0.1827E-01  0.1202E-08  0.2004E-01  0.0000E+00  0.0000E+00  0.0000E+00  0.0000E+00  0.0000E+00
    -14.496  0.1565E+00  0.1734E-01  0.1235E-08  0.1948E-01  0.0000E+00  0.0000E+00  0.0000E+00  0.0000E+00  0.0000E+00
    -14.397  0.1595E+00  0.2056E-01  0.1391E-08  0.2093E-01  0.0000E+00  0.0000E+00  0.0000E+00  0.0000E+00  0.0000E+00
    -14.298  0.1514E+00  0.2492E-01  0.1366E-08  0.1887E-01  0.0000E+00  0.0000E+00  0.0000E+00  0.0000E+00  0.0000E+00
    -14.198  0.1403E+00  0.3087E-01  0.1471E-08  0.1764E-01  0.0000E+00  0.0000E+00  0.0000E+00  0.0000E+00  0.0000E+00
    -14.099  0.1389E+00  0.4100E-01  0.1817E-08  0.1863E-01  0.0000E+00  0.0000E+00  0.0000E+00  0.0000E+00  0.0000E+00
    -13.999  0.1439E+00  0.5451E-01  0.2317E-08  0.2036E-01  0.0000E+00  0.0000E+00  0.0000E+00  0.0000E+00  0.0000E+00
    -13.900  0.1195E+00  0.5099E-01  0.2225E-08  0.1836E-01  0.0000E+00  0.0000E+00  0.0000E+00  0.0000E+00  0.0000E+00
    -13.801  0.8050E-01  0.3465E-01  0.1687E-08  0.1413E-01  0.0000E+00  0.0000E+00  0.0000E+00  0.0000E+00  0.0000E+00
    -13.701  0.4514E-01  0.1936E-01  0.1036E-08  0.8705E-02  0.0000E+00  0.0000E+00  0.0000E+00  0.0000E+00  0.0000E+00
    -13.602  0.1277E-01  0.5570E-02  0.3071E-09  0.2538E-02  0.0000E+00  0.0000E+00  0.0000E+00  0.0000E+00  0.0000E+00
    -13.502  0.1034E-02  0.4576E-03  0.2545E-10  0.2073E-03  0.0000E+00  0.0000E+00  0.0000E+00  0.0000E+00  0.0000E+00
    -13.403  0.1788E-04  0.8002E-05  0.4468E-12  0.3604E-05  0.0000E+00  0.0000E+00  0.0000E+00  0.0000E+00  0.0000E+00
    -13.304  0.5647E-07  0.2546E-07  0.1425E-14  0.1142E-07  0.0000E+00  0.0000E+00  0.0000E+00  0.0000E+00  0.0000E+00
    -13.204  0.3327E-10  0.1383E-10  0.7629E-18  0.6688E-11  0.0000E+00  0.0000E+00  0.0000E+00  0.0000E+00  0.0000E+00
    -13.105  0.1599E-07  0.2193E-08  0.3459E-15  0.3016E-08  0.0000E+00  0.0000E+00  0.0000E+00  0.0000E+00  0.0000E+00
    -13.005  0.1044E-04  0.1409E-05  0.5030E-11  0.1959E-05  0.0000E+00  0.0000E+00  0.0000E+00  0.0000E+00  0.0000E+00
    -12.906  0.1161E-02  0.1554E-03  0.1382E-07  0.2167E-03  0.0000E+00  0.0000E+00  0.0000E+00  0.0000E+00  0.0000E+00
    -12.806  0.2421E-01  0.3331E-02  0.6086E-05  0.4513E-02  0.0000E+00  0.0000E+00  0.0000E+00  0.0000E+00  0.0000E+00
    -12.707  0.1134E+00  0.1781E-01  0.4625E-03  0.2137E-01  0.0000E+00  0.0000E+00  0.0000E+00  0.0000E+00  0.0000E+00
    -12.608  0.1713E+00  0.3638E-01  0.7018E-02  0.3347E-01  0.0000E+00  0.0000E+00  0.0000E+00  0.0000E+00  0.0000E+00
    -12.508  0.1453E+00  0.4206E-01  0.2748E-01  0.2958E-01  0.0000E+00  0.0000E+00  0.0000E+00  0.0000E+00  0.0000E+00
    -12.409  0.1082E+00  0.3734E-01  0.4346E-01  0.2238E-01  0.0000E+00  0.0000E+00  0.0000E+00  0.0000E+00  0.0000E+00
    -12.309  0.8713E-01  0.3447E-01  0.4724E-01  0.1794E-01  0.0000E+00  0.0000E+00  0.0000E+00  0.0000E+00  0.0000E+00
    -12.210  0.7594E-01  0.3376E-01  0.4197E-01  0.1561E-01  0.0000E+00  0.0000E+00  0.0000E+00  0.0000E+00  0.0000E+00
    -12.111  0.6858E-01  0.3338E-01  0.3507E-01  0.1374E-01  0.0000E+00  0.0000E+00  0.0000E+00  0.0000E+00  0.0000E+00
    -12.011  0.6371E-01  0.3459E-01  0.3188E-01  0.1255E-01  0.0000E+00  0.0000E+00  0.0000E+00  0.0000E+00  0.0000E+00
    -11.912  0.5942E-01  0.3496E-01  0.3078E-01  0.1126E-01  0.0000E+00  0.0000E+00  0.0000E+00  0.0000E+00  0.0000E+00
    -11.812  0.5633E-01  0.3526E-01  0.3092E-01  0.1008E-01  0.0000E+00  0.0000E+00  0.0000E+00  0.0000E+00  0.0000E+00
    -11.713  0.5319E-01  0.3652E-01  0.3217E-01  0.9230E-02  0.0000E+00  0.0000E+00  0.0000E+00  0.0000E+00  0.0000E+00
    -11.614  0.4402E-01  0.3012E-01  0.3470E-01  0.7981E-02  0.0000E+00  0.0000E+00  0.0000E+00  0.0000E+00  0.0000E+00
    -11.514  0.4010E-01  0.2697E-01  0.3984E-01  0.9321E-02  0.0000E+00  0.0000E+00  0.0000E+00  0.0000E+00  0.0000E+00
    -11.415  0.4037E-01  0.2816E-01  0.5207E-01  0.1817E-01  0.0000E+00  0.0000E+00  0.0000E+00  0.0000E+00  0.0000E+00
    -11.315  0.4717E-01  0.3100E-01  0.7668E-01  0.2999E-01  0.0000E+00  0.0000E+00  0.0000E+00  0.0000E+00  0.0000E+00
    -11.216  0.5063E-01  0.3235E-01  0.8402E-01  0.3325E-01  0.0000E+00  0.0000E+00  0.0000E+00  0.0000E+00  0.0000E+00
    -11.117  0.5207E-01  0.3393E-01  0.6222E-01  0.3479E-01  0.0000E+00  0.0000E+00  0.0000E+00  0.0000E+00  0.0000E+00
    -11.017  0.6255E-01  0.3820E-01  0.4540E-01  0.3556E-01  0.0000E+00  0.0000E+00  0.0000E+00  0.0000E+00  0.0000E+00
    -10.918  0.6232E-01  0.3622E-01  0.3590E-01  0.3693E-01  0.0000E+00  0.0000E+00  0.0000E+00  0.0000E+00  0.0000E+00
    -10.818  0.5121E-01  0.3111E-01  0.2871E-01  0.3478E-01  0.0000E+00  0.0000E+00  0.0000E+00  0.0000E+00  0.0000E+00
    -10.719  0.4790E-01  0.2917E-01  0.1868E-01  0.4011E-01  0.0000E+00  0.0000E+00  0.0000E+00  0.0000E+00  0.0000E+00
    -10.619  0.6335E-01  0.4106E-01  0.5836E-02  0.5340E-01  0.0000E+00  0.0000E+00  0.0000E+00  0.0000E+00  0.0000E+00
    -10.520  0.7733E-01  0.5358E-01  0.5269E-03  0.5971E-01  0.0000E+00  0.0000E+00  0.0000E+00  0.0000E+00  0.0000E+00
    -10.421  0.5665E-01  0.4407E-01  0.1011E-04  0.4043E-01  0.0000E+00  0.0000E+00  0.0000E+00  0.0000E+00  0.0000E+00
    -10.321  0.3456E-01  0.3205E-01  0.3640E-07  0.2047E-01  0.0000E+00  0.0000E+00  0.0000E+00  0.0000E+00  0.0000E+00
    -10.222  0.2759E-01  0.2816E-01  0.1486E-08  0.1415E-01  0.0000E+00  0.0000E+00  0.0000E+00  0.0000E+00  0.0000E+00
    -10.122  0.2255E-01  0.2429E-01  0.1163E-08  0.9440E-02  0.0000E+00  0.0000E+00  0.0000E+00  0.0000E+00  0.0000E+00
    -10.023  0.2380E-01  0.2490E-01  0.1422E-08  0.1175E-01  0.0000E+00  0.0000E+00  0.0000E+00  0.0000E+00  0.0000E+00
     -9.924  0.2287E-01  0.2187E-01  0.1649E-08  0.1575E-01  0.0000E+00  0.0000E+00  0.0000E+00  0.0000E+00  0.0000E+00
     -9.824  0.2204E-01  0.1925E-01  0.2004E-08  0.2325E-01  0.0000E+00  0.0000E+00  0.0000E+00  0.0000E+00  0.0000E+00
     -9.725  0.2412E-01  0.2269E-01  0.2580E-08  0.3707E-01  0.0000E+00  0.0000E+00  0.0000E+00  0.0000E+00  0.0000E+00
     -9.625  0.3675E-01  0.4544E-01  0.4118E-08  0.7118E-01  0.0000E+00  0.0000E+00  0.0000E+00  0.0000E+00  0.0000E+00
     -9.526  0.4915E-01  0.7143E-01  0.5222E-08  0.9705E-01  0.0000E+00  0.0000E+00  0.0000E+00  0.0000E+00  0.0000E+00
     -9.427  0.3915E-01  0.6113E-01  0.3995E-08  0.7367E-01  0.0000E+00  0.0000E+00  0.0000E+00  0.0000E+00  0.0000E+00
     -9.327  0.2651E-01  0.4689E-01  0.2665E-08  0.4880E-01  0.0000E+00  0.0000E+00  0.0000E+00  0.0000E+00  0.0000E+00
     -9.228  0.1903E-01  0.4141E-01  0.1932E-08  0.3770E-01  0.0000E+00  0.0000E+00  0.0000E+00  0.0000E+00  0.0000E+00
     -9.128  0.1689E-01  0.4259E-01  0.1848E-08  0.3876E-01  0.0000E+00  0.0000E+00  0.0000E+00  0.0000E+00  0.0000E+00
     -9.029  0.1629E-01  0.4512E-01  0.1272E-06  0.4465E-01  0.0000E+00  0.0000E+00  0.0000E+00  0.0000E+00  0.0000E+00
     -8.930  0.2463E-01  0.6200E-01  0.3825E-04  0.7020E-01  0.0000E+00  0.0000E+00  0.0000E+00  0.0000E+00  0.0000E+00
     -8.830  0.3671E-01  0.8293E-01  0.2068E-02  0.1078E+00  0.0000E+00  0.0000E+00  0.0000E+00  0.0000E+00  0.0000E+00
     -8.731  0.4237E-01  0.9728E-01  0.2337E-01  0.1295E+00  0.0000E+00  0.0000E+00  0.0000E+00  0.0000E+00  0.0000E+00
     -8.631  0.4759E-01  0.1179E+00  0.7381E-01  0.1661E+00  0.0000E+00  0.0000E+00  0.0000E+00  0.0000E+00  0.0000E+00
     -8.532  0.4932E-01  0.1314E+00  0.1067E+00  0.1921E+00  0.0000E+00  0.0000E+00  0.0000E+00  0.0000E+00  0.0000E+00
     -8.432  0.4402E-01  0.1280E+00  0.1246E+00  0.1835E+00  0.0000E+00  0.0000E+00  0.0000E+00  0.0000E+00  0.0000E+00
     -8.333  0.3648E-01  0.1179E+00  0.1483E+00  0.1669E+00  0.0000E+00  0.0000E+00  0.0000E+00  0.0000E+00  0.0000E+00
     -8.234  0.3354E-01  0.1184E+00  0.1528E+00  0.1672E+00  0.0000E+00  0.0000E+00  0.0000E+00  0.0000E+00  0.0000E+00
     -8.134  0.3413E-01  0.1322E+00  0.1307E+00  0.1719E+00  0.0000E+00  0.0000E+00  0.0000E+00  0.0000E+00  0.0000E+00
     -8.035  0.4053E-01  0.1639E+00  0.1195E+00  0.1775E+00  0.0000E+00  0.0000E+00  0.0000E+00  0.0000E+00  0.0000E+00
     -7.935  0.4300E-01  0.1798E+00  0.1203E+00  0.1730E+00  0.0000E+00  0.0000E+00  0.0000E+00  0.0000E+00  0.0000E+00
     -7.836  0.3382E-01  0.1396E+00  0.1059E+00  0.1183E+00  0.0000E+00  0.0000E+00  0.0000E+00  0.0000E+00  0.0000E+00
     -7.737  0.2892E-01  0.1073E+00  0.7822E-01  0.7366E-01  0.0000E+00  0.0000E+00  0.0000E+00  0.0000E+00  0.0000E+00
     -7.637  0.2657E-01  0.9174E-01  0.5606E-01  0.6484E-01  0.0000E+00  0.0000E+00  0.0000E+00  0.0000E+00  0.0000E+00
     -7.538  0.2391E-01  0.8496E-01  0.3987E-01  0.7629E-01  0.0000E+00  0.0000E+00  0.0000E+00  0.0000E+00  0.0000E+00
     -7.438  0.2106E-01  0.7546E-01  0.2515E-01  0.5477E-01  0.0000E+00  0.0000E+00  0.0000E+00  0.0000E+00  0.0000E+00
     -7.339  0.1853E-01  0.6208E-01  0.1563E-01  0.3696E-01  0.0000E+00  0.0000E+00  0.0000E+00  0.0000E+00  0.0000E+00
     -7.240  0.1829E-01  0.6613E-01  0.7781E-02  0.5955E-01  0.0000E+00  0.0000E+00  0.0000E+00  0.0000E+00  0.0000E+00
     -7.140  0.1677E-01  0.6270E-01  0.3190E-02  0.5633E-01  0.0000E+00  0.0000E+00  0.0000E+00  0.0000E+00  0.0000E+00
     -7.041  0.1256E-01  0.5149E-01  0.1092E-01  0.3877E-01  0.0000E+00  0.0000E+00  0.0000E+00  0.0000E+00  0.0000E+00
     -6.941  0.7364E-02  0.4344E-01  0.4827E-01  0.5425E-01  0.0000E+00  0.0000E+00  0.0000E+00  0.0000E+00  0.0000E+00
     -6.842  0.4859E-02  0.4093E-01  0.1000E+00  0.6022E-01  0.0000E+00  0.0000E+00  0.0000E+00  0.0000E+00  0.0000E+00
     -6.743  0.4790E-02  0.4440E-01  0.1328E+00  0.6044E-01  0.0000E+00  0.0000E+00  0.0000E+00  0.0000E+00  0.0000E+00
     -6.643  0.4304E-02  0.4391E-01  0.1197E+00  0.6036E-01  0.0000E+00  0.0000E+00  0.0000E+00  0.0000E+00  0.0000E+00
     -6.544  0.2526E-02  0.3221E-01  0.1036E+00  0.3324E-01  0.0000E+00  0.0000E+00  0.0000E+00  0.0000E+00  0.0000E+00
     -6.444  0.1716E-02  0.2536E-01  0.9943E-01  0.1921E-01  0.0000E+00  0.0000E+00  0.0000E+00  0.0000E+00  0.0000E+00
     -6.345  0.1446E-02  0.2285E-01  0.1044E+00  0.1677E-01  0.0000E+00  0.0000E+00  0.0000E+00  0.0000E+00  0.0000E+00
     -6.245  0.1339E-02  0.2437E-01  0.1170E+00  0.2052E-01  0.0000E+00  0.0000E+00  0.0000E+00  0.0000E+00  0.0000E+00
     -6.146  0.1300E-02  0.2521E-01  0.1247E+00  0.2243E-01  0.0000E+00  0.0000E+00  0.0000E+00  0.0000E+00  0.0000E+00
     -6.047  0.1130E-02  0.2086E-01  0.1061E+00  0.1819E-01  0.0000E+00  0.0000E+00  0.0000E+00  0.0000E+00  0.0000E+00
     -5.947  0.1256E-02  0.2282E-01  0.8704E-01  0.1818E-01  0.0000E+00  0.0000E+00  0.0000E+00  0.0000E+00  0.0000E+00
     -5.848  0.7696E-03  0.1598E-01  0.6162E-01  0.1349E-01  0.0000E+00  0.0000E+00  0.0000E+00  0.0000E+00  0.0000E+00
     -5.748  0.9108E-03  0.2217E-01  0.2132E-01  0.2234E-01  0.0000E+00  0.0000E+00  0.0000E+00  0.0000E+00  0.0000E+00
     -5.649  0.1274E-02  0.2806E-01  0.2147E-02  0.2768E-01  0.0000E+00  0.0000E+00  0.0000E+00  0.0000E+00  0.0000E+00
     -5.550  0.8782E-03  0.1878E-01  0.4619E-04  0.1684E-01  0.0000E+00  0.0000E+00  0.0000E+00  0.0000E+00  0.0000E+00
     -5.450  0.6689E-03  0.1524E-01  0.1793E-06  0.1306E-01  0.0000E+00  0.0000E+00  0.0000E+00  0.0000E+00  0.0000E+00
     -5.351  0.9888E-03  0.2469E-01  0.3308E-08  0.2413E-01  0.0000E+00  0.0000E+00  0.0000E+00  0.0000E+00  0.0000E+00
     -5.251  0.1298E-02  0.3415E-01  0.5277E-08  0.3525E-01  0.0000E+00  0.0000E+00  0.0000E+00  0.0000E+00  0.0000E+00
     -5.152  0.1166E-02  0.2826E-01  0.2499E-08  0.2645E-01  0.0000E+00  0.0000E+00  0.0000E+00  0.0000E+00  0.0000E+00
     -5.053  0.1047E-02  0.2069E-01  0.1282E-08  0.1827E-01  0.0000E+00  0.0000E+00  0.0000E+00  0.0000E+00  0.0000E+00
     -4.953  0.1605E-02  0.2391E-01  0.3216E-08  0.2174E-01  0.0000E+00  0.0000E+00  0.0000E+00  0.0000E+00  0.0000E+00
     -4.854  0.4112E-02  0.2727E-01  0.6926E-08  0.2408E-01  0.0000E+00  0.0000E+00  0.0000E+00  0.0000E+00  0.0000E+00
     -4.754  0.1038E-01  0.2391E-01  0.1255E-07  0.1902E-01  0.0000E+00  0.0000E+00  0.0000E+00  0.0000E+00  0.0000E+00
     -4.655  0.1615E-01  0.1912E-01  0.1878E-07  0.1990E-01  0.0000E+00  0.0000E+00  0.0000E+00  0.0000E+00  0.0000E+00
     -4.556  0.1889E-01  0.2332E-01  0.2387E-07  0.2582E-01  0.0000E+00  0.0000E+00  0.0000E+00  0.0000E+00  0.0000E+00
     -4.456  0.2150E-01  0.2926E-01  0.3493E-07  0.2705E-01  0.0000E+00  0.0000E+00  0.0000E+00  0.0000E+00  0.0000E+00
     -4.357  0.2538E-01  0.3300E-01  0.5470E-07  0.2435E-01  0.0000E+00  0.0000E+00  0.0000E+00  0.0000E+00  0.0000E+00
     -4.257  0.2282E-01  0.2791E-01  0.5201E-07  0.2570E-01  0.0000E+00  0.0000E+00  0.0000E+00  0.0000E+00  0.0000E+00
     -4.158  0.1196E-01  0.1885E-01  0.2383E-07  0.2644E-01  0.0000E+00  0.0000E+00  0.0000E+00  0.0000E+00  0.0000E+00
     -4.058  0.4265E-02  0.1295E-01  0.6572E-08  0.2226E-01  0.0000E+00  0.0000E+00  0.0000E+00  0.0000E+00  0.0000E+00
     -3.959  0.1971E-02  0.1059E-01  0.2512E-08  0.1916E-01  0.0000E+00  0.0000E+00  0.0000E+00  0.0000E+00  0.0000E+00
     -3.860  0.9190E-03  0.1087E-01  0.1250E-08  0.1733E-01  0.0000E+00  0.0000E+00  0.0000E+00  0.0000E+00  0.0000E+00
     -3.760  0.5774E-03  0.1060E-01  0.9412E-09  0.1695E-01  0.0000E+00  0.0000E+00  0.0000E+00  0.0000E+00  0.0000E+00
     -3.661  0.6554E-03  0.1107E-01  0.7156E-09  0.1912E-01  0.0000E+00  0.0000E+00  0.0000E+00  0.0000E+00  0.0000E+00
     -3.561  0.3952E-03  0.8309E-02  0.2820E-09  0.1391E-01  0.0000E+00  0.0000E+00  0.0000E+00  0.0000E+00  0.0000E+00
     -3.462  0.2256E-03  0.8014E-02  0.9519E-10  0.1251E-01  0.0000E+00  0.0000E+00  0.0000E+00  0.0000E+00  0.0000E+00
     -3.363  0.2090E-03  0.7412E-02  0.9631E-10  0.1220E-01  0.0000E+00  0.0000E+00  0.0000E+00  0.0000E+00  0.0000E+00
     -3.263  0.2604E-03  0.9642E-02  0.1543E-09  0.1632E-01  0.0000E+00  0.0000E+00  0.0000E+00  0.0000E+00  0.0000E+00
     -3.164  0.1604E-03  0.6740E-02  0.9136E-10  0.1124E-01  0.0000E+00  0.0000E+00  0.0000E+00  0.0000E+00  0.0000E+00
     -3.064  0.1028E-03  0.5536E-02  0.2231E-10  0.9170E-02  0.0000E+00  0.0000E+00  0.0000E+00  0.0000E+00  0.0000E+00
     -2.965  0.1066E-03  0.5979E-02  0.2118E-10  0.1003E-01  0.0000E+00  0.0000E+00  0.0000E+00  0.0000E+00  0.0000E+00
     -2.866  0.4231E-04  0.2374E-02  0.1035E-10  0.4019E-02  0.0000E+00  0.0000E+00  0.0000E+00  0.0000E+00  0.0000E+00
     -2.766  0.4012E-05  0.2251E-03  0.1044E-11  0.3822E-03  0.0000E+00  0.0000E+00  0.0000E+00  0.0000E+00  0.0000E+00
     -2.667  0.6870E-07  0.3854E-05  0.1810E-13  0.6548E-05  0.0000E+00  0.0000E+00  0.0000E+00  0.0000E+00  0.0000E+00
     -2.567  0.1861E-09  0.1044E-07  0.4915E-16  0.1774E-07  0.0000E+00  0.0000E+00  0.0000E+00  0.0000E+00  0.0000E+00
     -2.468  0.7531E-13  0.4225E-11  0.1990E-19  0.7179E-11  0.0000E+00  0.0000E+00  0.0000E+00  0.0000E+00  0.0000E+00
     -2.369  0.4432E-17  0.2487E-15  0.1171E-23  0.4225E-15  0.0000E+00  0.0000E+00  0.0000E+00  0.0000E+00  0.0000E+00
     -2.269  0.0000E+00  0.0000E+00  0.0000E+00  0.0000E+00  0.0000E+00  0.0000E+00  0.0000E+00  0.0000E+00  0.0000E+00
     -2.170  0.0000E+00  0.0000E+00  0.0000E+00  0.0000E+00  0.0000E+00  0.0000E+00  0.0000E+00  0.0000E+00  0.0000E+00
     -2.070  0.9649E-17  0.6267E-16  0.2442E-22  0.2576E-15  0.0000E+00  0.0000E+00  0.0000E+00  0.0000E+00  0.0000E+00
     -1.971  0.1487E-12  0.9640E-12  0.3790E-18  0.3960E-11  0.0000E+00  0.0000E+00  0.0000E+00  0.0000E+00  0.0000E+00
     -1.871  0.3378E-09  0.2177E-08  0.8761E-15  0.8931E-08  0.0000E+00  0.0000E+00  0.0000E+00  0.0000E+00  0.0000E+00
     -1.772  0.1183E-06  0.7513E-06  0.3198E-12  0.3074E-05  0.0000E+00  0.0000E+00  0.0000E+00  0.0000E+00  0.0000E+00
     -1.673  0.6954E-05  0.4281E-04  0.2043E-10  0.1740E-03  0.0000E+00  0.0000E+00  0.0000E+00  0.0000E+00  0.0000E+00
     -1.573  0.7925E-04  0.4587E-03  0.2684E-09  0.1838E-02  0.0000E+00  0.0000E+00  0.0000E+00  0.0000E+00  0.0000E+00
     -1.474  0.2271E-03  0.1156E-02  0.1591E-07  0.4457E-02  0.0000E+00  0.0000E+00  0.0000E+00  0.0000E+00  0.0000E+00
     -1.374  0.3109E-03  0.1355E-02  0.6729E-05  0.4474E-02  0.0000E+00  0.0000E+00  0.0000E+00  0.0000E+00  0.0000E+00
     -1.275  0.5458E-03  0.2691E-02  0.5245E-03  0.7028E-02  0.0000E+00  0.0000E+00  0.0000E+00  0.0000E+00  0.0000E+00
     -1.176  0.8318E-03  0.3832E-02  0.8332E-02  0.9179E-02  0.0000E+00  0.0000E+00  0.0000E+00  0.0000E+00  0.0000E+00
     -1.076  0.8070E-03  0.2862E-02  0.3709E-01  0.5897E-02  0.0000E+00  0.0000E+00  0.0000E+00  0.0000E+00  0.0000E+00
     -0.977  0.1163E-02  0.4177E-02  0.7715E-01  0.7362E-02  0.0000E+00  0.0000E+00  0.0000E+00  0.0000E+00  0.0000E+00
     -0.877  0.1910E-02  0.7857E-02  0.1086E+00  0.1323E-01  0.0000E+00  0.0000E+00  0.0000E+00  0.0000E+00  0.0000E+00
     -0.778  0.2047E-02  0.7310E-02  0.1274E+00  0.1039E-01  0.0000E+00  0.0000E+00  0.0000E+00  0.0000E+00  0.0000E+00
     -0.679  0.2342E-02  0.7793E-02  0.1488E+00  0.8565E-02  0.0000E+00  0.0000E+00  0.0000E+00  0.0000E+00  0.0000E+00
     -0.579  0.3752E-02  0.1332E-01  0.1507E+00  0.1384E-01  0.0000E+00  0.0000E+00  0.0000E+00  0.0000E+00  0.0000E+00
     -0.480  0.4669E-02  0.1736E-01  0.1223E+00  0.1600E-01  0.0000E+00  0.0000E+00  0.0000E+00  0.0000E+00  0.0000E+00
     -0.380  0.6019E-02  0.2375E-01  0.1043E+00  0.1515E-01  0.0000E+00  0.0000E+00  0.0000E+00  0.0000E+00  0.0000E+00
     -0.281  0.7923E-02  0.3383E-01  0.9308E-01  0.1766E-01  0.0000E+00  0.0000E+00  0.0000E+00  0.0000E+00  0.0000E+00
     -0.182  0.7704E-02  0.3341E-01  0.7993E-01  0.1996E-01  0.0000E+00  0.0000E+00  0.0000E+00  0.0000E+00  0.0000E+00
     -0.082  0.6116E-02  0.2561E-01  0.6945E-01  0.1854E-01  0.0000E+00  0.0000E+00  0.0000E+00  0.0000E+00  0.0000E+00
      0.017  0.5452E-02  0.2210E-01  0.8428E-01  0.1630E-01  0.0000E+00  0.0000E+00  0.0000E+00  0.0000E+00  0.0000E+00
      0.117  0.5889E-02  0.2241E-01  0.9356E-01  0.1757E-01  0.0000E+00  0.0000E+00  0.0000E+00  0.0000E+00  0.0000E+00
      0.216  0.6338E-02  0.2294E-01  0.6260E-01  0.1880E-01  0.0000E+00  0.0000E+00  0.0000E+00  0.0000E+00  0.0000E+00
      0.316  0.6237E-02  0.2200E-01  0.7843E-01  0.1756E-01  0.0000E+00  0.0000E+00  0.0000E+00  0.0000E+00  0.0000E+00
      0.415  0.7183E-02  0.2360E-01  0.1096E+00  0.1942E-01  0.0000E+00  0.0000E+00  0.0000E+00  0.0000E+00  0.0000E+00
      0.514  0.7866E-02  0.2696E-01  0.8836E-01  0.2379E-01  0.0000E+00  0.0000E+00  0.0000E+00  0.0000E+00  0.0000E+00
      0.614  0.8954E-02  0.3373E-01  0.8794E-01  0.3415E-01  0.0000E+00  0.0000E+00  0.0000E+00  0.0000E+00  0.0000E+00
      0.713  0.1069E-01  0.3813E-01  0.1204E+00  0.4621E-01  0.0000E+00  0.0000E+00  0.0000E+00  0.0000E+00  0.0000E+00
      0.813  0.1300E-01  0.4160E-01  0.1017E+00  0.5276E-01  0.0000E+00  0.0000E+00  0.0000E+00  0.0000E+00  0.0000E+00
      0.912  0.1556E-01  0.4034E-01  0.6395E-01  0.4988E-01  0.0000E+00  0.0000E+00  0.0000E+00  0.0000E+00  0.0000E+00
      1.011  0.1729E-01  0.3926E-01  0.4511E-01  0.4362E-01  0.0000E+00  0.0000E+00  0.0000E+00  0.0000E+00  0.0000E+00
      1.111  0.1727E-01  0.3435E-01  0.2582E-01  0.3440E-01  0.0000E+00  0.0000E+00  0.0000E+00  0.0000E+00  0.0000E+00
      1.210  0.1634E-01  0.3311E-01  0.9840E-02  0.2907E-01  0.0000E+00  0.0000E+00  0.0000E+00  0.0000E+00  0.0000E+00
      1.310  0.1444E-01  0.3081E-01  0.1439E-01  0.2649E-01  0.0000E+00  0.0000E+00  0.0000E+00  0.0000E+00  0.0000E+00
      1.409  0.1080E-01  0.2494E-01  0.2815E-01  0.2121E-01  0.0000E+00  0.0000E+00  0.0000E+00  0.0000E+00  0.0000E+00
      1.508  0.1599E-01  0.2647E-01  0.4342E-01  0.1949E-01  0.0000E+00  0.0000E+00  0.0000E+00  0.0000E+00  0.0000E+00
      1.608  0.3105E-01  0.3817E-01  0.5178E-01  0.2384E-01  0.0000E+00  0.0000E+00  0.0000E+00  0.0000E+00  0.0000E+00
      1.707  0.3965E-01  0.4220E-01  0.6547E-01  0.2530E-01  0.0000E+00  0.0000E+00  0.0000E+00  0.0000E+00  0.0000E+00
      1.807  0.4276E-01  0.3969E-01  0.8386E-01  0.1813E-01  0.0000E+00  0.0000E+00  0.0000E+00  0.0000E+00  0.0000E+00
      1.906  0.4695E-01  0.4481E-01  0.7279E-01  0.1345E-01  0.0000E+00  0.0000E+00  0.0000E+00  0.0000E+00  0.0000E+00
      2.005  0.3786E-01  0.3812E-01  0.5045E-01  0.8840E-02  0.0000E+00  0.0000E+00  0.0000E+00  0.0000E+00  0.0000E+00
      2.105  0.3053E-01  0.3308E-01  0.4784E-01  0.6297E-02  0.0000E+00  0.0000E+00  0.0000E+00  0.0000E+00  0.0000E+00
      2.204  0.2466E-01  0.2856E-01  0.5171E-01  0.4835E-02  0.0000E+00  0.0000E+00  0.0000E+00  0.0000E+00  0.0000E+00
      2.304  0.1933E-01  0.2140E-01  0.4756E-01  0.3353E-02  0.0000E+00  0.0000E+00  0.0000E+00  0.0000E+00  0.0000E+00
      2.403  0.2450E-01  0.1864E-01  0.3989E-01  0.3206E-02  0.0000E+00  0.0000E+00  0.0000E+00  0.0000E+00  0.0000E+00
      2.502  0.4860E-01  0.3082E-01  0.3554E-01  0.6620E-02  0.0000E+00  0.0000E+00  0.0000E+00  0.0000E+00  0.0000E+00
      2.602  0.7659E-01  0.4665E-01  0.3897E-01  0.1346E-01  0.0000E+00  0.0000E+00  0.0000E+00  0.0000E+00  0.0000E+00
      2.701  0.8203E-01  0.4323E-01  0.4227E-01  0.1958E-01  0.0000E+00  0.0000E+00  0.0000E+00  0.0000E+00  0.0000E+00
      2.801  0.7233E-01  0.3451E-01  0.4043E-01  0.2227E-01  0.0000E+00  0.0000E+00  0.0000E+00  0.0000E+00  0.0000E+00
      2.900  0.5874E-01  0.3077E-01  0.3605E-01  0.2060E-01  0.0000E+00  0.0000E+00  0.0000E+00  0.0000E+00  0.0000E+00
      3.000  0.4003E-01  0.2497E-01  0.3120E-01  0.1591E-01  0.0000E+00  0.0000E+00  0.0000E+00  0.0000E+00  0.0000E+00
      3.099  0.3174E-01  0.1839E-01  0.2613E-01  0.1275E-01  0.0000E+00  0.0000E+00  0.0000E+00  0.0000E+00  0.0000E+00
      3.198  0.3006E-01  0.1870E-01  0.2145E-01  0.1295E-01  0.0000E+00  0.0000E+00  0.0000E+00  0.0000E+00  0.0000E+00
      3.298  0.2337E-01  0.1637E-01  0.2049E-01  0.1027E-01  0.0000E+00  0.0000E+00  0.0000E+00  0.0000E+00  0.0000E+00
      3.397  0.2365E-01  0.1459E-01  0.1949E-01  0.1013E-01  0.0000E+00  0.0000E+00  0.0000E+00  0.0000E+00  0.0000E+00
      3.497  0.2833E-01  0.1453E-01  0.1687E-01  0.1353E-01  0.0000E+00  0.0000E+00  0.0000E+00  0.0000E+00  0.0000E+00
      3.596  0.2921E-01  0.1314E-01  0.1615E-01  0.1539E-01  0.0000E+00  0.0000E+00  0.0000E+00  0.0000E+00  0.0000E+00
      3.695  0.2635E-01  0.1268E-01  0.1779E-01  0.1562E-01  0.0000E+00  0.0000E+00  0.0000E+00  0.0000E+00  0.0000E+00
      3.795  0.1942E-01  0.9571E-02  0.1360E-01  0.1475E-01  0.0000E+00  0.0000E+00  0.0000E+00  0.0000E+00  0.0000E+00
      3.894  0.1792E-01  0.7295E-02  0.9409E-02  0.1269E-01  0.0000E+00  0.0000E+00  0.0000E+00  0.0000E+00  0.0000E+00
      3.994  0.1689E-01  0.7253E-02  0.8259E-02  0.1079E-01  0.0000E+00  0.0000E+00  0.0000E+00  0.0000E+00  0.0000E+00
      4.093  0.1340E-01  0.6802E-02  0.7716E-02  0.9894E-02  0.0000E+00  0.0000E+00  0.0000E+00  0.0000E+00  0.0000E+00
      4.192  0.8860E-02  0.4154E-02  0.7195E-02  0.6876E-02  0.0000E+00  0.0000E+00  0.0000E+00  0.0000E+00  0.0000E+00
      4.292  0.6041E-02  0.2222E-02  0.5300E-02  0.4743E-02  0.0000E+00  0.0000E+00  0.0000E+00  0.0000E+00  0.0000E+00
      4.391  0.4585E-02  0.1417E-02  0.5309E-02  0.3800E-02  0.0000E+00  0.0000E+00  0.0000E+00  0.0000E+00  0.0000E+00
      4.491  0.3212E-02  0.9352E-03  0.5082E-02  0.3077E-02  0.0000E+00  0.0000E+00  0.0000E+00  0.0000E+00  0.0000E+00
      4.590  0.2778E-02  0.6269E-03  0.3037E-02  0.2912E-02  0.0000E+00  0.0000E+00  0.0000E+00  0.0000E+00  0.0000E+00
      4.689  0.1648E-02  0.3802E-03  0.1456E-02  0.1843E-02  0.0000E+00  0.0000E+00  0.0000E+00  0.0000E+00  0.0000E+00
      4.789  0.6150E-03  0.2271E-03  0.1400E-02  0.7177E-03  0.0000E+00  0.0000E+00  0.0000E+00  0.0000E+00  0.0000E+00
      4.888  0.2399E-03  0.9442E-04  0.9011E-03  0.2609E-03  0.0000E+00  0.0000E+00  0.0000E+00  0.0000E+00  0.0000E+00
      4.988  0.5363E-04  0.2251E-04  0.1882E-03  0.5680E-04  0.0000E+00  0.0000E+00  0.0000E+00  0.0000E+00  0.0000E+00
      5.087  0.2569E-04  0.1487E-04  0.8862E-04  0.2776E-04  0.0000E+00  0.0000E+00  0.0000E+00  0.0000E+00  0.0000E+00
      5.187  0.8312E-05  0.4917E-05  0.2883E-04  0.9001E-05  0.0000E+00  0.0000E+00  0.0000E+00  0.0000E+00  0.0000E+00
      5.286  0.5038E-06  0.2981E-06  0.1748E-05  0.5456E-06  0.0000E+00  0.0000E+00  0.0000E+00  0.0000E+00  0.0000E+00
      5.385  0.4987E-08  0.2951E-08  0.1730E-07  0.5401E-08  0.0000E+00  0.0000E+00  0.0000E+00  0.0000E+00  0.0000E+00
      5.485  0.7562E-11  0.4475E-11  0.2623E-10  0.8189E-11  0.0000E+00  0.0000E+00  0.0000E+00  0.0000E+00  0.0000E+00
      5.584  0.1692E-14  0.1001E-14  0.5869E-14  0.1832E-14  0.0000E+00  0.0000E+00  0.0000E+00  0.0000E+00  0.0000E+00
      5.684  0.5274E-19  0.3121E-19  0.1830E-18  0.5712E-19  0.0000E+00  0.0000E+00  0.0000E+00  0.0000E+00  0.0000E+00
      5.783  0.0000E+00  0.0000E+00  0.0000E+00  0.0000E+00  0.0000E+00  0.0000E+00  0.0000E+00  0.0000E+00  0.0000E+00
      5.882  0.0000E+00  0.0000E+00  0.0000E+00  0.0000E+00  0.0000E+00  0.0000E+00  0.0000E+00  0.0000E+00  0.0000E+00
      5.982  0.0000E+00  0.0000E+00  0.0000E+00  0.0000E+00  0.0000E+00  0.0000E+00  0.0000E+00  0.0000E+00  0.0000E+00
      6.081  0.0000E+00  0.0000E+00  0.0000E+00  0.0000E+00  0.0000E+00  0.0000E+00  0.0000E+00  0.0000E+00  0.0000E+00
      6.181  0.0000E+00  0.0000E+00  0.0000E+00  0.0000E+00  0.0000E+00  0.0000E+00  0.0000E+00  0.0000E+00  0.0000E+00
      6.280  0.0000E+00  0.0000E+00  0.0000E+00  0.0000E+00  0.0000E+00  0.0000E+00  0.0000E+00  0.0000E+00  0.0000E+00
      6.379  0.0000E+00  0.0000E+00  0.0000E+00  0.0000E+00  0.0000E+00  0.0000E+00  0.0000E+00  0.0000E+00  0.0000E+00
      6.37943935    -23.44321047  301     -4.43334101      1.00000000
    -23.443  0.0000E+00  0.0000E+00  0.0000E+00  0.0000E+00  0.0000E+00  0.0000E+00  0.0000E+00  0.0000E+00  0.0000E+00
    -23.344  0.0000E+00  0.0000E+00  0.0000E+00  0.0000E+00  0.0000E+00  0.0000E+00  0.0000E+00  0.0000E+00  0.0000E+00
    -23.244  0.0000E+00  0.0000E+00  0.0000E+00  0.0000E+00  0.0000E+00  0.0000E+00  0.0000E+00  0.0000E+00  0.0000E+00
    -23.145  0.0000E+00  0.0000E+00  0.0000E+00  0.0000E+00  0.0000E+00  0.0000E+00  0.0000E+00  0.0000E+00  0.0000E+00
    -23.046  0.0000E+00  0.0000E+00  0.0000E+00  0.0000E+00  0.0000E+00  0.0000E+00  0.0000E+00  0.0000E+00  0.0000E+00
    -22.946  0.0000E+00  0.0000E+00  0.0000E+00  0.0000E+00  0.0000E+00  0.0000E+00  0.0000E+00  0.0000E+00  0.0000E+00
    -22.847  0.0000E+00  0.0000E+00  0.0000E+00  0.0000E+00  0.0000E+00  0.0000E+00  0.0000E+00  0.0000E+00  0.0000E+00
    -22.747  0.0000E+00  0.0000E+00  0.0000E+00  0.0000E+00  0.0000E+00  0.0000E+00  0.0000E+00  0.0000E+00  0.0000E+00
    -22.648  0.3151E-16  0.2399E-18  0.1141E-16  0.1389E-20  0.0000E+00  0.0000E+00  0.0000E+00  0.0000E+00  0.0000E+00
    -22.549  0.1142E-11  0.8733E-14  0.4138E-12  0.6254E-16  0.0000E+00  0.0000E+00  0.0000E+00  0.0000E+00  0.0000E+00
    -22.449  0.6190E-08  0.4754E-10  0.2243E-08  0.4159E-12  0.0000E+00  0.0000E+00  0.0000E+00  0.0000E+00  0.0000E+00
    -22.350  0.5260E-05  0.4069E-07  0.1907E-05  0.4521E-09  0.0000E+00  0.0000E+00  0.0000E+00  0.0000E+00  0.0000E+00
    -22.250  0.7539E-03  0.5910E-05  0.2735E-03  0.8767E-07  0.0000E+00  0.0000E+00  0.0000E+00  0.0000E+00  0.0000E+00
    -22.151  0.2074E-01  0.1663E-03  0.7536E-02  0.3512E-05  0.0000E+00  0.0000E+00  0.0000E+00  0.0000E+00  0.0000E+00
    -22.051  0.1338E+00  0.1104E-02  0.4874E-01  0.3638E-04  0.0000E+00  0.0000E+00  0.0000E+00  0.0000E+00  0.0000E+00
    -21.952  0.2648E+00  0.2186E-02  0.9683E-01  0.1315E-03  0.0000E+00  0.0000E+00  0.0000E+00  0.0000E+00  0.0000E+00
    -21.853  0.2438E+00  0.1807E-02  0.8966E-01  0.2372E-03  0.0000E+00  0.0000E+00  0.0000E+00  0.0000E+00  0.0000E+00
    -21.753  0.1932E+00  0.1114E-02  0.7166E-01  0.3029E-03  0.0000E+00  0.0000E+00  0.0000E+00  0.0000E+00  0.0000E+00
    -21.654  0.1762E+00  0.7405E-03  0.6591E-01  0.3367E-03  0.0000E+00  0.0000E+00  0.0000E+00  0.0000E+00  0.0000E+00
    -21.554  0.1774E+00  0.5084E-03  0.6689E-01  0.3476E-03  0.0000E+00  0.0000E+00  0.0000E+00  0.0000E+00  0.0000E+00
    -21.455  0.1958E+00  0.3389E-03  0.7442E-01  0.3354E-03  0.0000E+00  0.0000E+00  0.0000E+00  0.0000E+00  0.0000E+00
    -21.356  0.2475E+00  0.2167E-03  0.9480E-01  0.2904E-03  0.0000E+00  0.0000E+00  0.0000E+00  0.0000E+00  0.0000E+00
    -21.256  0.2974E+00  0.1426E-03  0.1146E+00  0.1970E-03  0.0000E+00  0.0000E+00  0.0000E+00  0.0000E+00  0.0000E+00
    -21.157  0.2132E+00  0.8209E-04  0.8263E-01  0.8226E-04  0.0000E+00  0.0000E+00  0.0000E+00  0.0000E+00  0.0000E+00
    -21.057  0.6477E-01  0.2303E-04  0.2520E-01  0.1551E-04  0.0000E+00  0.0000E+00  0.0000E+00  0.0000E+00  0.0000E+00
    -20.958  0.5878E-02  0.1934E-05  0.2292E-02  0.9287E-06  0.0000E+00  0.0000E+00  0.0000E+00  0.0000E+00  0.0000E+00
    -20.859  0.1168E-03  0.3601E-07  0.4559E-04  0.1309E-07  0.0000E+00  0.0000E+00  0.0000E+00  0.0000E+00  0.0000E+00
    -20.759  0.4192E-06  0.1233E-09  0.1637E-06  0.3558E-10  0.0000E+00  0.0000E+00  0.0000E+00  0.0000E+00  0.0000E+00
    -20.660  0.2447E-09  0.6964E-13  0.9562E-10  0.1654E-13  0.0000E+00  0.0000E+00  0.0000E+00  0.0000E+00  0.0000E+00
    -20.560  0.2195E-13  0.6099E-17  0.8579E-14  0.1225E-17  0.0000E+00  0.0000E+00  0.0000E+00  0.0000E+00  0.0000E+00
    -20.461  0.0000E+00  0.0000E+00  0.0000E+00  0.0000E+00  0.0000E+00  0.0000E+00  0.0000E+00  0.0000E+00  0.0000E+00
    -20.362  0.0000E+00  0.0000E+00  0.0000E+00  0.0000E+00  0.0000E+00  0.0000E+00  0.0000E+00  0.0000E+00  0.0000E+00
    -20.262  0.0000E+00  0.0000E+00  0.0000E+00  0.0000E+00  0.0000E+00  0.0000E+00  0.0000E+00  0.0000E+00  0.0000E+00
    -20.163  0.0000E+00  0.0000E+00  0.0000E+00  0.0000E+00  0.0000E+00  0.0000E+00  0.0000E+00  0.0000E+00  0.0000E+00
    -20.063  0.0000E+00  0.0000E+00  0.0000E+00  0.0000E+00  0.0000E+00  0.0000E+00  0.0000E+00  0.0000E+00  0.0000E+00
    -19.964  0.0000E+00  0.0000E+00  0.0000E+00  0.0000E+00  0.0000E+00  0.0000E+00  0.0000E+00  0.0000E+00  0.0000E+00
    -19.864  0.0000E+00  0.0000E+00  0.0000E+00  0.0000E+00  0.0000E+00  0.0000E+00  0.0000E+00  0.0000E+00  0.0000E+00
    -19.765  0.0000E+00  0.0000E+00  0.0000E+00  0.0000E+00  0.0000E+00  0.0000E+00  0.0000E+00  0.0000E+00  0.0000E+00
    -19.666  0.0000E+00  0.0000E+00  0.0000E+00  0.0000E+00  0.0000E+00  0.0000E+00  0.0000E+00  0.0000E+00  0.0000E+00
    -19.566  0.0000E+00  0.0000E+00  0.0000E+00  0.0000E+00  0.0000E+00  0.0000E+00  0.0000E+00  0.0000E+00  0.0000E+00
    -19.467  0.0000E+00  0.0000E+00  0.0000E+00  0.0000E+00  0.0000E+00  0.0000E+00  0.0000E+00  0.0000E+00  0.0000E+00
    -19.367  0.0000E+00  0.0000E+00  0.0000E+00  0.0000E+00  0.0000E+00  0.0000E+00  0.0000E+00  0.0000E+00  0.0000E+00
    -19.268  0.0000E+00  0.0000E+00  0.0000E+00  0.0000E+00  0.0000E+00  0.0000E+00  0.0000E+00  0.0000E+00  0.0000E+00
    -19.169  0.0000E+00  0.0000E+00  0.0000E+00  0.0000E+00  0.0000E+00  0.0000E+00  0.0000E+00  0.0000E+00  0.0000E+00
    -19.069  0.0000E+00  0.0000E+00  0.0000E+00  0.0000E+00  0.0000E+00  0.0000E+00  0.0000E+00  0.0000E+00  0.0000E+00
    -18.970  0.0000E+00  0.0000E+00  0.0000E+00  0.0000E+00  0.0000E+00  0.0000E+00  0.0000E+00  0.0000E+00  0.0000E+00
    -18.870  0.0000E+00  0.0000E+00  0.0000E+00  0.0000E+00  0.0000E+00  0.0000E+00  0.0000E+00  0.0000E+00  0.0000E+00
    -18.771  0.0000E+00  0.0000E+00  0.0000E+00  0.0000E+00  0.0000E+00  0.0000E+00  0.0000E+00  0.0000E+00  0.0000E+00
    -18.672  0.0000E+00  0.0000E+00  0.0000E+00  0.0000E+00  0.0000E+00  0.0000E+00  0.0000E+00  0.0000E+00  0.0000E+00
    -18.572  0.0000E+00  0.0000E+00  0.0000E+00  0.0000E+00  0.0000E+00  0.0000E+00  0.0000E+00  0.0000E+00  0.0000E+00
    -18.473  0.0000E+00  0.0000E+00  0.0000E+00  0.0000E+00  0.0000E+00  0.0000E+00  0.0000E+00  0.0000E+00  0.0000E+00
    -18.373  0.0000E+00  0.0000E+00  0.0000E+00  0.0000E+00  0.0000E+00  0.0000E+00  0.0000E+00  0.0000E+00  0.0000E+00
    -18.274  0.0000E+00  0.0000E+00  0.0000E+00  0.0000E+00  0.0000E+00  0.0000E+00  0.0000E+00  0.0000E+00  0.0000E+00
    -18.175  0.0000E+00  0.0000E+00  0.0000E+00  0.0000E+00  0.0000E+00  0.0000E+00  0.0000E+00  0.0000E+00  0.0000E+00
    -18.075  0.0000E+00  0.0000E+00  0.0000E+00  0.0000E+00  0.0000E+00  0.0000E+00  0.0000E+00  0.0000E+00  0.0000E+00
    -17.976  0.0000E+00  0.0000E+00  0.0000E+00  0.0000E+00  0.0000E+00  0.0000E+00  0.0000E+00  0.0000E+00  0.0000E+00
    -17.876  0.8028E-19  0.1976E-18  0.3882E-19  0.2171E-18  0.0000E+00  0.0000E+00  0.0000E+00  0.0000E+00  0.0000E+00
    -17.777  0.5932E-14  0.1473E-13  0.2869E-14  0.1648E-13  0.0000E+00  0.0000E+00  0.0000E+00  0.0000E+00  0.0000E+00
    -17.677  0.5119E-10  0.1268E-09  0.2478E-10  0.1420E-09  0.0000E+00  0.0000E+00  0.0000E+00  0.0000E+00  0.0000E+00
    -17.578  0.6823E-07  0.1683E-06  0.3306E-07  0.1886E-06  0.0000E+00  0.0000E+00  0.0000E+00  0.0000E+00  0.0000E+00
    -17.479  0.1492E-04  0.3655E-04  0.7243E-05  0.4106E-04  0.0000E+00  0.0000E+00  0.0000E+00  0.0000E+00  0.0000E+00
    -17.379  0.5969E-03  0.1445E-02  0.2908E-03  0.1630E-02  0.0000E+00  0.0000E+00  0.0000E+00  0.0000E+00  0.0000E+00
    -17.280  0.5319E-02  0.1256E-01  0.2609E-02  0.1432E-01  0.0000E+00  0.0000E+00  0.0000E+00  0.0000E+00  0.0000E+00
    -17.180  0.1501E-01  0.3361E-01  0.7472E-02  0.3989E-01  0.0000E+00  0.0000E+00  0.0000E+00  0.0000E+00  0.0000E+00
    -17.081  0.2357E-01  0.4759E-01  0.1203E-01  0.6517E-01  0.0000E+00  0.0000E+00  0.0000E+00  0.0000E+00  0.0000E+00
    -16.982  0.3416E-01  0.6183E-01  0.1789E-01  0.8485E-01  0.0000E+00  0.0000E+00  0.0000E+00  0.0000E+00  0.0000E+00
    -16.882  0.4795E-01  0.8511E-01  0.2552E-01  0.6013E-01  0.0000E+00  0.0000E+00  0.0000E+00  0.0000E+00  0.0000E+00
    -16.783  0.4508E-01  0.7829E-01  0.2434E-01  0.2421E-01  0.0000E+00  0.0000E+00  0.0000E+00  0.0000E+00  0.0000E+00
    -16.683  0.2793E-01  0.4581E-01  0.1538E-01  0.7388E-02  0.0000E+00  0.0000E+00  0.0000E+00  0.0000E+00  0.0000E+00
    -16.584  0.1147E-01  0.1798E-01  0.6412E-02  0.1332E-02  0.0000E+00  0.0000E+00  0.0000E+00  0.0000E+00  0.0000E+00
    -16.485  0.1974E-02  0.3023E-02  0.1111E-02  0.1011E-03  0.0000E+00  0.0000E+00  0.0000E+00  0.0000E+00  0.0000E+00
    -16.385  0.8955E-04  0.1356E-03  0.5056E-04  0.2413E-05  0.0000E+00  0.0000E+00  0.0000E+00  0.0000E+00  0.0000E+00
    -16.286  0.8117E-06  0.1222E-05  0.4590E-06  0.1367E-07  0.0000E+00  0.0000E+00  0.0000E+00  0.0000E+00  0.0000E+00
    -16.186  0.1264E-08  0.1896E-08  0.7152E-09  0.1502E-10  0.0000E+00  0.0000E+00  0.0000E+00  0.0000E+00  0.0000E+00
    -16.087  0.3112E-12  0.4661E-12  0.1762E-12  0.2840E-14  0.0000E+00  0.0000E+00  0.0000E+00  0.0000E+00  0.0000E+00
    -15.988  0.1157E-16  0.1730E-16  0.6553E-17  0.8310E-19  0.0000E+00  0.0000E+00  0.0000E+00  0.0000E+00  0.0000E+00
    -15.888  0.7073E-17  0.4098E-15  0.1035E-16  0.2157E-17  0.0000E+00  0.0000E+00  0.0000E+00  0.0000E+00  0.0000E+00
    -15.789  0.1057E-12  0.6103E-11  0.1543E-12  0.3231E-13  0.0000E+00  0.0000E+00  0.0000E+00  0.0000E+00  0.0000E+00
    -15.689  0.2340E-09  0.1337E-07  0.3397E-09  0.7212E-10  0.0000E+00  0.0000E+00  0.0000E+00  0.0000E+00  0.0000E+00
    -15.590  0.8100E-07  0.4510E-05  0.1160E-06  0.2621E-07  0.0000E+00  0.0000E+00  0.0000E+00  0.0000E+00  0.0000E+00
    -15.491  0.4910E-05  0.2587E-03  0.6841E-05  0.1917E-05  0.0000E+00  0.0000E+00  0.0000E+00  0.0000E+00  0.0000E+00
    -15.391  0.6421E-04  0.3059E-02  0.8533E-04  0.3808E-04  0.0000E+00  0.0000E+00  0.0000E+00  0.0000E+00  0.0000E+00
    -15.292  0.2524E-03  0.1021E-01  0.3126E-03  0.2474E-03  0.0000E+00  0.0000E+00  0.0000E+00  0.0000E+00  0.0000E+00
    -15.192  0.4726E-03  0.1542E-01  0.5396E-03  0.7862E-03  0.0000E+00  0.0000E+00  0.0000E+00  0.0000E+00  0.0000E+00
    -15.093  0.6744E-03  0.1887E-01  0.7343E-03  0.1911E-02  0.0000E+00  0.0000E+00  0.0000E+00  0.0000E+00  0.0000E+00
    -14.993  0.8525E-03  0.2227E-01  0.9139E-03  0.4290E-02  0.0000E+00  0.0000E+00  0.0000E+00  0.0000E+00  0.0000E+00
    -14.894  0.1147E-02  0.3071E-01  0.1260E-02  0.1216E-01  0.0000E+00  0.0000E+00  0.0000E+00  0.0000E+00  0.0000E+00
    -14.795  0.1704E-02  0.4764E-01  0.1953E-02  0.3771E-01  0.0000E+00  0.0000E+00  0.0000E+00  0.0000E+00  0.0000E+00
    -14.695  0.2244E-02  0.6320E-01  0.2588E-02  0.6183E-01  0.0000E+00  0.0000E+00  0.0000E+00  0.0000E+00  0.0000E+00
    -14.596  0.1972E-02  0.5550E-01  0.2151E-02  0.5111E-01  0.0000E+00  0.0000E+00  0.0000E+00  0.0000E+00  0.0000E+00
    -14.496  0.1657E-02  0.5163E-01  0.1702E-02  0.4494E-01  0.0000E+00  0.0000E+00  0.0000E+00  0.0000E+00  0.0000E+00
    -14.397  0.1458E-02  0.4576E-01  0.1433E-02  0.5902E-01  0.0000E+00  0.0000E+00  0.0000E+00  0.0000E+00  0.0000E+00
    -14.298  0.1422E-02  0.3117E-01  0.1385E-02  0.7269E-01  0.0000E+00  0.0000E+00  0.0000E+00  0.0000E+00  0.0000E+00
    -14.198  0.1525E-02  0.2738E-01  0.1473E-02  0.7861E-01  0.0000E+00  0.0000E+00  0.0000E+00  0.0000E+00  0.0000E+00
    -14.099  0.1555E-02  0.3105E-01  0.1463E-02  0.9013E-01  0.0000E+00  0.0000E+00  0.0000E+00  0.0000E+00  0.0000E+00
    -13.999  0.1452E-02  0.3850E-01  0.1333E-02  0.1077E+00  0.0000E+00  0.0000E+00  0.0000E+00  0.0000E+00  0.0000E+00
    -13.900  0.1059E-02  0.3851E-01  0.9325E-03  0.9539E-01  0.0000E+00  0.0000E+00  0.0000E+00  0.0000E+00  0.0000E+00
    -13.801  0.6142E-03  0.3305E-01  0.5024E-03  0.6271E-01  0.0000E+00  0.0000E+00  0.0000E+00  0.0000E+00  0.0000E+00
    -13.701  0.2668E-03  0.2198E-01  0.1922E-03  0.3442E-01  0.0000E+00  0.0000E+00  0.0000E+00  0.0000E+00  0.0000E+00
    -13.602  0.5948E-04  0.6628E-02  0.3689E-04  0.9849E-02  0.0000E+00  0.0000E+00  0.0000E+00  0.0000E+00  0.0000E+00
    -13.502  0.4030E-05  0.5505E-03  0.2150E-05  0.8081E-03  0.0000E+00  0.0000E+00  0.0000E+00  0.0000E+00  0.0000E+00
    -13.403  0.5981E-07  0.9671E-05  0.2672E-07  0.1411E-04  0.0000E+00  0.0000E+00  0.0000E+00  0.0000E+00  0.0000E+00
    -13.304  0.1683E-09  0.3085E-07  0.6262E-10  0.4487E-07  0.0000E+00  0.0000E+00  0.0000E+00  0.0000E+00  0.0000E+00
    -13.204  0.2178E-12  0.1615E-10  0.1993E-12  0.2397E-10  0.0000E+00  0.0000E+00  0.0000E+00  0.0000E+00  0.0000E+00
    -13.105  0.5410E-09  0.1163E-09  0.6875E-09  0.2306E-08  0.0000E+00  0.0000E+00  0.0000E+00  0.0000E+00  0.0000E+00
    -13.005  0.3416E-06  0.7985E-07  0.4343E-06  0.1524E-05  0.0000E+00  0.0000E+00  0.0000E+00  0.0000E+00  0.0000E+00
    -12.906  0.3694E-04  0.9533E-05  0.4694E-04  0.1717E-03  0.0000E+00  0.0000E+00  0.0000E+00  0.0000E+00  0.0000E+00
    -12.806  0.7976E-03  0.2242E-03  0.9840E-03  0.3631E-02  0.0000E+00  0.0000E+00  0.0000E+00  0.0000E+00  0.0000E+00
    -12.707  0.5954E-02  0.1386E-02  0.5149E-02  0.1725E-01  0.0000E+00  0.0000E+00  0.0000E+00  0.0000E+00  0.0000E+00
    -12.608  0.3752E-01  0.3727E-02  0.1031E-01  0.2678E-01  0.0000E+00  0.0000E+00  0.0000E+00  0.0000E+00  0.0000E+00
    -12.508  0.1274E+00  0.6643E-02  0.1152E-01  0.2467E-01  0.0000E+00  0.0000E+00  0.0000E+00  0.0000E+00  0.0000E+00
    -12.409  0.2076E+00  0.9206E-02  0.9475E-02  0.2155E-01  0.0000E+00  0.0000E+00  0.0000E+00  0.0000E+00  0.0000E+00
    -12.309  0.2445E+00  0.1099E-01  0.8181E-02  0.2043E-01  0.0000E+00  0.0000E+00  0.0000E+00  0.0000E+00  0.0000E+00
    -12.210  0.2221E+00  0.1084E-01  0.7423E-02  0.2060E-01  0.0000E+00  0.0000E+00  0.0000E+00  0.0000E+00  0.0000E+00
    -12.111  0.1794E+00  0.9834E-02  0.6942E-02  0.2077E-01  0.0000E+00  0.0000E+00  0.0000E+00  0.0000E+00  0.0000E+00
    -12.011  0.1577E+00  0.9268E-02  0.6898E-02  0.2163E-01  0.0000E+00  0.0000E+00  0.0000E+00  0.0000E+00  0.0000E+00
    -11.912  0.1476E+00  0.8877E-02  0.6505E-02  0.2220E-01  0.0000E+00  0.0000E+00  0.0000E+00  0.0000E+00  0.0000E+00
    -11.812  0.1434E+00  0.8745E-02  0.6346E-02  0.2241E-01  0.0000E+00  0.0000E+00  0.0000E+00  0.0000E+00  0.0000E+00
    -11.713  0.1440E+00  0.8508E-02  0.6642E-02  0.2269E-01  0.0000E+00  0.0000E+00  0.0000E+00  0.0000E+00  0.0000E+00
    -11.614  0.1481E+00  0.8623E-02  0.6152E-02  0.1627E-01  0.0000E+00  0.0000E+00  0.0000E+00  0.0000E+00  0.0000E+00
    -11.514  0.1602E+00  0.9695E-02  0.6587E-02  0.1124E-01  0.0000E+00  0.0000E+00  0.0000E+00  0.0000E+00  0.0000E+00
    -11.415  0.1898E+00  0.1222E-01  0.6710E-02  0.1131E-01  0.0000E+00  0.0000E+00  0.0000E+00  0.0000E+00  0.0000E+00
    -11.315  0.2473E+00  0.1799E-01  0.6943E-02  0.1136E-01  0.0000E+00  0.0000E+00  0.0000E+00  0.0000E+00  0.0000E+00
    -11.216  0.2610E+00  0.2074E-01  0.7284E-02  0.1151E-01  0.0000E+00  0.0000E+00  0.0000E+00  0.0000E+00  0.0000E+00
    -11.117  0.2054E+00  0.2180E-01  0.7888E-02  0.1336E-01  0.0000E+00  0.0000E+00  0.0000E+00  0.0000E+00  0.0000E+00
    -11.017  0.1635E+00  0.2690E-01  0.9316E-02  0.1450E-01  0.0000E+00  0.0000E+00  0.0000E+00  0.0000E+00  0.0000E+00
    -10.918  0.1391E+00  0.2877E-01  0.9246E-02  0.1379E-01  0.0000E+00  0.0000E+00  0.0000E+00  0.0000E+00  0.0000E+00
    -10.818  0.1188E+00  0.2508E-01  0.7805E-02  0.1363E-01  0.0000E+00  0.0000E+00  0.0000E+00  0.0000E+00  0.0000E+00
    -10.719  0.8178E-01  0.2443E-01  0.5759E-02  0.1202E-01  0.0000E+00  0.0000E+00  0.0000E+00  0.0000E+00  0.0000E+00
    -10.619  0.2848E-01  0.3082E-01  0.5876E-02  0.1572E-01  0.0000E+00  0.0000E+00  0.0000E+00  0.0000E+00  0.0000E+00
    -10.520  0.6317E-02  0.3768E-01  0.7720E-02  0.2229E-01  0.0000E+00  0.0000E+00  0.0000E+00  0.0000E+00  0.0000E+00
    -10.421  0.3189E-02  0.2563E-01  0.6247E-02  0.2043E-01  0.0000E+00  0.0000E+00  0.0000E+00  0.0000E+00  0.0000E+00
    -10.321  0.1902E-02  0.1156E-01  0.3799E-02  0.1547E-01  0.0000E+00  0.0000E+00  0.0000E+00  0.0000E+00  0.0000E+00
    -10.222  0.1593E-02  0.7705E-02  0.3268E-02  0.1401E-01  0.0000E+00  0.0000E+00  0.0000E+00  0.0000E+00  0.0000E+00
    -10.122  0.1371E-02  0.5886E-02  0.2880E-02  0.1234E-01  0.0000E+00  0.0000E+00  0.0000E+00  0.0000E+00  0.0000E+00
    -10.023  0.1397E-02  0.7673E-02  0.2906E-02  0.1517E-01  0.0000E+00  0.0000E+00  0.0000E+00  0.0000E+00  0.0000E+00
     -9.924  0.1142E-02  0.9416E-02  0.2377E-02  0.1405E-01  0.0000E+00  0.0000E+00  0.0000E+00  0.0000E+00  0.0000E+00
     -9.824  0.8356E-03  0.1180E-01  0.1850E-02  0.1133E-01  0.0000E+00  0.0000E+00  0.0000E+00  0.0000E+00  0.0000E+00
     -9.725  0.7930E-03  0.1523E-01  0.2124E-02  0.1143E-01  0.0000E+00  0.0000E+00  0.0000E+00  0.0000E+00  0.0000E+00
     -9.625  0.1235E-02  0.2468E-01  0.4141E-02  0.1680E-01  0.0000E+00  0.0000E+00  0.0000E+00  0.0000E+00  0.0000E+00
     -9.526  0.1677E-02  0.3255E-01  0.6113E-02  0.2331E-01  0.0000E+00  0.0000E+00  0.0000E+00  0.0000E+00  0.0000E+00
     -9.427  0.1379E-02  0.2680E-01  0.5127E-02  0.2087E-01  0.0000E+00  0.0000E+00  0.0000E+00  0.0000E+00  0.0000E+00
     -9.327  0.1041E-02  0.1942E-01  0.4000E-02  0.1586E-01  0.0000E+00  0.0000E+00  0.0000E+00  0.0000E+00  0.0000E+00
     -9.228  0.7579E-03  0.1334E-01  0.3107E-02  0.1040E-01  0.0000E+00  0.0000E+00  0.0000E+00  0.0000E+00  0.0000E+00
     -9.128  0.5660E-03  0.1023E-01  0.2428E-02  0.7967E-02  0.0000E+00  0.0000E+00  0.0000E+00  0.0000E+00  0.0000E+00
     -9.029  0.5474E-03  0.1060E-01  0.2569E-02  0.7281E-02  0.0000E+00  0.0000E+00  0.0000E+00  0.0000E+00  0.0000E+00
     -8.930  0.7638E-03  0.1488E-01  0.4083E-02  0.9125E-02  0.0000E+00  0.0000E+00  0.0000E+00  0.0000E+00  0.0000E+00
     -8.830  0.1152E-02  0.2210E-01  0.6104E-02  0.1357E-01  0.0000E+00  0.0000E+00  0.0000E+00  0.0000E+00  0.0000E+00
     -8.731  0.3042E-02  0.4083E-01  0.7237E-02  0.3232E-01  0.0000E+00  0.0000E+00  0.0000E+00  0.0000E+00  0.0000E+00
     -8.631  0.7860E-02  0.8317E-01  0.8687E-02  0.7521E-01  0.0000E+00  0.0000E+00  0.0000E+00  0.0000E+00  0.0000E+00
     -8.532  0.1194E-01  0.1123E+00  0.9446E-02  0.1051E+00  0.0000E+00  0.0000E+00  0.0000E+00  0.0000E+00  0.0000E+00
     -8.432  0.1489E-01  0.1250E+00  0.8235E-02  0.1242E+00  0.0000E+00  0.0000E+00  0.0000E+00  0.0000E+00  0.0000E+00
     -8.333  0.1837E-01  0.1381E+00  0.6309E-02  0.1505E+00  0.0000E+00  0.0000E+00  0.0000E+00  0.0000E+00  0.0000E+00
     -8.234  0.2144E-01  0.1457E+00  0.5196E-02  0.1572E+00  0.0000E+00  0.0000E+00  0.0000E+00  0.0000E+00  0.0000E+00
     -8.134  0.2344E-01  0.1403E+00  0.4325E-02  0.1380E+00  0.0000E+00  0.0000E+00  0.0000E+00  0.0000E+00  0.0000E+00
     -8.035  0.2718E-01  0.1486E+00  0.3373E-02  0.1307E+00  0.0000E+00  0.0000E+00  0.0000E+00  0.0000E+00  0.0000E+00
     -7.935  0.3324E-01  0.1552E+00  0.2612E-02  0.1244E+00  0.0000E+00  0.0000E+00  0.0000E+00  0.0000E+00  0.0000E+00
     -7.836  0.3247E-01  0.1236E+00  0.1689E-02  0.9731E-01  0.0000E+00  0.0000E+00  0.0000E+00  0.0000E+00  0.0000E+00
     -7.737  0.2482E-01  0.8643E-01  0.1106E-02  0.6699E-01  0.0000E+00  0.0000E+00  0.0000E+00  0.0000E+00  0.0000E+00
     -7.637  0.1827E-01  0.6411E-01  0.8657E-03  0.4482E-01  0.0000E+00  0.0000E+00  0.0000E+00  0.0000E+00  0.0000E+00
     -7.538  0.1333E-01  0.4975E-01  0.9929E-03  0.2938E-01  0.0000E+00  0.0000E+00  0.0000E+00  0.0000E+00  0.0000E+00
     -7.438  0.8573E-02  0.3188E-01  0.1103E-02  0.1825E-01  0.0000E+00  0.0000E+00  0.0000E+00  0.0000E+00  0.0000E+00
     -7.339  0.5439E-02  0.2036E-01  0.7912E-03  0.1110E-01  0.0000E+00  0.0000E+00  0.0000E+00  0.0000E+00  0.0000E+00
     -7.240  0.2942E-02  0.1466E-01  0.8594E-03  0.6725E-02  0.0000E+00  0.0000E+00  0.0000E+00  0.0000E+00  0.0000E+00
     -7.140  0.1131E-02  0.8403E-02  0.1089E-02  0.5649E-02  0.0000E+00  0.0000E+00  0.0000E+00  0.0000E+00  0.0000E+00
     -7.041  0.1353E-02  0.1242E-01  0.1292E-02  0.1493E-01  0.0000E+00  0.0000E+00  0.0000E+00  0.0000E+00  0.0000E+00
     -6.941  0.5336E-02  0.4502E-01  0.1306E-02  0.5495E-01  0.0000E+00  0.0000E+00  0.0000E+00  0.0000E+00  0.0000E+00
     -6.842  0.1068E-01  0.8719E-01  0.1335E-02  0.1142E+00  0.0000E+00  0.0000E+00  0.0000E+00  0.0000E+00  0.0000E+00
     -6.743  0.1429E-01  0.1156E+00  0.1713E-02  0.1541E+00  0.0000E+00  0.0000E+00  0.0000E+00  0.0000E+00  0.0000E+00
     -6.643  0.1312E-01  0.1121E+00  0.2145E-02  0.1440E+00  0.0000E+00  0.0000E+00  0.0000E+00  0.0000E+00  0.0000E+00
     -6.544  0.1105E-01  0.1051E+00  0.1770E-02  0.1299E+00  0.0000E+00  0.0000E+00  0.0000E+00  0.0000E+00  0.0000E+00
     -6.444  0.9606E-02  0.1082E+00  0.1387E-02  0.1300E+00  0.0000E+00  0.0000E+00  0.0000E+00  0.0000E+00  0.0000E+00
     -6.345  0.8475E-02  0.1249E+00  0.1355E-02  0.1395E+00  0.0000E+00  0.0000E+00  0.0000E+00  0.0000E+00  0.0000E+00
     -6.245  0.7098E-02  0.1662E+00  0.1993E-02  0.1416E+00  0.0000E+00  0.0000E+00  0.0000E+00  0.0000E+00  0.0000E+00
     -6.146  0.5512E-02  0.1963E+00  0.2321E-02  0.1404E+00  0.0000E+00  0.0000E+00  0.0000E+00  0.0000E+00  0.0000E+00
     -6.047  0.3729E-02  0.1615E+00  0.1866E-02  0.1342E+00  0.0000E+00  0.0000E+00  0.0000E+00  0.0000E+00  0.0000E+00
     -5.947  0.2195E-02  0.1300E+00  0.1716E-02  0.1205E+00  0.0000E+00  0.0000E+00  0.0000E+00  0.0000E+00  0.0000E+00
     -5.848  0.9521E-03  0.9298E-01  0.1459E-02  0.8847E-01  0.0000E+00  0.0000E+00  0.0000E+00  0.0000E+00  0.0000E+00
     -5.748  0.3448E-03  0.3461E-01  0.3029E-02  0.3362E-01  0.0000E+00  0.0000E+00  0.0000E+00  0.0000E+00  0.0000E+00
     -5.649  0.2611E-03  0.6944E-02  0.3658E-02  0.6405E-02  0.0000E+00  0.0000E+00  0.0000E+00  0.0000E+00  0.0000E+00
     -5.550  0.1511E-03  0.2999E-02  0.1904E-02  0.1385E-02  0.0000E+00  0.0000E+00  0.0000E+00  0.0000E+00  0.0000E+00
     -5.450  0.1618E-03  0.2835E-02  0.1390E-02  0.6189E-03  0.0000E+00  0.0000E+00  0.0000E+00  0.0000E+00  0.0000E+00
     -5.351  0.5548E-03  0.4367E-02  0.3875E-02  0.2301E-02  0.0000E+00  0.0000E+00  0.0000E+00  0.0000E+00  0.0000E+00
     -5.251  0.1013E-02  0.6099E-02  0.6392E-02  0.4002E-02  0.0000E+00  0.0000E+00  0.0000E+00  0.0000E+00  0.0000E+00
     -5.152  0.8974E-03  0.6034E-02  0.3880E-02  0.1776E-02  0.0000E+00  0.0000E+00  0.0000E+00  0.0000E+00  0.0000E+00
     -5.053  0.1744E-02  0.4676E-02  0.4157E-02  0.6860E-03  0.0000E+00  0.0000E+00  0.0000E+00  0.0000E+00  0.0000E+00
     -4.953  0.7441E-02  0.5047E-02  0.1534E-01  0.1597E-02  0.0000E+00  0.0000E+00  0.0000E+00  0.0000E+00  0.0000E+00
     -4.854  0.4700E-01  0.5741E-02  0.8862E-01  0.3207E-02  0.0000E+00  0.0000E+00  0.0000E+00  0.0000E+00  0.0000E+00
     -4.754  0.1445E+00  0.6190E-02  0.2667E+00  0.2211E-02  0.0000E+00  0.0000E+00  0.0000E+00  0.0000E+00  0.0000E+00
     -4.655  0.1922E+00  0.4394E-02  0.3588E+00  0.9613E-03  0.0000E+00  0.0000E+00  0.0000E+00  0.0000E+00  0.0000E+00
     -4.556  0.1803E+00  0.3584E-02  0.3457E+00  0.1720E-02  0.0000E+00  0.0000E+00  0.0000E+00  0.0000E+00  0.0000E+00
     -4.456  0.1923E+00  0.3503E-02  0.3883E+00  0.3086E-02  0.0000E+00  0.0000E+00  0.0000E+00  0.0000E+00  0.0000E+00
     -4.357  0.2406E+00  0.3652E-02  0.5104E+00  0.2722E-02  0.0000E+00  0.0000E+00  0.0000E+00  0.0000E+00  0.0000E+00
     -4.257  0.1982E+00  0.3883E-02  0.4111E+00  0.1761E-02  0.0000E+00  0.0000E+00  0.0000E+00  0.0000E+00  0.0000E+00
     -4.158  0.8750E-01  0.3044E-02  0.1643E+00  0.1206E-02  0.0000E+00  0.0000E+00  0.0000E+00  0.0000E+00  0.0000E+00
     -4.058  0.2671E-01  0.1922E-02  0.4234E-01  0.1287E-02  0.0000E+00  0.0000E+00  0.0000E+00  0.0000E+00  0.0000E+00
     -3.959  0.1063E-01  0.1427E-02  0.1380E-01  0.1381E-02  0.0000E+00  0.0000E+00  0.0000E+00  0.0000E+00  0.0000E+00
     -3.860  0.4509E-02  0.1695E-02  0.4957E-02  0.8933E-03  0.0000E+00  0.0000E+00  0.0000E+00  0.0000E+00  0.0000E+00
     -3.760  0.2467E-02  0.1599E-02  0.2065E-02  0.9854E-03  0.0000E+00  0.0000E+00  0.0000E+00  0.0000E+00  0.0000E+00
     -3.661  0.2635E-02  0.1429E-02  0.1931E-02  0.1549E-02  0.0000E+00  0.0000E+00  0.0000E+00  0.0000E+00  0.0000E+00
     -3.561  0.1523E-02  0.1125E-02  0.1024E-02  0.9187E-03  0.0000E+00  0.0000E+00  0.0000E+00  0.0000E+00  0.0000E+00
     -3.462  0.7785E-03  0.1188E-02  0.3946E-03  0.4296E-03  0.0000E+00  0.0000E+00  0.0000E+00  0.0000E+00  0.0000E+00
     -3.363  0.7049E-03  0.9710E-03  0.2821E-03  0.6065E-03  0.0000E+00  0.0000E+00  0.0000E+00  0.0000E+00  0.0000E+00
     -3.263  0.8675E-03  0.1171E-02  0.2926E-03  0.8673E-03  0.0000E+00  0.0000E+00  0.0000E+00  0.0000E+00  0.0000E+00
     -3.164  0.5257E-03  0.8359E-03  0.1615E-03  0.4472E-03  0.0000E+00  0.0000E+00  0.0000E+00  0.0000E+00  0.0000E+00
     -3.064  0.3240E-03  0.6630E-03  0.6607E-04  0.1456E-03  0.0000E+00  0.0000E+00  0.0000E+00  0.0000E+00  0.0000E+00
     -2.965  0.3325E-03  0.6806E-03  0.5256E-04  0.1367E-03  0.0000E+00  0.0000E+00  0.0000E+00  0.0000E+00  0.0000E+00
     -2.866  0.1318E-03  0.2618E-03  0.1860E-04  0.5810E-04  0.0000E+00  0.0000E+00  0.0000E+00  0.0000E+00  0.0000E+00
     -2.766  0.1250E-04  0.2456E-04  0.1696E-05  0.5634E-05  0.0000E+00  0.0000E+00  0.0000E+00  0.0000E+00  0.0000E+00
     -2.667  0.2140E-06  0.4196E-06  0.2879E-07  0.9693E-07  0.0000E+00  0.0000E+00  0.0000E+00  0.0000E+00  0.0000E+00
     -2.567  0.5797E-09  0.1136E-08  0.7787E-10  0.2628E-09  0.0000E+00  0.0000E+00  0.0000E+00  0.0000E+00  0.0000E+00
     -2.468  0.2346E-12  0.4598E-12  0.3150E-13  0.1064E-12  0.0000E+00  0.0000E+00  0.0000E+00  0.0000E+00  0.0000E+00
     -2.369  0.1380E-16  0.2706E-16  0.1854E-17  0.6260E-17  0.0000E+00  0.0000E+00  0.0000E+00  0.0000E+00  0.0000E+00
     -2.269  0.0000E+00  0.0000E+00  0.0000E+00  0.0000E+00  0.0000E+00  0.0000E+00  0.0000E+00  0.0000E+00  0.0000E+00
     -2.170  0.0000E+00  0.0000E+00  0.0000E+00  0.0000E+00  0.0000E+00  0.0000E+00  0.0000E+00  0.0000E+00  0.0000E+00
     -2.070  0.5610E-20  0.1959E-17  0.6886E-19  0.4040E-15  0.0000E+00  0.0000E+00  0.0000E+00  0.0000E+00  0.0000E+00
     -1.971  0.8901E-16  0.3013E-13  0.1063E-14  0.6212E-11  0.0000E+00  0.0000E+00  0.0000E+00  0.0000E+00  0.0000E+00
     -1.871  0.2173E-12  0.6801E-10  0.2423E-11  0.1402E-07  0.0000E+00  0.0000E+00  0.0000E+00  0.0000E+00  0.0000E+00
     -1.772  0.8901E-10  0.2346E-07  0.8557E-09  0.4829E-05  0.0000E+00  0.0000E+00  0.0000E+00  0.0000E+00  0.0000E+00
     -1.673  0.6877E-08  0.1335E-05  0.5123E-07  0.2740E-03  0.0000E+00  0.0000E+00  0.0000E+00  0.0000E+00  0.0000E+00
     -1.573  0.1145E-06  0.1426E-04  0.6009E-06  0.2909E-02  0.0000E+00  0.0000E+00  0.0000E+00  0.0000E+00  0.0000E+00
     -1.474  0.5627E-06  0.3584E-04  0.1785E-05  0.7129E-02  0.0000E+00  0.0000E+00  0.0000E+00  0.0000E+00  0.0000E+00
     -1.374  0.2131E-05  0.5766E-04  0.3636E-05  0.7042E-02  0.0000E+00  0.0000E+00  0.0000E+00  0.0000E+00  0.0000E+00
     -1.275  0.2814E-04  0.2811E-03  0.6494E-04  0.9622E-02  0.0000E+00  0.0000E+00  0.0000E+00  0.0000E+00  0.0000E+00
     -1.176  0.5599E-03  0.1694E-02  0.1679E-02  0.1257E-01  0.0000E+00  0.0000E+00  0.0000E+00  0.0000E+00  0.0000E+00
     -1.076  0.4550E-02  0.6135E-02  0.1608E-01  0.9329E-02  0.0000E+00  0.0000E+00  0.0000E+00  0.0000E+00  0.0000E+00
     -0.977  0.1543E-01  0.1025E-01  0.6175E-01  0.1154E-01  0.0000E+00  0.0000E+00  0.0000E+00  0.0000E+00  0.0000E+00
     -0.877  0.2627E-01  0.1319E-01  0.1115E+00  0.1851E-01  0.0000E+00  0.0000E+00  0.0000E+00  0.0000E+00  0.0000E+00
     -0.778  0.3380E-01  0.1415E-01  0.1455E+00  0.1808E-01  0.0000E+00  0.0000E+00  0.0000E+00  0.0000E+00  0.0000E+00
     -0.679  0.4402E-01  0.1654E-01  0.1896E+00  0.1759E-01  0.0000E+00  0.0000E+00  0.0000E+00  0.0000E+00  0.0000E+00
     -0.579  0.4313E-01  0.1843E-01  0.2034E+00  0.2574E-01  0.0000E+00  0.0000E+00  0.0000E+00  0.0000E+00  0.0000E+00
     -0.480  0.2969E-01  0.1610E-01  0.1527E+00  0.2999E-01  0.0000E+00  0.0000E+00  0.0000E+00  0.0000E+00  0.0000E+00
     -0.380  0.2074E-01  0.1414E-01  0.1086E+00  0.3443E-01  0.0000E+00  0.0000E+00  0.0000E+00  0.0000E+00  0.0000E+00
     -0.281  0.1507E-01  0.1452E-01  0.9217E-01  0.4092E-01  0.0000E+00  0.0000E+00  0.0000E+00  0.0000E+00  0.0000E+00
     -0.182  0.1053E-01  0.1625E-01  0.8199E-01  0.3531E-01  0.0000E+00  0.0000E+00  0.0000E+00  0.0000E+00  0.0000E+00
     -0.082  0.8310E-02  0.1481E-01  0.8719E-01  0.2454E-01  0.0000E+00  0.0000E+00  0.0000E+00  0.0000E+00  0.0000E+00
      0.017  0.9888E-02  0.1620E-01  0.1360E+00  0.2119E-01  0.0000E+00  0.0000E+00  0.0000E+00  0.0000E+00  0.0000E+00
      0.117  0.1077E-01  0.1948E-01  0.1743E+00  0.2214E-01  0.0000E+00  0.0000E+00  0.0000E+00  0.0000E+00  0.0000E+00
      0.216  0.7242E-02  0.1400E-01  0.1451E+00  0.1983E-01  0.0000E+00  0.0000E+00  0.0000E+00  0.0000E+00  0.0000E+00
      0.316  0.7727E-02  0.1267E-01  0.1563E+00  0.1811E-01  0.0000E+00  0.0000E+00  0.0000E+00  0.0000E+00  0.0000E+00
      0.415  0.1043E-01  0.1752E-01  0.1778E+00  0.2062E-01  0.0000E+00  0.0000E+00  0.0000E+00  0.0000E+00  0.0000E+00
      0.514  0.1080E-01  0.2432E-01  0.1606E+00  0.1713E-01  0.0000E+00  0.0000E+00  0.0000E+00  0.0000E+00  0.0000E+00
      0.614  0.1357E-01  0.4007E-01  0.1156E+00  0.1686E-01  0.0000E+00  0.0000E+00  0.0000E+00  0.0000E+00  0.0000E+00
      0.713  0.1979E-01  0.5546E-01  0.6493E-01  0.2232E-01  0.0000E+00  0.0000E+00  0.0000E+00  0.0000E+00  0.0000E+00
      0.813  0.2011E-01  0.5833E-01  0.4318E-01  0.2062E-01  0.0000E+00  0.0000E+00  0.0000E+00  0.0000E+00  0.0000E+00
      0.912  0.1705E-01  0.4969E-01  0.2155E-01  0.1708E-01  0.0000E+00  0.0000E+00  0.0000E+00  0.0000E+00  0.0000E+00
      1.011  0.2486E-01  0.4487E-01  0.9207E-02  0.1665E-01  0.0000E+00  0.0000E+00  0.0000E+00  0.0000E+00  0.0000E+00
      1.111  0.3485E-01  0.4029E-01  0.7770E-02  0.1210E-01  0.0000E+00  0.0000E+00  0.0000E+00  0.0000E+00  0.0000E+00
      1.210  0.3745E-01  0.3697E-01  0.1032E-01  0.8397E-02  0.0000E+00  0.0000E+00  0.0000E+00  0.0000E+00  0.0000E+00
      1.310  0.3998E-01  0.3660E-01  0.1574E-01  0.7724E-02  0.0000E+00  0.0000E+00  0.0000E+00  0.0000E+00  0.0000E+00
      1.409  0.4100E-01  0.3094E-01  0.1953E-01  0.1025E-01  0.0000E+00  0.0000E+00  0.0000E+00  0.0000E+00  0.0000E+00
      1.508  0.4140E-01  0.2828E-01  0.2461E-01  0.1805E-01  0.0000E+00  0.0000E+00  0.0000E+00  0.0000E+00  0.0000E+00
      1.608  0.4182E-01  0.3323E-01  0.3205E-01  0.2864E-01  0.0000E+00  0.0000E+00  0.0000E+00  0.0000E+00  0.0000E+00
      1.707  0.4463E-01  0.4389E-01  0.3578E-01  0.3257E-01  0.0000E+00  0.0000E+00  0.0000E+00  0.0000E+00  0.0000E+00
      1.807  0.4788E-01  0.4908E-01  0.3351E-01  0.3131E-01  0.0000E+00  0.0000E+00  0.0000E+00  0.0000E+00  0.0000E+00
      1.906  0.4861E-01  0.4201E-01  0.2815E-01  0.2960E-01  0.0000E+00  0.0000E+00  0.0000E+00  0.0000E+00  0.0000E+00
      2.005  0.4441E-01  0.3246E-01  0.2305E-01  0.2288E-01  0.0000E+00  0.0000E+00  0.0000E+00  0.0000E+00  0.0000E+00
      2.105  0.3999E-01  0.3195E-01  0.2031E-01  0.2078E-01  0.0000E+00  0.0000E+00  0.0000E+00  0.0000E+00  0.0000E+00
      2.204  0.3637E-01  0.3110E-01  0.2034E-01  0.2199E-01  0.0000E+00  0.0000E+00  0.0000E+00  0.0000E+00  0.0000E+00
      2.304  0.3337E-01  0.2847E-01  0.2139E-01  0.2045E-01  0.0000E+00  0.0000E+00  0.0000E+00  0.0000E+00  0.0000E+00
      2.403  0.3745E-01  0.2631E-01  0.2147E-01  0.1769E-01  0.0000E+00  0.0000E+00  0.0000E+00  0.0000E+00  0.0000E+00
      2.502  0.4786E-01  0.3242E-01  0.2394E-01  0.2022E-01  0.0000E+00  0.0000E+00  0.0000E+00  0.0000E+00  0.0000E+00
      2.602  0.5656E-01  0.4550E-01  0.2886E-01  0.2940E-01  0.0000E+00  0.0000E+00  0.0000E+00  0.0000E+00  0.0000E+00
      2.701  0.5523E-01  0.4672E-01  0.2924E-01  0.4032E-01  0.0000E+00  0.0000E+00  0.0000E+00  0.0000E+00  0.0000E+00
      2.801  0.5182E-01  0.3771E-01  0.2818E-01  0.4597E-01  0.0000E+00  0.0000E+00  0.0000E+00  0.0000E+00  0.0000E+00
      2.900  0.4974E-01  0.3376E-01  0.3187E-01  0.4178E-01  0.0000E+00  0.0000E+00  0.0000E+00  0.0000E+00  0.0000E+00
      3.000  0.4845E-01  0.3123E-01  0.3651E-01  0.3376E-01  0.0000E+00  0.0000E+00  0.0000E+00  0.0000E+00  0.0000E+00
      3.099  0.4827E-01  0.2817E-01  0.3895E-01  0.3030E-01  0.0000E+00  0.0000E+00  0.0000E+00  0.0000E+00  0.0000E+00
      3.198  0.4503E-01  0.2515E-01  0.3404E-01  0.3023E-01  0.0000E+00  0.0000E+00  0.0000E+00  0.0000E+00  0.0000E+00
      3.298  0.3531E-01  0.2113E-01  0.2633E-01  0.2717E-01  0.0000E+00  0.0000E+00  0.0000E+00  0.0000E+00  0.0000E+00
      3.397  0.2984E-01  0.2018E-01  0.2101E-01  0.2964E-01  0.0000E+00  0.0000E+00  0.0000E+00  0.0000E+00  0.0000E+00
      3.497  0.2680E-01  0.1891E-01  0.1919E-01  0.3262E-01  0.0000E+00  0.0000E+00  0.0000E+00  0.0000E+00  0.0000E+00
      3.596  0.2328E-01  0.1659E-01  0.1818E-01  0.2892E-01  0.0000E+00  0.0000E+00  0.0000E+00  0.0000E+00  0.0000E+00
      3.695  0.2152E-01  0.1819E-01  0.1759E-01  0.2600E-01  0.0000E+00  0.0000E+00  0.0000E+00  0.0000E+00  0.0000E+00
      3.795  0.1892E-01  0.1507E-01  0.1458E-01  0.2212E-01  0.0000E+00  0.0000E+00  0.0000E+00  0.0000E+00  0.0000E+00
      3.894  0.1694E-01  0.1158E-01  0.1140E-01  0.1815E-01  0.0000E+00  0.0000E+00  0.0000E+00  0.0000E+00  0.0000E+00
      3.994  0.1444E-01  0.1156E-01  0.1107E-01  0.1620E-01  0.0000E+00  0.0000E+00  0.0000E+00  0.0000E+00  0.0000E+00
      4.093  0.1231E-01  0.1083E-01  0.1056E-01  0.1568E-01  0.0000E+00  0.0000E+00  0.0000E+00  0.0000E+00  0.0000E+00
      4.192  0.8982E-02  0.7504E-02  0.8132E-02  0.1149E-01  0.0000E+00  0.0000E+00  0.0000E+00  0.0000E+00  0.0000E+00
      4.292  0.6513E-02  0.5348E-02  0.5796E-02  0.7828E-02  0.0000E+00  0.0000E+00  0.0000E+00  0.0000E+00  0.0000E+00
      4.391  0.5158E-02  0.4859E-02  0.5714E-02  0.5905E-02  0.0000E+00  0.0000E+00  0.0000E+00  0.0000E+00  0.0000E+00
      4.491  0.4625E-02  0.4244E-02  0.6750E-02  0.3927E-02  0.0000E+00  0.0000E+00  0.0000E+00  0.0000E+00  0.0000E+00
      4.590  0.4532E-02  0.3366E-02  0.7887E-02  0.2736E-02  0.0000E+00  0.0000E+00  0.0000E+00  0.0000E+00  0.0000E+00
      4.689  0.3154E-02  0.1981E-02  0.6252E-02  0.1553E-02  0.0000E+00  0.0000E+00  0.0000E+00  0.0000E+00  0.0000E+00
      4.789  0.1543E-02  0.1541E-02  0.3225E-02  0.6940E-03  0.0000E+00  0.0000E+00  0.0000E+00  0.0000E+00  0.0000E+00
      4.888  0.8044E-03  0.9332E-03  0.1568E-02  0.2919E-03  0.0000E+00  0.0000E+00  0.0000E+00  0.0000E+00  0.0000E+00
      4.988  0.2203E-03  0.2115E-03  0.4522E-03  0.6402E-04  0.0000E+00  0.0000E+00  0.0000E+00  0.0000E+00  0.0000E+00
      5.087  0.9192E-04  0.1145E-03  0.2521E-03  0.3010E-04  0.0000E+00  0.0000E+00  0.0000E+00  0.0000E+00  0.0000E+00
      5.187  0.2894E-04  0.3749E-04  0.8173E-04  0.9735E-05  0.0000E+00  0.0000E+00  0.0000E+00  0.0000E+00  0.0000E+00
      5.286  0.1752E-05  0.2273E-05  0.4953E-05  0.5901E-06  0.0000E+00  0.0000E+00  0.0000E+00  0.0000E+00  0.0000E+00
      5.385  0.1735E-07  0.2250E-07  0.4903E-07  0.5841E-08  0.0000E+00  0.0000E+00  0.0000E+00  0.0000E+00  0.0000E+00
      5.485  0.2630E-10  0.3412E-10  0.7434E-10  0.8857E-11  0.0000E+00  0.0000E+00  0.0000E+00  0.0000E+00  0.0000E+00
      5.584  0.5884E-14  0.7633E-14  0.1663E-13  0.1982E-14  0.0000E+00  0.0000E+00  0.0000E+00  0.0000E+00  0.0000E+00
      5.684  0.1834E-18  0.2379E-18  0.5185E-18  0.6177E-19  0.0000E+00  0.0000E+00  0.0000E+00  0.0000E+00  0.0000E+00
      5.783  0.0000E+00  0.0000E+00  0.0000E+00  0.0000E+00  0.0000E+00  0.0000E+00  0.0000E+00  0.0000E+00  0.0000E+00
      5.882  0.0000E+00  0.0000E+00  0.0000E+00  0.0000E+00  0.0000E+00  0.0000E+00  0.0000E+00  0.0000E+00  0.0000E+00
      5.982  0.0000E+00  0.0000E+00  0.0000E+00  0.0000E+00  0.0000E+00  0.0000E+00  0.0000E+00  0.0000E+00  0.0000E+00
      6.081  0.0000E+00  0.0000E+00  0.0000E+00  0.0000E+00  0.0000E+00  0.0000E+00  0.0000E+00  0.0000E+00  0.0000E+00
      6.181  0.0000E+00  0.0000E+00  0.0000E+00  0.0000E+00  0.0000E+00  0.0000E+00  0.0000E+00  0.0000E+00  0.0000E+00
      6.280  0.0000E+00  0.0000E+00  0.0000E+00  0.0000E+00  0.0000E+00  0.0000E+00  0.0000E+00  0.0000E+00  0.0000E+00
      6.379  0.0000E+00  0.0000E+00  0.0000E+00  0.0000E+00  0.0000E+00  0.0000E+00  0.0000E+00  0.0000E+00  0.0000E+00
      6.37943935    -23.44321047  301     -4.43334101      1.00000000
    -23.443  0.0000E+00  0.0000E+00  0.0000E+00  0.0000E+00  0.0000E+00  0.0000E+00  0.0000E+00  0.0000E+00  0.0000E+00
    -23.344  0.0000E+00  0.0000E+00  0.0000E+00  0.0000E+00  0.0000E+00  0.0000E+00  0.0000E+00  0.0000E+00  0.0000E+00
    -23.244  0.0000E+00  0.0000E+00  0.0000E+00  0.0000E+00  0.0000E+00  0.0000E+00  0.0000E+00  0.0000E+00  0.0000E+00
    -23.145  0.0000E+00  0.0000E+00  0.0000E+00  0.0000E+00  0.0000E+00  0.0000E+00  0.0000E+00  0.0000E+00  0.0000E+00
    -23.046  0.0000E+00  0.0000E+00  0.0000E+00  0.0000E+00  0.0000E+00  0.0000E+00  0.0000E+00  0.0000E+00  0.0000E+00
    -22.946  0.0000E+00  0.0000E+00  0.0000E+00  0.0000E+00  0.0000E+00  0.0000E+00  0.0000E+00  0.0000E+00  0.0000E+00
    -22.847  0.0000E+00  0.0000E+00  0.0000E+00  0.0000E+00  0.0000E+00  0.0000E+00  0.0000E+00  0.0000E+00  0.0000E+00
    -22.747  0.0000E+00  0.0000E+00  0.0000E+00  0.0000E+00  0.0000E+00  0.0000E+00  0.0000E+00  0.0000E+00  0.0000E+00
    -22.648  0.3151E-16  0.2399E-18  0.1141E-16  0.1389E-20  0.0000E+00  0.0000E+00  0.0000E+00  0.0000E+00  0.0000E+00
    -22.549  0.1142E-11  0.8733E-14  0.4138E-12  0.6254E-16  0.0000E+00  0.0000E+00  0.0000E+00  0.0000E+00  0.0000E+00
    -22.449  0.6190E-08  0.4754E-10  0.2243E-08  0.4159E-12  0.0000E+00  0.0000E+00  0.0000E+00  0.0000E+00  0.0000E+00
    -22.350  0.5260E-05  0.4069E-07  0.1907E-05  0.4521E-09  0.0000E+00  0.0000E+00  0.0000E+00  0.0000E+00  0.0000E+00
    -22.250  0.7539E-03  0.5910E-05  0.2735E-03  0.8767E-07  0.0000E+00  0.0000E+00  0.0000E+00  0.0000E+00  0.0000E+00
    -22.151  0.2074E-01  0.1663E-03  0.7536E-02  0.3512E-05  0.0000E+00  0.0000E+00  0.0000E+00  0.0000E+00  0.0000E+00
    -22.051  0.1338E+00  0.1104E-02  0.4874E-01  0.3638E-04  0.0000E+00  0.0000E+00  0.0000E+00  0.0000E+00  0.0000E+00
    -21.952  0.2648E+00  0.2186E-02  0.9683E-01  0.1315E-03  0.0000E+00  0.0000E+00  0.0000E+00  0.0000E+00  0.0000E+00
    -21.853  0.2438E+00  0.1807E-02  0.8966E-01  0.2372E-03  0.0000E+00  0.0000E+00  0.0000E+00  0.0000E+00  0.0000E+00
    -21.753  0.1932E+00  0.1114E-02  0.7166E-01  0.3029E-03  0.0000E+00  0.0000E+00  0.0000E+00  0.0000E+00  0.0000E+00
    -21.654  0.1762E+00  0.7405E-03  0.6591E-01  0.3367E-03  0.0000E+00  0.0000E+00  0.0000E+00  0.0000E+00  0.0000E+00
    -21.554  0.1774E+00  0.5084E-03  0.6689E-01  0.3476E-03  0.0000E+00  0.0000E+00  0.0000E+00  0.0000E+00  0.0000E+00
    -21.455  0.1958E+00  0.3389E-03  0.7442E-01  0.3354E-03  0.0000E+00  0.0000E+00  0.0000E+00  0.0000E+00  0.0000E+00
    -21.356  0.2475E+00  0.2167E-03  0.9480E-01  0.2904E-03  0.0000E+00  0.0000E+00  0.0000E+00  0.0000E+00  0.0000E+00
    -21.256  0.2974E+00  0.1426E-03  0.1146E+00  0.1970E-03  0.0000E+00  0.0000E+00  0.0000E+00  0.0000E+00  0.0000E+00
    -21.157  0.2132E+00  0.8209E-04  0.8263E-01  0.8226E-04  0.0000E+00  0.0000E+00  0.0000E+00  0.0000E+00  0.0000E+00
    -21.057  0.6477E-01  0.2303E-04  0.2520E-01  0.1551E-04  0.0000E+00  0.0000E+00  0.0000E+00  0.0000E+00  0.0000E+00
    -20.958  0.5878E-02  0.1934E-05  0.2292E-02  0.9287E-06  0.0000E+00  0.0000E+00  0.0000E+00  0.0000E+00  0.0000E+00
    -20.859  0.1168E-03  0.3601E-07  0.4559E-04  0.1309E-07  0.0000E+00  0.0000E+00  0.0000E+00  0.0000E+00  0.0000E+00
    -20.759  0.4192E-06  0.1233E-09  0.1637E-06  0.3558E-10  0.0000E+00  0.0000E+00  0.0000E+00  0.0000E+00  0.0000E+00
    -20.660  0.2447E-09  0.6964E-13  0.9562E-10  0.1654E-13  0.0000E+00  0.0000E+00  0.0000E+00  0.0000E+00  0.0000E+00
    -20.560  0.2195E-13  0.6099E-17  0.8579E-14  0.1225E-17  0.0000E+00  0.0000E+00  0.0000E+00  0.0000E+00  0.0000E+00
    -20.461  0.0000E+00  0.0000E+00  0.0000E+00  0.0000E+00  0.0000E+00  0.0000E+00  0.0000E+00  0.0000E+00  0.0000E+00
    -20.362  0.0000E+00  0.0000E+00  0.0000E+00  0.0000E+00  0.0000E+00  0.0000E+00  0.0000E+00  0.0000E+00  0.0000E+00
    -20.262  0.0000E+00  0.0000E+00  0.0000E+00  0.0000E+00  0.0000E+00  0.0000E+00  0.0000E+00  0.0000E+00  0.0000E+00
    -20.163  0.0000E+00  0.0000E+00  0.0000E+00  0.0000E+00  0.0000E+00  0.0000E+00  0.0000E+00  0.0000E+00  0.0000E+00
    -20.063  0.0000E+00  0.0000E+00  0.0000E+00  0.0000E+00  0.0000E+00  0.0000E+00  0.0000E+00  0.0000E+00  0.0000E+00
    -19.964  0.0000E+00  0.0000E+00  0.0000E+00  0.0000E+00  0.0000E+00  0.0000E+00  0.0000E+00  0.0000E+00  0.0000E+00
    -19.864  0.0000E+00  0.0000E+00  0.0000E+00  0.0000E+00  0.0000E+00  0.0000E+00  0.0000E+00  0.0000E+00  0.0000E+00
    -19.765  0.0000E+00  0.0000E+00  0.0000E+00  0.0000E+00  0.0000E+00  0.0000E+00  0.0000E+00  0.0000E+00  0.0000E+00
    -19.666  0.0000E+00  0.0000E+00  0.0000E+00  0.0000E+00  0.0000E+00  0.0000E+00  0.0000E+00  0.0000E+00  0.0000E+00
    -19.566  0.0000E+00  0.0000E+00  0.0000E+00  0.0000E+00  0.0000E+00  0.0000E+00  0.0000E+00  0.0000E+00  0.0000E+00
    -19.467  0.0000E+00  0.0000E+00  0.0000E+00  0.0000E+00  0.0000E+00  0.0000E+00  0.0000E+00  0.0000E+00  0.0000E+00
    -19.367  0.0000E+00  0.0000E+00  0.0000E+00  0.0000E+00  0.0000E+00  0.0000E+00  0.0000E+00  0.0000E+00  0.0000E+00
    -19.268  0.0000E+00  0.0000E+00  0.0000E+00  0.0000E+00  0.0000E+00  0.0000E+00  0.0000E+00  0.0000E+00  0.0000E+00
    -19.169  0.0000E+00  0.0000E+00  0.0000E+00  0.0000E+00  0.0000E+00  0.0000E+00  0.0000E+00  0.0000E+00  0.0000E+00
    -19.069  0.0000E+00  0.0000E+00  0.0000E+00  0.0000E+00  0.0000E+00  0.0000E+00  0.0000E+00  0.0000E+00  0.0000E+00
    -18.970  0.0000E+00  0.0000E+00  0.0000E+00  0.0000E+00  0.0000E+00  0.0000E+00  0.0000E+00  0.0000E+00  0.0000E+00
    -18.870  0.0000E+00  0.0000E+00  0.0000E+00  0.0000E+00  0.0000E+00  0.0000E+00  0.0000E+00  0.0000E+00  0.0000E+00
    -18.771  0.0000E+00  0.0000E+00  0.0000E+00  0.0000E+00  0.0000E+00  0.0000E+00  0.0000E+00  0.0000E+00  0.0000E+00
    -18.672  0.0000E+00  0.0000E+00  0.0000E+00  0.0000E+00  0.0000E+00  0.0000E+00  0.0000E+00  0.0000E+00  0.0000E+00
    -18.572  0.0000E+00  0.0000E+00  0.0000E+00  0.0000E+00  0.0000E+00  0.0000E+00  0.0000E+00  0.0000E+00  0.0000E+00
    -18.473  0.0000E+00  0.0000E+00  0.0000E+00  0.0000E+00  0.0000E+00  0.0000E+00  0.0000E+00  0.0000E+00  0.0000E+00
    -18.373  0.0000E+00  0.0000E+00  0.0000E+00  0.0000E+00  0.0000E+00  0.0000E+00  0.0000E+00  0.0000E+00  0.0000E+00
    -18.274  0.0000E+00  0.0000E+00  0.0000E+00  0.0000E+00  0.0000E+00  0.0000E+00  0.0000E+00  0.0000E+00  0.0000E+00
    -18.175  0.0000E+00  0.0000E+00  0.0000E+00  0.0000E+00  0.0000E+00  0.0000E+00  0.0000E+00  0.0000E+00  0.0000E+00
    -18.075  0.0000E+00  0.0000E+00  0.0000E+00  0.0000E+00  0.0000E+00  0.0000E+00  0.0000E+00  0.0000E+00  0.0000E+00
    -17.976  0.0000E+00  0.0000E+00  0.0000E+00  0.0000E+00  0.0000E+00  0.0000E+00  0.0000E+00  0.0000E+00  0.0000E+00
    -17.876  0.8028E-19  0.1976E-18  0.3882E-19  0.2171E-18  0.0000E+00  0.0000E+00  0.0000E+00  0.0000E+00  0.0000E+00
    -17.777  0.5932E-14  0.1473E-13  0.2869E-14  0.1648E-13  0.0000E+00  0.0000E+00  0.0000E+00  0.0000E+00  0.0000E+00
    -17.677  0.5119E-10  0.1268E-09  0.2478E-10  0.1420E-09  0.0000E+00  0.0000E+00  0.0000E+00  0.0000E+00  0.0000E+00
    -17.578  0.6823E-07  0.1683E-06  0.3306E-07  0.1886E-06  0.0000E+00  0.0000E+00  0.0000E+00  0.0000E+00  0.0000E+00
    -17.479  0.1492E-04  0.3655E-04  0.7243E-05  0.4106E-04  0.0000E+00  0.0000E+00  0.0000E+00  0.0000E+00  0.0000E+00
    -17.379  0.5969E-03  0.1445E-02  0.2908E-03  0.1630E-02  0.0000E+00  0.0000E+00  0.0000E+00  0.0000E+00  0.0000E+00
    -17.280  0.5319E-02  0.1256E-01  0.2609E-02  0.1432E-01  0.0000E+00  0.0000E+00  0.0000E+00  0.0000E+00  0.0000E+00
    -17.180  0.1501E-01  0.3361E-01  0.7472E-02  0.3989E-01  0.0000E+00  0.0000E+00  0.0000E+00  0.0000E+00  0.0000E+00
    -17.081  0.2357E-01  0.4759E-01  0.1203E-01  0.6517E-01  0.0000E+00  0.0000E+00  0.0000E+00  0.0000E+00  0.0000E+00
    -16.982  0.3416E-01  0.6183E-01  0.1789E-01  0.8485E-01  0.0000E+00  0.0000E+00  0.0000E+00  0.0000E+00  0.0000E+00
    -16.882  0.4795E-01  0.8511E-01  0.2552E-01  0.6013E-01  0.0000E+00  0.0000E+00  0.0000E+00  0.0000E+00  0.0000E+00
    -16.783  0.4508E-01  0.7829E-01  0.2434E-01  0.2421E-01  0.0000E+00  0.0000E+00  0.0000E+00  0.0000E+00  0.0000E+00
    -16.683  0.2793E-01  0.4581E-01  0.1538E-01  0.7388E-02  0.0000E+00  0.0000E+00  0.0000E+00  0.0000E+00  0.0000E+00
    -16.584  0.1147E-01  0.1798E-01  0.6412E-02  0.1332E-02  0.0000E+00  0.0000E+00  0.0000E+00  0.0000E+00  0.0000E+00
    -16.485  0.1974E-02  0.3023E-02  0.1111E-02  0.1011E-03  0.0000E+00  0.0000E+00  0.0000E+00  0.0000E+00  0.0000E+00
    -16.385  0.8955E-04  0.1356E-03  0.5056E-04  0.2413E-05  0.0000E+00  0.0000E+00  0.0000E+00  0.0000E+00  0.0000E+00
    -16.286  0.8117E-06  0.1222E-05  0.4590E-06  0.1367E-07  0.0000E+00  0.0000E+00  0.0000E+00  0.0000E+00  0.0000E+00
    -16.186  0.1264E-08  0.1896E-08  0.7152E-09  0.1502E-10  0.0000E+00  0.0000E+00  0.0000E+00  0.0000E+00  0.0000E+00
    -16.087  0.3112E-12  0.4661E-12  0.1762E-12  0.2840E-14  0.0000E+00  0.0000E+00  0.0000E+00  0.0000E+00  0.0000E+00
    -15.988  0.1157E-16  0.1730E-16  0.6553E-17  0.8310E-19  0.0000E+00  0.0000E+00  0.0000E+00  0.0000E+00  0.0000E+00
    -15.888  0.7073E-17  0.4098E-15  0.1035E-16  0.2157E-17  0.0000E+00  0.0000E+00  0.0000E+00  0.0000E+00  0.0000E+00
    -15.789  0.1057E-12  0.6103E-11  0.1543E-12  0.3231E-13  0.0000E+00  0.0000E+00  0.0000E+00  0.0000E+00  0.0000E+00
    -15.689  0.2340E-09  0.1337E-07  0.3397E-09  0.7212E-10  0.0000E+00  0.0000E+00  0.0000E+00  0.0000E+00  0.0000E+00
    -15.590  0.8100E-07  0.4510E-05  0.1160E-06  0.2621E-07  0.0000E+00  0.0000E+00  0.0000E+00  0.0000E+00  0.0000E+00
    -15.491  0.4910E-05  0.2587E-03  0.6841E-05  0.1917E-05  0.0000E+00  0.0000E+00  0.0000E+00  0.0000E+00  0.0000E+00
    -15.391  0.6421E-04  0.3059E-02  0.8533E-04  0.3808E-04  0.0000E+00  0.0000E+00  0.0000E+00  0.0000E+00  0.0000E+00
    -15.292  0.2524E-03  0.1021E-01  0.3126E-03  0.2474E-03  0.0000E+00  0.0000E+00  0.0000E+00  0.0000E+00  0.0000E+00
    -15.192  0.4726E-03  0.1542E-01  0.5396E-03  0.7862E-03  0.0000E+00  0.0000E+00  0.0000E+00  0.0000E+00  0.0000E+00
    -15.093  0.6744E-03  0.1887E-01  0.7343E-03  0.1911E-02  0.0000E+00  0.0000E+00  0.0000E+00  0.0000E+00  0.0000E+00
    -14.993  0.8525E-03  0.2227E-01  0.9139E-03  0.4290E-02  0.0000E+00  0.0000E+00  0.0000E+00  0.0000E+00  0.0000E+00
    -14.894  0.1147E-02  0.3071E-01  0.1260E-02  0.1216E-01  0.0000E+00  0.0000E+00  0.0000E+00  0.0000E+00  0.0000E+00
    -14.795  0.1704E-02  0.4764E-01  0.1953E-02  0.3771E-01  0.0000E+00  0.0000E+00  0.0000E+00  0.0000E+00  0.0000E+00
    -14.695  0.2244E-02  0.6320E-01  0.2588E-02  0.6183E-01  0.0000E+00  0.0000E+00  0.0000E+00  0.0000E+00  0.0000E+00
    -14.596  0.1972E-02  0.5550E-01  0.2151E-02  0.5111E-01  0.0000E+00  0.0000E+00  0.0000E+00  0.0000E+00  0.0000E+00
    -14.496  0.1657E-02  0.5163E-01  0.1702E-02  0.4494E-01  0.0000E+00  0.0000E+00  0.0000E+00  0.0000E+00  0.0000E+00
    -14.397  0.1458E-02  0.4576E-01  0.1433E-02  0.5902E-01  0.0000E+00  0.0000E+00  0.0000E+00  0.0000E+00  0.0000E+00
    -14.298  0.1422E-02  0.3117E-01  0.1385E-02  0.7269E-01  0.0000E+00  0.0000E+00  0.0000E+00  0.0000E+00  0.0000E+00
    -14.198  0.1525E-02  0.2738E-01  0.1473E-02  0.7861E-01  0.0000E+00  0.0000E+00  0.0000E+00  0.0000E+00  0.0000E+00
    -14.099  0.1555E-02  0.3105E-01  0.1463E-02  0.9013E-01  0.0000E+00  0.0000E+00  0.0000E+00  0.0000E+00  0.0000E+00
    -13.999  0.1452E-02  0.3850E-01  0.1333E-02  0.1077E+00  0.0000E+00  0.0000E+00  0.0000E+00  0.0000E+00  0.0000E+00
    -13.900  0.1059E-02  0.3851E-01  0.9325E-03  0.9539E-01  0.0000E+00  0.0000E+00  0.0000E+00  0.0000E+00  0.0000E+00
    -13.801  0.6142E-03  0.3305E-01  0.5024E-03  0.6271E-01  0.0000E+00  0.0000E+00  0.0000E+00  0.0000E+00  0.0000E+00
    -13.701  0.2668E-03  0.2198E-01  0.1922E-03  0.3442E-01  0.0000E+00  0.0000E+00  0.0000E+00  0.0000E+00  0.0000E+00
    -13.602  0.5948E-04  0.6628E-02  0.3689E-04  0.9849E-02  0.0000E+00  0.0000E+00  0.0000E+00  0.0000E+00  0.0000E+00
    -13.502  0.4030E-05  0.5505E-03  0.2150E-05  0.8081E-03  0.0000E+00  0.0000E+00  0.0000E+00  0.0000E+00  0.0000E+00
    -13.403  0.5981E-07  0.9671E-05  0.2672E-07  0.1411E-04  0.0000E+00  0.0000E+00  0.0000E+00  0.0000E+00  0.0000E+00
    -13.304  0.1683E-09  0.3085E-07  0.6262E-10  0.4487E-07  0.0000E+00  0.0000E+00  0.0000E+00  0.0000E+00  0.0000E+00
    -13.204  0.2178E-12  0.1615E-10  0.1993E-12  0.2397E-10  0.0000E+00  0.0000E+00  0.0000E+00  0.0000E+00  0.0000E+00
    -13.105  0.5410E-09  0.1163E-09  0.6875E-09  0.2306E-08  0.0000E+00  0.0000E+00  0.0000E+00  0.0000E+00  0.0000E+00
    -13.005  0.3416E-06  0.7985E-07  0.4343E-06  0.1524E-05  0.0000E+00  0.0000E+00  0.0000E+00  0.0000E+00  0.0000E+00
    -12.906  0.3694E-04  0.9533E-05  0.4694E-04  0.1717E-03  0.0000E+00  0.0000E+00  0.0000E+00  0.0000E+00  0.0000E+00
    -12.806  0.7976E-03  0.2242E-03  0.9840E-03  0.3631E-02  0.0000E+00  0.0000E+00  0.0000E+00  0.0000E+00  0.0000E+00
    -12.707  0.5954E-02  0.1386E-02  0.5149E-02  0.1725E-01  0.0000E+00  0.0000E+00  0.0000E+00  0.0000E+00  0.0000E+00
    -12.608  0.3752E-01  0.3727E-02  0.1031E-01  0.2678E-01  0.0000E+00  0.0000E+00  0.0000E+00  0.0000E+00  0.0000E+00
    -12.508  0.1274E+00  0.6643E-02  0.1152E-01  0.2467E-01  0.0000E+00  0.0000E+00  0.0000E+00  0.0000E+00  0.0000E+00
    -12.409  0.2076E+00  0.9206E-02  0.9475E-02  0.2155E-01  0.0000E+00  0.0000E+00  0.0000E+00  0.0000E+00  0.0000E+00
    -12.309  0.2445E+00  0.1099E-01  0.8181E-02  0.2043E-01  0.0000E+00  0.0000E+00  0.0000E+00  0.0000E+00  0.0000E+00
    -12.210  0.2221E+00  0.1084E-01  0.7423E-02  0.2060E-01  0.0000E+00  0.0000E+00  0.0000E+00  0.0000E+00  0.0000E+00
    -12.111  0.1794E+00  0.9834E-02  0.6942E-02  0.2077E-01  0.0000E+00  0.0000E+00  0.0000E+00  0.0000E+00  0.0000E+00
    -12.011  0.1577E+00  0.9268E-02  0.6898E-02  0.2163E-01  0.0000E+00  0.0000E+00  0.0000E+00  0.0000E+00  0.0000E+00
    -11.912  0.1476E+00  0.8877E-02  0.6505E-02  0.2220E-01  0.0000E+00  0.0000E+00  0.0000E+00  0.0000E+00  0.0000E+00
    -11.812  0.1434E+00  0.8745E-02  0.6346E-02  0.2241E-01  0.0000E+00  0.0000E+00  0.0000E+00  0.0000E+00  0.0000E+00
    -11.713  0.1440E+00  0.8508E-02  0.6642E-02  0.2269E-01  0.0000E+00  0.0000E+00  0.0000E+00  0.0000E+00  0.0000E+00
    -11.614  0.1481E+00  0.8623E-02  0.6152E-02  0.1627E-01  0.0000E+00  0.0000E+00  0.0000E+00  0.0000E+00  0.0000E+00
    -11.514  0.1602E+00  0.9695E-02  0.6587E-02  0.1124E-01  0.0000E+00  0.0000E+00  0.0000E+00  0.0000E+00  0.0000E+00
    -11.415  0.1898E+00  0.1222E-01  0.6710E-02  0.1131E-01  0.0000E+00  0.0000E+00  0.0000E+00  0.0000E+00  0.0000E+00
    -11.315  0.2473E+00  0.1799E-01  0.6943E-02  0.1136E-01  0.0000E+00  0.0000E+00  0.0000E+00  0.0000E+00  0.0000E+00
    -11.216  0.2610E+00  0.2074E-01  0.7284E-02  0.1151E-01  0.0000E+00  0.0000E+00  0.0000E+00  0.0000E+00  0.0000E+00
    -11.117  0.2054E+00  0.2180E-01  0.7888E-02  0.1336E-01  0.0000E+00  0.0000E+00  0.0000E+00  0.0000E+00  0.0000E+00
    -11.017  0.1635E+00  0.2690E-01  0.9316E-02  0.1450E-01  0.0000E+00  0.0000E+00  0.0000E+00  0.0000E+00  0.0000E+00
    -10.918  0.1391E+00  0.2877E-01  0.9246E-02  0.1379E-01  0.0000E+00  0.0000E+00  0.0000E+00  0.0000E+00  0.0000E+00
    -10.818  0.1188E+00  0.2508E-01  0.7805E-02  0.1363E-01  0.0000E+00  0.0000E+00  0.0000E+00  0.0000E+00  0.0000E+00
    -10.719  0.8178E-01  0.2443E-01  0.5759E-02  0.1202E-01  0.0000E+00  0.0000E+00  0.0000E+00  0.0000E+00  0.0000E+00
    -10.619  0.2848E-01  0.3082E-01  0.5876E-02  0.1572E-01  0.0000E+00  0.0000E+00  0.0000E+00  0.0000E+00  0.0000E+00
    -10.520  0.6317E-02  0.3768E-01  0.7720E-02  0.2229E-01  0.0000E+00  0.0000E+00  0.0000E+00  0.0000E+00  0.0000E+00
    -10.421  0.3189E-02  0.2563E-01  0.6247E-02  0.2043E-01  0.0000E+00  0.0000E+00  0.0000E+00  0.0000E+00  0.0000E+00
    -10.321  0.1902E-02  0.1156E-01  0.3799E-02  0.1547E-01  0.0000E+00  0.0000E+00  0.0000E+00  0.0000E+00  0.0000E+00
    -10.222  0.1593E-02  0.7705E-02  0.3268E-02  0.1401E-01  0.0000E+00  0.0000E+00  0.0000E+00  0.0000E+00  0.0000E+00
    -10.122  0.1371E-02  0.5886E-02  0.2880E-02  0.1234E-01  0.0000E+00  0.0000E+00  0.0000E+00  0.0000E+00  0.0000E+00
    -10.023  0.1397E-02  0.7673E-02  0.2906E-02  0.1517E-01  0.0000E+00  0.0000E+00  0.0000E+00  0.0000E+00  0.0000E+00
     -9.924  0.1142E-02  0.9416E-02  0.2377E-02  0.1405E-01  0.0000E+00  0.0000E+00  0.0000E+00  0.0000E+00  0.0000E+00
     -9.824  0.8356E-03  0.1180E-01  0.1850E-02  0.1133E-01  0.0000E+00  0.0000E+00  0.0000E+00  0.0000E+00  0.0000E+00
     -9.725  0.7930E-03  0.1523E-01  0.2124E-02  0.1143E-01  0.0000E+00  0.0000E+00  0.0000E+00  0.0000E+00  0.0000E+00
     -9.625  0.1235E-02  0.2468E-01  0.4141E-02  0.1680E-01  0.0000E+00  0.0000E+00  0.0000E+00  0.0000E+00  0.0000E+00
     -9.526  0.1677E-02  0.3255E-01  0.6113E-02  0.2331E-01  0.0000E+00  0.0000E+00  0.0000E+00  0.0000E+00  0.0000E+00
     -9.427  0.1379E-02  0.2680E-01  0.5127E-02  0.2087E-01  0.0000E+00  0.0000E+00  0.0000E+00  0.0000E+00  0.0000E+00
     -9.327  0.1041E-02  0.1942E-01  0.4000E-02  0.1586E-01  0.0000E+00  0.0000E+00  0.0000E+00  0.0000E+00  0.0000E+00
     -9.228  0.7579E-03  0.1334E-01  0.3107E-02  0.1040E-01  0.0000E+00  0.0000E+00  0.0000E+00  0.0000E+00  0.0000E+00
     -9.128  0.5660E-03  0.1023E-01  0.2428E-02  0.7967E-02  0.0000E+00  0.0000E+00  0.0000E+00  0.0000E+00  0.0000E+00
     -9.029  0.5474E-03  0.1060E-01  0.2569E-02  0.7281E-02  0.0000E+00  0.0000E+00  0.0000E+00  0.0000E+00  0.0000E+00
     -8.930  0.7638E-03  0.1488E-01  0.4083E-02  0.9125E-02  0.0000E+00  0.0000E+00  0.0000E+00  0.0000E+00  0.0000E+00
     -8.830  0.1152E-02  0.2210E-01  0.6104E-02  0.1357E-01  0.0000E+00  0.0000E+00  0.0000E+00  0.0000E+00  0.0000E+00
     -8.731  0.3042E-02  0.4083E-01  0.7237E-02  0.3232E-01  0.0000E+00  0.0000E+00  0.0000E+00  0.0000E+00  0.0000E+00
     -8.631  0.7860E-02  0.8317E-01  0.8687E-02  0.7521E-01  0.0000E+00  0.0000E+00  0.0000E+00  0.0000E+00  0.0000E+00
     -8.532  0.1194E-01  0.1123E+00  0.9446E-02  0.1051E+00  0.0000E+00  0.0000E+00  0.0000E+00  0.0000E+00  0.0000E+00
     -8.432  0.1489E-01  0.1250E+00  0.8235E-02  0.1242E+00  0.0000E+00  0.0000E+00  0.0000E+00  0.0000E+00  0.0000E+00
     -8.333  0.1837E-01  0.1381E+00  0.6309E-02  0.1505E+00  0.0000E+00  0.0000E+00  0.0000E+00  0.0000E+00  0.0000E+00
     -8.234  0.2144E-01  0.1457E+00  0.5196E-02  0.1572E+00  0.0000E+00  0.0000E+00  0.0000E+00  0.0000E+00  0.0000E+00
     -8.134  0.2344E-01  0.1403E+00  0.4325E-02  0.1380E+00  0.0000E+00  0.0000E+00  0.0000E+00  0.0000E+00  0.0000E+00
     -8.035  0.2718E-01  0.1486E+00  0.3373E-02  0.1307E+00  0.0000E+00  0.0000E+00  0.0000E+00  0.0000E+00  0.0000E+00
     -7.935  0.3324E-01  0.1552E+00  0.2612E-02  0.1244E+00  0.0000E+00  0.0000E+00  0.0000E+00  0.0000E+00  0.0000E+00
     -7.836  0.3247E-01  0.1236E+00  0.1689E-02  0.9731E-01  0.0000E+00  0.0000E+00  0.0000E+00  0.0000E+00  0.0000E+00
     -7.737  0.2482E-01  0.8643E-01  0.1106E-02  0.6699E-01  0.0000E+00  0.0000E+00  0.0000E+00  0.0000E+00  0.0000E+00
     -7.637  0.1827E-01  0.6411E-01  0.8657E-03  0.4482E-01  0.0000E+00  0.0000E+00  0.0000E+00  0.0000E+00  0.0000E+00
     -7.538  0.1333E-01  0.4975E-01  0.9929E-03  0.2938E-01  0.0000E+00  0.0000E+00  0.0000E+00  0.0000E+00  0.0000E+00
     -7.438  0.8573E-02  0.3188E-01  0.1103E-02  0.1825E-01  0.0000E+00  0.0000E+00  0.0000E+00  0.0000E+00  0.0000E+00
     -7.339  0.5439E-02  0.2036E-01  0.7912E-03  0.1110E-01  0.0000E+00  0.0000E+00  0.0000E+00  0.0000E+00  0.0000E+00
     -7.240  0.2942E-02  0.1466E-01  0.8594E-03  0.6725E-02  0.0000E+00  0.0000E+00  0.0000E+00  0.0000E+00  0.0000E+00
     -7.140  0.1131E-02  0.8403E-02  0.1089E-02  0.5649E-02  0.0000E+00  0.0000E+00  0.0000E+00  0.0000E+00  0.0000E+00
     -7.041  0.1353E-02  0.1242E-01  0.1292E-02  0.1493E-01  0.0000E+00  0.0000E+00  0.0000E+00  0.0000E+00  0.0000E+00
     -6.941  0.5336E-02  0.4502E-01  0.1306E-02  0.5495E-01  0.0000E+00  0.0000E+00  0.0000E+00  0.0000E+00  0.0000E+00
     -6.842  0.1068E-01  0.8719E-01  0.1335E-02  0.1142E+00  0.0000E+00  0.0000E+00  0.0000E+00  0.0000E+00  0.0000E+00
     -6.743  0.1429E-01  0.1156E+00  0.1713E-02  0.1541E+00  0.0000E+00  0.0000E+00  0.0000E+00  0.0000E+00  0.0000E+00
     -6.643  0.1312E-01  0.1121E+00  0.2145E-02  0.1440E+00  0.0000E+00  0.0000E+00  0.0000E+00  0.0000E+00  0.0000E+00
     -6.544  0.1105E-01  0.1051E+00  0.1770E-02  0.1299E+00  0.0000E+00  0.0000E+00  0.0000E+00  0.0000E+00  0.0000E+00
     -6.444  0.9606E-02  0.1082E+00  0.1387E-02  0.1300E+00  0.0000E+00  0.0000E+00  0.0000E+00  0.0000E+00  0.0000E+00
     -6.345  0.8475E-02  0.1249E+00  0.1355E-02  0.1395E+00  0.0000E+00  0.0000E+00  0.0000E+00  0.0000E+00  0.0000E+00
     -6.245  0.7098E-02  0.1662E+00  0.1993E-02  0.1416E+00  0.0000E+00  0.0000E+00  0.0000E+00  0.0000E+00  0.0000E+00
     -6.146  0.5512E-02  0.1963E+00  0.2321E-02  0.1404E+00  0.0000E+00  0.0000E+00  0.0000E+00  0.0000E+00  0.0000E+00
     -6.047  0.3729E-02  0.1615E+00  0.1866E-02  0.1342E+00  0.0000E+00  0.0000E+00  0.0000E+00  0.0000E+00  0.0000E+00
     -5.947  0.2195E-02  0.1300E+00  0.1716E-02  0.1205E+00  0.0000E+00  0.0000E+00  0.0000E+00  0.0000E+00  0.0000E+00
     -5.848  0.9521E-03  0.9298E-01  0.1459E-02  0.8847E-01  0.0000E+00  0.0000E+00  0.0000E+00  0.0000E+00  0.0000E+00
     -5.748  0.3448E-03  0.3461E-01  0.3029E-02  0.3362E-01  0.0000E+00  0.0000E+00  0.0000E+00  0.0000E+00  0.0000E+00
     -5.649  0.2611E-03  0.6944E-02  0.3658E-02  0.6405E-02  0.0000E+00  0.0000E+00  0.0000E+00  0.0000E+00  0.0000E+00
     -5.550  0.1511E-03  0.2999E-02  0.1904E-02  0.1385E-02  0.0000E+00  0.0000E+00  0.0000E+00  0.0000E+00  0.0000E+00
     -5.450  0.1618E-03  0.2835E-02  0.1390E-02  0.6189E-03  0.0000E+00  0.0000E+00  0.0000E+00  0.0000E+00  0.0000E+00
     -5.351  0.5548E-03  0.4367E-02  0.3875E-02  0.2301E-02  0.0000E+00  0.0000E+00  0.0000E+00  0.0000E+00  0.0000E+00
     -5.251  0.1013E-02  0.6099E-02  0.6392E-02  0.4002E-02  0.0000E+00  0.0000E+00  0.0000E+00  0.0000E+00  0.0000E+00
     -5.152  0.8974E-03  0.6034E-02  0.3880E-02  0.1776E-02  0.0000E+00  0.0000E+00  0.0000E+00  0.0000E+00  0.0000E+00
     -5.053  0.1744E-02  0.4676E-02  0.4157E-02  0.6860E-03  0.0000E+00  0.0000E+00  0.0000E+00  0.0000E+00  0.0000E+00
     -4.953  0.7441E-02  0.5047E-02  0.1534E-01  0.1597E-02  0.0000E+00  0.0000E+00  0.0000E+00  0.0000E+00  0.0000E+00
     -4.854  0.4700E-01  0.5741E-02  0.8862E-01  0.3207E-02  0.0000E+00  0.0000E+00  0.0000E+00  0.0000E+00  0.0000E+00
     -4.754  0.1445E+00  0.6190E-02  0.2667E+00  0.2211E-02  0.0000E+00  0.0000E+00  0.0000E+00  0.0000E+00  0.0000E+00
     -4.655  0.1922E+00  0.4394E-02  0.3588E+00  0.9613E-03  0.0000E+00  0.0000E+00  0.0000E+00  0.0000E+00  0.0000E+00
     -4.556  0.1803E+00  0.3584E-02  0.3457E+00  0.1720E-02  0.0000E+00  0.0000E+00  0.0000E+00  0.0000E+00  0.0000E+00
     -4.456  0.1923E+00  0.3503E-02  0.3883E+00  0.3086E-02  0.0000E+00  0.0000E+00  0.0000E+00  0.0000E+00  0.0000E+00
     -4.357  0.2406E+00  0.3652E-02  0.5104E+00  0.2722E-02  0.0000E+00  0.0000E+00  0.0000E+00  0.0000E+00  0.0000E+00
     -4.257  0.1982E+00  0.3883E-02  0.4111E+00  0.1761E-02  0.0000E+00  0.0000E+00  0.0000E+00  0.0000E+00  0.0000E+00
     -4.158  0.8750E-01  0.3044E-02  0.1643E+00  0.1206E-02  0.0000E+00  0.0000E+00  0.0000E+00  0.0000E+00  0.0000E+00
     -4.058  0.2671E-01  0.1922E-02  0.4234E-01  0.1287E-02  0.0000E+00  0.0000E+00  0.0000E+00  0.0000E+00  0.0000E+00
     -3.959  0.1063E-01  0.1427E-02  0.1380E-01  0.1381E-02  0.0000E+00  0.0000E+00  0.0000E+00  0.0000E+00  0.0000E+00
     -3.860  0.4509E-02  0.1695E-02  0.4957E-02  0.8933E-03  0.0000E+00  0.0000E+00  0.0000E+00  0.0000E+00  0.0000E+00
     -3.760  0.2467E-02  0.1599E-02  0.2065E-02  0.9854E-03  0.0000E+00  0.0000E+00  0.0000E+00  0.0000E+00  0.0000E+00
     -3.661  0.2635E-02  0.1429E-02  0.1931E-02  0.1549E-02  0.0000E+00  0.0000E+00  0.0000E+00  0.0000E+00  0.0000E+00
     -3.561  0.1523E-02  0.1125E-02  0.1024E-02  0.9187E-03  0.0000E+00  0.0000E+00  0.0000E+00  0.0000E+00  0.0000E+00
     -3.462  0.7785E-03  0.1188E-02  0.3946E-03  0.4296E-03  0.0000E+00  0.0000E+00  0.0000E+00  0.0000E+00  0.0000E+00
     -3.363  0.7049E-03  0.9710E-03  0.2821E-03  0.6065E-03  0.0000E+00  0.0000E+00  0.0000E+00  0.0000E+00  0.0000E+00
     -3.263  0.8675E-03  0.1171E-02  0.2926E-03  0.8673E-03  0.0000E+00  0.0000E+00  0.0000E+00  0.0000E+00  0.0000E+00
     -3.164  0.5257E-03  0.8359E-03  0.1615E-03  0.4472E-03  0.0000E+00  0.0000E+00  0.0000E+00  0.0000E+00  0.0000E+00
     -3.064  0.3240E-03  0.6630E-03  0.6607E-04  0.1456E-03  0.0000E+00  0.0000E+00  0.0000E+00  0.0000E+00  0.0000E+00
     -2.965  0.3325E-03  0.6806E-03  0.5256E-04  0.1367E-03  0.0000E+00  0.0000E+00  0.0000E+00  0.0000E+00  0.0000E+00
     -2.866  0.1318E-03  0.2618E-03  0.1860E-04  0.5810E-04  0.0000E+00  0.0000E+00  0.0000E+00  0.0000E+00  0.0000E+00
     -2.766  0.1250E-04  0.2456E-04  0.1696E-05  0.5634E-05  0.0000E+00  0.0000E+00  0.0000E+00  0.0000E+00  0.0000E+00
     -2.667  0.2140E-06  0.4196E-06  0.2879E-07  0.9693E-07  0.0000E+00  0.0000E+00  0.0000E+00  0.0000E+00  0.0000E+00
     -2.567  0.5797E-09  0.1136E-08  0.7787E-10  0.2628E-09  0.0000E+00  0.0000E+00  0.0000E+00  0.0000E+00  0.0000E+00
     -2.468  0.2346E-12  0.4598E-12  0.3150E-13  0.1064E-12  0.0000E+00  0.0000E+00  0.0000E+00  0.0000E+00  0.0000E+00
     -2.369  0.1380E-16  0.2706E-16  0.1854E-17  0.6260E-17  0.0000E+00  0.0000E+00  0.0000E+00  0.0000E+00  0.0000E+00
     -2.269  0.0000E+00  0.0000E+00  0.0000E+00  0.0000E+00  0.0000E+00  0.0000E+00  0.0000E+00  0.0000E+00  0.0000E+00
     -2.170  0.0000E+00  0.0000E+00  0.0000E+00  0.0000E+00  0.0000E+00  0.0000E+00  0.0000E+00  0.0000E+00  0.0000E+00
     -2.070  0.5610E-20  0.1959E-17  0.6886E-19  0.4040E-15  0.0000E+00  0.0000E+00  0.0000E+00  0.0000E+00  0.0000E+00
     -1.971  0.8901E-16  0.3013E-13  0.1063E-14  0.6212E-11  0.0000E+00  0.0000E+00  0.0000E+00  0.0000E+00  0.0000E+00
     -1.871  0.2173E-12  0.6801E-10  0.2423E-11  0.1402E-07  0.0000E+00  0.0000E+00  0.0000E+00  0.0000E+00  0.0000E+00
     -1.772  0.8901E-10  0.2346E-07  0.8557E-09  0.4829E-05  0.0000E+00  0.0000E+00  0.0000E+00  0.0000E+00  0.0000E+00
     -1.673  0.6877E-08  0.1335E-05  0.5123E-07  0.2740E-03  0.0000E+00  0.0000E+00  0.0000E+00  0.0000E+00  0.0000E+00
     -1.573  0.1145E-06  0.1426E-04  0.6009E-06  0.2909E-02  0.0000E+00  0.0000E+00  0.0000E+00  0.0000E+00  0.0000E+00
     -1.474  0.5627E-06  0.3584E-04  0.1785E-05  0.7129E-02  0.0000E+00  0.0000E+00  0.0000E+00  0.0000E+00  0.0000E+00
     -1.374  0.2131E-05  0.5766E-04  0.3636E-05  0.7042E-02  0.0000E+00  0.0000E+00  0.0000E+00  0.0000E+00  0.0000E+00
     -1.275  0.2814E-04  0.2811E-03  0.6494E-04  0.9622E-02  0.0000E+00  0.0000E+00  0.0000E+00  0.0000E+00  0.0000E+00
     -1.176  0.5599E-03  0.1694E-02  0.1679E-02  0.1257E-01  0.0000E+00  0.0000E+00  0.0000E+00  0.0000E+00  0.0000E+00
     -1.076  0.4550E-02  0.6135E-02  0.1608E-01  0.9329E-02  0.0000E+00  0.0000E+00  0.0000E+00  0.0000E+00  0.0000E+00
     -0.977  0.1543E-01  0.1025E-01  0.6175E-01  0.1154E-01  0.0000E+00  0.0000E+00  0.0000E+00  0.0000E+00  0.0000E+00
     -0.877  0.2627E-01  0.1319E-01  0.1115E+00  0.1851E-01  0.0000E+00  0.0000E+00  0.0000E+00  0.0000E+00  0.0000E+00
     -0.778  0.3380E-01  0.1415E-01  0.1455E+00  0.1808E-01  0.0000E+00  0.0000E+00  0.0000E+00  0.0000E+00  0.0000E+00
     -0.679  0.4402E-01  0.1654E-01  0.1896E+00  0.1759E-01  0.0000E+00  0.0000E+00  0.0000E+00  0.0000E+00  0.0000E+00
     -0.579  0.4313E-01  0.1843E-01  0.2034E+00  0.2574E-01  0.0000E+00  0.0000E+00  0.0000E+00  0.0000E+00  0.0000E+00
     -0.480  0.2969E-01  0.1610E-01  0.1527E+00  0.2999E-01  0.0000E+00  0.0000E+00  0.0000E+00  0.0000E+00  0.0000E+00
     -0.380  0.2074E-01  0.1414E-01  0.1086E+00  0.3443E-01  0.0000E+00  0.0000E+00  0.0000E+00  0.0000E+00  0.0000E+00
     -0.281  0.1507E-01  0.1452E-01  0.9217E-01  0.4092E-01  0.0000E+00  0.0000E+00  0.0000E+00  0.0000E+00  0.0000E+00
     -0.182  0.1053E-01  0.1625E-01  0.8199E-01  0.3531E-01  0.0000E+00  0.0000E+00  0.0000E+00  0.0000E+00  0.0000E+00
     -0.082  0.8310E-02  0.1481E-01  0.8719E-01  0.2454E-01  0.0000E+00  0.0000E+00  0.0000E+00  0.0000E+00  0.0000E+00
      0.017  0.9888E-02  0.1620E-01  0.1360E+00  0.2119E-01  0.0000E+00  0.0000E+00  0.0000E+00  0.0000E+00  0.0000E+00
      0.117  0.1077E-01  0.1948E-01  0.1743E+00  0.2214E-01  0.0000E+00  0.0000E+00  0.0000E+00  0.0000E+00  0.0000E+00
      0.216  0.7242E-02  0.1400E-01  0.1451E+00  0.1983E-01  0.0000E+00  0.0000E+00  0.0000E+00  0.0000E+00  0.0000E+00
      0.316  0.7727E-02  0.1267E-01  0.1563E+00  0.1811E-01  0.0000E+00  0.0000E+00  0.0000E+00  0.0000E+00  0.0000E+00
      0.415  0.1043E-01  0.1752E-01  0.1778E+00  0.2062E-01  0.0000E+00  0.0000E+00  0.0000E+00  0.0000E+00  0.0000E+00
      0.514  0.1080E-01  0.2432E-01  0.1606E+00  0.1713E-01  0.0000E+00  0.0000E+00  0.0000E+00  0.0000E+00  0.0000E+00
      0.614  0.1357E-01  0.4007E-01  0.1156E+00  0.1686E-01  0.0000E+00  0.0000E+00  0.0000E+00  0.0000E+00  0.0000E+00
      0.713  0.1979E-01  0.5546E-01  0.6493E-01  0.2232E-01  0.0000E+00  0.0000E+00  0.0000E+00  0.0000E+00  0.0000E+00
      0.813  0.2011E-01  0.5833E-01  0.4318E-01  0.2062E-01  0.0000E+00  0.0000E+00  0.0000E+00  0.0000E+00  0.0000E+00
      0.912  0.1705E-01  0.4969E-01  0.2155E-01  0.1708E-01  0.0000E+00  0.0000E+00  0.0000E+00  0.0000E+00  0.0000E+00
      1.011  0.2486E-01  0.4487E-01  0.9207E-02  0.1665E-01  0.0000E+00  0.0000E+00  0.0000E+00  0.0000E+00  0.0000E+00
      1.111  0.3485E-01  0.4029E-01  0.7770E-02  0.1210E-01  0.0000E+00  0.0000E+00  0.0000E+00  0.0000E+00  0.0000E+00
      1.210  0.3745E-01  0.3697E-01  0.1032E-01  0.8397E-02  0.0000E+00  0.0000E+00  0.0000E+00  0.0000E+00  0.0000E+00
      1.310  0.3998E-01  0.3660E-01  0.1574E-01  0.7724E-02  0.0000E+00  0.0000E+00  0.0000E+00  0.0000E+00  0.0000E+00
      1.409  0.4100E-01  0.3094E-01  0.1953E-01  0.1025E-01  0.0000E+00  0.0000E+00  0.0000E+00  0.0000E+00  0.0000E+00
      1.508  0.4140E-01  0.2828E-01  0.2461E-01  0.1805E-01  0.0000E+00  0.0000E+00  0.0000E+00  0.0000E+00  0.0000E+00
      1.608  0.4182E-01  0.3323E-01  0.3205E-01  0.2864E-01  0.0000E+00  0.0000E+00  0.0000E+00  0.0000E+00  0.0000E+00
      1.707  0.4463E-01  0.4389E-01  0.3578E-01  0.3257E-01  0.0000E+00  0.0000E+00  0.0000E+00  0.0000E+00  0.0000E+00
      1.807  0.4788E-01  0.4908E-01  0.3351E-01  0.3131E-01  0.0000E+00  0.0000E+00  0.0000E+00  0.0000E+00  0.0000E+00
      1.906  0.4861E-01  0.4201E-01  0.2815E-01  0.2960E-01  0.0000E+00  0.0000E+00  0.0000E+00  0.0000E+00  0.0000E+00
      2.005  0.4441E-01  0.3246E-01  0.2305E-01  0.2288E-01  0.0000E+00  0.0000E+00  0.0000E+00  0.0000E+00  0.0000E+00
      2.105  0.3999E-01  0.3195E-01  0.2031E-01  0.2078E-01  0.0000E+00  0.0000E+00  0.0000E+00  0.0000E+00  0.0000E+00
      2.204  0.3637E-01  0.3110E-01  0.2034E-01  0.2199E-01  0.0000E+00  0.0000E+00  0.0000E+00  0.0000E+00  0.0000E+00
      2.304  0.3337E-01  0.2847E-01  0.2139E-01  0.2045E-01  0.0000E+00  0.0000E+00  0.0000E+00  0.0000E+00  0.0000E+00
      2.403  0.3745E-01  0.2631E-01  0.2147E-01  0.1769E-01  0.0000E+00  0.0000E+00  0.0000E+00  0.0000E+00  0.0000E+00
      2.502  0.4786E-01  0.3242E-01  0.2394E-01  0.2022E-01  0.0000E+00  0.0000E+00  0.0000E+00  0.0000E+00  0.0000E+00
      2.602  0.5656E-01  0.4550E-01  0.2886E-01  0.2940E-01  0.0000E+00  0.0000E+00  0.0000E+00  0.0000E+00  0.0000E+00
      2.701  0.5523E-01  0.4672E-01  0.2924E-01  0.4032E-01  0.0000E+00  0.0000E+00  0.0000E+00  0.0000E+00  0.0000E+00
      2.801  0.5182E-01  0.3771E-01  0.2818E-01  0.4597E-01  0.0000E+00  0.0000E+00  0.0000E+00  0.0000E+00  0.0000E+00
      2.900  0.4974E-01  0.3376E-01  0.3187E-01  0.4178E-01  0.0000E+00  0.0000E+00  0.0000E+00  0.0000E+00  0.0000E+00
      3.000  0.4845E-01  0.3123E-01  0.3651E-01  0.3376E-01  0.0000E+00  0.0000E+00  0.0000E+00  0.0000E+00  0.0000E+00
      3.099  0.4827E-01  0.2817E-01  0.3895E-01  0.3030E-01  0.0000E+00  0.0000E+00  0.0000E+00  0.0000E+00  0.0000E+00
      3.198  0.4503E-01  0.2515E-01  0.3404E-01  0.3023E-01  0.0000E+00  0.0000E+00  0.0000E+00  0.0000E+00  0.0000E+00
      3.298  0.3531E-01  0.2113E-01  0.2633E-01  0.2717E-01  0.0000E+00  0.0000E+00  0.0000E+00  0.0000E+00  0.0000E+00
      3.397  0.2984E-01  0.2018E-01  0.2101E-01  0.2964E-01  0.0000E+00  0.0000E+00  0.0000E+00  0.0000E+00  0.0000E+00
      3.497  0.2680E-01  0.1891E-01  0.1919E-01  0.3262E-01  0.0000E+00  0.0000E+00  0.0000E+00  0.0000E+00  0.0000E+00
      3.596  0.2328E-01  0.1659E-01  0.1818E-01  0.2892E-01  0.0000E+00  0.0000E+00  0.0000E+00  0.0000E+00  0.0000E+00
      3.695  0.2152E-01  0.1819E-01  0.1759E-01  0.2600E-01  0.0000E+00  0.0000E+00  0.0000E+00  0.0000E+00  0.0000E+00
      3.795  0.1892E-01  0.1507E-01  0.1458E-01  0.2212E-01  0.0000E+00  0.0000E+00  0.0000E+00  0.0000E+00  0.0000E+00
      3.894  0.1694E-01  0.1158E-01  0.1140E-01  0.1815E-01  0.0000E+00  0.0000E+00  0.0000E+00  0.0000E+00  0.0000E+00
      3.994  0.1444E-01  0.1156E-01  0.1107E-01  0.1620E-01  0.0000E+00  0.0000E+00  0.0000E+00  0.0000E+00  0.0000E+00
      4.093  0.1231E-01  0.1083E-01  0.1056E-01  0.1568E-01  0.0000E+00  0.0000E+00  0.0000E+00  0.0000E+00  0.0000E+00
      4.192  0.8982E-02  0.7504E-02  0.8132E-02  0.1149E-01  0.0000E+00  0.0000E+00  0.0000E+00  0.0000E+00  0.0000E+00
      4.292  0.6513E-02  0.5348E-02  0.5796E-02  0.7828E-02  0.0000E+00  0.0000E+00  0.0000E+00  0.0000E+00  0.0000E+00
      4.391  0.5158E-02  0.4859E-02  0.5714E-02  0.5905E-02  0.0000E+00  0.0000E+00  0.0000E+00  0.0000E+00  0.0000E+00
      4.491  0.4625E-02  0.4244E-02  0.6750E-02  0.3927E-02  0.0000E+00  0.0000E+00  0.0000E+00  0.0000E+00  0.0000E+00
      4.590  0.4532E-02  0.3366E-02  0.7887E-02  0.2736E-02  0.0000E+00  0.0000E+00  0.0000E+00  0.0000E+00  0.0000E+00
      4.689  0.3154E-02  0.1981E-02  0.6252E-02  0.1553E-02  0.0000E+00  0.0000E+00  0.0000E+00  0.0000E+00  0.0000E+00
      4.789  0.1543E-02  0.1541E-02  0.3225E-02  0.6940E-03  0.0000E+00  0.0000E+00  0.0000E+00  0.0000E+00  0.0000E+00
      4.888  0.8044E-03  0.9332E-03  0.1568E-02  0.2919E-03  0.0000E+00  0.0000E+00  0.0000E+00  0.0000E+00  0.0000E+00
      4.988  0.2203E-03  0.2115E-03  0.4522E-03  0.6402E-04  0.0000E+00  0.0000E+00  0.0000E+00  0.0000E+00  0.0000E+00
      5.087  0.9192E-04  0.1145E-03  0.2521E-03  0.3010E-04  0.0000E+00  0.0000E+00  0.0000E+00  0.0000E+00  0.0000E+00
      5.187  0.2894E-04  0.3749E-04  0.8173E-04  0.9735E-05  0.0000E+00  0.0000E+00  0.0000E+00  0.0000E+00  0.0000E+00
      5.286  0.1752E-05  0.2273E-05  0.4953E-05  0.5901E-06  0.0000E+00  0.0000E+00  0.0000E+00  0.0000E+00  0.0000E+00
      5.385  0.1735E-07  0.2250E-07  0.4903E-07  0.5841E-08  0.0000E+00  0.0000E+00  0.0000E+00  0.0000E+00  0.0000E+00
      5.485  0.2630E-10  0.3412E-10  0.7434E-10  0.8857E-11  0.0000E+00  0.0000E+00  0.0000E+00  0.0000E+00  0.0000E+00
      5.584  0.5884E-14  0.7633E-14  0.1663E-13  0.1982E-14  0.0000E+00  0.0000E+00  0.0000E+00  0.0000E+00  0.0000E+00
      5.684  0.1834E-18  0.2379E-18  0.5185E-18  0.6177E-19  0.0000E+00  0.0000E+00  0.0000E+00  0.0000E+00  0.0000E+00
      5.783  0.0000E+00  0.0000E+00  0.0000E+00  0.0000E+00  0.0000E+00  0.0000E+00  0.0000E+00  0.0000E+00  0.0000E+00
      5.882  0.0000E+00  0.0000E+00  0.0000E+00  0.0000E+00  0.0000E+00  0.0000E+00  0.0000E+00  0.0000E+00  0.0000E+00
      5.982  0.0000E+00  0.0000E+00  0.0000E+00  0.0000E+00  0.0000E+00  0.0000E+00  0.0000E+00  0.0000E+00  0.0000E+00
      6.081  0.0000E+00  0.0000E+00  0.0000E+00  0.0000E+00  0.0000E+00  0.0000E+00  0.0000E+00  0.0000E+00  0.0000E+00
      6.181  0.0000E+00  0.0000E+00  0.0000E+00  0.0000E+00  0.0000E+00  0.0000E+00  0.0000E+00  0.0000E+00  0.0000E+00
      6.280  0.0000E+00  0.0000E+00  0.0000E+00  0.0000E+00  0.0000E+00  0.0000E+00  0.0000E+00  0.0000E+00  0.0000E+00
      6.379  0.0000E+00  0.0000E+00  0.0000E+00  0.0000E+00  0.0000E+00  0.0000E+00  0.0000E+00  0.0000E+00  0.0000E+00
      6.37943935    -23.44321047  301     -4.43334101      1.00000000
    -23.443  0.0000E+00  0.0000E+00  0.0000E+00  0.0000E+00  0.0000E+00  0.0000E+00  0.0000E+00  0.0000E+00  0.0000E+00
    -23.344  0.0000E+00  0.0000E+00  0.0000E+00  0.0000E+00  0.0000E+00  0.0000E+00  0.0000E+00  0.0000E+00  0.0000E+00
    -23.244  0.0000E+00  0.0000E+00  0.0000E+00  0.0000E+00  0.0000E+00  0.0000E+00  0.0000E+00  0.0000E+00  0.0000E+00
    -23.145  0.0000E+00  0.0000E+00  0.0000E+00  0.0000E+00  0.0000E+00  0.0000E+00  0.0000E+00  0.0000E+00  0.0000E+00
    -23.046  0.0000E+00  0.0000E+00  0.0000E+00  0.0000E+00  0.0000E+00  0.0000E+00  0.0000E+00  0.0000E+00  0.0000E+00
    -22.946  0.0000E+00  0.0000E+00  0.0000E+00  0.0000E+00  0.0000E+00  0.0000E+00  0.0000E+00  0.0000E+00  0.0000E+00
    -22.847  0.0000E+00  0.0000E+00  0.0000E+00  0.0000E+00  0.0000E+00  0.0000E+00  0.0000E+00  0.0000E+00  0.0000E+00
    -22.747  0.0000E+00  0.0000E+00  0.0000E+00  0.0000E+00  0.0000E+00  0.0000E+00  0.0000E+00  0.0000E+00  0.0000E+00
    -22.648  0.3151E-16  0.2399E-18  0.1141E-16  0.1389E-20  0.0000E+00  0.0000E+00  0.0000E+00  0.0000E+00  0.0000E+00
    -22.549  0.1142E-11  0.8733E-14  0.4138E-12  0.6254E-16  0.0000E+00  0.0000E+00  0.0000E+00  0.0000E+00  0.0000E+00
    -22.449  0.6190E-08  0.4754E-10  0.2243E-08  0.4159E-12  0.0000E+00  0.0000E+00  0.0000E+00  0.0000E+00  0.0000E+00
    -22.350  0.5260E-05  0.4069E-07  0.1907E-05  0.4521E-09  0.0000E+00  0.0000E+00  0.0000E+00  0.0000E+00  0.0000E+00
    -22.250  0.7539E-03  0.5910E-05  0.2735E-03  0.8767E-07  0.0000E+00  0.0000E+00  0.0000E+00  0.0000E+00  0.0000E+00
    -22.151  0.2074E-01  0.1663E-03  0.7536E-02  0.3512E-05  0.0000E+00  0.0000E+00  0.0000E+00  0.0000E+00  0.0000E+00
    -22.051  0.1338E+00  0.1104E-02  0.4874E-01  0.3638E-04  0.0000E+00  0.0000E+00  0.0000E+00  0.0000E+00  0.0000E+00
    -21.952  0.2648E+00  0.2186E-02  0.9683E-01  0.1315E-03  0.0000E+00  0.0000E+00  0.0000E+00  0.0000E+00  0.0000E+00
    -21.853  0.2438E+00  0.1807E-02  0.8966E-01  0.2372E-03  0.0000E+00  0.0000E+00  0.0000E+00  0.0000E+00  0.0000E+00
    -21.753  0.1932E+00  0.1114E-02  0.7166E-01  0.3029E-03  0.0000E+00  0.0000E+00  0.0000E+00  0.0000E+00  0.0000E+00
    -21.654  0.1762E+00  0.7405E-03  0.6591E-01  0.3367E-03  0.0000E+00  0.0000E+00  0.0000E+00  0.0000E+00  0.0000E+00
    -21.554  0.1774E+00  0.5084E-03  0.6689E-01  0.3476E-03  0.0000E+00  0.0000E+00  0.0000E+00  0.0000E+00  0.0000E+00
    -21.455  0.1958E+00  0.3389E-03  0.7442E-01  0.3354E-03  0.0000E+00  0.0000E+00  0.0000E+00  0.0000E+00  0.0000E+00
    -21.356  0.2475E+00  0.2167E-03  0.9480E-01  0.2904E-03  0.0000E+00  0.0000E+00  0.0000E+00  0.0000E+00  0.0000E+00
    -21.256  0.2974E+00  0.1426E-03  0.1146E+00  0.1970E-03  0.0000E+00  0.0000E+00  0.0000E+00  0.0000E+00  0.0000E+00
    -21.157  0.2132E+00  0.8209E-04  0.8263E-01  0.8226E-04  0.0000E+00  0.0000E+00  0.0000E+00  0.0000E+00  0.0000E+00
    -21.057  0.6477E-01  0.2303E-04  0.2520E-01  0.1551E-04  0.0000E+00  0.0000E+00  0.0000E+00  0.0000E+00  0.0000E+00
    -20.958  0.5878E-02  0.1934E-05  0.2292E-02  0.9287E-06  0.0000E+00  0.0000E+00  0.0000E+00  0.0000E+00  0.0000E+00
    -20.859  0.1168E-03  0.3601E-07  0.4559E-04  0.1309E-07  0.0000E+00  0.0000E+00  0.0000E+00  0.0000E+00  0.0000E+00
    -20.759  0.4192E-06  0.1233E-09  0.1637E-06  0.3558E-10  0.0000E+00  0.0000E+00  0.0000E+00  0.0000E+00  0.0000E+00
    -20.660  0.2447E-09  0.6964E-13  0.9562E-10  0.1654E-13  0.0000E+00  0.0000E+00  0.0000E+00  0.0000E+00  0.0000E+00
    -20.560  0.2195E-13  0.6099E-17  0.8579E-14  0.1225E-17  0.0000E+00  0.0000E+00  0.0000E+00  0.0000E+00  0.0000E+00
    -20.461  0.0000E+00  0.0000E+00  0.0000E+00  0.0000E+00  0.0000E+00  0.0000E+00  0.0000E+00  0.0000E+00  0.0000E+00
    -20.362  0.0000E+00  0.0000E+00  0.0000E+00  0.0000E+00  0.0000E+00  0.0000E+00  0.0000E+00  0.0000E+00  0.0000E+00
    -20.262  0.0000E+00  0.0000E+00  0.0000E+00  0.0000E+00  0.0000E+00  0.0000E+00  0.0000E+00  0.0000E+00  0.0000E+00
    -20.163  0.0000E+00  0.0000E+00  0.0000E+00  0.0000E+00  0.0000E+00  0.0000E+00  0.0000E+00  0.0000E+00  0.0000E+00
    -20.063  0.0000E+00  0.0000E+00  0.0000E+00  0.0000E+00  0.0000E+00  0.0000E+00  0.0000E+00  0.0000E+00  0.0000E+00
    -19.964  0.0000E+00  0.0000E+00  0.0000E+00  0.0000E+00  0.0000E+00  0.0000E+00  0.0000E+00  0.0000E+00  0.0000E+00
    -19.864  0.0000E+00  0.0000E+00  0.0000E+00  0.0000E+00  0.0000E+00  0.0000E+00  0.0000E+00  0.0000E+00  0.0000E+00
    -19.765  0.0000E+00  0.0000E+00  0.0000E+00  0.0000E+00  0.0000E+00  0.0000E+00  0.0000E+00  0.0000E+00  0.0000E+00
    -19.666  0.0000E+00  0.0000E+00  0.0000E+00  0.0000E+00  0.0000E+00  0.0000E+00  0.0000E+00  0.0000E+00  0.0000E+00
    -19.566  0.0000E+00  0.0000E+00  0.0000E+00  0.0000E+00  0.0000E+00  0.0000E+00  0.0000E+00  0.0000E+00  0.0000E+00
    -19.467  0.0000E+00  0.0000E+00  0.0000E+00  0.0000E+00  0.0000E+00  0.0000E+00  0.0000E+00  0.0000E+00  0.0000E+00
    -19.367  0.0000E+00  0.0000E+00  0.0000E+00  0.0000E+00  0.0000E+00  0.0000E+00  0.0000E+00  0.0000E+00  0.0000E+00
    -19.268  0.0000E+00  0.0000E+00  0.0000E+00  0.0000E+00  0.0000E+00  0.0000E+00  0.0000E+00  0.0000E+00  0.0000E+00
    -19.169  0.0000E+00  0.0000E+00  0.0000E+00  0.0000E+00  0.0000E+00  0.0000E+00  0.0000E+00  0.0000E+00  0.0000E+00
    -19.069  0.0000E+00  0.0000E+00  0.0000E+00  0.0000E+00  0.0000E+00  0.0000E+00  0.0000E+00  0.0000E+00  0.0000E+00
    -18.970  0.0000E+00  0.0000E+00  0.0000E+00  0.0000E+00  0.0000E+00  0.0000E+00  0.0000E+00  0.0000E+00  0.0000E+00
    -18.870  0.0000E+00  0.0000E+00  0.0000E+00  0.0000E+00  0.0000E+00  0.0000E+00  0.0000E+00  0.0000E+00  0.0000E+00
    -18.771  0.0000E+00  0.0000E+00  0.0000E+00  0.0000E+00  0.0000E+00  0.0000E+00  0.0000E+00  0.0000E+00  0.0000E+00
    -18.672  0.0000E+00  0.0000E+00  0.0000E+00  0.0000E+00  0.0000E+00  0.0000E+00  0.0000E+00  0.0000E+00  0.0000E+00
    -18.572  0.0000E+00  0.0000E+00  0.0000E+00  0.0000E+00  0.0000E+00  0.0000E+00  0.0000E+00  0.0000E+00  0.0000E+00
    -18.473  0.0000E+00  0.0000E+00  0.0000E+00  0.0000E+00  0.0000E+00  0.0000E+00  0.0000E+00  0.0000E+00  0.0000E+00
    -18.373  0.0000E+00  0.0000E+00  0.0000E+00  0.0000E+00  0.0000E+00  0.0000E+00  0.0000E+00  0.0000E+00  0.0000E+00
    -18.274  0.0000E+00  0.0000E+00  0.0000E+00  0.0000E+00  0.0000E+00  0.0000E+00  0.0000E+00  0.0000E+00  0.0000E+00
    -18.175  0.0000E+00  0.0000E+00  0.0000E+00  0.0000E+00  0.0000E+00  0.0000E+00  0.0000E+00  0.0000E+00  0.0000E+00
    -18.075  0.0000E+00  0.0000E+00  0.0000E+00  0.0000E+00  0.0000E+00  0.0000E+00  0.0000E+00  0.0000E+00  0.0000E+00
    -17.976  0.0000E+00  0.0000E+00  0.0000E+00  0.0000E+00  0.0000E+00  0.0000E+00  0.0000E+00  0.0000E+00  0.0000E+00
    -17.876  0.8028E-19  0.1976E-18  0.3882E-19  0.2171E-18  0.0000E+00  0.0000E+00  0.0000E+00  0.0000E+00  0.0000E+00
    -17.777  0.5932E-14  0.1473E-13  0.2869E-14  0.1648E-13  0.0000E+00  0.0000E+00  0.0000E+00  0.0000E+00  0.0000E+00
    -17.677  0.5119E-10  0.1268E-09  0.2478E-10  0.1420E-09  0.0000E+00  0.0000E+00  0.0000E+00  0.0000E+00  0.0000E+00
    -17.578  0.6823E-07  0.1683E-06  0.3306E-07  0.1886E-06  0.0000E+00  0.0000E+00  0.0000E+00  0.0000E+00  0.0000E+00
    -17.479  0.1492E-04  0.3655E-04  0.7243E-05  0.4106E-04  0.0000E+00  0.0000E+00  0.0000E+00  0.0000E+00  0.0000E+00
    -17.379  0.5969E-03  0.1445E-02  0.2908E-03  0.1630E-02  0.0000E+00  0.0000E+00  0.0000E+00  0.0000E+00  0.0000E+00
    -17.280  0.5319E-02  0.1256E-01  0.2609E-02  0.1432E-01  0.0000E+00  0.0000E+00  0.0000E+00  0.0000E+00  0.0000E+00
    -17.180  0.1501E-01  0.3361E-01  0.7472E-02  0.3989E-01  0.0000E+00  0.0000E+00  0.0000E+00  0.0000E+00  0.0000E+00
    -17.081  0.2357E-01  0.4759E-01  0.1203E-01  0.6517E-01  0.0000E+00  0.0000E+00  0.0000E+00  0.0000E+00  0.0000E+00
    -16.982  0.3416E-01  0.6183E-01  0.1789E-01  0.8485E-01  0.0000E+00  0.0000E+00  0.0000E+00  0.0000E+00  0.0000E+00
    -16.882  0.4795E-01  0.8511E-01  0.2552E-01  0.6013E-01  0.0000E+00  0.0000E+00  0.0000E+00  0.0000E+00  0.0000E+00
    -16.783  0.4508E-01  0.7829E-01  0.2434E-01  0.2421E-01  0.0000E+00  0.0000E+00  0.0000E+00  0.0000E+00  0.0000E+00
    -16.683  0.2793E-01  0.4581E-01  0.1538E-01  0.7388E-02  0.0000E+00  0.0000E+00  0.0000E+00  0.0000E+00  0.0000E+00
    -16.584  0.1147E-01  0.1798E-01  0.6412E-02  0.1332E-02  0.0000E+00  0.0000E+00  0.0000E+00  0.0000E+00  0.0000E+00
    -16.485  0.1974E-02  0.3023E-02  0.1111E-02  0.1011E-03  0.0000E+00  0.0000E+00  0.0000E+00  0.0000E+00  0.0000E+00
    -16.385  0.8955E-04  0.1356E-03  0.5056E-04  0.2413E-05  0.0000E+00  0.0000E+00  0.0000E+00  0.0000E+00  0.0000E+00
    -16.286  0.8117E-06  0.1222E-05  0.4590E-06  0.1367E-07  0.0000E+00  0.0000E+00  0.0000E+00  0.0000E+00  0.0000E+00
    -16.186  0.1264E-08  0.1896E-08  0.7152E-09  0.1502E-10  0.0000E+00  0.0000E+00  0.0000E+00  0.0000E+00  0.0000E+00
    -16.087  0.3112E-12  0.4661E-12  0.1762E-12  0.2840E-14  0.0000E+00  0.0000E+00  0.0000E+00  0.0000E+00  0.0000E+00
    -15.988  0.1157E-16  0.1730E-16  0.6553E-17  0.8310E-19  0.0000E+00  0.0000E+00  0.0000E+00  0.0000E+00  0.0000E+00
    -15.888  0.7073E-17  0.4098E-15  0.1035E-16  0.2157E-17  0.0000E+00  0.0000E+00  0.0000E+00  0.0000E+00  0.0000E+00
    -15.789  0.1057E-12  0.6103E-11  0.1543E-12  0.3231E-13  0.0000E+00  0.0000E+00  0.0000E+00  0.0000E+00  0.0000E+00
    -15.689  0.2340E-09  0.1337E-07  0.3397E-09  0.7212E-10  0.0000E+00  0.0000E+00  0.0000E+00  0.0000E+00  0.0000E+00
    -15.590  0.8100E-07  0.4510E-05  0.1160E-06  0.2621E-07  0.0000E+00  0.0000E+00  0.0000E+00  0.0000E+00  0.0000E+00
    -15.491  0.4910E-05  0.2587E-03  0.6841E-05  0.1917E-05  0.0000E+00  0.0000E+00  0.0000E+00  0.0000E+00  0.0000E+00
    -15.391  0.6421E-04  0.3059E-02  0.8533E-04  0.3808E-04  0.0000E+00  0.0000E+00  0.0000E+00  0.0000E+00  0.0000E+00
    -15.292  0.2524E-03  0.1021E-01  0.3126E-03  0.2474E-03  0.0000E+00  0.0000E+00  0.0000E+00  0.0000E+00  0.0000E+00
    -15.192  0.4726E-03  0.1542E-01  0.5396E-03  0.7862E-03  0.0000E+00  0.0000E+00  0.0000E+00  0.0000E+00  0.0000E+00
    -15.093  0.6744E-03  0.1887E-01  0.7343E-03  0.1911E-02  0.0000E+00  0.0000E+00  0.0000E+00  0.0000E+00  0.0000E+00
    -14.993  0.8525E-03  0.2227E-01  0.9139E-03  0.4290E-02  0.0000E+00  0.0000E+00  0.0000E+00  0.0000E+00  0.0000E+00
    -14.894  0.1147E-02  0.3071E-01  0.1260E-02  0.1216E-01  0.0000E+00  0.0000E+00  0.0000E+00  0.0000E+00  0.0000E+00
    -14.795  0.1704E-02  0.4764E-01  0.1953E-02  0.3771E-01  0.0000E+00  0.0000E+00  0.0000E+00  0.0000E+00  0.0000E+00
    -14.695  0.2244E-02  0.6320E-01  0.2588E-02  0.6183E-01  0.0000E+00  0.0000E+00  0.0000E+00  0.0000E+00  0.0000E+00
    -14.596  0.1972E-02  0.5550E-01  0.2151E-02  0.5111E-01  0.0000E+00  0.0000E+00  0.0000E+00  0.0000E+00  0.0000E+00
    -14.496  0.1657E-02  0.5163E-01  0.1702E-02  0.4494E-01  0.0000E+00  0.0000E+00  0.0000E+00  0.0000E+00  0.0000E+00
    -14.397  0.1458E-02  0.4576E-01  0.1433E-02  0.5902E-01  0.0000E+00  0.0000E+00  0.0000E+00  0.0000E+00  0.0000E+00
    -14.298  0.1422E-02  0.3117E-01  0.1385E-02  0.7269E-01  0.0000E+00  0.0000E+00  0.0000E+00  0.0000E+00  0.0000E+00
    -14.198  0.1525E-02  0.2738E-01  0.1473E-02  0.7861E-01  0.0000E+00  0.0000E+00  0.0000E+00  0.0000E+00  0.0000E+00
    -14.099  0.1555E-02  0.3105E-01  0.1463E-02  0.9013E-01  0.0000E+00  0.0000E+00  0.0000E+00  0.0000E+00  0.0000E+00
    -13.999  0.1452E-02  0.3850E-01  0.1333E-02  0.1077E+00  0.0000E+00  0.0000E+00  0.0000E+00  0.0000E+00  0.0000E+00
    -13.900  0.1059E-02  0.3851E-01  0.9325E-03  0.9539E-01  0.0000E+00  0.0000E+00  0.0000E+00  0.0000E+00  0.0000E+00
    -13.801  0.6142E-03  0.3305E-01  0.5024E-03  0.6271E-01  0.0000E+00  0.0000E+00  0.0000E+00  0.0000E+00  0.0000E+00
    -13.701  0.2668E-03  0.2198E-01  0.1922E-03  0.3442E-01  0.0000E+00  0.0000E+00  0.0000E+00  0.0000E+00  0.0000E+00
    -13.602  0.5948E-04  0.6628E-02  0.3689E-04  0.9849E-02  0.0000E+00  0.0000E+00  0.0000E+00  0.0000E+00  0.0000E+00
    -13.502  0.4030E-05  0.5505E-03  0.2150E-05  0.8081E-03  0.0000E+00  0.0000E+00  0.0000E+00  0.0000E+00  0.0000E+00
    -13.403  0.5981E-07  0.9671E-05  0.2672E-07  0.1411E-04  0.0000E+00  0.0000E+00  0.0000E+00  0.0000E+00  0.0000E+00
    -13.304  0.1683E-09  0.3085E-07  0.6262E-10  0.4487E-07  0.0000E+00  0.0000E+00  0.0000E+00  0.0000E+00  0.0000E+00
    -13.204  0.2178E-12  0.1615E-10  0.1993E-12  0.2397E-10  0.0000E+00  0.0000E+00  0.0000E+00  0.0000E+00  0.0000E+00
    -13.105  0.5410E-09  0.1163E-09  0.6875E-09  0.2306E-08  0.0000E+00  0.0000E+00  0.0000E+00  0.0000E+00  0.0000E+00
    -13.005  0.3416E-06  0.7985E-07  0.4343E-06  0.1524E-05  0.0000E+00  0.0000E+00  0.0000E+00  0.0000E+00  0.0000E+00
    -12.906  0.3694E-04  0.9533E-05  0.4694E-04  0.1717E-03  0.0000E+00  0.0000E+00  0.0000E+00  0.0000E+00  0.0000E+00
    -12.806  0.7976E-03  0.2242E-03  0.9840E-03  0.3631E-02  0.0000E+00  0.0000E+00  0.0000E+00  0.0000E+00  0.0000E+00
    -12.707  0.5954E-02  0.1386E-02  0.5149E-02  0.1725E-01  0.0000E+00  0.0000E+00  0.0000E+00  0.0000E+00  0.0000E+00
    -12.608  0.3752E-01  0.3727E-02  0.1031E-01  0.2678E-01  0.0000E+00  0.0000E+00  0.0000E+00  0.0000E+00  0.0000E+00
    -12.508  0.1274E+00  0.6643E-02  0.1152E-01  0.2467E-01  0.0000E+00  0.0000E+00  0.0000E+00  0.0000E+00  0.0000E+00
    -12.409  0.2076E+00  0.9206E-02  0.9475E-02  0.2155E-01  0.0000E+00  0.0000E+00  0.0000E+00  0.0000E+00  0.0000E+00
    -12.309  0.2445E+00  0.1099E-01  0.8181E-02  0.2043E-01  0.0000E+00  0.0000E+00  0.0000E+00  0.0000E+00  0.0000E+00
    -12.210  0.2221E+00  0.1084E-01  0.7423E-02  0.2060E-01  0.0000E+00  0.0000E+00  0.0000E+00  0.0000E+00  0.0000E+00
    -12.111  0.1794E+00  0.9834E-02  0.6942E-02  0.2077E-01  0.0000E+00  0.0000E+00  0.0000E+00  0.0000E+00  0.0000E+00
    -12.011  0.1577E+00  0.9268E-02  0.6898E-02  0.2163E-01  0.0000E+00  0.0000E+00  0.0000E+00  0.0000E+00  0.0000E+00
    -11.912  0.1476E+00  0.8877E-02  0.6505E-02  0.2220E-01  0.0000E+00  0.0000E+00  0.0000E+00  0.0000E+00  0.0000E+00
    -11.812  0.1434E+00  0.8745E-02  0.6346E-02  0.2241E-01  0.0000E+00  0.0000E+00  0.0000E+00  0.0000E+00  0.0000E+00
    -11.713  0.1440E+00  0.8508E-02  0.6642E-02  0.2269E-01  0.0000E+00  0.0000E+00  0.0000E+00  0.0000E+00  0.0000E+00
    -11.614  0.1481E+00  0.8623E-02  0.6152E-02  0.1627E-01  0.0000E+00  0.0000E+00  0.0000E+00  0.0000E+00  0.0000E+00
    -11.514  0.1602E+00  0.9695E-02  0.6587E-02  0.1124E-01  0.0000E+00  0.0000E+00  0.0000E+00  0.0000E+00  0.0000E+00
    -11.415  0.1898E+00  0.1222E-01  0.6710E-02  0.1131E-01  0.0000E+00  0.0000E+00  0.0000E+00  0.0000E+00  0.0000E+00
    -11.315  0.2473E+00  0.1799E-01  0.6943E-02  0.1136E-01  0.0000E+00  0.0000E+00  0.0000E+00  0.0000E+00  0.0000E+00
    -11.216  0.2610E+00  0.2074E-01  0.7284E-02  0.1151E-01  0.0000E+00  0.0000E+00  0.0000E+00  0.0000E+00  0.0000E+00
    -11.117  0.2054E+00  0.2180E-01  0.7888E-02  0.1336E-01  0.0000E+00  0.0000E+00  0.0000E+00  0.0000E+00  0.0000E+00
    -11.017  0.1635E+00  0.2690E-01  0.9316E-02  0.1450E-01  0.0000E+00  0.0000E+00  0.0000E+00  0.0000E+00  0.0000E+00
    -10.918  0.1391E+00  0.2877E-01  0.9246E-02  0.1379E-01  0.0000E+00  0.0000E+00  0.0000E+00  0.0000E+00  0.0000E+00
    -10.818  0.1188E+00  0.2508E-01  0.7805E-02  0.1363E-01  0.0000E+00  0.0000E+00  0.0000E+00  0.0000E+00  0.0000E+00
    -10.719  0.8178E-01  0.2443E-01  0.5759E-02  0.1202E-01  0.0000E+00  0.0000E+00  0.0000E+00  0.0000E+00  0.0000E+00
    -10.619  0.2848E-01  0.3082E-01  0.5876E-02  0.1572E-01  0.0000E+00  0.0000E+00  0.0000E+00  0.0000E+00  0.0000E+00
    -10.520  0.6317E-02  0.3768E-01  0.7720E-02  0.2229E-01  0.0000E+00  0.0000E+00  0.0000E+00  0.0000E+00  0.0000E+00
    -10.421  0.3189E-02  0.2563E-01  0.6247E-02  0.2043E-01  0.0000E+00  0.0000E+00  0.0000E+00  0.0000E+00  0.0000E+00
    -10.321  0.1902E-02  0.1156E-01  0.3799E-02  0.1547E-01  0.0000E+00  0.0000E+00  0.0000E+00  0.0000E+00  0.0000E+00
    -10.222  0.1593E-02  0.7705E-02  0.3268E-02  0.1401E-01  0.0000E+00  0.0000E+00  0.0000E+00  0.0000E+00  0.0000E+00
    -10.122  0.1371E-02  0.5886E-02  0.2880E-02  0.1234E-01  0.0000E+00  0.0000E+00  0.0000E+00  0.0000E+00  0.0000E+00
    -10.023  0.1397E-02  0.7673E-02  0.2906E-02  0.1517E-01  0.0000E+00  0.0000E+00  0.0000E+00  0.0000E+00  0.0000E+00
     -9.924  0.1142E-02  0.9416E-02  0.2377E-02  0.1405E-01  0.0000E+00  0.0000E+00  0.0000E+00  0.0000E+00  0.0000E+00
     -9.824  0.8356E-03  0.1180E-01  0.1850E-02  0.1133E-01  0.0000E+00  0.0000E+00  0.0000E+00  0.0000E+00  0.0000E+00
     -9.725  0.7930E-03  0.1523E-01  0.2124E-02  0.1143E-01  0.0000E+00  0.0000E+00  0.0000E+00  0.0000E+00  0.0000E+00
     -9.625  0.1235E-02  0.2468E-01  0.4141E-02  0.1680E-01  0.0000E+00  0.0000E+00  0.0000E+00  0.0000E+00  0.0000E+00
     -9.526  0.1677E-02  0.3255E-01  0.6113E-02  0.2331E-01  0.0000E+00  0.0000E+00  0.0000E+00  0.0000E+00  0.0000E+00
     -9.427  0.1379E-02  0.2680E-01  0.5127E-02  0.2087E-01  0.0000E+00  0.0000E+00  0.0000E+00  0.0000E+00  0.0000E+00
     -9.327  0.1041E-02  0.1942E-01  0.4000E-02  0.1586E-01  0.0000E+00  0.0000E+00  0.0000E+00  0.0000E+00  0.0000E+00
     -9.228  0.7579E-03  0.1334E-01  0.3107E-02  0.1040E-01  0.0000E+00  0.0000E+00  0.0000E+00  0.0000E+00  0.0000E+00
     -9.128  0.5660E-03  0.1023E-01  0.2428E-02  0.7967E-02  0.0000E+00  0.0000E+00  0.0000E+00  0.0000E+00  0.0000E+00
     -9.029  0.5474E-03  0.1060E-01  0.2569E-02  0.7281E-02  0.0000E+00  0.0000E+00  0.0000E+00  0.0000E+00  0.0000E+00
     -8.930  0.7638E-03  0.1488E-01  0.4083E-02  0.9125E-02  0.0000E+00  0.0000E+00  0.0000E+00  0.0000E+00  0.0000E+00
     -8.830  0.1152E-02  0.2210E-01  0.6104E-02  0.1357E-01  0.0000E+00  0.0000E+00  0.0000E+00  0.0000E+00  0.0000E+00
     -8.731  0.3042E-02  0.4083E-01  0.7237E-02  0.3232E-01  0.0000E+00  0.0000E+00  0.0000E+00  0.0000E+00  0.0000E+00
     -8.631  0.7860E-02  0.8317E-01  0.8687E-02  0.7521E-01  0.0000E+00  0.0000E+00  0.0000E+00  0.0000E+00  0.0000E+00
     -8.532  0.1194E-01  0.1123E+00  0.9446E-02  0.1051E+00  0.0000E+00  0.0000E+00  0.0000E+00  0.0000E+00  0.0000E+00
     -8.432  0.1489E-01  0.1250E+00  0.8235E-02  0.1242E+00  0.0000E+00  0.0000E+00  0.0000E+00  0.0000E+00  0.0000E+00
     -8.333  0.1837E-01  0.1381E+00  0.6309E-02  0.1505E+00  0.0000E+00  0.0000E+00  0.0000E+00  0.0000E+00  0.0000E+00
     -8.234  0.2144E-01  0.1457E+00  0.5196E-02  0.1572E+00  0.0000E+00  0.0000E+00  0.0000E+00  0.0000E+00  0.0000E+00
     -8.134  0.2344E-01  0.1403E+00  0.4325E-02  0.1380E+00  0.0000E+00  0.0000E+00  0.0000E+00  0.0000E+00  0.0000E+00
     -8.035  0.2718E-01  0.1486E+00  0.3373E-02  0.1307E+00  0.0000E+00  0.0000E+00  0.0000E+00  0.0000E+00  0.0000E+00
     -7.935  0.3324E-01  0.1552E+00  0.2612E-02  0.1244E+00  0.0000E+00  0.0000E+00  0.0000E+00  0.0000E+00  0.0000E+00
     -7.836  0.3247E-01  0.1236E+00  0.1689E-02  0.9731E-01  0.0000E+00  0.0000E+00  0.0000E+00  0.0000E+00  0.0000E+00
     -7.737  0.2482E-01  0.8643E-01  0.1106E-02  0.6699E-01  0.0000E+00  0.0000E+00  0.0000E+00  0.0000E+00  0.0000E+00
     -7.637  0.1827E-01  0.6411E-01  0.8657E-03  0.4482E-01  0.0000E+00  0.0000E+00  0.0000E+00  0.0000E+00  0.0000E+00
     -7.538  0.1333E-01  0.4975E-01  0.9929E-03  0.2938E-01  0.0000E+00  0.0000E+00  0.0000E+00  0.0000E+00  0.0000E+00
     -7.438  0.8573E-02  0.3188E-01  0.1103E-02  0.1825E-01  0.0000E+00  0.0000E+00  0.0000E+00  0.0000E+00  0.0000E+00
     -7.339  0.5439E-02  0.2036E-01  0.7912E-03  0.1110E-01  0.0000E+00  0.0000E+00  0.0000E+00  0.0000E+00  0.0000E+00
     -7.240  0.2942E-02  0.1466E-01  0.8594E-03  0.6725E-02  0.0000E+00  0.0000E+00  0.0000E+00  0.0000E+00  0.0000E+00
     -7.140  0.1131E-02  0.8403E-02  0.1089E-02  0.5649E-02  0.0000E+00  0.0000E+00  0.0000E+00  0.0000E+00  0.0000E+00
     -7.041  0.1353E-02  0.1242E-01  0.1292E-02  0.1493E-01  0.0000E+00  0.0000E+00  0.0000E+00  0.0000E+00  0.0000E+00
     -6.941  0.5336E-02  0.4502E-01  0.1306E-02  0.5495E-01  0.0000E+00  0.0000E+00  0.0000E+00  0.0000E+00  0.0000E+00
     -6.842  0.1068E-01  0.8719E-01  0.1335E-02  0.1142E+00  0.0000E+00  0.0000E+00  0.0000E+00  0.0000E+00  0.0000E+00
     -6.743  0.1429E-01  0.1156E+00  0.1713E-02  0.1541E+00  0.0000E+00  0.0000E+00  0.0000E+00  0.0000E+00  0.0000E+00
     -6.643  0.1312E-01  0.1121E+00  0.2145E-02  0.1440E+00  0.0000E+00  0.0000E+00  0.0000E+00  0.0000E+00  0.0000E+00
     -6.544  0.1105E-01  0.1051E+00  0.1770E-02  0.1299E+00  0.0000E+00  0.0000E+00  0.0000E+00  0.0000E+00  0.0000E+00
     -6.444  0.9606E-02  0.1082E+00  0.1387E-02  0.1300E+00  0.0000E+00  0.0000E+00  0.0000E+00  0.0000E+00  0.0000E+00
     -6.345  0.8475E-02  0.1249E+00  0.1355E-02  0.1395E+00  0.0000E+00  0.0000E+00  0.0000E+00  0.0000E+00  0.0000E+00
     -6.245  0.7098E-02  0.1662E+00  0.1993E-02  0.1416E+00  0.0000E+00  0.0000E+00  0.0000E+00  0.0000E+00  0.0000E+00
     -6.146  0.5512E-02  0.1963E+00  0.2321E-02  0.1404E+00  0.0000E+00  0.0000E+00  0.0000E+00  0.0000E+00  0.0000E+00
     -6.047  0.3729E-02  0.1615E+00  0.1866E-02  0.1342E+00  0.0000E+00  0.0000E+00  0.0000E+00  0.0000E+00  0.0000E+00
     -5.947  0.2195E-02  0.1300E+00  0.1716E-02  0.1205E+00  0.0000E+00  0.0000E+00  0.0000E+00  0.0000E+00  0.0000E+00
     -5.848  0.9521E-03  0.9298E-01  0.1459E-02  0.8847E-01  0.0000E+00  0.0000E+00  0.0000E+00  0.0000E+00  0.0000E+00
     -5.748  0.3448E-03  0.3461E-01  0.3029E-02  0.3362E-01  0.0000E+00  0.0000E+00  0.0000E+00  0.0000E+00  0.0000E+00
     -5.649  0.2611E-03  0.6944E-02  0.3658E-02  0.6405E-02  0.0000E+00  0.0000E+00  0.0000E+00  0.0000E+00  0.0000E+00
     -5.550  0.1511E-03  0.2999E-02  0.1904E-02  0.1385E-02  0.0000E+00  0.0000E+00  0.0000E+00  0.0000E+00  0.0000E+00
     -5.450  0.1618E-03  0.2835E-02  0.1390E-02  0.6189E-03  0.0000E+00  0.0000E+00  0.0000E+00  0.0000E+00  0.0000E+00
     -5.351  0.5548E-03  0.4367E-02  0.3875E-02  0.2301E-02  0.0000E+00  0.0000E+00  0.0000E+00  0.0000E+00  0.0000E+00
     -5.251  0.1013E-02  0.6099E-02  0.6392E-02  0.4002E-02  0.0000E+00  0.0000E+00  0.0000E+00  0.0000E+00  0.0000E+00
     -5.152  0.8974E-03  0.6034E-02  0.3880E-02  0.1776E-02  0.0000E+00  0.0000E+00  0.0000E+00  0.0000E+00  0.0000E+00
     -5.053  0.1744E-02  0.4676E-02  0.4157E-02  0.6860E-03  0.0000E+00  0.0000E+00  0.0000E+00  0.0000E+00  0.0000E+00
     -4.953  0.7441E-02  0.5047E-02  0.1534E-01  0.1597E-02  0.0000E+00  0.0000E+00  0.0000E+00  0.0000E+00  0.0000E+00
     -4.854  0.4700E-01  0.5741E-02  0.8862E-01  0.3207E-02  0.0000E+00  0.0000E+00  0.0000E+00  0.0000E+00  0.0000E+00
     -4.754  0.1445E+00  0.6190E-02  0.2667E+00  0.2211E-02  0.0000E+00  0.0000E+00  0.0000E+00  0.0000E+00  0.0000E+00
     -4.655  0.1922E+00  0.4394E-02  0.3588E+00  0.9613E-03  0.0000E+00  0.0000E+00  0.0000E+00  0.0000E+00  0.0000E+00
     -4.556  0.1803E+00  0.3584E-02  0.3457E+00  0.1720E-02  0.0000E+00  0.0000E+00  0.0000E+00  0.0000E+00  0.0000E+00
     -4.456  0.1923E+00  0.3503E-02  0.3883E+00  0.3086E-02  0.0000E+00  0.0000E+00  0.0000E+00  0.0000E+00  0.0000E+00
     -4.357  0.2406E+00  0.3652E-02  0.5104E+00  0.2722E-02  0.0000E+00  0.0000E+00  0.0000E+00  0.0000E+00  0.0000E+00
     -4.257  0.1982E+00  0.3883E-02  0.4111E+00  0.1761E-02  0.0000E+00  0.0000E+00  0.0000E+00  0.0000E+00  0.0000E+00
     -4.158  0.8750E-01  0.3044E-02  0.1643E+00  0.1206E-02  0.0000E+00  0.0000E+00  0.0000E+00  0.0000E+00  0.0000E+00
     -4.058  0.2671E-01  0.1922E-02  0.4234E-01  0.1287E-02  0.0000E+00  0.0000E+00  0.0000E+00  0.0000E+00  0.0000E+00
     -3.959  0.1063E-01  0.1427E-02  0.1380E-01  0.1381E-02  0.0000E+00  0.0000E+00  0.0000E+00  0.0000E+00  0.0000E+00
     -3.860  0.4509E-02  0.1695E-02  0.4957E-02  0.8933E-03  0.0000E+00  0.0000E+00  0.0000E+00  0.0000E+00  0.0000E+00
     -3.760  0.2467E-02  0.1599E-02  0.2065E-02  0.9854E-03  0.0000E+00  0.0000E+00  0.0000E+00  0.0000E+00  0.0000E+00
     -3.661  0.2635E-02  0.1429E-02  0.1931E-02  0.1549E-02  0.0000E+00  0.0000E+00  0.0000E+00  0.0000E+00  0.0000E+00
     -3.561  0.1523E-02  0.1125E-02  0.1024E-02  0.9187E-03  0.0000E+00  0.0000E+00  0.0000E+00  0.0000E+00  0.0000E+00
     -3.462  0.7785E-03  0.1188E-02  0.3946E-03  0.4296E-03  0.0000E+00  0.0000E+00  0.0000E+00  0.0000E+00  0.0000E+00
     -3.363  0.7049E-03  0.9710E-03  0.2821E-03  0.6065E-03  0.0000E+00  0.0000E+00  0.0000E+00  0.0000E+00  0.0000E+00
     -3.263  0.8675E-03  0.1171E-02  0.2926E-03  0.8673E-03  0.0000E+00  0.0000E+00  0.0000E+00  0.0000E+00  0.0000E+00
     -3.164  0.5257E-03  0.8359E-03  0.1615E-03  0.4472E-03  0.0000E+00  0.0000E+00  0.0000E+00  0.0000E+00  0.0000E+00
     -3.064  0.3240E-03  0.6630E-03  0.6607E-04  0.1456E-03  0.0000E+00  0.0000E+00  0.0000E+00  0.0000E+00  0.0000E+00
     -2.965  0.3325E-03  0.6806E-03  0.5256E-04  0.1367E-03  0.0000E+00  0.0000E+00  0.0000E+00  0.0000E+00  0.0000E+00
     -2.866  0.1318E-03  0.2618E-03  0.1860E-04  0.5810E-04  0.0000E+00  0.0000E+00  0.0000E+00  0.0000E+00  0.0000E+00
     -2.766  0.1250E-04  0.2456E-04  0.1696E-05  0.5634E-05  0.0000E+00  0.0000E+00  0.0000E+00  0.0000E+00  0.0000E+00
     -2.667  0.2140E-06  0.4196E-06  0.2879E-07  0.9693E-07  0.0000E+00  0.0000E+00  0.0000E+00  0.0000E+00  0.0000E+00
     -2.567  0.5797E-09  0.1136E-08  0.7787E-10  0.2628E-09  0.0000E+00  0.0000E+00  0.0000E+00  0.0000E+00  0.0000E+00
     -2.468  0.2346E-12  0.4598E-12  0.3150E-13  0.1064E-12  0.0000E+00  0.0000E+00  0.0000E+00  0.0000E+00  0.0000E+00
     -2.369  0.1380E-16  0.2706E-16  0.1854E-17  0.6260E-17  0.0000E+00  0.0000E+00  0.0000E+00  0.0000E+00  0.0000E+00
     -2.269  0.0000E+00  0.0000E+00  0.0000E+00  0.0000E+00  0.0000E+00  0.0000E+00  0.0000E+00  0.0000E+00  0.0000E+00
     -2.170  0.0000E+00  0.0000E+00  0.0000E+00  0.0000E+00  0.0000E+00  0.0000E+00  0.0000E+00  0.0000E+00  0.0000E+00
     -2.070  0.5610E-20  0.1959E-17  0.6886E-19  0.4040E-15  0.0000E+00  0.0000E+00  0.0000E+00  0.0000E+00  0.0000E+00
     -1.971  0.8901E-16  0.3013E-13  0.1063E-14  0.6212E-11  0.0000E+00  0.0000E+00  0.0000E+00  0.0000E+00  0.0000E+00
     -1.871  0.2173E-12  0.6801E-10  0.2423E-11  0.1402E-07  0.0000E+00  0.0000E+00  0.0000E+00  0.0000E+00  0.0000E+00
     -1.772  0.8901E-10  0.2346E-07  0.8557E-09  0.4829E-05  0.0000E+00  0.0000E+00  0.0000E+00  0.0000E+00  0.0000E+00
     -1.673  0.6877E-08  0.1335E-05  0.5123E-07  0.2740E-03  0.0000E+00  0.0000E+00  0.0000E+00  0.0000E+00  0.0000E+00
     -1.573  0.1145E-06  0.1426E-04  0.6009E-06  0.2909E-02  0.0000E+00  0.0000E+00  0.0000E+00  0.0000E+00  0.0000E+00
     -1.474  0.5627E-06  0.3584E-04  0.1785E-05  0.7129E-02  0.0000E+00  0.0000E+00  0.0000E+00  0.0000E+00  0.0000E+00
     -1.374  0.2131E-05  0.5766E-04  0.3636E-05  0.7042E-02  0.0000E+00  0.0000E+00  0.0000E+00  0.0000E+00  0.0000E+00
     -1.275  0.2814E-04  0.2811E-03  0.6494E-04  0.9622E-02  0.0000E+00  0.0000E+00  0.0000E+00  0.0000E+00  0.0000E+00
     -1.176  0.5599E-03  0.1694E-02  0.1679E-02  0.1257E-01  0.0000E+00  0.0000E+00  0.0000E+00  0.0000E+00  0.0000E+00
     -1.076  0.4550E-02  0.6135E-02  0.1608E-01  0.9329E-02  0.0000E+00  0.0000E+00  0.0000E+00  0.0000E+00  0.0000E+00
     -0.977  0.1543E-01  0.1025E-01  0.6175E-01  0.1154E-01  0.0000E+00  0.0000E+00  0.0000E+00  0.0000E+00  0.0000E+00
     -0.877  0.2627E-01  0.1319E-01  0.1115E+00  0.1851E-01  0.0000E+00  0.0000E+00  0.0000E+00  0.0000E+00  0.0000E+00
     -0.778  0.3380E-01  0.1415E-01  0.1455E+00  0.1808E-01  0.0000E+00  0.0000E+00  0.0000E+00  0.0000E+00  0.0000E+00
     -0.679  0.4402E-01  0.1654E-01  0.1896E+00  0.1759E-01  0.0000E+00  0.0000E+00  0.0000E+00  0.0000E+00  0.0000E+00
     -0.579  0.4313E-01  0.1843E-01  0.2034E+00  0.2574E-01  0.0000E+00  0.0000E+00  0.0000E+00  0.0000E+00  0.0000E+00
     -0.480  0.2969E-01  0.1610E-01  0.1527E+00  0.2999E-01  0.0000E+00  0.0000E+00  0.0000E+00  0.0000E+00  0.0000E+00
     -0.380  0.2074E-01  0.1414E-01  0.1086E+00  0.3443E-01  0.0000E+00  0.0000E+00  0.0000E+00  0.0000E+00  0.0000E+00
     -0.281  0.1507E-01  0.1452E-01  0.9217E-01  0.4092E-01  0.0000E+00  0.0000E+00  0.0000E+00  0.0000E+00  0.0000E+00
     -0.182  0.1053E-01  0.1625E-01  0.8199E-01  0.3531E-01  0.0000E+00  0.0000E+00  0.0000E+00  0.0000E+00  0.0000E+00
     -0.082  0.8310E-02  0.1481E-01  0.8719E-01  0.2454E-01  0.0000E+00  0.0000E+00  0.0000E+00  0.0000E+00  0.0000E+00
      0.017  0.9888E-02  0.1620E-01  0.1360E+00  0.2119E-01  0.0000E+00  0.0000E+00  0.0000E+00  0.0000E+00  0.0000E+00
      0.117  0.1077E-01  0.1948E-01  0.1743E+00  0.2214E-01  0.0000E+00  0.0000E+00  0.0000E+00  0.0000E+00  0.0000E+00
      0.216  0.7242E-02  0.1400E-01  0.1451E+00  0.1983E-01  0.0000E+00  0.0000E+00  0.0000E+00  0.0000E+00  0.0000E+00
      0.316  0.7727E-02  0.1267E-01  0.1563E+00  0.1811E-01  0.0000E+00  0.0000E+00  0.0000E+00  0.0000E+00  0.0000E+00
      0.415  0.1043E-01  0.1752E-01  0.1778E+00  0.2062E-01  0.0000E+00  0.0000E+00  0.0000E+00  0.0000E+00  0.0000E+00
      0.514  0.1080E-01  0.2432E-01  0.1606E+00  0.1713E-01  0.0000E+00  0.0000E+00  0.0000E+00  0.0000E+00  0.0000E+00
      0.614  0.1357E-01  0.4007E-01  0.1156E+00  0.1686E-01  0.0000E+00  0.0000E+00  0.0000E+00  0.0000E+00  0.0000E+00
      0.713  0.1979E-01  0.5546E-01  0.6493E-01  0.2232E-01  0.0000E+00  0.0000E+00  0.0000E+00  0.0000E+00  0.0000E+00
      0.813  0.2011E-01  0.5833E-01  0.4318E-01  0.2062E-01  0.0000E+00  0.0000E+00  0.0000E+00  0.0000E+00  0.0000E+00
      0.912  0.1705E-01  0.4969E-01  0.2155E-01  0.1708E-01  0.0000E+00  0.0000E+00  0.0000E+00  0.0000E+00  0.0000E+00
      1.011  0.2486E-01  0.4487E-01  0.9207E-02  0.1665E-01  0.0000E+00  0.0000E+00  0.0000E+00  0.0000E+00  0.0000E+00
      1.111  0.3485E-01  0.4029E-01  0.7770E-02  0.1210E-01  0.0000E+00  0.0000E+00  0.0000E+00  0.0000E+00  0.0000E+00
      1.210  0.3745E-01  0.3697E-01  0.1032E-01  0.8397E-02  0.0000E+00  0.0000E+00  0.0000E+00  0.0000E+00  0.0000E+00
      1.310  0.3998E-01  0.3660E-01  0.1574E-01  0.7724E-02  0.0000E+00  0.0000E+00  0.0000E+00  0.0000E+00  0.0000E+00
      1.409  0.4100E-01  0.3094E-01  0.1953E-01  0.1025E-01  0.0000E+00  0.0000E+00  0.0000E+00  0.0000E+00  0.0000E+00
      1.508  0.4140E-01  0.2828E-01  0.2461E-01  0.1805E-01  0.0000E+00  0.0000E+00  0.0000E+00  0.0000E+00  0.0000E+00
      1.608  0.4182E-01  0.3323E-01  0.3205E-01  0.2864E-01  0.0000E+00  0.0000E+00  0.0000E+00  0.0000E+00  0.0000E+00
      1.707  0.4463E-01  0.4389E-01  0.3578E-01  0.3257E-01  0.0000E+00  0.0000E+00  0.0000E+00  0.0000E+00  0.0000E+00
      1.807  0.4788E-01  0.4908E-01  0.3351E-01  0.3131E-01  0.0000E+00  0.0000E+00  0.0000E+00  0.0000E+00  0.0000E+00
      1.906  0.4861E-01  0.4201E-01  0.2815E-01  0.2960E-01  0.0000E+00  0.0000E+00  0.0000E+00  0.0000E+00  0.0000E+00
      2.005  0.4441E-01  0.3246E-01  0.2305E-01  0.2288E-01  0.0000E+00  0.0000E+00  0.0000E+00  0.0000E+00  0.0000E+00
      2.105  0.3999E-01  0.3195E-01  0.2031E-01  0.2078E-01  0.0000E+00  0.0000E+00  0.0000E+00  0.0000E+00  0.0000E+00
      2.204  0.3637E-01  0.3110E-01  0.2034E-01  0.2199E-01  0.0000E+00  0.0000E+00  0.0000E+00  0.0000E+00  0.0000E+00
      2.304  0.3337E-01  0.2847E-01  0.2139E-01  0.2045E-01  0.0000E+00  0.0000E+00  0.0000E+00  0.0000E+00  0.0000E+00
      2.403  0.3745E-01  0.2631E-01  0.2147E-01  0.1769E-01  0.0000E+00  0.0000E+00  0.0000E+00  0.0000E+00  0.0000E+00
      2.502  0.4786E-01  0.3242E-01  0.2394E-01  0.2022E-01  0.0000E+00  0.0000E+00  0.0000E+00  0.0000E+00  0.0000E+00
      2.602  0.5656E-01  0.4550E-01  0.2886E-01  0.2940E-01  0.0000E+00  0.0000E+00  0.0000E+00  0.0000E+00  0.0000E+00
      2.701  0.5523E-01  0.4672E-01  0.2924E-01  0.4032E-01  0.0000E+00  0.0000E+00  0.0000E+00  0.0000E+00  0.0000E+00
      2.801  0.5182E-01  0.3771E-01  0.2818E-01  0.4597E-01  0.0000E+00  0.0000E+00  0.0000E+00  0.0000E+00  0.0000E+00
      2.900  0.4974E-01  0.3376E-01  0.3187E-01  0.4178E-01  0.0000E+00  0.0000E+00  0.0000E+00  0.0000E+00  0.0000E+00
      3.000  0.4845E-01  0.3123E-01  0.3651E-01  0.3376E-01  0.0000E+00  0.0000E+00  0.0000E+00  0.0000E+00  0.0000E+00
      3.099  0.4827E-01  0.2817E-01  0.3895E-01  0.3030E-01  0.0000E+00  0.0000E+00  0.0000E+00  0.0000E+00  0.0000E+00
      3.198  0.4503E-01  0.2515E-01  0.3404E-01  0.3023E-01  0.0000E+00  0.0000E+00  0.0000E+00  0.0000E+00  0.0000E+00
      3.298  0.3531E-01  0.2113E-01  0.2633E-01  0.2717E-01  0.0000E+00  0.0000E+00  0.0000E+00  0.0000E+00  0.0000E+00
      3.397  0.2984E-01  0.2018E-01  0.2101E-01  0.2964E-01  0.0000E+00  0.0000E+00  0.0000E+00  0.0000E+00  0.0000E+00
      3.497  0.2680E-01  0.1891E-01  0.1919E-01  0.3262E-01  0.0000E+00  0.0000E+00  0.0000E+00  0.0000E+00  0.0000E+00
      3.596  0.2328E-01  0.1659E-01  0.1818E-01  0.2892E-01  0.0000E+00  0.0000E+00  0.0000E+00  0.0000E+00  0.0000E+00
      3.695  0.2152E-01  0.1819E-01  0.1759E-01  0.2600E-01  0.0000E+00  0.0000E+00  0.0000E+00  0.0000E+00  0.0000E+00
      3.795  0.1892E-01  0.1507E-01  0.1458E-01  0.2212E-01  0.0000E+00  0.0000E+00  0.0000E+00  0.0000E+00  0.0000E+00
      3.894  0.1694E-01  0.1158E-01  0.1140E-01  0.1815E-01  0.0000E+00  0.0000E+00  0.0000E+00  0.0000E+00  0.0000E+00
      3.994  0.1444E-01  0.1156E-01  0.1107E-01  0.1620E-01  0.0000E+00  0.0000E+00  0.0000E+00  0.0000E+00  0.0000E+00
      4.093  0.1231E-01  0.1083E-01  0.1056E-01  0.1568E-01  0.0000E+00  0.0000E+00  0.0000E+00  0.0000E+00  0.0000E+00
      4.192  0.8982E-02  0.7504E-02  0.8132E-02  0.1149E-01  0.0000E+00  0.0000E+00  0.0000E+00  0.0000E+00  0.0000E+00
      4.292  0.6513E-02  0.5348E-02  0.5796E-02  0.7828E-02  0.0000E+00  0.0000E+00  0.0000E+00  0.0000E+00  0.0000E+00
      4.391  0.5158E-02  0.4859E-02  0.5714E-02  0.5905E-02  0.0000E+00  0.0000E+00  0.0000E+00  0.0000E+00  0.0000E+00
      4.491  0.4625E-02  0.4244E-02  0.6750E-02  0.3927E-02  0.0000E+00  0.0000E+00  0.0000E+00  0.0000E+00  0.0000E+00
      4.590  0.4532E-02  0.3366E-02  0.7887E-02  0.2736E-02  0.0000E+00  0.0000E+00  0.0000E+00  0.0000E+00  0.0000E+00
      4.689  0.3154E-02  0.1981E-02  0.6252E-02  0.1553E-02  0.0000E+00  0.0000E+00  0.0000E+00  0.0000E+00  0.0000E+00
      4.789  0.1543E-02  0.1541E-02  0.3225E-02  0.6940E-03  0.0000E+00  0.0000E+00  0.0000E+00  0.0000E+00  0.0000E+00
      4.888  0.8044E-03  0.9332E-03  0.1568E-02  0.2919E-03  0.0000E+00  0.0000E+00  0.0000E+00  0.0000E+00  0.0000E+00
      4.988  0.2203E-03  0.2115E-03  0.4522E-03  0.6402E-04  0.0000E+00  0.0000E+00  0.0000E+00  0.0000E+00  0.0000E+00
      5.087  0.9192E-04  0.1145E-03  0.2521E-03  0.3010E-04  0.0000E+00  0.0000E+00  0.0000E+00  0.0000E+00  0.0000E+00
      5.187  0.2894E-04  0.3749E-04  0.8173E-04  0.9735E-05  0.0000E+00  0.0000E+00  0.0000E+00  0.0000E+00  0.0000E+00
      5.286  0.1752E-05  0.2273E-05  0.4953E-05  0.5901E-06  0.0000E+00  0.0000E+00  0.0000E+00  0.0000E+00  0.0000E+00
      5.385  0.1735E-07  0.2250E-07  0.4903E-07  0.5841E-08  0.0000E+00  0.0000E+00  0.0000E+00  0.0000E+00  0.0000E+00
      5.485  0.2630E-10  0.3412E-10  0.7434E-10  0.8857E-11  0.0000E+00  0.0000E+00  0.0000E+00  0.0000E+00  0.0000E+00
      5.584  0.5884E-14  0.7633E-14  0.1663E-13  0.1982E-14  0.0000E+00  0.0000E+00  0.0000E+00  0.0000E+00  0.0000E+00
      5.684  0.1834E-18  0.2379E-18  0.5185E-18  0.6177E-19  0.0000E+00  0.0000E+00  0.0000E+00  0.0000E+00  0.0000E+00
      5.783  0.0000E+00  0.0000E+00  0.0000E+00  0.0000E+00  0.0000E+00  0.0000E+00  0.0000E+00  0.0000E+00  0.0000E+00
      5.882  0.0000E+00  0.0000E+00  0.0000E+00  0.0000E+00  0.0000E+00  0.0000E+00  0.0000E+00  0.0000E+00  0.0000E+00
      5.982  0.0000E+00  0.0000E+00  0.0000E+00  0.0000E+00  0.0000E+00  0.0000E+00  0.0000E+00  0.0000E+00  0.0000E+00
      6.081  0.0000E+00  0.0000E+00  0.0000E+00  0.0000E+00  0.0000E+00  0.0000E+00  0.0000E+00  0.0000E+00  0.0000E+00
      6.181  0.0000E+00  0.0000E+00  0.0000E+00  0.0000E+00  0.0000E+00  0.0000E+00  0.0000E+00  0.0000E+00  0.0000E+00
      6.280  0.0000E+00  0.0000E+00  0.0000E+00  0.0000E+00  0.0000E+00  0.0000E+00  0.0000E+00  0.0000E+00  0.0000E+00
      6.379  0.0000E+00  0.0000E+00  0.0000E+00  0.0000E+00  0.0000E+00  0.0000E+00  0.0000E+00  0.0000E+00  0.0000E+00
      6.37943935    -23.44321047  301     -4.43334101      1.00000000
    -23.443  0.0000E+00  0.0000E+00  0.0000E+00  0.0000E+00  0.0000E+00  0.0000E+00  0.0000E+00  0.0000E+00  0.0000E+00
    -23.344  0.0000E+00  0.0000E+00  0.0000E+00  0.0000E+00  0.0000E+00  0.0000E+00  0.0000E+00  0.0000E+00  0.0000E+00
    -23.244  0.0000E+00  0.0000E+00  0.0000E+00  0.0000E+00  0.0000E+00  0.0000E+00  0.0000E+00  0.0000E+00  0.0000E+00
    -23.145  0.0000E+00  0.0000E+00  0.0000E+00  0.0000E+00  0.0000E+00  0.0000E+00  0.0000E+00  0.0000E+00  0.0000E+00
    -23.046  0.0000E+00  0.0000E+00  0.0000E+00  0.0000E+00  0.0000E+00  0.0000E+00  0.0000E+00  0.0000E+00  0.0000E+00
    -22.946  0.0000E+00  0.0000E+00  0.0000E+00  0.0000E+00  0.0000E+00  0.0000E+00  0.0000E+00  0.0000E+00  0.0000E+00
    -22.847  0.0000E+00  0.0000E+00  0.0000E+00  0.0000E+00  0.0000E+00  0.0000E+00  0.0000E+00  0.0000E+00  0.0000E+00
    -22.747  0.0000E+00  0.0000E+00  0.0000E+00  0.0000E+00  0.0000E+00  0.0000E+00  0.0000E+00  0.0000E+00  0.0000E+00
    -22.648  0.3151E-16  0.2399E-18  0.1141E-16  0.1389E-20  0.0000E+00  0.0000E+00  0.0000E+00  0.0000E+00  0.0000E+00
    -22.549  0.1142E-11  0.8733E-14  0.4138E-12  0.6254E-16  0.0000E+00  0.0000E+00  0.0000E+00  0.0000E+00  0.0000E+00
    -22.449  0.6190E-08  0.4754E-10  0.2243E-08  0.4159E-12  0.0000E+00  0.0000E+00  0.0000E+00  0.0000E+00  0.0000E+00
    -22.350  0.5260E-05  0.4069E-07  0.1907E-05  0.4521E-09  0.0000E+00  0.0000E+00  0.0000E+00  0.0000E+00  0.0000E+00
    -22.250  0.7539E-03  0.5910E-05  0.2735E-03  0.8767E-07  0.0000E+00  0.0000E+00  0.0000E+00  0.0000E+00  0.0000E+00
    -22.151  0.2074E-01  0.1663E-03  0.7536E-02  0.3512E-05  0.0000E+00  0.0000E+00  0.0000E+00  0.0000E+00  0.0000E+00
    -22.051  0.1338E+00  0.1104E-02  0.4874E-01  0.3638E-04  0.0000E+00  0.0000E+00  0.0000E+00  0.0000E+00  0.0000E+00
    -21.952  0.2648E+00  0.2186E-02  0.9683E-01  0.1315E-03  0.0000E+00  0.0000E+00  0.0000E+00  0.0000E+00  0.0000E+00
    -21.853  0.2438E+00  0.1807E-02  0.8966E-01  0.2372E-03  0.0000E+00  0.0000E+00  0.0000E+00  0.0000E+00  0.0000E+00
    -21.753  0.1932E+00  0.1114E-02  0.7166E-01  0.3029E-03  0.0000E+00  0.0000E+00  0.0000E+00  0.0000E+00  0.0000E+00
    -21.654  0.1762E+00  0.7405E-03  0.6591E-01  0.3367E-03  0.0000E+00  0.0000E+00  0.0000E+00  0.0000E+00  0.0000E+00
    -21.554  0.1774E+00  0.5084E-03  0.6689E-01  0.3476E-03  0.0000E+00  0.0000E+00  0.0000E+00  0.0000E+00  0.0000E+00
    -21.455  0.1958E+00  0.3389E-03  0.7442E-01  0.3354E-03  0.0000E+00  0.0000E+00  0.0000E+00  0.0000E+00  0.0000E+00
    -21.356  0.2475E+00  0.2167E-03  0.9480E-01  0.2904E-03  0.0000E+00  0.0000E+00  0.0000E+00  0.0000E+00  0.0000E+00
    -21.256  0.2974E+00  0.1426E-03  0.1146E+00  0.1970E-03  0.0000E+00  0.0000E+00  0.0000E+00  0.0000E+00  0.0000E+00
    -21.157  0.2132E+00  0.8209E-04  0.8263E-01  0.8226E-04  0.0000E+00  0.0000E+00  0.0000E+00  0.0000E+00  0.0000E+00
    -21.057  0.6477E-01  0.2303E-04  0.2520E-01  0.1551E-04  0.0000E+00  0.0000E+00  0.0000E+00  0.0000E+00  0.0000E+00
    -20.958  0.5878E-02  0.1934E-05  0.2292E-02  0.9287E-06  0.0000E+00  0.0000E+00  0.0000E+00  0.0000E+00  0.0000E+00
    -20.859  0.1168E-03  0.3601E-07  0.4559E-04  0.1309E-07  0.0000E+00  0.0000E+00  0.0000E+00  0.0000E+00  0.0000E+00
    -20.759  0.4192E-06  0.1233E-09  0.1637E-06  0.3558E-10  0.0000E+00  0.0000E+00  0.0000E+00  0.0000E+00  0.0000E+00
    -20.660  0.2447E-09  0.6964E-13  0.9562E-10  0.1654E-13  0.0000E+00  0.0000E+00  0.0000E+00  0.0000E+00  0.0000E+00
    -20.560  0.2195E-13  0.6099E-17  0.8579E-14  0.1225E-17  0.0000E+00  0.0000E+00  0.0000E+00  0.0000E+00  0.0000E+00
    -20.461  0.0000E+00  0.0000E+00  0.0000E+00  0.0000E+00  0.0000E+00  0.0000E+00  0.0000E+00  0.0000E+00  0.0000E+00
    -20.362  0.0000E+00  0.0000E+00  0.0000E+00  0.0000E+00  0.0000E+00  0.0000E+00  0.0000E+00  0.0000E+00  0.0000E+00
    -20.262  0.0000E+00  0.0000E+00  0.0000E+00  0.0000E+00  0.0000E+00  0.0000E+00  0.0000E+00  0.0000E+00  0.0000E+00
    -20.163  0.0000E+00  0.0000E+00  0.0000E+00  0.0000E+00  0.0000E+00  0.0000E+00  0.0000E+00  0.0000E+00  0.0000E+00
    -20.063  0.0000E+00  0.0000E+00  0.0000E+00  0.0000E+00  0.0000E+00  0.0000E+00  0.0000E+00  0.0000E+00  0.0000E+00
    -19.964  0.0000E+00  0.0000E+00  0.0000E+00  0.0000E+00  0.0000E+00  0.0000E+00  0.0000E+00  0.0000E+00  0.0000E+00
    -19.864  0.0000E+00  0.0000E+00  0.0000E+00  0.0000E+00  0.0000E+00  0.0000E+00  0.0000E+00  0.0000E+00  0.0000E+00
    -19.765  0.0000E+00  0.0000E+00  0.0000E+00  0.0000E+00  0.0000E+00  0.0000E+00  0.0000E+00  0.0000E+00  0.0000E+00
    -19.666  0.0000E+00  0.0000E+00  0.0000E+00  0.0000E+00  0.0000E+00  0.0000E+00  0.0000E+00  0.0000E+00  0.0000E+00
    -19.566  0.0000E+00  0.0000E+00  0.0000E+00  0.0000E+00  0.0000E+00  0.0000E+00  0.0000E+00  0.0000E+00  0.0000E+00
    -19.467  0.0000E+00  0.0000E+00  0.0000E+00  0.0000E+00  0.0000E+00  0.0000E+00  0.0000E+00  0.0000E+00  0.0000E+00
    -19.367  0.0000E+00  0.0000E+00  0.0000E+00  0.0000E+00  0.0000E+00  0.0000E+00  0.0000E+00  0.0000E+00  0.0000E+00
    -19.268  0.0000E+00  0.0000E+00  0.0000E+00  0.0000E+00  0.0000E+00  0.0000E+00  0.0000E+00  0.0000E+00  0.0000E+00
    -19.169  0.0000E+00  0.0000E+00  0.0000E+00  0.0000E+00  0.0000E+00  0.0000E+00  0.0000E+00  0.0000E+00  0.0000E+00
    -19.069  0.0000E+00  0.0000E+00  0.0000E+00  0.0000E+00  0.0000E+00  0.0000E+00  0.0000E+00  0.0000E+00  0.0000E+00
    -18.970  0.0000E+00  0.0000E+00  0.0000E+00  0.0000E+00  0.0000E+00  0.0000E+00  0.0000E+00  0.0000E+00  0.0000E+00
    -18.870  0.0000E+00  0.0000E+00  0.0000E+00  0.0000E+00  0.0000E+00  0.0000E+00  0.0000E+00  0.0000E+00  0.0000E+00
    -18.771  0.0000E+00  0.0000E+00  0.0000E+00  0.0000E+00  0.0000E+00  0.0000E+00  0.0000E+00  0.0000E+00  0.0000E+00
    -18.672  0.0000E+00  0.0000E+00  0.0000E+00  0.0000E+00  0.0000E+00  0.0000E+00  0.0000E+00  0.0000E+00  0.0000E+00
    -18.572  0.0000E+00  0.0000E+00  0.0000E+00  0.0000E+00  0.0000E+00  0.0000E+00  0.0000E+00  0.0000E+00  0.0000E+00
    -18.473  0.0000E+00  0.0000E+00  0.0000E+00  0.0000E+00  0.0000E+00  0.0000E+00  0.0000E+00  0.0000E+00  0.0000E+00
    -18.373  0.0000E+00  0.0000E+00  0.0000E+00  0.0000E+00  0.0000E+00  0.0000E+00  0.0000E+00  0.0000E+00  0.0000E+00
    -18.274  0.0000E+00  0.0000E+00  0.0000E+00  0.0000E+00  0.0000E+00  0.0000E+00  0.0000E+00  0.0000E+00  0.0000E+00
    -18.175  0.0000E+00  0.0000E+00  0.0000E+00  0.0000E+00  0.0000E+00  0.0000E+00  0.0000E+00  0.0000E+00  0.0000E+00
    -18.075  0.0000E+00  0.0000E+00  0.0000E+00  0.0000E+00  0.0000E+00  0.0000E+00  0.0000E+00  0.0000E+00  0.0000E+00
    -17.976  0.0000E+00  0.0000E+00  0.0000E+00  0.0000E+00  0.0000E+00  0.0000E+00  0.0000E+00  0.0000E+00  0.0000E+00
    -17.876  0.8028E-19  0.1976E-18  0.3882E-19  0.2171E-18  0.0000E+00  0.0000E+00  0.0000E+00  0.0000E+00  0.0000E+00
    -17.777  0.5932E-14  0.1473E-13  0.2869E-14  0.1648E-13  0.0000E+00  0.0000E+00  0.0000E+00  0.0000E+00  0.0000E+00
    -17.677  0.5119E-10  0.1268E-09  0.2478E-10  0.1420E-09  0.0000E+00  0.0000E+00  0.0000E+00  0.0000E+00  0.0000E+00
    -17.578  0.6823E-07  0.1683E-06  0.3306E-07  0.1886E-06  0.0000E+00  0.0000E+00  0.0000E+00  0.0000E+00  0.0000E+00
    -17.479  0.1492E-04  0.3655E-04  0.7243E-05  0.4106E-04  0.0000E+00  0.0000E+00  0.0000E+00  0.0000E+00  0.0000E+00
    -17.379  0.5969E-03  0.1445E-02  0.2908E-03  0.1630E-02  0.0000E+00  0.0000E+00  0.0000E+00  0.0000E+00  0.0000E+00
    -17.280  0.5319E-02  0.1256E-01  0.2609E-02  0.1432E-01  0.0000E+00  0.0000E+00  0.0000E+00  0.0000E+00  0.0000E+00
    -17.180  0.1501E-01  0.3361E-01  0.7472E-02  0.3989E-01  0.0000E+00  0.0000E+00  0.0000E+00  0.0000E+00  0.0000E+00
    -17.081  0.2357E-01  0.4759E-01  0.1203E-01  0.6517E-01  0.0000E+00  0.0000E+00  0.0000E+00  0.0000E+00  0.0000E+00
    -16.982  0.3416E-01  0.6183E-01  0.1789E-01  0.8485E-01  0.0000E+00  0.0000E+00  0.0000E+00  0.0000E+00  0.0000E+00
    -16.882  0.4795E-01  0.8511E-01  0.2552E-01  0.6013E-01  0.0000E+00  0.0000E+00  0.0000E+00  0.0000E+00  0.0000E+00
    -16.783  0.4508E-01  0.7829E-01  0.2434E-01  0.2421E-01  0.0000E+00  0.0000E+00  0.0000E+00  0.0000E+00  0.0000E+00
    -16.683  0.2793E-01  0.4581E-01  0.1538E-01  0.7388E-02  0.0000E+00  0.0000E+00  0.0000E+00  0.0000E+00  0.0000E+00
    -16.584  0.1147E-01  0.1798E-01  0.6412E-02  0.1332E-02  0.0000E+00  0.0000E+00  0.0000E+00  0.0000E+00  0.0000E+00
    -16.485  0.1974E-02  0.3023E-02  0.1111E-02  0.1011E-03  0.0000E+00  0.0000E+00  0.0000E+00  0.0000E+00  0.0000E+00
    -16.385  0.8955E-04  0.1356E-03  0.5056E-04  0.2413E-05  0.0000E+00  0.0000E+00  0.0000E+00  0.0000E+00  0.0000E+00
    -16.286  0.8117E-06  0.1222E-05  0.4590E-06  0.1367E-07  0.0000E+00  0.0000E+00  0.0000E+00  0.0000E+00  0.0000E+00
    -16.186  0.1264E-08  0.1896E-08  0.7152E-09  0.1502E-10  0.0000E+00  0.0000E+00  0.0000E+00  0.0000E+00  0.0000E+00
    -16.087  0.3112E-12  0.4661E-12  0.1762E-12  0.2840E-14  0.0000E+00  0.0000E+00  0.0000E+00  0.0000E+00  0.0000E+00
    -15.988  0.1157E-16  0.1730E-16  0.6553E-17  0.8310E-19  0.0000E+00  0.0000E+00  0.0000E+00  0.0000E+00  0.0000E+00
    -15.888  0.7073E-17  0.4098E-15  0.1035E-16  0.2157E-17  0.0000E+00  0.0000E+00  0.0000E+00  0.0000E+00  0.0000E+00
    -15.789  0.1057E-12  0.6103E-11  0.1543E-12  0.3231E-13  0.0000E+00  0.0000E+00  0.0000E+00  0.0000E+00  0.0000E+00
    -15.689  0.2340E-09  0.1337E-07  0.3397E-09  0.7212E-10  0.0000E+00  0.0000E+00  0.0000E+00  0.0000E+00  0.0000E+00
    -15.590  0.8100E-07  0.4510E-05  0.1160E-06  0.2621E-07  0.0000E+00  0.0000E+00  0.0000E+00  0.0000E+00  0.0000E+00
    -15.491  0.4910E-05  0.2587E-03  0.6841E-05  0.1917E-05  0.0000E+00  0.0000E+00  0.0000E+00  0.0000E+00  0.0000E+00
    -15.391  0.6421E-04  0.3059E-02  0.8533E-04  0.3808E-04  0.0000E+00  0.0000E+00  0.0000E+00  0.0000E+00  0.0000E+00
    -15.292  0.2524E-03  0.1021E-01  0.3126E-03  0.2474E-03  0.0000E+00  0.0000E+00  0.0000E+00  0.0000E+00  0.0000E+00
    -15.192  0.4726E-03  0.1542E-01  0.5396E-03  0.7862E-03  0.0000E+00  0.0000E+00  0.0000E+00  0.0000E+00  0.0000E+00
    -15.093  0.6744E-03  0.1887E-01  0.7343E-03  0.1911E-02  0.0000E+00  0.0000E+00  0.0000E+00  0.0000E+00  0.0000E+00
    -14.993  0.8525E-03  0.2227E-01  0.9139E-03  0.4290E-02  0.0000E+00  0.0000E+00  0.0000E+00  0.0000E+00  0.0000E+00
    -14.894  0.1147E-02  0.3071E-01  0.1260E-02  0.1216E-01  0.0000E+00  0.0000E+00  0.0000E+00  0.0000E+00  0.0000E+00
    -14.795  0.1704E-02  0.4764E-01  0.1953E-02  0.3771E-01  0.0000E+00  0.0000E+00  0.0000E+00  0.0000E+00  0.0000E+00
    -14.695  0.2244E-02  0.6320E-01  0.2588E-02  0.6183E-01  0.0000E+00  0.0000E+00  0.0000E+00  0.0000E+00  0.0000E+00
    -14.596  0.1972E-02  0.5550E-01  0.2151E-02  0.5111E-01  0.0000E+00  0.0000E+00  0.0000E+00  0.0000E+00  0.0000E+00
    -14.496  0.1657E-02  0.5163E-01  0.1702E-02  0.4494E-01  0.0000E+00  0.0000E+00  0.0000E+00  0.0000E+00  0.0000E+00
    -14.397  0.1458E-02  0.4576E-01  0.1433E-02  0.5902E-01  0.0000E+00  0.0000E+00  0.0000E+00  0.0000E+00  0.0000E+00
    -14.298  0.1422E-02  0.3117E-01  0.1385E-02  0.7269E-01  0.0000E+00  0.0000E+00  0.0000E+00  0.0000E+00  0.0000E+00
    -14.198  0.1525E-02  0.2738E-01  0.1473E-02  0.7861E-01  0.0000E+00  0.0000E+00  0.0000E+00  0.0000E+00  0.0000E+00
    -14.099  0.1555E-02  0.3105E-01  0.1463E-02  0.9013E-01  0.0000E+00  0.0000E+00  0.0000E+00  0.0000E+00  0.0000E+00
    -13.999  0.1452E-02  0.3850E-01  0.1333E-02  0.1077E+00  0.0000E+00  0.0000E+00  0.0000E+00  0.0000E+00  0.0000E+00
    -13.900  0.1059E-02  0.3851E-01  0.9325E-03  0.9539E-01  0.0000E+00  0.0000E+00  0.0000E+00  0.0000E+00  0.0000E+00
    -13.801  0.6142E-03  0.3305E-01  0.5024E-03  0.6271E-01  0.0000E+00  0.0000E+00  0.0000E+00  0.0000E+00  0.0000E+00
    -13.701  0.2668E-03  0.2198E-01  0.1922E-03  0.3442E-01  0.0000E+00  0.0000E+00  0.0000E+00  0.0000E+00  0.0000E+00
    -13.602  0.5948E-04  0.6628E-02  0.3689E-04  0.9849E-02  0.0000E+00  0.0000E+00  0.0000E+00  0.0000E+00  0.0000E+00
    -13.502  0.4030E-05  0.5505E-03  0.2150E-05  0.8081E-03  0.0000E+00  0.0000E+00  0.0000E+00  0.0000E+00  0.0000E+00
    -13.403  0.5981E-07  0.9671E-05  0.2672E-07  0.1411E-04  0.0000E+00  0.0000E+00  0.0000E+00  0.0000E+00  0.0000E+00
    -13.304  0.1683E-09  0.3085E-07  0.6262E-10  0.4487E-07  0.0000E+00  0.0000E+00  0.0000E+00  0.0000E+00  0.0000E+00
    -13.204  0.2178E-12  0.1615E-10  0.1993E-12  0.2397E-10  0.0000E+00  0.0000E+00  0.0000E+00  0.0000E+00  0.0000E+00
    -13.105  0.5410E-09  0.1163E-09  0.6875E-09  0.2306E-08  0.0000E+00  0.0000E+00  0.0000E+00  0.0000E+00  0.0000E+00
    -13.005  0.3416E-06  0.7985E-07  0.4343E-06  0.1524E-05  0.0000E+00  0.0000E+00  0.0000E+00  0.0000E+00  0.0000E+00
    -12.906  0.3694E-04  0.9533E-05  0.4694E-04  0.1717E-03  0.0000E+00  0.0000E+00  0.0000E+00  0.0000E+00  0.0000E+00
    -12.806  0.7976E-03  0.2242E-03  0.9840E-03  0.3631E-02  0.0000E+00  0.0000E+00  0.0000E+00  0.0000E+00  0.0000E+00
    -12.707  0.5954E-02  0.1386E-02  0.5149E-02  0.1725E-01  0.0000E+00  0.0000E+00  0.0000E+00  0.0000E+00  0.0000E+00
    -12.608  0.3752E-01  0.3727E-02  0.1031E-01  0.2678E-01  0.0000E+00  0.0000E+00  0.0000E+00  0.0000E+00  0.0000E+00
    -12.508  0.1274E+00  0.6643E-02  0.1152E-01  0.2467E-01  0.0000E+00  0.0000E+00  0.0000E+00  0.0000E+00  0.0000E+00
    -12.409  0.2076E+00  0.9206E-02  0.9475E-02  0.2155E-01  0.0000E+00  0.0000E+00  0.0000E+00  0.0000E+00  0.0000E+00
    -12.309  0.2445E+00  0.1099E-01  0.8181E-02  0.2043E-01  0.0000E+00  0.0000E+00  0.0000E+00  0.0000E+00  0.0000E+00
    -12.210  0.2221E+00  0.1084E-01  0.7423E-02  0.2060E-01  0.0000E+00  0.0000E+00  0.0000E+00  0.0000E+00  0.0000E+00
    -12.111  0.1794E+00  0.9834E-02  0.6942E-02  0.2077E-01  0.0000E+00  0.0000E+00  0.0000E+00  0.0000E+00  0.0000E+00
    -12.011  0.1577E+00  0.9268E-02  0.6898E-02  0.2163E-01  0.0000E+00  0.0000E+00  0.0000E+00  0.0000E+00  0.0000E+00
    -11.912  0.1476E+00  0.8877E-02  0.6505E-02  0.2220E-01  0.0000E+00  0.0000E+00  0.0000E+00  0.0000E+00  0.0000E+00
    -11.812  0.1434E+00  0.8745E-02  0.6346E-02  0.2241E-01  0.0000E+00  0.0000E+00  0.0000E+00  0.0000E+00  0.0000E+00
    -11.713  0.1440E+00  0.8508E-02  0.6642E-02  0.2269E-01  0.0000E+00  0.0000E+00  0.0000E+00  0.0000E+00  0.0000E+00
    -11.614  0.1481E+00  0.8623E-02  0.6152E-02  0.1627E-01  0.0000E+00  0.0000E+00  0.0000E+00  0.0000E+00  0.0000E+00
    -11.514  0.1602E+00  0.9695E-02  0.6587E-02  0.1124E-01  0.0000E+00  0.0000E+00  0.0000E+00  0.0000E+00  0.0000E+00
    -11.415  0.1898E+00  0.1222E-01  0.6710E-02  0.1131E-01  0.0000E+00  0.0000E+00  0.0000E+00  0.0000E+00  0.0000E+00
    -11.315  0.2473E+00  0.1799E-01  0.6943E-02  0.1136E-01  0.0000E+00  0.0000E+00  0.0000E+00  0.0000E+00  0.0000E+00
    -11.216  0.2610E+00  0.2074E-01  0.7284E-02  0.1151E-01  0.0000E+00  0.0000E+00  0.0000E+00  0.0000E+00  0.0000E+00
    -11.117  0.2054E+00  0.2180E-01  0.7888E-02  0.1336E-01  0.0000E+00  0.0000E+00  0.0000E+00  0.0000E+00  0.0000E+00
    -11.017  0.1635E+00  0.2690E-01  0.9316E-02  0.1450E-01  0.0000E+00  0.0000E+00  0.0000E+00  0.0000E+00  0.0000E+00
    -10.918  0.1391E+00  0.2877E-01  0.9246E-02  0.1379E-01  0.0000E+00  0.0000E+00  0.0000E+00  0.0000E+00  0.0000E+00
    -10.818  0.1188E+00  0.2508E-01  0.7805E-02  0.1363E-01  0.0000E+00  0.0000E+00  0.0000E+00  0.0000E+00  0.0000E+00
    -10.719  0.8178E-01  0.2443E-01  0.5759E-02  0.1202E-01  0.0000E+00  0.0000E+00  0.0000E+00  0.0000E+00  0.0000E+00
    -10.619  0.2848E-01  0.3082E-01  0.5876E-02  0.1572E-01  0.0000E+00  0.0000E+00  0.0000E+00  0.0000E+00  0.0000E+00
    -10.520  0.6317E-02  0.3768E-01  0.7720E-02  0.2229E-01  0.0000E+00  0.0000E+00  0.0000E+00  0.0000E+00  0.0000E+00
    -10.421  0.3189E-02  0.2563E-01  0.6247E-02  0.2043E-01  0.0000E+00  0.0000E+00  0.0000E+00  0.0000E+00  0.0000E+00
    -10.321  0.1902E-02  0.1156E-01  0.3799E-02  0.1547E-01  0.0000E+00  0.0000E+00  0.0000E+00  0.0000E+00  0.0000E+00
    -10.222  0.1593E-02  0.7705E-02  0.3268E-02  0.1401E-01  0.0000E+00  0.0000E+00  0.0000E+00  0.0000E+00  0.0000E+00
    -10.122  0.1371E-02  0.5886E-02  0.2880E-02  0.1234E-01  0.0000E+00  0.0000E+00  0.0000E+00  0.0000E+00  0.0000E+00
    -10.023  0.1397E-02  0.7673E-02  0.2906E-02  0.1517E-01  0.0000E+00  0.0000E+00  0.0000E+00  0.0000E+00  0.0000E+00
     -9.924  0.1142E-02  0.9416E-02  0.2377E-02  0.1405E-01  0.0000E+00  0.0000E+00  0.0000E+00  0.0000E+00  0.0000E+00
     -9.824  0.8356E-03  0.1180E-01  0.1850E-02  0.1133E-01  0.0000E+00  0.0000E+00  0.0000E+00  0.0000E+00  0.0000E+00
     -9.725  0.7930E-03  0.1523E-01  0.2124E-02  0.1143E-01  0.0000E+00  0.0000E+00  0.0000E+00  0.0000E+00  0.0000E+00
     -9.625  0.1235E-02  0.2468E-01  0.4141E-02  0.1680E-01  0.0000E+00  0.0000E+00  0.0000E+00  0.0000E+00  0.0000E+00
     -9.526  0.1677E-02  0.3255E-01  0.6113E-02  0.2331E-01  0.0000E+00  0.0000E+00  0.0000E+00  0.0000E+00  0.0000E+00
     -9.427  0.1379E-02  0.2680E-01  0.5127E-02  0.2087E-01  0.0000E+00  0.0000E+00  0.0000E+00  0.0000E+00  0.0000E+00
     -9.327  0.1041E-02  0.1942E-01  0.4000E-02  0.1586E-01  0.0000E+00  0.0000E+00  0.0000E+00  0.0000E+00  0.0000E+00
     -9.228  0.7579E-03  0.1334E-01  0.3107E-02  0.1040E-01  0.0000E+00  0.0000E+00  0.0000E+00  0.0000E+00  0.0000E+00
     -9.128  0.5660E-03  0.1023E-01  0.2428E-02  0.7967E-02  0.0000E+00  0.0000E+00  0.0000E+00  0.0000E+00  0.0000E+00
     -9.029  0.5474E-03  0.1060E-01  0.2569E-02  0.7281E-02  0.0000E+00  0.0000E+00  0.0000E+00  0.0000E+00  0.0000E+00
     -8.930  0.7638E-03  0.1488E-01  0.4083E-02  0.9125E-02  0.0000E+00  0.0000E+00  0.0000E+00  0.0000E+00  0.0000E+00
     -8.830  0.1152E-02  0.2210E-01  0.6104E-02  0.1357E-01  0.0000E+00  0.0000E+00  0.0000E+00  0.0000E+00  0.0000E+00
     -8.731  0.3042E-02  0.4083E-01  0.7237E-02  0.3232E-01  0.0000E+00  0.0000E+00  0.0000E+00  0.0000E+00  0.0000E+00
     -8.631  0.7860E-02  0.8317E-01  0.8687E-02  0.7521E-01  0.0000E+00  0.0000E+00  0.0000E+00  0.0000E+00  0.0000E+00
     -8.532  0.1194E-01  0.1123E+00  0.9446E-02  0.1051E+00  0.0000E+00  0.0000E+00  0.0000E+00  0.0000E+00  0.0000E+00
     -8.432  0.1489E-01  0.1250E+00  0.8235E-02  0.1242E+00  0.0000E+00  0.0000E+00  0.0000E+00  0.0000E+00  0.0000E+00
     -8.333  0.1837E-01  0.1381E+00  0.6309E-02  0.1505E+00  0.0000E+00  0.0000E+00  0.0000E+00  0.0000E+00  0.0000E+00
     -8.234  0.2144E-01  0.1457E+00  0.5196E-02  0.1572E+00  0.0000E+00  0.0000E+00  0.0000E+00  0.0000E+00  0.0000E+00
     -8.134  0.2344E-01  0.1403E+00  0.4325E-02  0.1380E+00  0.0000E+00  0.0000E+00  0.0000E+00  0.0000E+00  0.0000E+00
     -8.035  0.2718E-01  0.1486E+00  0.3373E-02  0.1307E+00  0.0000E+00  0.0000E+00  0.0000E+00  0.0000E+00  0.0000E+00
     -7.935  0.3324E-01  0.1552E+00  0.2612E-02  0.1244E+00  0.0000E+00  0.0000E+00  0.0000E+00  0.0000E+00  0.0000E+00
     -7.836  0.3247E-01  0.1236E+00  0.1689E-02  0.9731E-01  0.0000E+00  0.0000E+00  0.0000E+00  0.0000E+00  0.0000E+00
     -7.737  0.2482E-01  0.8643E-01  0.1106E-02  0.6699E-01  0.0000E+00  0.0000E+00  0.0000E+00  0.0000E+00  0.0000E+00
     -7.637  0.1827E-01  0.6411E-01  0.8657E-03  0.4482E-01  0.0000E+00  0.0000E+00  0.0000E+00  0.0000E+00  0.0000E+00
     -7.538  0.1333E-01  0.4975E-01  0.9929E-03  0.2938E-01  0.0000E+00  0.0000E+00  0.0000E+00  0.0000E+00  0.0000E+00
     -7.438  0.8573E-02  0.3188E-01  0.1103E-02  0.1825E-01  0.0000E+00  0.0000E+00  0.0000E+00  0.0000E+00  0.0000E+00
     -7.339  0.5439E-02  0.2036E-01  0.7912E-03  0.1110E-01  0.0000E+00  0.0000E+00  0.0000E+00  0.0000E+00  0.0000E+00
     -7.240  0.2942E-02  0.1466E-01  0.8594E-03  0.6725E-02  0.0000E+00  0.0000E+00  0.0000E+00  0.0000E+00  0.0000E+00
     -7.140  0.1131E-02  0.8403E-02  0.1089E-02  0.5649E-02  0.0000E+00  0.0000E+00  0.0000E+00  0.0000E+00  0.0000E+00
     -7.041  0.1353E-02  0.1242E-01  0.1292E-02  0.1493E-01  0.0000E+00  0.0000E+00  0.0000E+00  0.0000E+00  0.0000E+00
     -6.941  0.5336E-02  0.4502E-01  0.1306E-02  0.5495E-01  0.0000E+00  0.0000E+00  0.0000E+00  0.0000E+00  0.0000E+00
     -6.842  0.1068E-01  0.8719E-01  0.1335E-02  0.1142E+00  0.0000E+00  0.0000E+00  0.0000E+00  0.0000E+00  0.0000E+00
     -6.743  0.1429E-01  0.1156E+00  0.1713E-02  0.1541E+00  0.0000E+00  0.0000E+00  0.0000E+00  0.0000E+00  0.0000E+00
     -6.643  0.1312E-01  0.1121E+00  0.2145E-02  0.1440E+00  0.0000E+00  0.0000E+00  0.0000E+00  0.0000E+00  0.0000E+00
     -6.544  0.1105E-01  0.1051E+00  0.1770E-02  0.1299E+00  0.0000E+00  0.0000E+00  0.0000E+00  0.0000E+00  0.0000E+00
     -6.444  0.9606E-02  0.1082E+00  0.1387E-02  0.1300E+00  0.0000E+00  0.0000E+00  0.0000E+00  0.0000E+00  0.0000E+00
     -6.345  0.8475E-02  0.1249E+00  0.1355E-02  0.1395E+00  0.0000E+00  0.0000E+00  0.0000E+00  0.0000E+00  0.0000E+00
     -6.245  0.7098E-02  0.1662E+00  0.1993E-02  0.1416E+00  0.0000E+00  0.0000E+00  0.0000E+00  0.0000E+00  0.0000E+00
     -6.146  0.5512E-02  0.1963E+00  0.2321E-02  0.1404E+00  0.0000E+00  0.0000E+00  0.0000E+00  0.0000E+00  0.0000E+00
     -6.047  0.3729E-02  0.1615E+00  0.1866E-02  0.1342E+00  0.0000E+00  0.0000E+00  0.0000E+00  0.0000E+00  0.0000E+00
     -5.947  0.2195E-02  0.1300E+00  0.1716E-02  0.1205E+00  0.0000E+00  0.0000E+00  0.0000E+00  0.0000E+00  0.0000E+00
     -5.848  0.9521E-03  0.9298E-01  0.1459E-02  0.8847E-01  0.0000E+00  0.0000E+00  0.0000E+00  0.0000E+00  0.0000E+00
     -5.748  0.3448E-03  0.3461E-01  0.3029E-02  0.3362E-01  0.0000E+00  0.0000E+00  0.0000E+00  0.0000E+00  0.0000E+00
     -5.649  0.2611E-03  0.6944E-02  0.3658E-02  0.6405E-02  0.0000E+00  0.0000E+00  0.0000E+00  0.0000E+00  0.0000E+00
     -5.550  0.1511E-03  0.2999E-02  0.1904E-02  0.1385E-02  0.0000E+00  0.0000E+00  0.0000E+00  0.0000E+00  0.0000E+00
     -5.450  0.1618E-03  0.2835E-02  0.1390E-02  0.6189E-03  0.0000E+00  0.0000E+00  0.0000E+00  0.0000E+00  0.0000E+00
     -5.351  0.5548E-03  0.4367E-02  0.3875E-02  0.2301E-02  0.0000E+00  0.0000E+00  0.0000E+00  0.0000E+00  0.0000E+00
     -5.251  0.1013E-02  0.6099E-02  0.6392E-02  0.4002E-02  0.0000E+00  0.0000E+00  0.0000E+00  0.0000E+00  0.0000E+00
     -5.152  0.8974E-03  0.6034E-02  0.3880E-02  0.1776E-02  0.0000E+00  0.0000E+00  0.0000E+00  0.0000E+00  0.0000E+00
     -5.053  0.1744E-02  0.4676E-02  0.4157E-02  0.6860E-03  0.0000E+00  0.0000E+00  0.0000E+00  0.0000E+00  0.0000E+00
     -4.953  0.7441E-02  0.5047E-02  0.1534E-01  0.1597E-02  0.0000E+00  0.0000E+00  0.0000E+00  0.0000E+00  0.0000E+00
     -4.854  0.4700E-01  0.5741E-02  0.8862E-01  0.3207E-02  0.0000E+00  0.0000E+00  0.0000E+00  0.0000E+00  0.0000E+00
     -4.754  0.1445E+00  0.6190E-02  0.2667E+00  0.2211E-02  0.0000E+00  0.0000E+00  0.0000E+00  0.0000E+00  0.0000E+00
     -4.655  0.1922E+00  0.4394E-02  0.3588E+00  0.9613E-03  0.0000E+00  0.0000E+00  0.0000E+00  0.0000E+00  0.0000E+00
     -4.556  0.1803E+00  0.3584E-02  0.3457E+00  0.1720E-02  0.0000E+00  0.0000E+00  0.0000E+00  0.0000E+00  0.0000E+00
     -4.456  0.1923E+00  0.3503E-02  0.3883E+00  0.3086E-02  0.0000E+00  0.0000E+00  0.0000E+00  0.0000E+00  0.0000E+00
     -4.357  0.2406E+00  0.3652E-02  0.5104E+00  0.2722E-02  0.0000E+00  0.0000E+00  0.0000E+00  0.0000E+00  0.0000E+00
     -4.257  0.1982E+00  0.3883E-02  0.4111E+00  0.1761E-02  0.0000E+00  0.0000E+00  0.0000E+00  0.0000E+00  0.0000E+00
     -4.158  0.8750E-01  0.3044E-02  0.1643E+00  0.1206E-02  0.0000E+00  0.0000E+00  0.0000E+00  0.0000E+00  0.0000E+00
     -4.058  0.2671E-01  0.1922E-02  0.4234E-01  0.1287E-02  0.0000E+00  0.0000E+00  0.0000E+00  0.0000E+00  0.0000E+00
     -3.959  0.1063E-01  0.1427E-02  0.1380E-01  0.1381E-02  0.0000E+00  0.0000E+00  0.0000E+00  0.0000E+00  0.0000E+00
     -3.860  0.4509E-02  0.1695E-02  0.4957E-02  0.8933E-03  0.0000E+00  0.0000E+00  0.0000E+00  0.0000E+00  0.0000E+00
     -3.760  0.2467E-02  0.1599E-02  0.2065E-02  0.9854E-03  0.0000E+00  0.0000E+00  0.0000E+00  0.0000E+00  0.0000E+00
     -3.661  0.2635E-02  0.1429E-02  0.1931E-02  0.1549E-02  0.0000E+00  0.0000E+00  0.0000E+00  0.0000E+00  0.0000E+00
     -3.561  0.1523E-02  0.1125E-02  0.1024E-02  0.9187E-03  0.0000E+00  0.0000E+00  0.0000E+00  0.0000E+00  0.0000E+00
     -3.462  0.7785E-03  0.1188E-02  0.3946E-03  0.4296E-03  0.0000E+00  0.0000E+00  0.0000E+00  0.0000E+00  0.0000E+00
     -3.363  0.7049E-03  0.9710E-03  0.2821E-03  0.6065E-03  0.0000E+00  0.0000E+00  0.0000E+00  0.0000E+00  0.0000E+00
     -3.263  0.8675E-03  0.1171E-02  0.2926E-03  0.8673E-03  0.0000E+00  0.0000E+00  0.0000E+00  0.0000E+00  0.0000E+00
     -3.164  0.5257E-03  0.8359E-03  0.1615E-03  0.4472E-03  0.0000E+00  0.0000E+00  0.0000E+00  0.0000E+00  0.0000E+00
     -3.064  0.3240E-03  0.6630E-03  0.6607E-04  0.1456E-03  0.0000E+00  0.0000E+00  0.0000E+00  0.0000E+00  0.0000E+00
     -2.965  0.3325E-03  0.6806E-03  0.5256E-04  0.1367E-03  0.0000E+00  0.0000E+00  0.0000E+00  0.0000E+00  0.0000E+00
     -2.866  0.1318E-03  0.2618E-03  0.1860E-04  0.5810E-04  0.0000E+00  0.0000E+00  0.0000E+00  0.0000E+00  0.0000E+00
     -2.766  0.1250E-04  0.2456E-04  0.1696E-05  0.5634E-05  0.0000E+00  0.0000E+00  0.0000E+00  0.0000E+00  0.0000E+00
     -2.667  0.2140E-06  0.4196E-06  0.2879E-07  0.9693E-07  0.0000E+00  0.0000E+00  0.0000E+00  0.0000E+00  0.0000E+00
     -2.567  0.5797E-09  0.1136E-08  0.7787E-10  0.2628E-09  0.0000E+00  0.0000E+00  0.0000E+00  0.0000E+00  0.0000E+00
     -2.468  0.2346E-12  0.4598E-12  0.3150E-13  0.1064E-12  0.0000E+00  0.0000E+00  0.0000E+00  0.0000E+00  0.0000E+00
     -2.369  0.1380E-16  0.2706E-16  0.1854E-17  0.6260E-17  0.0000E+00  0.0000E+00  0.0000E+00  0.0000E+00  0.0000E+00
     -2.269  0.0000E+00  0.0000E+00  0.0000E+00  0.0000E+00  0.0000E+00  0.0000E+00  0.0000E+00  0.0000E+00  0.0000E+00
     -2.170  0.0000E+00  0.0000E+00  0.0000E+00  0.0000E+00  0.0000E+00  0.0000E+00  0.0000E+00  0.0000E+00  0.0000E+00
     -2.070  0.5610E-20  0.1959E-17  0.6886E-19  0.4040E-15  0.0000E+00  0.0000E+00  0.0000E+00  0.0000E+00  0.0000E+00
     -1.971  0.8901E-16  0.3013E-13  0.1063E-14  0.6212E-11  0.0000E+00  0.0000E+00  0.0000E+00  0.0000E+00  0.0000E+00
     -1.871  0.2173E-12  0.6801E-10  0.2423E-11  0.1402E-07  0.0000E+00  0.0000E+00  0.0000E+00  0.0000E+00  0.0000E+00
     -1.772  0.8901E-10  0.2346E-07  0.8557E-09  0.4829E-05  0.0000E+00  0.0000E+00  0.0000E+00  0.0000E+00  0.0000E+00
     -1.673  0.6877E-08  0.1335E-05  0.5123E-07  0.2740E-03  0.0000E+00  0.0000E+00  0.0000E+00  0.0000E+00  0.0000E+00
     -1.573  0.1145E-06  0.1426E-04  0.6009E-06  0.2909E-02  0.0000E+00  0.0000E+00  0.0000E+00  0.0000E+00  0.0000E+00
     -1.474  0.5627E-06  0.3584E-04  0.1785E-05  0.7129E-02  0.0000E+00  0.0000E+00  0.0000E+00  0.0000E+00  0.0000E+00
     -1.374  0.2131E-05  0.5766E-04  0.3636E-05  0.7042E-02  0.0000E+00  0.0000E+00  0.0000E+00  0.0000E+00  0.0000E+00
     -1.275  0.2814E-04  0.2811E-03  0.6494E-04  0.9622E-02  0.0000E+00  0.0000E+00  0.0000E+00  0.0000E+00  0.0000E+00
     -1.176  0.5599E-03  0.1694E-02  0.1679E-02  0.1257E-01  0.0000E+00  0.0000E+00  0.0000E+00  0.0000E+00  0.0000E+00
     -1.076  0.4550E-02  0.6135E-02  0.1608E-01  0.9329E-02  0.0000E+00  0.0000E+00  0.0000E+00  0.0000E+00  0.0000E+00
     -0.977  0.1543E-01  0.1025E-01  0.6175E-01  0.1154E-01  0.0000E+00  0.0000E+00  0.0000E+00  0.0000E+00  0.0000E+00
     -0.877  0.2627E-01  0.1319E-01  0.1115E+00  0.1851E-01  0.0000E+00  0.0000E+00  0.0000E+00  0.0000E+00  0.0000E+00
     -0.778  0.3380E-01  0.1415E-01  0.1455E+00  0.1808E-01  0.0000E+00  0.0000E+00  0.0000E+00  0.0000E+00  0.0000E+00
     -0.679  0.4402E-01  0.1654E-01  0.1896E+00  0.1759E-01  0.0000E+00  0.0000E+00  0.0000E+00  0.0000E+00  0.0000E+00
     -0.579  0.4313E-01  0.1843E-01  0.2034E+00  0.2574E-01  0.0000E+00  0.0000E+00  0.0000E+00  0.0000E+00  0.0000E+00
     -0.480  0.2969E-01  0.1610E-01  0.1527E+00  0.2999E-01  0.0000E+00  0.0000E+00  0.0000E+00  0.0000E+00  0.0000E+00
     -0.380  0.2074E-01  0.1414E-01  0.1086E+00  0.3443E-01  0.0000E+00  0.0000E+00  0.0000E+00  0.0000E+00  0.0000E+00
     -0.281  0.1507E-01  0.1452E-01  0.9217E-01  0.4092E-01  0.0000E+00  0.0000E+00  0.0000E+00  0.0000E+00  0.0000E+00
     -0.182  0.1053E-01  0.1625E-01  0.8199E-01  0.3531E-01  0.0000E+00  0.0000E+00  0.0000E+00  0.0000E+00  0.0000E+00
     -0.082  0.8310E-02  0.1481E-01  0.8719E-01  0.2454E-01  0.0000E+00  0.0000E+00  0.0000E+00  0.0000E+00  0.0000E+00
      0.017  0.9888E-02  0.1620E-01  0.1360E+00  0.2119E-01  0.0000E+00  0.0000E+00  0.0000E+00  0.0000E+00  0.0000E+00
      0.117  0.1077E-01  0.1948E-01  0.1743E+00  0.2214E-01  0.0000E+00  0.0000E+00  0.0000E+00  0.0000E+00  0.0000E+00
      0.216  0.7242E-02  0.1400E-01  0.1451E+00  0.1983E-01  0.0000E+00  0.0000E+00  0.0000E+00  0.0000E+00  0.0000E+00
      0.316  0.7727E-02  0.1267E-01  0.1563E+00  0.1811E-01  0.0000E+00  0.0000E+00  0.0000E+00  0.0000E+00  0.0000E+00
      0.415  0.1043E-01  0.1752E-01  0.1778E+00  0.2062E-01  0.0000E+00  0.0000E+00  0.0000E+00  0.0000E+00  0.0000E+00
      0.514  0.1080E-01  0.2432E-01  0.1606E+00  0.1713E-01  0.0000E+00  0.0000E+00  0.0000E+00  0.0000E+00  0.0000E+00
      0.614  0.1357E-01  0.4007E-01  0.1156E+00  0.1686E-01  0.0000E+00  0.0000E+00  0.0000E+00  0.0000E+00  0.0000E+00
      0.713  0.1979E-01  0.5546E-01  0.6493E-01  0.2232E-01  0.0000E+00  0.0000E+00  0.0000E+00  0.0000E+00  0.0000E+00
      0.813  0.2011E-01  0.5833E-01  0.4318E-01  0.2062E-01  0.0000E+00  0.0000E+00  0.0000E+00  0.0000E+00  0.0000E+00
      0.912  0.1705E-01  0.4969E-01  0.2155E-01  0.1708E-01  0.0000E+00  0.0000E+00  0.0000E+00  0.0000E+00  0.0000E+00
      1.011  0.2486E-01  0.4487E-01  0.9207E-02  0.1665E-01  0.0000E+00  0.0000E+00  0.0000E+00  0.0000E+00  0.0000E+00
      1.111  0.3485E-01  0.4029E-01  0.7770E-02  0.1210E-01  0.0000E+00  0.0000E+00  0.0000E+00  0.0000E+00  0.0000E+00
      1.210  0.3745E-01  0.3697E-01  0.1032E-01  0.8397E-02  0.0000E+00  0.0000E+00  0.0000E+00  0.0000E+00  0.0000E+00
      1.310  0.3998E-01  0.3660E-01  0.1574E-01  0.7724E-02  0.0000E+00  0.0000E+00  0.0000E+00  0.0000E+00  0.0000E+00
      1.409  0.4100E-01  0.3094E-01  0.1953E-01  0.1025E-01  0.0000E+00  0.0000E+00  0.0000E+00  0.0000E+00  0.0000E+00
      1.508  0.4140E-01  0.2828E-01  0.2461E-01  0.1805E-01  0.0000E+00  0.0000E+00  0.0000E+00  0.0000E+00  0.0000E+00
      1.608  0.4182E-01  0.3323E-01  0.3205E-01  0.2864E-01  0.0000E+00  0.0000E+00  0.0000E+00  0.0000E+00  0.0000E+00
      1.707  0.4463E-01  0.4389E-01  0.3578E-01  0.3257E-01  0.0000E+00  0.0000E+00  0.0000E+00  0.0000E+00  0.0000E+00
      1.807  0.4788E-01  0.4908E-01  0.3351E-01  0.3131E-01  0.0000E+00  0.0000E+00  0.0000E+00  0.0000E+00  0.0000E+00
      1.906  0.4861E-01  0.4201E-01  0.2815E-01  0.2960E-01  0.0000E+00  0.0000E+00  0.0000E+00  0.0000E+00  0.0000E+00
      2.005  0.4441E-01  0.3246E-01  0.2305E-01  0.2288E-01  0.0000E+00  0.0000E+00  0.0000E+00  0.0000E+00  0.0000E+00
      2.105  0.3999E-01  0.3195E-01  0.2031E-01  0.2078E-01  0.0000E+00  0.0000E+00  0.0000E+00  0.0000E+00  0.0000E+00
      2.204  0.3637E-01  0.3110E-01  0.2034E-01  0.2199E-01  0.0000E+00  0.0000E+00  0.0000E+00  0.0000E+00  0.0000E+00
      2.304  0.3337E-01  0.2847E-01  0.2139E-01  0.2045E-01  0.0000E+00  0.0000E+00  0.0000E+00  0.0000E+00  0.0000E+00
      2.403  0.3745E-01  0.2631E-01  0.2147E-01  0.1769E-01  0.0000E+00  0.0000E+00  0.0000E+00  0.0000E+00  0.0000E+00
      2.502  0.4786E-01  0.3242E-01  0.2394E-01  0.2022E-01  0.0000E+00  0.0000E+00  0.0000E+00  0.0000E+00  0.0000E+00
      2.602  0.5656E-01  0.4550E-01  0.2886E-01  0.2940E-01  0.0000E+00  0.0000E+00  0.0000E+00  0.0000E+00  0.0000E+00
      2.701  0.5523E-01  0.4672E-01  0.2924E-01  0.4032E-01  0.0000E+00  0.0000E+00  0.0000E+00  0.0000E+00  0.0000E+00
      2.801  0.5182E-01  0.3771E-01  0.2818E-01  0.4597E-01  0.0000E+00  0.0000E+00  0.0000E+00  0.0000E+00  0.0000E+00
      2.900  0.4974E-01  0.3376E-01  0.3187E-01  0.4178E-01  0.0000E+00  0.0000E+00  0.0000E+00  0.0000E+00  0.0000E+00
      3.000  0.4845E-01  0.3123E-01  0.3651E-01  0.3376E-01  0.0000E+00  0.0000E+00  0.0000E+00  0.0000E+00  0.0000E+00
      3.099  0.4827E-01  0.2817E-01  0.3895E-01  0.3030E-01  0.0000E+00  0.0000E+00  0.0000E+00  0.0000E+00  0.0000E+00
      3.198  0.4503E-01  0.2515E-01  0.3404E-01  0.3023E-01  0.0000E+00  0.0000E+00  0.0000E+00  0.0000E+00  0.0000E+00
      3.298  0.3531E-01  0.2113E-01  0.2633E-01  0.2717E-01  0.0000E+00  0.0000E+00  0.0000E+00  0.0000E+00  0.0000E+00
      3.397  0.2984E-01  0.2018E-01  0.2101E-01  0.2964E-01  0.0000E+00  0.0000E+00  0.0000E+00  0.0000E+00  0.0000E+00
      3.497  0.2680E-01  0.1891E-01  0.1919E-01  0.3262E-01  0.0000E+00  0.0000E+00  0.0000E+00  0.0000E+00  0.0000E+00
      3.596  0.2328E-01  0.1659E-01  0.1818E-01  0.2892E-01  0.0000E+00  0.0000E+00  0.0000E+00  0.0000E+00  0.0000E+00
      3.695  0.2152E-01  0.1819E-01  0.1759E-01  0.2600E-01  0.0000E+00  0.0000E+00  0.0000E+00  0.0000E+00  0.0000E+00
      3.795  0.1892E-01  0.1507E-01  0.1458E-01  0.2212E-01  0.0000E+00  0.0000E+00  0.0000E+00  0.0000E+00  0.0000E+00
      3.894  0.1694E-01  0.1158E-01  0.1140E-01  0.1815E-01  0.0000E+00  0.0000E+00  0.0000E+00  0.0000E+00  0.0000E+00
      3.994  0.1444E-01  0.1156E-01  0.1107E-01  0.1620E-01  0.0000E+00  0.0000E+00  0.0000E+00  0.0000E+00  0.0000E+00
      4.093  0.1231E-01  0.1083E-01  0.1056E-01  0.1568E-01  0.0000E+00  0.0000E+00  0.0000E+00  0.0000E+00  0.0000E+00
      4.192  0.8982E-02  0.7504E-02  0.8132E-02  0.1149E-01  0.0000E+00  0.0000E+00  0.0000E+00  0.0000E+00  0.0000E+00
      4.292  0.6513E-02  0.5348E-02  0.5796E-02  0.7828E-02  0.0000E+00  0.0000E+00  0.0000E+00  0.0000E+00  0.0000E+00
      4.391  0.5158E-02  0.4859E-02  0.5714E-02  0.5905E-02  0.0000E+00  0.0000E+00  0.0000E+00  0.0000E+00  0.0000E+00
      4.491  0.4625E-02  0.4244E-02  0.6750E-02  0.3927E-02  0.0000E+00  0.0000E+00  0.0000E+00  0.0000E+00  0.0000E+00
      4.590  0.4532E-02  0.3366E-02  0.7887E-02  0.2736E-02  0.0000E+00  0.0000E+00  0.0000E+00  0.0000E+00  0.0000E+00
      4.689  0.3154E-02  0.1981E-02  0.6252E-02  0.1553E-02  0.0000E+00  0.0000E+00  0.0000E+00  0.0000E+00  0.0000E+00
      4.789  0.1543E-02  0.1541E-02  0.3225E-02  0.6940E-03  0.0000E+00  0.0000E+00  0.0000E+00  0.0000E+00  0.0000E+00
      4.888  0.8044E-03  0.9332E-03  0.1568E-02  0.2919E-03  0.0000E+00  0.0000E+00  0.0000E+00  0.0000E+00  0.0000E+00
      4.988  0.2203E-03  0.2115E-03  0.4522E-03  0.6402E-04  0.0000E+00  0.0000E+00  0.0000E+00  0.0000E+00  0.0000E+00
      5.087  0.9192E-04  0.1145E-03  0.2521E-03  0.3010E-04  0.0000E+00  0.0000E+00  0.0000E+00  0.0000E+00  0.0000E+00
      5.187  0.2894E-04  0.3749E-04  0.8173E-04  0.9735E-05  0.0000E+00  0.0000E+00  0.0000E+00  0.0000E+00  0.0000E+00
      5.286  0.1752E-05  0.2273E-05  0.4953E-05  0.5901E-06  0.0000E+00  0.0000E+00  0.0000E+00  0.0000E+00  0.0000E+00
      5.385  0.1735E-07  0.2250E-07  0.4903E-07  0.5841E-08  0.0000E+00  0.0000E+00  0.0000E+00  0.0000E+00  0.0000E+00
      5.485  0.2630E-10  0.3412E-10  0.7434E-10  0.8857E-11  0.0000E+00  0.0000E+00  0.0000E+00  0.0000E+00  0.0000E+00
      5.584  0.5884E-14  0.7633E-14  0.1663E-13  0.1982E-14  0.0000E+00  0.0000E+00  0.0000E+00  0.0000E+00  0.0000E+00
      5.684  0.1834E-18  0.2379E-18  0.5185E-18  0.6177E-19  0.0000E+00  0.0000E+00  0.0000E+00  0.0000E+00  0.0000E+00
      5.783  0.0000E+00  0.0000E+00  0.0000E+00  0.0000E+00  0.0000E+00  0.0000E+00  0.0000E+00  0.0000E+00  0.0000E+00
      5.882  0.0000E+00  0.0000E+00  0.0000E+00  0.0000E+00  0.0000E+00  0.0000E+00  0.0000E+00  0.0000E+00  0.0000E+00
      5.982  0.0000E+00  0.0000E+00  0.0000E+00  0.0000E+00  0.0000E+00  0.0000E+00  0.0000E+00  0.0000E+00  0.0000E+00
      6.081  0.0000E+00  0.0000E+00  0.0000E+00  0.0000E+00  0.0000E+00  0.0000E+00  0.0000E+00  0.0000E+00  0.0000E+00
      6.181  0.0000E+00  0.0000E+00  0.0000E+00  0.0000E+00  0.0000E+00  0.0000E+00  0.0000E+00  0.0000E+00  0.0000E+00
      6.280  0.0000E+00  0.0000E+00  0.0000E+00  0.0000E+00  0.0000E+00  0.0000E+00  0.0000E+00  0.0000E+00  0.0000E+00
      6.379  0.0000E+00  0.0000E+00  0.0000E+00  0.0000E+00  0.0000E+00  0.0000E+00  0.0000E+00  0.0000E+00  0.0000E+00
      6.37943935    -23.44321047  301     -4.43334101      1.00000000
    -23.443  0.0000E+00  0.0000E+00  0.0000E+00  0.0000E+00  0.0000E+00  0.0000E+00  0.0000E+00  0.0000E+00  0.0000E+00
    -23.344  0.0000E+00  0.0000E+00  0.0000E+00  0.0000E+00  0.0000E+00  0.0000E+00  0.0000E+00  0.0000E+00  0.0000E+00
    -23.244  0.0000E+00  0.0000E+00  0.0000E+00  0.0000E+00  0.0000E+00  0.0000E+00  0.0000E+00  0.0000E+00  0.0000E+00
    -23.145  0.0000E+00  0.0000E+00  0.0000E+00  0.0000E+00  0.0000E+00  0.0000E+00  0.0000E+00  0.0000E+00  0.0000E+00
    -23.046  0.0000E+00  0.0000E+00  0.0000E+00  0.0000E+00  0.0000E+00  0.0000E+00  0.0000E+00  0.0000E+00  0.0000E+00
    -22.946  0.0000E+00  0.0000E+00  0.0000E+00  0.0000E+00  0.0000E+00  0.0000E+00  0.0000E+00  0.0000E+00  0.0000E+00
    -22.847  0.0000E+00  0.0000E+00  0.0000E+00  0.0000E+00  0.0000E+00  0.0000E+00  0.0000E+00  0.0000E+00  0.0000E+00
    -22.747  0.0000E+00  0.0000E+00  0.0000E+00  0.0000E+00  0.0000E+00  0.0000E+00  0.0000E+00  0.0000E+00  0.0000E+00
    -22.648  0.3663E-16  0.6832E-17  0.1030E-24  0.1866E-19  0.0000E+00  0.0000E+00  0.0000E+00  0.0000E+00  0.0000E+00
    -22.549  0.1327E-11  0.2479E-12  0.3738E-20  0.8480E-15  0.0000E+00  0.0000E+00  0.0000E+00  0.0000E+00  0.0000E+00
    -22.449  0.7192E-08  0.1345E-08  0.2029E-16  0.5672E-11  0.0000E+00  0.0000E+00  0.0000E+00  0.0000E+00  0.0000E+00
    -22.350  0.6109E-05  0.1145E-05  0.1727E-13  0.6224E-08  0.0000E+00  0.0000E+00  0.0000E+00  0.0000E+00  0.0000E+00
    -22.250  0.8753E-03  0.1646E-03  0.2485E-11  0.1226E-05  0.0000E+00  0.0000E+00  0.0000E+00  0.0000E+00  0.0000E+00
    -22.151  0.2407E-01  0.4553E-02  0.6884E-10  0.5050E-04  0.0000E+00  0.0000E+00  0.0000E+00  0.0000E+00  0.0000E+00
    -22.051  0.1548E+00  0.2964E-01  0.4493E-09  0.5455E-03  0.0000E+00  0.0000E+00  0.0000E+00  0.0000E+00  0.0000E+00
    -21.952  0.3016E+00  0.5942E-01  0.9044E-09  0.2070E-02  0.0000E+00  0.0000E+00  0.0000E+00  0.0000E+00  0.0000E+00
    -21.853  0.2636E+00  0.5565E-01  0.8530E-09  0.3887E-02  0.0000E+00  0.0000E+00  0.0000E+00  0.0000E+00  0.0000E+00
    -21.753  0.1899E+00  0.4510E-01  0.6980E-09  0.5112E-02  0.0000E+00  0.0000E+00  0.0000E+00  0.0000E+00  0.0000E+00
    -21.654  0.1556E+00  0.4210E-01  0.6569E-09  0.5831E-02  0.0000E+00  0.0000E+00  0.0000E+00  0.0000E+00  0.0000E+00
    -21.554  0.1394E+00  0.4339E-01  0.6815E-09  0.6181E-02  0.0000E+00  0.0000E+00  0.0000E+00  0.0000E+00  0.0000E+00
    -21.455  0.1344E+00  0.4908E-01  0.7767E-09  0.6120E-02  0.0000E+00  0.0000E+00  0.0000E+00  0.0000E+00  0.0000E+00
    -21.356  0.1449E+00  0.6364E-01  0.1011E-08  0.5383E-02  0.0000E+00  0.0000E+00  0.0000E+00  0.0000E+00  0.0000E+00
    -21.256  0.1540E+00  0.7800E-01  0.1243E-08  0.3580E-02  0.0000E+00  0.0000E+00  0.0000E+00  0.0000E+00  0.0000E+00
    -21.157  0.1049E+00  0.5667E-01  0.9113E-09  0.1406E-02  0.0000E+00  0.0000E+00  0.0000E+00  0.0000E+00  0.0000E+00
    -21.057  0.3133E-01  0.1736E-01  0.2819E-09  0.2493E-03  0.0000E+00  0.0000E+00  0.0000E+00  0.0000E+00  0.0000E+00
    -20.958  0.2822E-02  0.1583E-02  0.2584E-10  0.1439E-04  0.0000E+00  0.0000E+00  0.0000E+00  0.0000E+00  0.0000E+00
    -20.859  0.5584E-04  0.3151E-04  0.5160E-12  0.1992E-06  0.0000E+00  0.0000E+00  0.0000E+00  0.0000E+00  0.0000E+00
    -20.759  0.1999E-06  0.1132E-06  0.1857E-14  0.5360E-09  0.0000E+00  0.0000E+00  0.0000E+00  0.0000E+00  0.0000E+00
    -20.660  0.1165E-09  0.6616E-10  0.1086E-17  0.2476E-12  0.0000E+00  0.0000E+00  0.0000E+00  0.0000E+00  0.0000E+00
    -20.560  0.1044E-13  0.5938E-14  0.9748E-22  0.1827E-16  0.0000E+00  0.0000E+00  0.0000E+00  0.0000E+00  0.0000E+00
    -20.461  0.0000E+00  0.0000E+00  0.0000E+00  0.0000E+00  0.0000E+00  0.0000E+00  0.0000E+00  0.0000E+00  0.0000E+00
    -20.362  0.0000E+00  0.0000E+00  0.0000E+00  0.0000E+00  0.0000E+00  0.0000E+00  0.0000E+00  0.0000E+00  0.0000E+00
    -20.262  0.0000E+00  0.0000E+00  0.0000E+00  0.0000E+00  0.0000E+00  0.0000E+00  0.0000E+00  0.0000E+00  0.0000E+00
    -20.163  0.0000E+00  0.0000E+00  0.0000E+00  0.0000E+00  0.0000E+00  0.0000E+00  0.0000E+00  0.0000E+00  0.0000E+00
    -20.063  0.0000E+00  0.0000E+00  0.0000E+00  0.0000E+00  0.0000E+00  0.0000E+00  0.0000E+00  0.0000E+00  0.0000E+00
    -19.964  0.0000E+00  0.0000E+00  0.0000E+00  0.0000E+00  0.0000E+00  0.0000E+00  0.0000E+00  0.0000E+00  0.0000E+00
    -19.864  0.0000E+00  0.0000E+00  0.0000E+00  0.0000E+00  0.0000E+00  0.0000E+00  0.0000E+00  0.0000E+00  0.0000E+00
    -19.765  0.0000E+00  0.0000E+00  0.0000E+00  0.0000E+00  0.0000E+00  0.0000E+00  0.0000E+00  0.0000E+00  0.0000E+00
    -19.666  0.0000E+00  0.0000E+00  0.0000E+00  0.0000E+00  0.0000E+00  0.0000E+00  0.0000E+00  0.0000E+00  0.0000E+00
    -19.566  0.0000E+00  0.0000E+00  0.0000E+00  0.0000E+00  0.0000E+00  0.0000E+00  0.0000E+00  0.0000E+00  0.0000E+00
    -19.467  0.0000E+00  0.0000E+00  0.0000E+00  0.0000E+00  0.0000E+00  0.0000E+00  0.0000E+00  0.0000E+00  0.0000E+00
    -19.367  0.0000E+00  0.0000E+00  0.0000E+00  0.0000E+00  0.0000E+00  0.0000E+00  0.0000E+00  0.0000E+00  0.0000E+00
    -19.268  0.0000E+00  0.0000E+00  0.0000E+00  0.0000E+00  0.0000E+00  0.0000E+00  0.0000E+00  0.0000E+00  0.0000E+00
    -19.169  0.0000E+00  0.0000E+00  0.0000E+00  0.0000E+00  0.0000E+00  0.0000E+00  0.0000E+00  0.0000E+00  0.0000E+00
    -19.069  0.0000E+00  0.0000E+00  0.0000E+00  0.0000E+00  0.0000E+00  0.0000E+00  0.0000E+00  0.0000E+00  0.0000E+00
    -18.970  0.0000E+00  0.0000E+00  0.0000E+00  0.0000E+00  0.0000E+00  0.0000E+00  0.0000E+00  0.0000E+00  0.0000E+00
    -18.870  0.0000E+00  0.0000E+00  0.0000E+00  0.0000E+00  0.0000E+00  0.0000E+00  0.0000E+00  0.0000E+00  0.0000E+00
    -18.771  0.0000E+00  0.0000E+00  0.0000E+00  0.0000E+00  0.0000E+00  0.0000E+00  0.0000E+00  0.0000E+00  0.0000E+00
    -18.672  0.0000E+00  0.0000E+00  0.0000E+00  0.0000E+00  0.0000E+00  0.0000E+00  0.0000E+00  0.0000E+00  0.0000E+00
    -18.572  0.0000E+00  0.0000E+00  0.0000E+00  0.0000E+00  0.0000E+00  0.0000E+00  0.0000E+00  0.0000E+00  0.0000E+00
    -18.473  0.0000E+00  0.0000E+00  0.0000E+00  0.0000E+00  0.0000E+00  0.0000E+00  0.0000E+00  0.0000E+00  0.0000E+00
    -18.373  0.0000E+00  0.0000E+00  0.0000E+00  0.0000E+00  0.0000E+00  0.0000E+00  0.0000E+00  0.0000E+00  0.0000E+00
    -18.274  0.0000E+00  0.0000E+00  0.0000E+00  0.0000E+00  0.0000E+00  0.0000E+00  0.0000E+00  0.0000E+00  0.0000E+00
    -18.175  0.0000E+00  0.0000E+00  0.0000E+00  0.0000E+00  0.0000E+00  0.0000E+00  0.0000E+00  0.0000E+00  0.0000E+00
    -18.075  0.0000E+00  0.0000E+00  0.0000E+00  0.0000E+00  0.0000E+00  0.0000E+00  0.0000E+00  0.0000E+00  0.0000E+00
    -17.976  0.0000E+00  0.0000E+00  0.0000E+00  0.0000E+00  0.0000E+00  0.0000E+00  0.0000E+00  0.0000E+00  0.0000E+00
    -17.876  0.1088E-17  0.7435E-20  0.4451E-27  0.7964E-18  0.0000E+00  0.0000E+00  0.0000E+00  0.0000E+00  0.0000E+00
    -17.777  0.8104E-13  0.5550E-15  0.3405E-22  0.6122E-13  0.0000E+00  0.0000E+00  0.0000E+00  0.0000E+00  0.0000E+00
    -17.677  0.6969E-09  0.4808E-11  0.2944E-18  0.5280E-09  0.0000E+00  0.0000E+00  0.0000E+00  0.0000E+00  0.0000E+00
    -17.578  0.9239E-06  0.6446E-08  0.3933E-15  0.7033E-06  0.0000E+00  0.0000E+00  0.0000E+00  0.0000E+00  0.0000E+00
    -17.479  0.2003E-03  0.1422E-05  0.8618E-13  0.1537E-03  0.0000E+00  0.0000E+00  0.0000E+00  0.0000E+00  0.0000E+00
    -17.379  0.7886E-02  0.5773E-04  0.3451E-11  0.6144E-02  0.0000E+00  0.0000E+00  0.0000E+00  0.0000E+00  0.0000E+00
    -17.280  0.6802E-01  0.5271E-03  0.3066E-10  0.5483E-01  0.0000E+00  0.0000E+00  0.0000E+00  0.0000E+00  0.0000E+00
    -17.180  0.1790E+00  0.1547E-02  0.8477E-10  0.1584E+00  0.0000E+00  0.0000E+00  0.0000E+00  0.0000E+00  0.0000E+00
    -17.081  0.2465E+00  0.2529E-02  0.1227E-09  0.2778E+00  0.0000E+00  0.0000E+00  0.0000E+00  0.0000E+00  0.0000E+00
    -16.982  0.3055E+00  0.3213E-02  0.1636E-09  0.3827E+00  0.0000E+00  0.0000E+00  0.0000E+00  0.0000E+00  0.0000E+00
    -16.882  0.3918E+00  0.2790E-02  0.2560E-09  0.2725E+00  0.0000E+00  0.0000E+00  0.0000E+00  0.0000E+00  0.0000E+00
    -16.783  0.3447E+00  0.1649E-02  0.2589E-09  0.1065E+00  0.0000E+00  0.0000E+00  0.0000E+00  0.0000E+00  0.0000E+00
    -16.683  0.1959E+00  0.7566E-03  0.1599E-09  0.3147E-01  0.0000E+00  0.0000E+00  0.0000E+00  0.0000E+00  0.0000E+00
    -16.584  0.7575E-01  0.2594E-03  0.6327E-10  0.5248E-02  0.0000E+00  0.0000E+00  0.0000E+00  0.0000E+00  0.0000E+00
    -16.485  0.1268E-01  0.4110E-04  0.1047E-10  0.3464E-03  0.0000E+00  0.0000E+00  0.0000E+00  0.0000E+00  0.0000E+00
    -16.385  0.5679E-03  0.1799E-05  0.4633E-12  0.7070E-05  0.0000E+00  0.0000E+00  0.0000E+00  0.0000E+00  0.0000E+00
    -16.286  0.5114E-05  0.1601E-07  0.4139E-14  0.3510E-07  0.0000E+00  0.0000E+00  0.0000E+00  0.0000E+00  0.0000E+00
    -16.186  0.7933E-08  0.2466E-10  0.6390E-17  0.3486E-10  0.0000E+00  0.0000E+00  0.0000E+00  0.0000E+00  0.0000E+00
    -16.087  0.1949E-11  0.6034E-14  0.1565E-20  0.6122E-14  0.0000E+00  0.0000E+00  0.0000E+00  0.0000E+00  0.0000E+00
    -15.988  0.7235E-16  0.2233E-18  0.5795E-25  0.1615E-18  0.0000E+00  0.0000E+00  0.0000E+00  0.0000E+00  0.0000E+00
    -15.888  0.1715E-14  0.8100E-16  0.1336E-22  0.1079E-16  0.0000E+00  0.0000E+00  0.0000E+00  0.0000E+00  0.0000E+00
    -15.789  0.2553E-10  0.1206E-11  0.1990E-18  0.1613E-12  0.0000E+00  0.0000E+00  0.0000E+00  0.0000E+00  0.0000E+00
    -15.689  0.5592E-07  0.2643E-08  0.4359E-15  0.3582E-09  0.0000E+00  0.0000E+00  0.0000E+00  0.0000E+00  0.0000E+00
    -15.590  0.1886E-04  0.8929E-06  0.1472E-12  0.1284E-06  0.0000E+00  0.0000E+00  0.0000E+00  0.0000E+00  0.0000E+00
    -15.491  0.1081E-02  0.5143E-04  0.8467E-11  0.9089E-05  0.0000E+00  0.0000E+00  0.0000E+00  0.0000E+00  0.0000E+00
    -15.391  0.1274E-01  0.6152E-03  0.1009E-09  0.1706E-03  0.0000E+00  0.0000E+00  0.0000E+00  0.0000E+00  0.0000E+00
    -15.292  0.4219E-01  0.2105E-02  0.3420E-09  0.9999E-03  0.0000E+00  0.0000E+00  0.0000E+00  0.0000E+00  0.0000E+00
    -15.192  0.6278E-01  0.3350E-02  0.5294E-09  0.2637E-02  0.0000E+00  0.0000E+00  0.0000E+00  0.0000E+00  0.0000E+00
    -15.093  0.7495E-01  0.4447E-02  0.6657E-09  0.4943E-02  0.0000E+00  0.0000E+00  0.0000E+00  0.0000E+00  0.0000E+00
    -14.993  0.8514E-01  0.5942E-02  0.8137E-09  0.7569E-02  0.0000E+00  0.0000E+00  0.0000E+00  0.0000E+00  0.0000E+00
    -14.894  0.1077E+00  0.1071E-01  0.1188E-08  0.1279E-01  0.0000E+00  0.0000E+00  0.0000E+00  0.0000E+00  0.0000E+00
    -14.795  0.1364E+00  0.2587E-01  0.1984E-08  0.2118E-01  0.0000E+00  0.0000E+00  0.0000E+00  0.0000E+00  0.0000E+00
    -14.695  0.1584E+00  0.4092E-01  0.2723E-08  0.2856E-01  0.0000E+00  0.0000E+00  0.0000E+00  0.0000E+00  0.0000E+00
    -14.596  0.1419E+00  0.3365E-01  0.2345E-08  0.2274E-01  0.0000E+00  0.0000E+00  0.0000E+00  0.0000E+00  0.0000E+00
    -14.496  0.1434E+00  0.2604E-01  0.2112E-08  0.1989E-01  0.0000E+00  0.0000E+00  0.0000E+00  0.0000E+00  0.0000E+00
    -14.397  0.1300E+00  0.2159E-01  0.1856E-08  0.1938E-01  0.0000E+00  0.0000E+00  0.0000E+00  0.0000E+00  0.0000E+00
    -14.298  0.7654E-01  0.1838E-01  0.1368E-08  0.1980E-01  0.0000E+00  0.0000E+00  0.0000E+00  0.0000E+00  0.0000E+00
    -14.198  0.6094E-01  0.1805E-01  0.1275E-08  0.2153E-01  0.0000E+00  0.0000E+00  0.0000E+00  0.0000E+00  0.0000E+00
    -14.099  0.7367E-01  0.1902E-01  0.1421E-08  0.2351E-01  0.0000E+00  0.0000E+00  0.0000E+00  0.0000E+00  0.0000E+00
    -13.999  0.9648E-01  0.2136E-01  0.1761E-08  0.2809E-01  0.0000E+00  0.0000E+00  0.0000E+00  0.0000E+00  0.0000E+00
    -13.900  0.9256E-01  0.2065E-01  0.1829E-08  0.2549E-01  0.0000E+00  0.0000E+00  0.0000E+00  0.0000E+00  0.0000E+00
    -13.801  0.7094E-01  0.1825E-01  0.1690E-08  0.1840E-01  0.0000E+00  0.0000E+00  0.0000E+00  0.0000E+00  0.0000E+00
    -13.701  0.4340E-01  0.1260E-01  0.1186E-08  0.1072E-01  0.0000E+00  0.0000E+00  0.0000E+00  0.0000E+00  0.0000E+00
    -13.602  0.1256E-01  0.3887E-02  0.3671E-09  0.3066E-02  0.0000E+00  0.0000E+00  0.0000E+00  0.0000E+00  0.0000E+00
    -13.502  0.1024E-02  0.3264E-03  0.3084E-10  0.2493E-03  0.0000E+00  0.0000E+00  0.0000E+00  0.0000E+00  0.0000E+00
    -13.403  0.1780E-04  0.5769E-05  0.5446E-12  0.4315E-05  0.0000E+00  0.0000E+00  0.0000E+00  0.0000E+00  0.0000E+00
    -13.304  0.5645E-07  0.1847E-07  0.1742E-14  0.1363E-07  0.0000E+00  0.0000E+00  0.0000E+00  0.0000E+00  0.0000E+00
    -13.204  0.3000E-10  0.1015E-10  0.9178E-18  0.9535E-11  0.0000E+00  0.0000E+00  0.0000E+00  0.0000E+00  0.0000E+00
    -13.105  0.2449E-08  0.1869E-08  0.6037E-15  0.9997E-08  0.0000E+00  0.0000E+00  0.0000E+00  0.0000E+00  0.0000E+00
    -13.005  0.1591E-05  0.1178E-05  0.1062E-10  0.6519E-05  0.0000E+00  0.0000E+00  0.0000E+00  0.0000E+00  0.0000E+00
    -12.906  0.1754E-03  0.1259E-03  0.2946E-07  0.7252E-03  0.0000E+00  0.0000E+00  0.0000E+00  0.0000E+00  0.0000E+00
    -12.806  0.3646E-02  0.2539E-02  0.1303E-04  0.1529E-01  0.0000E+00  0.0000E+00  0.0000E+00  0.0000E+00  0.0000E+00
    -12.707  0.1731E-01  0.1210E-01  0.9960E-03  0.7416E-01  0.0000E+00  0.0000E+00  0.0000E+00  0.0000E+00  0.0000E+00
    -12.608  0.2743E-01  0.2111E-01  0.1530E-01  0.1212E+00  0.0000E+00  0.0000E+00  0.0000E+00  0.0000E+00  0.0000E+00
    -12.508  0.2720E-01  0.2307E-01  0.6185E-01  0.1127E+00  0.0000E+00  0.0000E+00  0.0000E+00  0.0000E+00  0.0000E+00
    -12.409  0.2661E-01  0.2157E-01  0.1061E+00  0.9017E-01  0.0000E+00  0.0000E+00  0.0000E+00  0.0000E+00  0.0000E+00
    -12.309  0.2585E-01  0.2119E-01  0.1284E+00  0.7660E-01  0.0000E+00  0.0000E+00  0.0000E+00  0.0000E+00  0.0000E+00
    -12.210  0.2704E-01  0.2097E-01  0.1143E+00  0.7180E-01  0.0000E+00  0.0000E+00  0.0000E+00  0.0000E+00  0.0000E+00
    -12.111  0.2585E-01  0.2139E-01  0.8681E-01  0.6731E-01  0.0000E+00  0.0000E+00  0.0000E+00  0.0000E+00  0.0000E+00
    -12.011  0.2673E-01  0.2259E-01  0.7135E-01  0.6604E-01  0.0000E+00  0.0000E+00  0.0000E+00  0.0000E+00  0.0000E+00
    -11.912  0.2822E-01  0.2315E-01  0.6253E-01  0.6608E-01  0.0000E+00  0.0000E+00  0.0000E+00  0.0000E+00  0.0000E+00
    -11.812  0.2613E-01  0.2463E-01  0.5664E-01  0.6283E-01  0.0000E+00  0.0000E+00  0.0000E+00  0.0000E+00  0.0000E+00
    -11.713  0.2831E-01  0.2708E-01  0.5242E-01  0.6235E-01  0.0000E+00  0.0000E+00  0.0000E+00  0.0000E+00  0.0000E+00
    -11.614  0.2988E-01  0.2777E-01  0.4931E-01  0.5665E-01  0.0000E+00  0.0000E+00  0.0000E+00  0.0000E+00  0.0000E+00
    -11.514  0.3002E-01  0.3408E-01  0.4764E-01  0.4642E-01  0.0000E+00  0.0000E+00  0.0000E+00  0.0000E+00  0.0000E+00
    -11.415  0.3350E-01  0.4311E-01  0.4815E-01  0.4355E-01  0.0000E+00  0.0000E+00  0.0000E+00  0.0000E+00  0.0000E+00
    -11.315  0.4250E-01  0.5724E-01  0.5111E-01  0.5257E-01  0.0000E+00  0.0000E+00  0.0000E+00  0.0000E+00  0.0000E+00
    -11.216  0.4328E-01  0.6644E-01  0.4820E-01  0.4876E-01  0.0000E+00  0.0000E+00  0.0000E+00  0.0000E+00  0.0000E+00
    -11.117  0.4118E-01  0.7273E-01  0.3788E-01  0.4492E-01  0.0000E+00  0.0000E+00  0.0000E+00  0.0000E+00  0.0000E+00
    -11.017  0.4740E-01  0.8901E-01  0.3003E-01  0.6245E-01  0.0000E+00  0.0000E+00  0.0000E+00  0.0000E+00  0.0000E+00
    -10.918  0.4677E-01  0.9667E-01  0.2488E-01  0.5860E-01  0.0000E+00  0.0000E+00  0.0000E+00  0.0000E+00  0.0000E+00
    -10.818  0.3467E-01  0.8169E-01  0.2050E-01  0.4262E-01  0.0000E+00  0.0000E+00  0.0000E+00  0.0000E+00  0.0000E+00
    -10.719  0.4291E-01  0.7967E-01  0.1360E-01  0.3444E-01  0.0000E+00  0.0000E+00  0.0000E+00  0.0000E+00  0.0000E+00
    -10.619  0.7514E-01  0.1099E+00  0.4290E-02  0.4059E-01  0.0000E+00  0.0000E+00  0.0000E+00  0.0000E+00  0.0000E+00
    -10.520  0.1009E+00  0.1464E+00  0.3890E-03  0.4876E-01  0.0000E+00  0.0000E+00  0.0000E+00  0.0000E+00  0.0000E+00
    -10.421  0.8383E-01  0.1098E+00  0.7478E-05  0.4224E-01  0.0000E+00  0.0000E+00  0.0000E+00  0.0000E+00  0.0000E+00
    -10.321  0.6167E-01  0.6049E-01  0.2655E-07  0.3359E-01  0.0000E+00  0.0000E+00  0.0000E+00  0.0000E+00  0.0000E+00
    -10.222  0.5474E-01  0.4832E-01  0.5893E-09  0.3113E-01  0.0000E+00  0.0000E+00  0.0000E+00  0.0000E+00  0.0000E+00
    -10.122  0.4982E-01  0.4396E-01  0.4284E-09  0.2713E-01  0.0000E+00  0.0000E+00  0.0000E+00  0.0000E+00  0.0000E+00
    -10.023  0.5161E-01  0.5112E-01  0.6040E-09  0.2789E-01  0.0000E+00  0.0000E+00  0.0000E+00  0.0000E+00  0.0000E+00
     -9.924  0.5420E-01  0.5316E-01  0.7625E-09  0.4427E-01  0.0000E+00  0.0000E+00  0.0000E+00  0.0000E+00  0.0000E+00
     -9.824  0.5834E-01  0.5324E-01  0.9616E-09  0.7668E-01  0.0000E+00  0.0000E+00  0.0000E+00  0.0000E+00  0.0000E+00
     -9.725  0.5603E-01  0.5630E-01  0.1155E-08  0.9284E-01  0.0000E+00  0.0000E+00  0.0000E+00  0.0000E+00  0.0000E+00
     -9.625  0.5472E-01  0.7052E-01  0.1656E-08  0.1291E+00  0.0000E+00  0.0000E+00  0.0000E+00  0.0000E+00  0.0000E+00
     -9.526  0.5194E-01  0.8770E-01  0.2237E-08  0.1716E+00  0.0000E+00  0.0000E+00  0.0000E+00  0.0000E+00  0.0000E+00
     -9.427  0.4493E-01  0.8841E-01  0.2152E-08  0.1556E+00  0.0000E+00  0.0000E+00  0.0000E+00  0.0000E+00  0.0000E+00
     -9.327  0.3279E-01  0.7553E-01  0.1810E-08  0.1158E+00  0.0000E+00  0.0000E+00  0.0000E+00  0.0000E+00  0.0000E+00
     -9.228  0.1785E-01  0.4436E-01  0.1410E-08  0.8021E-01  0.0000E+00  0.0000E+00  0.0000E+00  0.0000E+00  0.0000E+00
     -9.128  0.1003E-01  0.2269E-01  0.1341E-08  0.7055E-01  0.0000E+00  0.0000E+00  0.0000E+00  0.0000E+00  0.0000E+00
     -9.029  0.8481E-02  0.2238E-01  0.1005E-06  0.5691E-01  0.0000E+00  0.0000E+00  0.0000E+00  0.0000E+00  0.0000E+00
     -8.930  0.9771E-02  0.3051E-01  0.3021E-04  0.5768E-01  0.0000E+00  0.0000E+00  0.0000E+00  0.0000E+00  0.0000E+00
     -8.830  0.1194E-01  0.3670E-01  0.1630E-02  0.6641E-01  0.0000E+00  0.0000E+00  0.0000E+00  0.0000E+00  0.0000E+00
     -8.731  0.1564E-01  0.4737E-01  0.1831E-01  0.7114E-01  0.0000E+00  0.0000E+00  0.0000E+00  0.0000E+00  0.0000E+00
     -8.631  0.2243E-01  0.6599E-01  0.5713E-01  0.8177E-01  0.0000E+00  0.0000E+00  0.0000E+00  0.0000E+00  0.0000E+00
     -8.532  0.2762E-01  0.7920E-01  0.8035E-01  0.9912E-01  0.0000E+00  0.0000E+00  0.0000E+00  0.0000E+00  0.0000E+00
     -8.432  0.2499E-01  0.8512E-01  0.8917E-01  0.9064E-01  0.0000E+00  0.0000E+00  0.0000E+00  0.0000E+00  0.0000E+00
     -8.333  0.1996E-01  0.8325E-01  0.9916E-01  0.7776E-01  0.0000E+00  0.0000E+00  0.0000E+00  0.0000E+00  0.0000E+00
     -8.234  0.1664E-01  0.8960E-01  0.9938E-01  0.6476E-01  0.0000E+00  0.0000E+00  0.0000E+00  0.0000E+00  0.0000E+00
     -8.134  0.1466E-01  0.1045E+00  0.8794E-01  0.4799E-01  0.0000E+00  0.0000E+00  0.0000E+00  0.0000E+00  0.0000E+00
     -8.035  0.1157E-01  0.1317E+00  0.8486E-01  0.4381E-01  0.0000E+00  0.0000E+00  0.0000E+00  0.0000E+00  0.0000E+00
     -7.935  0.1082E-01  0.1263E+00  0.9174E-01  0.5546E-01  0.0000E+00  0.0000E+00  0.0000E+00  0.0000E+00  0.0000E+00
     -7.836  0.1018E-01  0.6171E-01  0.8373E-01  0.6505E-01  0.0000E+00  0.0000E+00  0.0000E+00  0.0000E+00  0.0000E+00
     -7.737  0.7440E-02  0.2854E-01  0.6047E-01  0.7047E-01  0.0000E+00  0.0000E+00  0.0000E+00  0.0000E+00  0.0000E+00
     -7.637  0.8092E-02  0.2262E-01  0.4271E-01  0.7763E-01  0.0000E+00  0.0000E+00  0.0000E+00  0.0000E+00  0.0000E+00
     -7.538  0.1055E-01  0.2822E-01  0.3070E-01  0.8090E-01  0.0000E+00  0.0000E+00  0.0000E+00  0.0000E+00  0.0000E+00
     -7.438  0.8172E-02  0.2857E-01  0.2023E-01  0.8370E-01  0.0000E+00  0.0000E+00  0.0000E+00  0.0000E+00  0.0000E+00
     -7.339  0.5766E-02  0.2141E-01  0.1317E-01  0.8491E-01  0.0000E+00  0.0000E+00  0.0000E+00  0.0000E+00  0.0000E+00
     -7.240  0.8238E-02  0.3042E-01  0.6856E-02  0.8597E-01  0.0000E+00  0.0000E+00  0.0000E+00  0.0000E+00  0.0000E+00
     -7.140  0.6749E-02  0.3335E-01  0.3061E-02  0.8499E-01  0.0000E+00  0.0000E+00  0.0000E+00  0.0000E+00  0.0000E+00
     -7.041  0.3440E-02  0.3394E-01  0.1196E-01  0.6658E-01  0.0000E+00  0.0000E+00  0.0000E+00  0.0000E+00  0.0000E+00
     -6.941  0.5114E-02  0.3859E-01  0.4658E-01  0.2570E-01  0.0000E+00  0.0000E+00  0.0000E+00  0.0000E+00  0.0000E+00
     -6.842  0.5419E-02  0.4251E-01  0.8385E-01  0.5263E-02  0.0000E+00  0.0000E+00  0.0000E+00  0.0000E+00  0.0000E+00
     -6.743  0.4276E-02  0.4734E-01  0.1033E+00  0.3350E-02  0.0000E+00  0.0000E+00  0.0000E+00  0.0000E+00  0.0000E+00
     -6.643  0.3567E-02  0.5196E-01  0.9689E-01  0.3465E-02  0.0000E+00  0.0000E+00  0.0000E+00  0.0000E+00  0.0000E+00
     -6.544  0.1376E-02  0.4486E-01  0.9168E-01  0.3282E-02  0.0000E+00  0.0000E+00  0.0000E+00  0.0000E+00  0.0000E+00
     -6.444  0.5102E-03  0.3880E-01  0.9503E-01  0.3059E-02  0.0000E+00  0.0000E+00  0.0000E+00  0.0000E+00  0.0000E+00
     -6.345  0.4557E-03  0.3694E-01  0.1106E+00  0.2802E-02  0.0000E+00  0.0000E+00  0.0000E+00  0.0000E+00  0.0000E+00
     -6.245  0.5308E-03  0.4233E-01  0.1513E+00  0.2649E-02  0.0000E+00  0.0000E+00  0.0000E+00  0.0000E+00  0.0000E+00
     -6.146  0.6450E-03  0.4552E-01  0.1778E+00  0.2622E-02  0.0000E+00  0.0000E+00  0.0000E+00  0.0000E+00  0.0000E+00
     -6.047  0.7349E-03  0.3855E-01  0.1334E+00  0.2388E-02  0.0000E+00  0.0000E+00  0.0000E+00  0.0000E+00  0.0000E+00
     -5.947  0.1062E-02  0.4288E-01  0.9485E-01  0.2729E-02  0.0000E+00  0.0000E+00  0.0000E+00  0.0000E+00  0.0000E+00
     -5.848  0.1000E-02  0.3170E-01  0.6284E-01  0.1613E-02  0.0000E+00  0.0000E+00  0.0000E+00  0.0000E+00  0.0000E+00
     -5.748  0.1394E-02  0.4605E-01  0.2113E-01  0.1814E-02  0.0000E+00  0.0000E+00  0.0000E+00  0.0000E+00  0.0000E+00
     -5.649  0.1861E-02  0.5788E-01  0.2100E-02  0.2611E-02  0.0000E+00  0.0000E+00  0.0000E+00  0.0000E+00  0.0000E+00
     -5.550  0.1975E-02  0.3990E-01  0.4490E-04  0.1684E-02  0.0000E+00  0.0000E+00  0.0000E+00  0.0000E+00  0.0000E+00
     -5.450  0.2371E-02  0.3408E-01  0.1730E-06  0.1059E-02  0.0000E+00  0.0000E+00  0.0000E+00  0.0000E+00  0.0000E+00
     -5.351  0.3378E-02  0.5533E-01  0.1404E-08  0.1506E-02  0.0000E+00  0.0000E+00  0.0000E+00  0.0000E+00  0.0000E+00
     -5.251  0.4733E-02  0.7682E-01  0.2167E-08  0.1791E-02  0.0000E+00  0.0000E+00  0.0000E+00  0.0000E+00  0.0000E+00
     -5.152  0.5643E-02  0.6455E-01  0.1900E-08  0.1061E-02  0.0000E+00  0.0000E+00  0.0000E+00  0.0000E+00  0.0000E+00
     -5.053  0.4521E-02  0.4662E-01  0.1748E-08  0.7051E-03  0.0000E+00  0.0000E+00  0.0000E+00  0.0000E+00  0.0000E+00
     -4.953  0.4685E-02  0.5199E-01  0.3734E-08  0.9556E-03  0.0000E+00  0.0000E+00  0.0000E+00  0.0000E+00  0.0000E+00
     -4.854  0.7796E-02  0.5386E-01  0.1547E-07  0.1174E-02  0.0000E+00  0.0000E+00  0.0000E+00  0.0000E+00  0.0000E+00
     -4.754  0.1651E-01  0.3723E-01  0.4355E-07  0.1367E-02  0.0000E+00  0.0000E+00  0.0000E+00  0.0000E+00  0.0000E+00
     -4.655  0.1791E-01  0.2808E-01  0.4767E-07  0.2200E-02  0.0000E+00  0.0000E+00  0.0000E+00  0.0000E+00  0.0000E+00
     -4.556  0.1292E-01  0.3911E-01  0.3267E-07  0.3133E-02  0.0000E+00  0.0000E+00  0.0000E+00  0.0000E+00  0.0000E+00
     -4.456  0.8321E-02  0.4303E-01  0.2531E-07  0.3607E-02  0.0000E+00  0.0000E+00  0.0000E+00  0.0000E+00  0.0000E+00
     -4.357  0.5336E-02  0.3418E-01  0.2584E-07  0.3320E-02  0.0000E+00  0.0000E+00  0.0000E+00  0.0000E+00  0.0000E+00
     -4.257  0.3613E-02  0.3236E-01  0.1833E-07  0.1550E-02  0.0000E+00  0.0000E+00  0.0000E+00  0.0000E+00  0.0000E+00
     -4.158  0.2910E-02  0.2638E-01  0.7545E-08  0.3233E-03  0.0000E+00  0.0000E+00  0.0000E+00  0.0000E+00  0.0000E+00
     -4.058  0.2073E-02  0.2043E-01  0.2641E-08  0.9472E-04  0.0000E+00  0.0000E+00  0.0000E+00  0.0000E+00  0.0000E+00
     -3.959  0.1558E-02  0.1920E-01  0.2298E-08  0.7180E-04  0.0000E+00  0.0000E+00  0.0000E+00  0.0000E+00  0.0000E+00
     -3.860  0.1579E-02  0.2131E-01  0.1553E-08  0.6731E-04  0.0000E+00  0.0000E+00  0.0000E+00  0.0000E+00  0.0000E+00
     -3.760  0.1452E-02  0.2172E-01  0.8323E-09  0.5720E-04  0.0000E+00  0.0000E+00  0.0000E+00  0.0000E+00  0.0000E+00
     -3.661  0.1360E-02  0.2323E-01  0.4328E-09  0.5352E-04  0.0000E+00  0.0000E+00  0.0000E+00  0.0000E+00  0.0000E+00
     -3.561  0.1036E-02  0.1769E-01  0.1710E-09  0.2808E-04  0.0000E+00  0.0000E+00  0.0000E+00  0.0000E+00  0.0000E+00
     -3.462  0.1033E-02  0.1729E-01  0.1633E-09  0.2234E-04  0.0000E+00  0.0000E+00  0.0000E+00  0.0000E+00  0.0000E+00
     -3.363  0.8720E-03  0.1627E-01  0.4777E-09  0.2002E-04  0.0000E+00  0.0000E+00  0.0000E+00  0.0000E+00  0.0000E+00
     -3.263  0.1079E-02  0.2148E-01  0.1330E-08  0.1345E-04  0.0000E+00  0.0000E+00  0.0000E+00  0.0000E+00  0.0000E+00
     -3.164  0.7629E-03  0.1507E-01  0.8803E-09  0.5291E-05  0.0000E+00  0.0000E+00  0.0000E+00  0.0000E+00  0.0000E+00
     -3.064  0.6110E-03  0.1256E-01  0.1660E-09  0.2094E-05  0.0000E+00  0.0000E+00  0.0000E+00  0.0000E+00  0.0000E+00
     -2.965  0.6418E-03  0.1367E-01  0.1019E-09  0.1318E-05  0.0000E+00  0.0000E+00  0.0000E+00  0.0000E+00  0.0000E+00
     -2.866  0.2508E-03  0.5448E-02  0.4795E-10  0.3219E-06  0.0000E+00  0.0000E+00  0.0000E+00  0.0000E+00  0.0000E+00
     -2.766  0.2366E-04  0.5172E-03  0.4801E-11  0.2437E-07  0.0000E+00  0.0000E+00  0.0000E+00  0.0000E+00  0.0000E+00
     -2.667  0.4046E-06  0.8858E-05  0.8314E-13  0.3948E-09  0.0000E+00  0.0000E+00  0.0000E+00  0.0000E+00  0.0000E+00
     -2.567  0.1096E-08  0.2400E-07  0.2257E-15  0.1059E-11  0.0000E+00  0.0000E+00  0.0000E+00  0.0000E+00  0.0000E+00
     -2.468  0.4434E-12  0.9710E-11  0.9136E-19  0.4276E-15  0.0000E+00  0.0000E+00  0.0000E+00  0.0000E+00  0.0000E+00
     -2.369  0.2610E-16  0.5715E-15  0.5377E-23  0.2516E-19  0.0000E+00  0.0000E+00  0.0000E+00  0.0000E+00  0.0000E+00
     -2.269  0.0000E+00  0.0000E+00  0.0000E+00  0.0000E+00  0.0000E+00  0.0000E+00  0.0000E+00  0.0000E+00  0.0000E+00
     -2.170  0.0000E+00  0.0000E+00  0.0000E+00  0.0000E+00  0.0000E+00  0.0000E+00  0.0000E+00  0.0000E+00  0.0000E+00
     -2.070  0.1542E-17  0.3202E-16  0.1647E-22  0.9747E-17  0.0000E+00  0.0000E+00  0.0000E+00  0.0000E+00  0.0000E+00
     -1.971  0.2370E-13  0.4917E-12  0.2530E-18  0.1503E-12  0.0000E+00  0.0000E+00  0.0000E+00  0.0000E+00  0.0000E+00
     -1.871  0.5337E-10  0.1106E-08  0.5694E-15  0.3415E-09  0.0000E+00  0.0000E+00  0.0000E+00  0.0000E+00  0.0000E+00
     -1.772  0.1830E-07  0.3777E-06  0.1949E-12  0.1197E-06  0.0000E+00  0.0000E+00  0.0000E+00  0.0000E+00  0.0000E+00
     -1.673  0.1027E-05  0.2103E-04  0.1090E-10  0.7063E-05  0.0000E+00  0.0000E+00  0.0000E+00  0.0000E+00  0.0000E+00
     -1.573  0.1067E-04  0.2145E-03  0.1186E-09  0.8093E-04  0.0000E+00  0.0000E+00  0.0000E+00  0.0000E+00  0.0000E+00
     -1.474  0.2521E-04  0.4860E-03  0.1943E-07  0.2335E-03  0.0000E+00  0.0000E+00  0.0000E+00  0.0000E+00  0.0000E+00
     -1.374  0.3570E-04  0.6585E-03  0.9432E-05  0.3134E-03  0.0000E+00  0.0000E+00  0.0000E+00  0.0000E+00  0.0000E+00
     -1.275  0.1244E-03  0.2340E-02  0.8398E-03  0.5025E-03  0.0000E+00  0.0000E+00  0.0000E+00  0.0000E+00  0.0000E+00
     -1.176  0.1898E-03  0.3261E-02  0.1528E-01  0.7510E-03  0.0000E+00  0.0000E+00  0.0000E+00  0.0000E+00  0.0000E+00
     -1.076  0.1236E-03  0.1635E-02  0.7148E-01  0.7268E-03  0.0000E+00  0.0000E+00  0.0000E+00  0.0000E+00  0.0000E+00
     -0.977  0.2033E-03  0.2796E-02  0.1360E+00  0.9599E-03  0.0000E+00  0.0000E+00  0.0000E+00  0.0000E+00  0.0000E+00
     -0.877  0.4656E-03  0.6859E-02  0.1736E+00  0.1429E-02  0.0000E+00  0.0000E+00  0.0000E+00  0.0000E+00  0.0000E+00
     -0.778  0.4066E-03  0.4539E-02  0.1717E+00  0.1543E-02  0.0000E+00  0.0000E+00  0.0000E+00  0.0000E+00  0.0000E+00
     -0.679  0.5010E-03  0.3668E-02  0.1611E+00  0.1637E-02  0.0000E+00  0.0000E+00  0.0000E+00  0.0000E+00  0.0000E+00
     -0.579  0.8932E-03  0.7225E-02  0.1563E+00  0.2340E-02  0.0000E+00  0.0000E+00  0.0000E+00  0.0000E+00  0.0000E+00
     -0.480  0.1369E-02  0.8681E-02  0.1420E+00  0.2656E-02  0.0000E+00  0.0000E+00  0.0000E+00  0.0000E+00  0.0000E+00
     -0.380  0.2398E-02  0.7223E-02  0.1253E+00  0.2903E-02  0.0000E+00  0.0000E+00  0.0000E+00  0.0000E+00  0.0000E+00
     -0.281  0.4224E-02  0.7793E-02  0.1070E+00  0.3203E-02  0.0000E+00  0.0000E+00  0.0000E+00  0.0000E+00  0.0000E+00
     -0.182  0.4880E-02  0.9922E-02  0.7496E-01  0.3171E-02  0.0000E+00  0.0000E+00  0.0000E+00  0.0000E+00  0.0000E+00
     -0.082  0.4269E-02  0.9666E-02  0.5278E-01  0.3097E-02  0.0000E+00  0.0000E+00  0.0000E+00  0.0000E+00  0.0000E+00
      0.017  0.3772E-02  0.8026E-02  0.3908E-01  0.3173E-02  0.0000E+00  0.0000E+00  0.0000E+00  0.0000E+00  0.0000E+00
      0.117  0.3428E-02  0.8877E-02  0.6563E-01  0.3492E-02  0.0000E+00  0.0000E+00  0.0000E+00  0.0000E+00  0.0000E+00
      0.216  0.3129E-02  0.9486E-02  0.7585E-01  0.3876E-02  0.0000E+00  0.0000E+00  0.0000E+00  0.0000E+00  0.0000E+00
      0.316  0.2768E-02  0.8127E-02  0.6373E-01  0.4136E-02  0.0000E+00  0.0000E+00  0.0000E+00  0.0000E+00  0.0000E+00
      0.415  0.3459E-02  0.9012E-02  0.8243E-01  0.4694E-02  0.0000E+00  0.0000E+00  0.0000E+00  0.0000E+00  0.0000E+00
      0.514  0.9986E-02  0.1256E-01  0.7335E-01  0.5255E-02  0.0000E+00  0.0000E+00  0.0000E+00  0.0000E+00  0.0000E+00
      0.614  0.2372E-01  0.1849E-01  0.5325E-01  0.6733E-02  0.0000E+00  0.0000E+00  0.0000E+00  0.0000E+00  0.0000E+00
      0.713  0.3535E-01  0.2181E-01  0.6813E-01  0.8855E-02  0.0000E+00  0.0000E+00  0.0000E+00  0.0000E+00  0.0000E+00
      0.813  0.3517E-01  0.2069E-01  0.5969E-01  0.1385E-01  0.0000E+00  0.0000E+00  0.0000E+00  0.0000E+00  0.0000E+00
      0.912  0.2388E-01  0.1644E-01  0.2417E-01  0.1890E-01  0.0000E+00  0.0000E+00  0.0000E+00  0.0000E+00  0.0000E+00
      1.011  0.1518E-01  0.1329E-01  0.1859E-01  0.1922E-01  0.0000E+00  0.0000E+00  0.0000E+00  0.0000E+00  0.0000E+00
      1.111  0.1032E-01  0.1046E-01  0.2111E-01  0.1509E-01  0.0000E+00  0.0000E+00  0.0000E+00  0.0000E+00  0.0000E+00
      1.210  0.6810E-02  0.7927E-02  0.1389E-01  0.1173E-01  0.0000E+00  0.0000E+00  0.0000E+00  0.0000E+00  0.0000E+00
      1.310  0.5211E-02  0.6009E-02  0.1013E-01  0.9801E-02  0.0000E+00  0.0000E+00  0.0000E+00  0.0000E+00  0.0000E+00
      1.409  0.3502E-02  0.3600E-02  0.1783E-01  0.7132E-02  0.0000E+00  0.0000E+00  0.0000E+00  0.0000E+00  0.0000E+00
      1.508  0.3887E-02  0.4822E-02  0.3190E-01  0.6908E-02  0.0000E+00  0.0000E+00  0.0000E+00  0.0000E+00  0.0000E+00
      1.608  0.6845E-02  0.1229E-01  0.4394E-01  0.8299E-02  0.0000E+00  0.0000E+00  0.0000E+00  0.0000E+00  0.0000E+00
      1.707  0.9251E-02  0.1530E-01  0.5826E-01  0.8349E-02  0.0000E+00  0.0000E+00  0.0000E+00  0.0000E+00  0.0000E+00
      1.807  0.9024E-02  0.1417E-01  0.5852E-01  0.6818E-02  0.0000E+00  0.0000E+00  0.0000E+00  0.0000E+00  0.0000E+00
      1.906  0.7397E-02  0.1437E-01  0.5179E-01  0.6120E-02  0.0000E+00  0.0000E+00  0.0000E+00  0.0000E+00  0.0000E+00
      2.005  0.5601E-02  0.1083E-01  0.4853E-01  0.4308E-02  0.0000E+00  0.0000E+00  0.0000E+00  0.0000E+00  0.0000E+00
      2.105  0.4788E-02  0.7775E-02  0.3455E-01  0.3029E-02  0.0000E+00  0.0000E+00  0.0000E+00  0.0000E+00  0.0000E+00
      2.204  0.4320E-02  0.5638E-02  0.4028E-01  0.2383E-02  0.0000E+00  0.0000E+00  0.0000E+00  0.0000E+00  0.0000E+00
      2.304  0.6409E-02  0.4700E-02  0.5674E-01  0.1935E-02  0.0000E+00  0.0000E+00  0.0000E+00  0.0000E+00  0.0000E+00
      2.403  0.1862E-01  0.4906E-02  0.5262E-01  0.2357E-02  0.0000E+00  0.0000E+00  0.0000E+00  0.0000E+00  0.0000E+00
      2.502  0.4338E-01  0.9915E-02  0.3117E-01  0.6614E-02  0.0000E+00  0.0000E+00  0.0000E+00  0.0000E+00  0.0000E+00
      2.602  0.6263E-01  0.1839E-01  0.2433E-01  0.1703E-01  0.0000E+00  0.0000E+00  0.0000E+00  0.0000E+00  0.0000E+00
      2.701  0.5838E-01  0.2117E-01  0.2917E-01  0.2905E-01  0.0000E+00  0.0000E+00  0.0000E+00  0.0000E+00  0.0000E+00
      2.801  0.5359E-01  0.1933E-01  0.4235E-01  0.3438E-01  0.0000E+00  0.0000E+00  0.0000E+00  0.0000E+00  0.0000E+00
      2.900  0.4747E-01  0.1597E-01  0.5300E-01  0.2858E-01  0.0000E+00  0.0000E+00  0.0000E+00  0.0000E+00  0.0000E+00
      3.000  0.2983E-01  0.1205E-01  0.5692E-01  0.2044E-01  0.0000E+00  0.0000E+00  0.0000E+00  0.0000E+00  0.0000E+00
      3.099  0.2695E-01  0.1102E-01  0.5761E-01  0.1886E-01  0.0000E+00  0.0000E+00  0.0000E+00  0.0000E+00  0.0000E+00
      3.198  0.3031E-01  0.1145E-01  0.4982E-01  0.1898E-01  0.0000E+00  0.0000E+00  0.0000E+00  0.0000E+00  0.0000E+00
      3.298  0.2548E-01  0.9090E-02  0.3905E-01  0.1567E-01  0.0000E+00  0.0000E+00  0.0000E+00  0.0000E+00  0.0000E+00
      3.397  0.2520E-01  0.7133E-02  0.3556E-01  0.1843E-01  0.0000E+00  0.0000E+00  0.0000E+00  0.0000E+00  0.0000E+00
      3.497  0.2944E-01  0.5796E-02  0.3307E-01  0.2336E-01  0.0000E+00  0.0000E+00  0.0000E+00  0.0000E+00  0.0000E+00
      3.596  0.3119E-01  0.6442E-02  0.2666E-01  0.2437E-01  0.0000E+00  0.0000E+00  0.0000E+00  0.0000E+00  0.0000E+00
      3.695  0.2770E-01  0.7295E-02  0.2724E-01  0.2240E-01  0.0000E+00  0.0000E+00  0.0000E+00  0.0000E+00  0.0000E+00
      3.795  0.1862E-01  0.5571E-02  0.2419E-01  0.1750E-01  0.0000E+00  0.0000E+00  0.0000E+00  0.0000E+00  0.0000E+00
      3.894  0.1532E-01  0.4683E-02  0.1733E-01  0.1479E-01  0.0000E+00  0.0000E+00  0.0000E+00  0.0000E+00  0.0000E+00
      3.994  0.1470E-01  0.4706E-02  0.1854E-01  0.1391E-01  0.0000E+00  0.0000E+00  0.0000E+00  0.0000E+00  0.0000E+00
      4.093  0.1428E-01  0.4562E-02  0.1979E-01  0.1197E-01  0.0000E+00  0.0000E+00  0.0000E+00  0.0000E+00  0.0000E+00
      4.192  0.1245E-01  0.3523E-02  0.1619E-01  0.7667E-02  0.0000E+00  0.0000E+00  0.0000E+00  0.0000E+00  0.0000E+00
      4.292  0.9277E-02  0.2396E-02  0.1399E-01  0.4691E-02  0.0000E+00  0.0000E+00  0.0000E+00  0.0000E+00  0.0000E+00
      4.391  0.7488E-02  0.2067E-02  0.1214E-01  0.3386E-02  0.0000E+00  0.0000E+00  0.0000E+00  0.0000E+00  0.0000E+00
      4.491  0.8249E-02  0.2248E-02  0.9128E-02  0.2189E-02  0.0000E+00  0.0000E+00  0.0000E+00  0.0000E+00  0.0000E+00
      4.590  0.8161E-02  0.2217E-02  0.5853E-02  0.1603E-02  0.0000E+00  0.0000E+00  0.0000E+00  0.0000E+00  0.0000E+00
      4.689  0.5331E-02  0.1361E-02  0.3336E-02  0.1053E-02  0.0000E+00  0.0000E+00  0.0000E+00  0.0000E+00  0.0000E+00
      4.789  0.2690E-02  0.8276E-03  0.1827E-02  0.4544E-03  0.0000E+00  0.0000E+00  0.0000E+00  0.0000E+00  0.0000E+00
      4.888  0.1395E-02  0.4725E-03  0.9347E-03  0.1680E-03  0.0000E+00  0.0000E+00  0.0000E+00  0.0000E+00  0.0000E+00
      4.988  0.3323E-03  0.1422E-03  0.2559E-03  0.3771E-04  0.0000E+00  0.0000E+00  0.0000E+00  0.0000E+00  0.0000E+00
      5.087  0.1065E-03  0.1120E-03  0.1466E-03  0.2091E-04  0.0000E+00  0.0000E+00  0.0000E+00  0.0000E+00  0.0000E+00
      5.187  0.3269E-04  0.3735E-04  0.4776E-04  0.6852E-05  0.0000E+00  0.0000E+00  0.0000E+00  0.0000E+00  0.0000E+00
      5.286  0.1979E-05  0.2265E-05  0.2895E-05  0.4154E-06  0.0000E+00  0.0000E+00  0.0000E+00  0.0000E+00  0.0000E+00
      5.385  0.1959E-07  0.2242E-07  0.2866E-07  0.4112E-08  0.0000E+00  0.0000E+00  0.0000E+00  0.0000E+00  0.0000E+00
      5.485  0.2970E-10  0.3400E-10  0.4345E-10  0.6235E-11  0.0000E+00  0.0000E+00  0.0000E+00  0.0000E+00  0.0000E+00
      5.584  0.6644E-14  0.7606E-14  0.9722E-14  0.1395E-14  0.0000E+00  0.0000E+00  0.0000E+00  0.0000E+00  0.0000E+00
      5.684  0.2071E-18  0.2371E-18  0.3031E-18  0.4349E-19  0.0000E+00  0.0000E+00  0.0000E+00  0.0000E+00  0.0000E+00
      5.783  0.0000E+00  0.0000E+00  0.0000E+00  0.0000E+00  0.0000E+00  0.0000E+00  0.0000E+00  0.0000E+00  0.0000E+00
      5.882  0.0000E+00  0.0000E+00  0.0000E+00  0.0000E+00  0.0000E+00  0.0000E+00  0.0000E+00  0.0000E+00  0.0000E+00
      5.982  0.0000E+00  0.0000E+00  0.0000E+00  0.0000E+00  0.0000E+00  0.0000E+00  0.0000E+00  0.0000E+00  0.0000E+00
      6.081  0.0000E+00  0.0000E+00  0.0000E+00  0.0000E+00  0.0000E+00  0.0000E+00  0.0000E+00  0.0000E+00  0.0000E+00
      6.181  0.0000E+00  0.0000E+00  0.0000E+00  0.0000E+00  0.0000E+00  0.0000E+00  0.0000E+00  0.0000E+00  0.0000E+00
      6.280  0.0000E+00  0.0000E+00  0.0000E+00  0.0000E+00  0.0000E+00  0.0000E+00  0.0000E+00  0.0000E+00  0.0000E+00
      6.379  0.0000E+00  0.0000E+00  0.0000E+00  0.0000E+00  0.0000E+00  0.0000E+00  0.0000E+00  0.0000E+00  0.0000E+00
      6.37943935    -23.44321047  301     -4.43334101      1.00000000
    -23.443  0.0000E+00  0.0000E+00  0.0000E+00  0.0000E+00  0.0000E+00  0.0000E+00  0.0000E+00  0.0000E+00  0.0000E+00
    -23.344  0.0000E+00  0.0000E+00  0.0000E+00  0.0000E+00  0.0000E+00  0.0000E+00  0.0000E+00  0.0000E+00  0.0000E+00
    -23.244  0.0000E+00  0.0000E+00  0.0000E+00  0.0000E+00  0.0000E+00  0.0000E+00  0.0000E+00  0.0000E+00  0.0000E+00
    -23.145  0.0000E+00  0.0000E+00  0.0000E+00  0.0000E+00  0.0000E+00  0.0000E+00  0.0000E+00  0.0000E+00  0.0000E+00
    -23.046  0.0000E+00  0.0000E+00  0.0000E+00  0.0000E+00  0.0000E+00  0.0000E+00  0.0000E+00  0.0000E+00  0.0000E+00
    -22.946  0.0000E+00  0.0000E+00  0.0000E+00  0.0000E+00  0.0000E+00  0.0000E+00  0.0000E+00  0.0000E+00  0.0000E+00
    -22.847  0.0000E+00  0.0000E+00  0.0000E+00  0.0000E+00  0.0000E+00  0.0000E+00  0.0000E+00  0.0000E+00  0.0000E+00
    -22.747  0.0000E+00  0.0000E+00  0.0000E+00  0.0000E+00  0.0000E+00  0.0000E+00  0.0000E+00  0.0000E+00  0.0000E+00
    -22.648  0.3663E-16  0.6832E-17  0.1030E-24  0.1866E-19  0.0000E+00  0.0000E+00  0.0000E+00  0.0000E+00  0.0000E+00
    -22.549  0.1327E-11  0.2479E-12  0.3738E-20  0.8480E-15  0.0000E+00  0.0000E+00  0.0000E+00  0.0000E+00  0.0000E+00
    -22.449  0.7192E-08  0.1345E-08  0.2029E-16  0.5672E-11  0.0000E+00  0.0000E+00  0.0000E+00  0.0000E+00  0.0000E+00
    -22.350  0.6109E-05  0.1145E-05  0.1727E-13  0.6224E-08  0.0000E+00  0.0000E+00  0.0000E+00  0.0000E+00  0.0000E+00
    -22.250  0.8753E-03  0.1646E-03  0.2485E-11  0.1226E-05  0.0000E+00  0.0000E+00  0.0000E+00  0.0000E+00  0.0000E+00
    -22.151  0.2407E-01  0.4553E-02  0.6884E-10  0.5050E-04  0.0000E+00  0.0000E+00  0.0000E+00  0.0000E+00  0.0000E+00
    -22.051  0.1548E+00  0.2964E-01  0.4493E-09  0.5455E-03  0.0000E+00  0.0000E+00  0.0000E+00  0.0000E+00  0.0000E+00
    -21.952  0.3016E+00  0.5942E-01  0.9044E-09  0.2070E-02  0.0000E+00  0.0000E+00  0.0000E+00  0.0000E+00  0.0000E+00
    -21.853  0.2636E+00  0.5565E-01  0.8530E-09  0.3887E-02  0.0000E+00  0.0000E+00  0.0000E+00  0.0000E+00  0.0000E+00
    -21.753  0.1899E+00  0.4510E-01  0.6980E-09  0.5112E-02  0.0000E+00  0.0000E+00  0.0000E+00  0.0000E+00  0.0000E+00
    -21.654  0.1556E+00  0.4210E-01  0.6569E-09  0.5831E-02  0.0000E+00  0.0000E+00  0.0000E+00  0.0000E+00  0.0000E+00
    -21.554  0.1394E+00  0.4339E-01  0.6815E-09  0.6181E-02  0.0000E+00  0.0000E+00  0.0000E+00  0.0000E+00  0.0000E+00
    -21.455  0.1344E+00  0.4908E-01  0.7767E-09  0.6120E-02  0.0000E+00  0.0000E+00  0.0000E+00  0.0000E+00  0.0000E+00
    -21.356  0.1449E+00  0.6364E-01  0.1011E-08  0.5383E-02  0.0000E+00  0.0000E+00  0.0000E+00  0.0000E+00  0.0000E+00
    -21.256  0.1540E+00  0.7800E-01  0.1243E-08  0.3580E-02  0.0000E+00  0.0000E+00  0.0000E+00  0.0000E+00  0.0000E+00
    -21.157  0.1049E+00  0.5667E-01  0.9113E-09  0.1406E-02  0.0000E+00  0.0000E+00  0.0000E+00  0.0000E+00  0.0000E+00
    -21.057  0.3133E-01  0.1736E-01  0.2819E-09  0.2493E-03  0.0000E+00  0.0000E+00  0.0000E+00  0.0000E+00  0.0000E+00
    -20.958  0.2822E-02  0.1583E-02  0.2584E-10  0.1439E-04  0.0000E+00  0.0000E+00  0.0000E+00  0.0000E+00  0.0000E+00
    -20.859  0.5584E-04  0.3151E-04  0.5160E-12  0.1992E-06  0.0000E+00  0.0000E+00  0.0000E+00  0.0000E+00  0.0000E+00
    -20.759  0.1999E-06  0.1132E-06  0.1857E-14  0.5360E-09  0.0000E+00  0.0000E+00  0.0000E+00  0.0000E+00  0.0000E+00
    -20.660  0.1165E-09  0.6616E-10  0.1086E-17  0.2476E-12  0.0000E+00  0.0000E+00  0.0000E+00  0.0000E+00  0.0000E+00
    -20.560  0.1044E-13  0.5938E-14  0.9748E-22  0.1827E-16  0.0000E+00  0.0000E+00  0.0000E+00  0.0000E+00  0.0000E+00
    -20.461  0.0000E+00  0.0000E+00  0.0000E+00  0.0000E+00  0.0000E+00  0.0000E+00  0.0000E+00  0.0000E+00  0.0000E+00
    -20.362  0.0000E+00  0.0000E+00  0.0000E+00  0.0000E+00  0.0000E+00  0.0000E+00  0.0000E+00  0.0000E+00  0.0000E+00
    -20.262  0.0000E+00  0.0000E+00  0.0000E+00  0.0000E+00  0.0000E+00  0.0000E+00  0.0000E+00  0.0000E+00  0.0000E+00
    -20.163  0.0000E+00  0.0000E+00  0.0000E+00  0.0000E+00  0.0000E+00  0.0000E+00  0.0000E+00  0.0000E+00  0.0000E+00
    -20.063  0.0000E+00  0.0000E+00  0.0000E+00  0.0000E+00  0.0000E+00  0.0000E+00  0.0000E+00  0.0000E+00  0.0000E+00
    -19.964  0.0000E+00  0.0000E+00  0.0000E+00  0.0000E+00  0.0000E+00  0.0000E+00  0.0000E+00  0.0000E+00  0.0000E+00
    -19.864  0.0000E+00  0.0000E+00  0.0000E+00  0.0000E+00  0.0000E+00  0.0000E+00  0.0000E+00  0.0000E+00  0.0000E+00
    -19.765  0.0000E+00  0.0000E+00  0.0000E+00  0.0000E+00  0.0000E+00  0.0000E+00  0.0000E+00  0.0000E+00  0.0000E+00
    -19.666  0.0000E+00  0.0000E+00  0.0000E+00  0.0000E+00  0.0000E+00  0.0000E+00  0.0000E+00  0.0000E+00  0.0000E+00
    -19.566  0.0000E+00  0.0000E+00  0.0000E+00  0.0000E+00  0.0000E+00  0.0000E+00  0.0000E+00  0.0000E+00  0.0000E+00
    -19.467  0.0000E+00  0.0000E+00  0.0000E+00  0.0000E+00  0.0000E+00  0.0000E+00  0.0000E+00  0.0000E+00  0.0000E+00
    -19.367  0.0000E+00  0.0000E+00  0.0000E+00  0.0000E+00  0.0000E+00  0.0000E+00  0.0000E+00  0.0000E+00  0.0000E+00
    -19.268  0.0000E+00  0.0000E+00  0.0000E+00  0.0000E+00  0.0000E+00  0.0000E+00  0.0000E+00  0.0000E+00  0.0000E+00
    -19.169  0.0000E+00  0.0000E+00  0.0000E+00  0.0000E+00  0.0000E+00  0.0000E+00  0.0000E+00  0.0000E+00  0.0000E+00
    -19.069  0.0000E+00  0.0000E+00  0.0000E+00  0.0000E+00  0.0000E+00  0.0000E+00  0.0000E+00  0.0000E+00  0.0000E+00
    -18.970  0.0000E+00  0.0000E+00  0.0000E+00  0.0000E+00  0.0000E+00  0.0000E+00  0.0000E+00  0.0000E+00  0.0000E+00
    -18.870  0.0000E+00  0.0000E+00  0.0000E+00  0.0000E+00  0.0000E+00  0.0000E+00  0.0000E+00  0.0000E+00  0.0000E+00
    -18.771  0.0000E+00  0.0000E+00  0.0000E+00  0.0000E+00  0.0000E+00  0.0000E+00  0.0000E+00  0.0000E+00  0.0000E+00
    -18.672  0.0000E+00  0.0000E+00  0.0000E+00  0.0000E+00  0.0000E+00  0.0000E+00  0.0000E+00  0.0000E+00  0.0000E+00
    -18.572  0.0000E+00  0.0000E+00  0.0000E+00  0.0000E+00  0.0000E+00  0.0000E+00  0.0000E+00  0.0000E+00  0.0000E+00
    -18.473  0.0000E+00  0.0000E+00  0.0000E+00  0.0000E+00  0.0000E+00  0.0000E+00  0.0000E+00  0.0000E+00  0.0000E+00
    -18.373  0.0000E+00  0.0000E+00  0.0000E+00  0.0000E+00  0.0000E+00  0.0000E+00  0.0000E+00  0.0000E+00  0.0000E+00
    -18.274  0.0000E+00  0.0000E+00  0.0000E+00  0.0000E+00  0.0000E+00  0.0000E+00  0.0000E+00  0.0000E+00  0.0000E+00
    -18.175  0.0000E+00  0.0000E+00  0.0000E+00  0.0000E+00  0.0000E+00  0.0000E+00  0.0000E+00  0.0000E+00  0.0000E+00
    -18.075  0.0000E+00  0.0000E+00  0.0000E+00  0.0000E+00  0.0000E+00  0.0000E+00  0.0000E+00  0.0000E+00  0.0000E+00
    -17.976  0.0000E+00  0.0000E+00  0.0000E+00  0.0000E+00  0.0000E+00  0.0000E+00  0.0000E+00  0.0000E+00  0.0000E+00
    -17.876  0.1088E-17  0.7435E-20  0.4451E-27  0.7964E-18  0.0000E+00  0.0000E+00  0.0000E+00  0.0000E+00  0.0000E+00
    -17.777  0.8104E-13  0.5550E-15  0.3405E-22  0.6122E-13  0.0000E+00  0.0000E+00  0.0000E+00  0.0000E+00  0.0000E+00
    -17.677  0.6969E-09  0.4808E-11  0.2944E-18  0.5280E-09  0.0000E+00  0.0000E+00  0.0000E+00  0.0000E+00  0.0000E+00
    -17.578  0.9239E-06  0.6446E-08  0.3933E-15  0.7033E-06  0.0000E+00  0.0000E+00  0.0000E+00  0.0000E+00  0.0000E+00
    -17.479  0.2003E-03  0.1422E-05  0.8618E-13  0.1537E-03  0.0000E+00  0.0000E+00  0.0000E+00  0.0000E+00  0.0000E+00
    -17.379  0.7886E-02  0.5773E-04  0.3451E-11  0.6144E-02  0.0000E+00  0.0000E+00  0.0000E+00  0.0000E+00  0.0000E+00
    -17.280  0.6802E-01  0.5271E-03  0.3066E-10  0.5483E-01  0.0000E+00  0.0000E+00  0.0000E+00  0.0000E+00  0.0000E+00
    -17.180  0.1790E+00  0.1547E-02  0.8477E-10  0.1584E+00  0.0000E+00  0.0000E+00  0.0000E+00  0.0000E+00  0.0000E+00
    -17.081  0.2465E+00  0.2529E-02  0.1227E-09  0.2778E+00  0.0000E+00  0.0000E+00  0.0000E+00  0.0000E+00  0.0000E+00
    -16.982  0.3055E+00  0.3213E-02  0.1636E-09  0.3827E+00  0.0000E+00  0.0000E+00  0.0000E+00  0.0000E+00  0.0000E+00
    -16.882  0.3918E+00  0.2790E-02  0.2560E-09  0.2725E+00  0.0000E+00  0.0000E+00  0.0000E+00  0.0000E+00  0.0000E+00
    -16.783  0.3447E+00  0.1649E-02  0.2589E-09  0.1065E+00  0.0000E+00  0.0000E+00  0.0000E+00  0.0000E+00  0.0000E+00
    -16.683  0.1959E+00  0.7566E-03  0.1599E-09  0.3147E-01  0.0000E+00  0.0000E+00  0.0000E+00  0.0000E+00  0.0000E+00
    -16.584  0.7575E-01  0.2594E-03  0.6327E-10  0.5248E-02  0.0000E+00  0.0000E+00  0.0000E+00  0.0000E+00  0.0000E+00
    -16.485  0.1268E-01  0.4110E-04  0.1047E-10  0.3464E-03  0.0000E+00  0.0000E+00  0.0000E+00  0.0000E+00  0.0000E+00
    -16.385  0.5679E-03  0.1799E-05  0.4633E-12  0.7070E-05  0.0000E+00  0.0000E+00  0.0000E+00  0.0000E+00  0.0000E+00
    -16.286  0.5114E-05  0.1601E-07  0.4139E-14  0.3510E-07  0.0000E+00  0.0000E+00  0.0000E+00  0.0000E+00  0.0000E+00
    -16.186  0.7933E-08  0.2466E-10  0.6390E-17  0.3486E-10  0.0000E+00  0.0000E+00  0.0000E+00  0.0000E+00  0.0000E+00
    -16.087  0.1949E-11  0.6034E-14  0.1565E-20  0.6122E-14  0.0000E+00  0.0000E+00  0.0000E+00  0.0000E+00  0.0000E+00
    -15.988  0.7235E-16  0.2233E-18  0.5795E-25  0.1615E-18  0.0000E+00  0.0000E+00  0.0000E+00  0.0000E+00  0.0000E+00
    -15.888  0.1715E-14  0.8100E-16  0.1336E-22  0.1079E-16  0.0000E+00  0.0000E+00  0.0000E+00  0.0000E+00  0.0000E+00
    -15.789  0.2553E-10  0.1206E-11  0.1990E-18  0.1613E-12  0.0000E+00  0.0000E+00  0.0000E+00  0.0000E+00  0.0000E+00
    -15.689  0.5592E-07  0.2643E-08  0.4359E-15  0.3582E-09  0.0000E+00  0.0000E+00  0.0000E+00  0.0000E+00  0.0000E+00
    -15.590  0.1886E-04  0.8929E-06  0.1472E-12  0.1284E-06  0.0000E+00  0.0000E+00  0.0000E+00  0.0000E+00  0.0000E+00
    -15.491  0.1081E-02  0.5143E-04  0.8467E-11  0.9089E-05  0.0000E+00  0.0000E+00  0.0000E+00  0.0000E+00  0.0000E+00
    -15.391  0.1274E-01  0.6152E-03  0.1009E-09  0.1706E-03  0.0000E+00  0.0000E+00  0.0000E+00  0.0000E+00  0.0000E+00
    -15.292  0.4219E-01  0.2105E-02  0.3420E-09  0.9999E-03  0.0000E+00  0.0000E+00  0.0000E+00  0.0000E+00  0.0000E+00
    -15.192  0.6278E-01  0.3350E-02  0.5294E-09  0.2637E-02  0.0000E+00  0.0000E+00  0.0000E+00  0.0000E+00  0.0000E+00
    -15.093  0.7495E-01  0.4447E-02  0.6657E-09  0.4943E-02  0.0000E+00  0.0000E+00  0.0000E+00  0.0000E+00  0.0000E+00
    -14.993  0.8514E-01  0.5942E-02  0.8137E-09  0.7569E-02  0.0000E+00  0.0000E+00  0.0000E+00  0.0000E+00  0.0000E+00
    -14.894  0.1077E+00  0.1071E-01  0.1188E-08  0.1279E-01  0.0000E+00  0.0000E+00  0.0000E+00  0.0000E+00  0.0000E+00
    -14.795  0.1364E+00  0.2587E-01  0.1984E-08  0.2118E-01  0.0000E+00  0.0000E+00  0.0000E+00  0.0000E+00  0.0000E+00
    -14.695  0.1584E+00  0.4092E-01  0.2723E-08  0.2856E-01  0.0000E+00  0.0000E+00  0.0000E+00  0.0000E+00  0.0000E+00
    -14.596  0.1419E+00  0.3365E-01  0.2345E-08  0.2274E-01  0.0000E+00  0.0000E+00  0.0000E+00  0.0000E+00  0.0000E+00
    -14.496  0.1434E+00  0.2604E-01  0.2112E-08  0.1989E-01  0.0000E+00  0.0000E+00  0.0000E+00  0.0000E+00  0.0000E+00
    -14.397  0.1300E+00  0.2159E-01  0.1856E-08  0.1938E-01  0.0000E+00  0.0000E+00  0.0000E+00  0.0000E+00  0.0000E+00
    -14.298  0.7654E-01  0.1838E-01  0.1368E-08  0.1980E-01  0.0000E+00  0.0000E+00  0.0000E+00  0.0000E+00  0.0000E+00
    -14.198  0.6094E-01  0.1805E-01  0.1275E-08  0.2153E-01  0.0000E+00  0.0000E+00  0.0000E+00  0.0000E+00  0.0000E+00
    -14.099  0.7367E-01  0.1902E-01  0.1421E-08  0.2351E-01  0.0000E+00  0.0000E+00  0.0000E+00  0.0000E+00  0.0000E+00
    -13.999  0.9648E-01  0.2136E-01  0.1761E-08  0.2809E-01  0.0000E+00  0.0000E+00  0.0000E+00  0.0000E+00  0.0000E+00
    -13.900  0.9256E-01  0.2065E-01  0.1829E-08  0.2549E-01  0.0000E+00  0.0000E+00  0.0000E+00  0.0000E+00  0.0000E+00
    -13.801  0.7094E-01  0.1825E-01  0.1690E-08  0.1840E-01  0.0000E+00  0.0000E+00  0.0000E+00  0.0000E+00  0.0000E+00
    -13.701  0.4340E-01  0.1260E-01  0.1186E-08  0.1072E-01  0.0000E+00  0.0000E+00  0.0000E+00  0.0000E+00  0.0000E+00
    -13.602  0.1256E-01  0.3887E-02  0.3671E-09  0.3066E-02  0.0000E+00  0.0000E+00  0.0000E+00  0.0000E+00  0.0000E+00
    -13.502  0.1024E-02  0.3264E-03  0.3084E-10  0.2493E-03  0.0000E+00  0.0000E+00  0.0000E+00  0.0000E+00  0.0000E+00
    -13.403  0.1780E-04  0.5769E-05  0.5446E-12  0.4315E-05  0.0000E+00  0.0000E+00  0.0000E+00  0.0000E+00  0.0000E+00
    -13.304  0.5645E-07  0.1847E-07  0.1742E-14  0.1363E-07  0.0000E+00  0.0000E+00  0.0000E+00  0.0000E+00  0.0000E+00
    -13.204  0.3000E-10  0.1015E-10  0.9178E-18  0.9535E-11  0.0000E+00  0.0000E+00  0.0000E+00  0.0000E+00  0.0000E+00
    -13.105  0.2449E-08  0.1869E-08  0.6037E-15  0.9997E-08  0.0000E+00  0.0000E+00  0.0000E+00  0.0000E+00  0.0000E+00
    -13.005  0.1591E-05  0.1178E-05  0.1062E-10  0.6519E-05  0.0000E+00  0.0000E+00  0.0000E+00  0.0000E+00  0.0000E+00
    -12.906  0.1754E-03  0.1259E-03  0.2946E-07  0.7252E-03  0.0000E+00  0.0000E+00  0.0000E+00  0.0000E+00  0.0000E+00
    -12.806  0.3646E-02  0.2539E-02  0.1303E-04  0.1529E-01  0.0000E+00  0.0000E+00  0.0000E+00  0.0000E+00  0.0000E+00
    -12.707  0.1731E-01  0.1210E-01  0.9960E-03  0.7416E-01  0.0000E+00  0.0000E+00  0.0000E+00  0.0000E+00  0.0000E+00
    -12.608  0.2743E-01  0.2111E-01  0.1530E-01  0.1212E+00  0.0000E+00  0.0000E+00  0.0000E+00  0.0000E+00  0.0000E+00
    -12.508  0.2720E-01  0.2307E-01  0.6185E-01  0.1127E+00  0.0000E+00  0.0000E+00  0.0000E+00  0.0000E+00  0.0000E+00
    -12.409  0.2661E-01  0.2157E-01  0.1061E+00  0.9017E-01  0.0000E+00  0.0000E+00  0.0000E+00  0.0000E+00  0.0000E+00
    -12.309  0.2585E-01  0.2119E-01  0.1284E+00  0.7660E-01  0.0000E+00  0.0000E+00  0.0000E+00  0.0000E+00  0.0000E+00
    -12.210  0.2704E-01  0.2097E-01  0.1143E+00  0.7180E-01  0.0000E+00  0.0000E+00  0.0000E+00  0.0000E+00  0.0000E+00
    -12.111  0.2585E-01  0.2139E-01  0.8681E-01  0.6731E-01  0.0000E+00  0.0000E+00  0.0000E+00  0.0000E+00  0.0000E+00
    -12.011  0.2673E-01  0.2259E-01  0.7135E-01  0.6604E-01  0.0000E+00  0.0000E+00  0.0000E+00  0.0000E+00  0.0000E+00
    -11.912  0.2822E-01  0.2315E-01  0.6253E-01  0.6608E-01  0.0000E+00  0.0000E+00  0.0000E+00  0.0000E+00  0.0000E+00
    -11.812  0.2613E-01  0.2463E-01  0.5664E-01  0.6283E-01  0.0000E+00  0.0000E+00  0.0000E+00  0.0000E+00  0.0000E+00
    -11.713  0.2831E-01  0.2708E-01  0.5242E-01  0.6235E-01  0.0000E+00  0.0000E+00  0.0000E+00  0.0000E+00  0.0000E+00
    -11.614  0.2988E-01  0.2777E-01  0.4931E-01  0.5665E-01  0.0000E+00  0.0000E+00  0.0000E+00  0.0000E+00  0.0000E+00
    -11.514  0.3002E-01  0.3408E-01  0.4764E-01  0.4642E-01  0.0000E+00  0.0000E+00  0.0000E+00  0.0000E+00  0.0000E+00
    -11.415  0.3350E-01  0.4311E-01  0.4815E-01  0.4355E-01  0.0000E+00  0.0000E+00  0.0000E+00  0.0000E+00  0.0000E+00
    -11.315  0.4250E-01  0.5724E-01  0.5111E-01  0.5257E-01  0.0000E+00  0.0000E+00  0.0000E+00  0.0000E+00  0.0000E+00
    -11.216  0.4328E-01  0.6644E-01  0.4820E-01  0.4876E-01  0.0000E+00  0.0000E+00  0.0000E+00  0.0000E+00  0.0000E+00
    -11.117  0.4118E-01  0.7273E-01  0.3788E-01  0.4492E-01  0.0000E+00  0.0000E+00  0.0000E+00  0.0000E+00  0.0000E+00
    -11.017  0.4740E-01  0.8901E-01  0.3003E-01  0.6245E-01  0.0000E+00  0.0000E+00  0.0000E+00  0.0000E+00  0.0000E+00
    -10.918  0.4677E-01  0.9667E-01  0.2488E-01  0.5860E-01  0.0000E+00  0.0000E+00  0.0000E+00  0.0000E+00  0.0000E+00
    -10.818  0.3467E-01  0.8169E-01  0.2050E-01  0.4262E-01  0.0000E+00  0.0000E+00  0.0000E+00  0.0000E+00  0.0000E+00
    -10.719  0.4291E-01  0.7967E-01  0.1360E-01  0.3444E-01  0.0000E+00  0.0000E+00  0.0000E+00  0.0000E+00  0.0000E+00
    -10.619  0.7514E-01  0.1099E+00  0.4290E-02  0.4059E-01  0.0000E+00  0.0000E+00  0.0000E+00  0.0000E+00  0.0000E+00
    -10.520  0.1009E+00  0.1464E+00  0.3890E-03  0.4876E-01  0.0000E+00  0.0000E+00  0.0000E+00  0.0000E+00  0.0000E+00
    -10.421  0.8383E-01  0.1098E+00  0.7478E-05  0.4224E-01  0.0000E+00  0.0000E+00  0.0000E+00  0.0000E+00  0.0000E+00
    -10.321  0.6167E-01  0.6049E-01  0.2655E-07  0.3359E-01  0.0000E+00  0.0000E+00  0.0000E+00  0.0000E+00  0.0000E+00
    -10.222  0.5474E-01  0.4832E-01  0.5893E-09  0.3113E-01  0.0000E+00  0.0000E+00  0.0000E+00  0.0000E+00  0.0000E+00
    -10.122  0.4982E-01  0.4396E-01  0.4284E-09  0.2713E-01  0.0000E+00  0.0000E+00  0.0000E+00  0.0000E+00  0.0000E+00
    -10.023  0.5161E-01  0.5112E-01  0.6040E-09  0.2789E-01  0.0000E+00  0.0000E+00  0.0000E+00  0.0000E+00  0.0000E+00
     -9.924  0.5420E-01  0.5316E-01  0.7625E-09  0.4427E-01  0.0000E+00  0.0000E+00  0.0000E+00  0.0000E+00  0.0000E+00
     -9.824  0.5834E-01  0.5324E-01  0.9616E-09  0.7668E-01  0.0000E+00  0.0000E+00  0.0000E+00  0.0000E+00  0.0000E+00
     -9.725  0.5603E-01  0.5630E-01  0.1155E-08  0.9284E-01  0.0000E+00  0.0000E+00  0.0000E+00  0.0000E+00  0.0000E+00
     -9.625  0.5472E-01  0.7052E-01  0.1656E-08  0.1291E+00  0.0000E+00  0.0000E+00  0.0000E+00  0.0000E+00  0.0000E+00
     -9.526  0.5194E-01  0.8770E-01  0.2237E-08  0.1716E+00  0.0000E+00  0.0000E+00  0.0000E+00  0.0000E+00  0.0000E+00
     -9.427  0.4493E-01  0.8841E-01  0.2152E-08  0.1556E+00  0.0000E+00  0.0000E+00  0.0000E+00  0.0000E+00  0.0000E+00
     -9.327  0.3279E-01  0.7553E-01  0.1810E-08  0.1158E+00  0.0000E+00  0.0000E+00  0.0000E+00  0.0000E+00  0.0000E+00
     -9.228  0.1785E-01  0.4436E-01  0.1410E-08  0.8021E-01  0.0000E+00  0.0000E+00  0.0000E+00  0.0000E+00  0.0000E+00
     -9.128  0.1003E-01  0.2269E-01  0.1341E-08  0.7055E-01  0.0000E+00  0.0000E+00  0.0000E+00  0.0000E+00  0.0000E+00
     -9.029  0.8481E-02  0.2238E-01  0.1005E-06  0.5691E-01  0.0000E+00  0.0000E+00  0.0000E+00  0.0000E+00  0.0000E+00
     -8.930  0.9771E-02  0.3051E-01  0.3021E-04  0.5768E-01  0.0000E+00  0.0000E+00  0.0000E+00  0.0000E+00  0.0000E+00
     -8.830  0.1194E-01  0.3670E-01  0.1630E-02  0.6641E-01  0.0000E+00  0.0000E+00  0.0000E+00  0.0000E+00  0.0000E+00
     -8.731  0.1564E-01  0.4737E-01  0.1831E-01  0.7114E-01  0.0000E+00  0.0000E+00  0.0000E+00  0.0000E+00  0.0000E+00
     -8.631  0.2243E-01  0.6599E-01  0.5713E-01  0.8177E-01  0.0000E+00  0.0000E+00  0.0000E+00  0.0000E+00  0.0000E+00
     -8.532  0.2762E-01  0.7920E-01  0.8035E-01  0.9912E-01  0.0000E+00  0.0000E+00  0.0000E+00  0.0000E+00  0.0000E+00
     -8.432  0.2499E-01  0.8512E-01  0.8917E-01  0.9064E-01  0.0000E+00  0.0000E+00  0.0000E+00  0.0000E+00  0.0000E+00
     -8.333  0.1996E-01  0.8325E-01  0.9916E-01  0.7776E-01  0.0000E+00  0.0000E+00  0.0000E+00  0.0000E+00  0.0000E+00
     -8.234  0.1664E-01  0.8960E-01  0.9938E-01  0.6476E-01  0.0000E+00  0.0000E+00  0.0000E+00  0.0000E+00  0.0000E+00
     -8.134  0.1466E-01  0.1045E+00  0.8794E-01  0.4799E-01  0.0000E+00  0.0000E+00  0.0000E+00  0.0000E+00  0.0000E+00
     -8.035  0.1157E-01  0.1317E+00  0.8486E-01  0.4381E-01  0.0000E+00  0.0000E+00  0.0000E+00  0.0000E+00  0.0000E+00
     -7.935  0.1082E-01  0.1263E+00  0.9174E-01  0.5546E-01  0.0000E+00  0.0000E+00  0.0000E+00  0.0000E+00  0.0000E+00
     -7.836  0.1018E-01  0.6171E-01  0.8373E-01  0.6505E-01  0.0000E+00  0.0000E+00  0.0000E+00  0.0000E+00  0.0000E+00
     -7.737  0.7440E-02  0.2854E-01  0.6047E-01  0.7047E-01  0.0000E+00  0.0000E+00  0.0000E+00  0.0000E+00  0.0000E+00
     -7.637  0.8092E-02  0.2262E-01  0.4271E-01  0.7763E-01  0.0000E+00  0.0000E+00  0.0000E+00  0.0000E+00  0.0000E+00
     -7.538  0.1055E-01  0.2822E-01  0.3070E-01  0.8090E-01  0.0000E+00  0.0000E+00  0.0000E+00  0.0000E+00  0.0000E+00
     -7.438  0.8172E-02  0.2857E-01  0.2023E-01  0.8370E-01  0.0000E+00  0.0000E+00  0.0000E+00  0.0000E+00  0.0000E+00
     -7.339  0.5766E-02  0.2141E-01  0.1317E-01  0.8491E-01  0.0000E+00  0.0000E+00  0.0000E+00  0.0000E+00  0.0000E+00
     -7.240  0.8238E-02  0.3042E-01  0.6856E-02  0.8597E-01  0.0000E+00  0.0000E+00  0.0000E+00  0.0000E+00  0.0000E+00
     -7.140  0.6749E-02  0.3335E-01  0.3061E-02  0.8499E-01  0.0000E+00  0.0000E+00  0.0000E+00  0.0000E+00  0.0000E+00
     -7.041  0.3440E-02  0.3394E-01  0.1196E-01  0.6658E-01  0.0000E+00  0.0000E+00  0.0000E+00  0.0000E+00  0.0000E+00
     -6.941  0.5114E-02  0.3859E-01  0.4658E-01  0.2570E-01  0.0000E+00  0.0000E+00  0.0000E+00  0.0000E+00  0.0000E+00
     -6.842  0.5419E-02  0.4251E-01  0.8385E-01  0.5263E-02  0.0000E+00  0.0000E+00  0.0000E+00  0.0000E+00  0.0000E+00
     -6.743  0.4276E-02  0.4734E-01  0.1033E+00  0.3350E-02  0.0000E+00  0.0000E+00  0.0000E+00  0.0000E+00  0.0000E+00
     -6.643  0.3567E-02  0.5196E-01  0.9689E-01  0.3465E-02  0.0000E+00  0.0000E+00  0.0000E+00  0.0000E+00  0.0000E+00
     -6.544  0.1376E-02  0.4486E-01  0.9168E-01  0.3282E-02  0.0000E+00  0.0000E+00  0.0000E+00  0.0000E+00  0.0000E+00
     -6.444  0.5102E-03  0.3880E-01  0.9503E-01  0.3059E-02  0.0000E+00  0.0000E+00  0.0000E+00  0.0000E+00  0.0000E+00
     -6.345  0.4557E-03  0.3694E-01  0.1106E+00  0.2802E-02  0.0000E+00  0.0000E+00  0.0000E+00  0.0000E+00  0.0000E+00
     -6.245  0.5308E-03  0.4233E-01  0.1513E+00  0.2649E-02  0.0000E+00  0.0000E+00  0.0000E+00  0.0000E+00  0.0000E+00
     -6.146  0.6450E-03  0.4552E-01  0.1778E+00  0.2622E-02  0.0000E+00  0.0000E+00  0.0000E+00  0.0000E+00  0.0000E+00
     -6.047  0.7349E-03  0.3855E-01  0.1334E+00  0.2388E-02  0.0000E+00  0.0000E+00  0.0000E+00  0.0000E+00  0.0000E+00
     -5.947  0.1062E-02  0.4288E-01  0.9485E-01  0.2729E-02  0.0000E+00  0.0000E+00  0.0000E+00  0.0000E+00  0.0000E+00
     -5.848  0.1000E-02  0.3170E-01  0.6284E-01  0.1613E-02  0.0000E+00  0.0000E+00  0.0000E+00  0.0000E+00  0.0000E+00
     -5.748  0.1394E-02  0.4605E-01  0.2113E-01  0.1814E-02  0.0000E+00  0.0000E+00  0.0000E+00  0.0000E+00  0.0000E+00
     -5.649  0.1861E-02  0.5788E-01  0.2100E-02  0.2611E-02  0.0000E+00  0.0000E+00  0.0000E+00  0.0000E+00  0.0000E+00
     -5.550  0.1975E-02  0.3990E-01  0.4490E-04  0.1684E-02  0.0000E+00  0.0000E+00  0.0000E+00  0.0000E+00  0.0000E+00
     -5.450  0.2371E-02  0.3408E-01  0.1730E-06  0.1059E-02  0.0000E+00  0.0000E+00  0.0000E+00  0.0000E+00  0.0000E+00
     -5.351  0.3378E-02  0.5533E-01  0.1404E-08  0.1506E-02  0.0000E+00  0.0000E+00  0.0000E+00  0.0000E+00  0.0000E+00
     -5.251  0.4733E-02  0.7682E-01  0.2167E-08  0.1791E-02  0.0000E+00  0.0000E+00  0.0000E+00  0.0000E+00  0.0000E+00
     -5.152  0.5643E-02  0.6455E-01  0.1900E-08  0.1061E-02  0.0000E+00  0.0000E+00  0.0000E+00  0.0000E+00  0.0000E+00
     -5.053  0.4521E-02  0.4662E-01  0.1748E-08  0.7051E-03  0.0000E+00  0.0000E+00  0.0000E+00  0.0000E+00  0.0000E+00
     -4.953  0.4685E-02  0.5199E-01  0.3734E-08  0.9556E-03  0.0000E+00  0.0000E+00  0.0000E+00  0.0000E+00  0.0000E+00
     -4.854  0.7796E-02  0.5386E-01  0.1547E-07  0.1174E-02  0.0000E+00  0.0000E+00  0.0000E+00  0.0000E+00  0.0000E+00
     -4.754  0.1651E-01  0.3723E-01  0.4355E-07  0.1367E-02  0.0000E+00  0.0000E+00  0.0000E+00  0.0000E+00  0.0000E+00
     -4.655  0.1791E-01  0.2808E-01  0.4767E-07  0.2200E-02  0.0000E+00  0.0000E+00  0.0000E+00  0.0000E+00  0.0000E+00
     -4.556  0.1292E-01  0.3911E-01  0.3267E-07  0.3133E-02  0.0000E+00  0.0000E+00  0.0000E+00  0.0000E+00  0.0000E+00
     -4.456  0.8321E-02  0.4303E-01  0.2531E-07  0.3607E-02  0.0000E+00  0.0000E+00  0.0000E+00  0.0000E+00  0.0000E+00
     -4.357  0.5336E-02  0.3418E-01  0.2584E-07  0.3320E-02  0.0000E+00  0.0000E+00  0.0000E+00  0.0000E+00  0.0000E+00
     -4.257  0.3613E-02  0.3236E-01  0.1833E-07  0.1550E-02  0.0000E+00  0.0000E+00  0.0000E+00  0.0000E+00  0.0000E+00
     -4.158  0.2910E-02  0.2638E-01  0.7545E-08  0.3233E-03  0.0000E+00  0.0000E+00  0.0000E+00  0.0000E+00  0.0000E+00
     -4.058  0.2073E-02  0.2043E-01  0.2641E-08  0.9472E-04  0.0000E+00  0.0000E+00  0.0000E+00  0.0000E+00  0.0000E+00
     -3.959  0.1558E-02  0.1920E-01  0.2298E-08  0.7180E-04  0.0000E+00  0.0000E+00  0.0000E+00  0.0000E+00  0.0000E+00
     -3.860  0.1579E-02  0.2131E-01  0.1553E-08  0.6731E-04  0.0000E+00  0.0000E+00  0.0000E+00  0.0000E+00  0.0000E+00
     -3.760  0.1452E-02  0.2172E-01  0.8323E-09  0.5720E-04  0.0000E+00  0.0000E+00  0.0000E+00  0.0000E+00  0.0000E+00
     -3.661  0.1360E-02  0.2323E-01  0.4328E-09  0.5352E-04  0.0000E+00  0.0000E+00  0.0000E+00  0.0000E+00  0.0000E+00
     -3.561  0.1036E-02  0.1769E-01  0.1710E-09  0.2808E-04  0.0000E+00  0.0000E+00  0.0000E+00  0.0000E+00  0.0000E+00
     -3.462  0.1033E-02  0.1729E-01  0.1633E-09  0.2234E-04  0.0000E+00  0.0000E+00  0.0000E+00  0.0000E+00  0.0000E+00
     -3.363  0.8720E-03  0.1627E-01  0.4777E-09  0.2002E-04  0.0000E+00  0.0000E+00  0.0000E+00  0.0000E+00  0.0000E+00
     -3.263  0.1079E-02  0.2148E-01  0.1330E-08  0.1345E-04  0.0000E+00  0.0000E+00  0.0000E+00  0.0000E+00  0.0000E+00
     -3.164  0.7629E-03  0.1507E-01  0.8803E-09  0.5291E-05  0.0000E+00  0.0000E+00  0.0000E+00  0.0000E+00  0.0000E+00
     -3.064  0.6110E-03  0.1256E-01  0.1660E-09  0.2094E-05  0.0000E+00  0.0000E+00  0.0000E+00  0.0000E+00  0.0000E+00
     -2.965  0.6418E-03  0.1367E-01  0.1019E-09  0.1318E-05  0.0000E+00  0.0000E+00  0.0000E+00  0.0000E+00  0.0000E+00
     -2.866  0.2508E-03  0.5448E-02  0.4795E-10  0.3219E-06  0.0000E+00  0.0000E+00  0.0000E+00  0.0000E+00  0.0000E+00
     -2.766  0.2366E-04  0.5172E-03  0.4801E-11  0.2437E-07  0.0000E+00  0.0000E+00  0.0000E+00  0.0000E+00  0.0000E+00
     -2.667  0.4046E-06  0.8858E-05  0.8314E-13  0.3948E-09  0.0000E+00  0.0000E+00  0.0000E+00  0.0000E+00  0.0000E+00
     -2.567  0.1096E-08  0.2400E-07  0.2257E-15  0.1059E-11  0.0000E+00  0.0000E+00  0.0000E+00  0.0000E+00  0.0000E+00
     -2.468  0.4434E-12  0.9710E-11  0.9136E-19  0.4276E-15  0.0000E+00  0.0000E+00  0.0000E+00  0.0000E+00  0.0000E+00
     -2.369  0.2610E-16  0.5715E-15  0.5377E-23  0.2516E-19  0.0000E+00  0.0000E+00  0.0000E+00  0.0000E+00  0.0000E+00
     -2.269  0.0000E+00  0.0000E+00  0.0000E+00  0.0000E+00  0.0000E+00  0.0000E+00  0.0000E+00  0.0000E+00  0.0000E+00
     -2.170  0.0000E+00  0.0000E+00  0.0000E+00  0.0000E+00  0.0000E+00  0.0000E+00  0.0000E+00  0.0000E+00  0.0000E+00
     -2.070  0.1542E-17  0.3202E-16  0.1647E-22  0.9747E-17  0.0000E+00  0.0000E+00  0.0000E+00  0.0000E+00  0.0000E+00
     -1.971  0.2370E-13  0.4917E-12  0.2530E-18  0.1503E-12  0.0000E+00  0.0000E+00  0.0000E+00  0.0000E+00  0.0000E+00
     -1.871  0.5337E-10  0.1106E-08  0.5694E-15  0.3415E-09  0.0000E+00  0.0000E+00  0.0000E+00  0.0000E+00  0.0000E+00
     -1.772  0.1830E-07  0.3777E-06  0.1949E-12  0.1197E-06  0.0000E+00  0.0000E+00  0.0000E+00  0.0000E+00  0.0000E+00
     -1.673  0.1027E-05  0.2103E-04  0.1090E-10  0.7063E-05  0.0000E+00  0.0000E+00  0.0000E+00  0.0000E+00  0.0000E+00
     -1.573  0.1067E-04  0.2145E-03  0.1186E-09  0.8093E-04  0.0000E+00  0.0000E+00  0.0000E+00  0.0000E+00  0.0000E+00
     -1.474  0.2521E-04  0.4860E-03  0.1943E-07  0.2335E-03  0.0000E+00  0.0000E+00  0.0000E+00  0.0000E+00  0.0000E+00
     -1.374  0.3570E-04  0.6585E-03  0.9432E-05  0.3134E-03  0.0000E+00  0.0000E+00  0.0000E+00  0.0000E+00  0.0000E+00
     -1.275  0.1244E-03  0.2340E-02  0.8398E-03  0.5025E-03  0.0000E+00  0.0000E+00  0.0000E+00  0.0000E+00  0.0000E+00
     -1.176  0.1898E-03  0.3261E-02  0.1528E-01  0.7510E-03  0.0000E+00  0.0000E+00  0.0000E+00  0.0000E+00  0.0000E+00
     -1.076  0.1236E-03  0.1635E-02  0.7148E-01  0.7268E-03  0.0000E+00  0.0000E+00  0.0000E+00  0.0000E+00  0.0000E+00
     -0.977  0.2033E-03  0.2796E-02  0.1360E+00  0.9599E-03  0.0000E+00  0.0000E+00  0.0000E+00  0.0000E+00  0.0000E+00
     -0.877  0.4656E-03  0.6859E-02  0.1736E+00  0.1429E-02  0.0000E+00  0.0000E+00  0.0000E+00  0.0000E+00  0.0000E+00
     -0.778  0.4066E-03  0.4539E-02  0.1717E+00  0.1543E-02  0.0000E+00  0.0000E+00  0.0000E+00  0.0000E+00  0.0000E+00
     -0.679  0.5010E-03  0.3668E-02  0.1611E+00  0.1637E-02  0.0000E+00  0.0000E+00  0.0000E+00  0.0000E+00  0.0000E+00
     -0.579  0.8932E-03  0.7225E-02  0.1563E+00  0.2340E-02  0.0000E+00  0.0000E+00  0.0000E+00  0.0000E+00  0.0000E+00
     -0.480  0.1369E-02  0.8681E-02  0.1420E+00  0.2656E-02  0.0000E+00  0.0000E+00  0.0000E+00  0.0000E+00  0.0000E+00
     -0.380  0.2398E-02  0.7223E-02  0.1253E+00  0.2903E-02  0.0000E+00  0.0000E+00  0.0000E+00  0.0000E+00  0.0000E+00
     -0.281  0.4224E-02  0.7793E-02  0.1070E+00  0.3203E-02  0.0000E+00  0.0000E+00  0.0000E+00  0.0000E+00  0.0000E+00
     -0.182  0.4880E-02  0.9922E-02  0.7496E-01  0.3171E-02  0.0000E+00  0.0000E+00  0.0000E+00  0.0000E+00  0.0000E+00
     -0.082  0.4269E-02  0.9666E-02  0.5278E-01  0.3097E-02  0.0000E+00  0.0000E+00  0.0000E+00  0.0000E+00  0.0000E+00
      0.017  0.3772E-02  0.8026E-02  0.3908E-01  0.3173E-02  0.0000E+00  0.0000E+00  0.0000E+00  0.0000E+00  0.0000E+00
      0.117  0.3428E-02  0.8877E-02  0.6563E-01  0.3492E-02  0.0000E+00  0.0000E+00  0.0000E+00  0.0000E+00  0.0000E+00
      0.216  0.3129E-02  0.9486E-02  0.7585E-01  0.3876E-02  0.0000E+00  0.0000E+00  0.0000E+00  0.0000E+00  0.0000E+00
      0.316  0.2768E-02  0.8127E-02  0.6373E-01  0.4136E-02  0.0000E+00  0.0000E+00  0.0000E+00  0.0000E+00  0.0000E+00
      0.415  0.3459E-02  0.9012E-02  0.8243E-01  0.4694E-02  0.0000E+00  0.0000E+00  0.0000E+00  0.0000E+00  0.0000E+00
      0.514  0.9986E-02  0.1256E-01  0.7335E-01  0.5255E-02  0.0000E+00  0.0000E+00  0.0000E+00  0.0000E+00  0.0000E+00
      0.614  0.2372E-01  0.1849E-01  0.5325E-01  0.6733E-02  0.0000E+00  0.0000E+00  0.0000E+00  0.0000E+00  0.0000E+00
      0.713  0.3535E-01  0.2181E-01  0.6813E-01  0.8855E-02  0.0000E+00  0.0000E+00  0.0000E+00  0.0000E+00  0.0000E+00
      0.813  0.3517E-01  0.2069E-01  0.5969E-01  0.1385E-01  0.0000E+00  0.0000E+00  0.0000E+00  0.0000E+00  0.0000E+00
      0.912  0.2388E-01  0.1644E-01  0.2417E-01  0.1890E-01  0.0000E+00  0.0000E+00  0.0000E+00  0.0000E+00  0.0000E+00
      1.011  0.1518E-01  0.1329E-01  0.1859E-01  0.1922E-01  0.0000E+00  0.0000E+00  0.0000E+00  0.0000E+00  0.0000E+00
      1.111  0.1032E-01  0.1046E-01  0.2111E-01  0.1509E-01  0.0000E+00  0.0000E+00  0.0000E+00  0.0000E+00  0.0000E+00
      1.210  0.6810E-02  0.7927E-02  0.1389E-01  0.1173E-01  0.0000E+00  0.0000E+00  0.0000E+00  0.0000E+00  0.0000E+00
      1.310  0.5211E-02  0.6009E-02  0.1013E-01  0.9801E-02  0.0000E+00  0.0000E+00  0.0000E+00  0.0000E+00  0.0000E+00
      1.409  0.3502E-02  0.3600E-02  0.1783E-01  0.7132E-02  0.0000E+00  0.0000E+00  0.0000E+00  0.0000E+00  0.0000E+00
      1.508  0.3887E-02  0.4822E-02  0.3190E-01  0.6908E-02  0.0000E+00  0.0000E+00  0.0000E+00  0.0000E+00  0.0000E+00
      1.608  0.6845E-02  0.1229E-01  0.4394E-01  0.8299E-02  0.0000E+00  0.0000E+00  0.0000E+00  0.0000E+00  0.0000E+00
      1.707  0.9251E-02  0.1530E-01  0.5826E-01  0.8349E-02  0.0000E+00  0.0000E+00  0.0000E+00  0.0000E+00  0.0000E+00
      1.807  0.9024E-02  0.1417E-01  0.5852E-01  0.6818E-02  0.0000E+00  0.0000E+00  0.0000E+00  0.0000E+00  0.0000E+00
      1.906  0.7397E-02  0.1437E-01  0.5179E-01  0.6120E-02  0.0000E+00  0.0000E+00  0.0000E+00  0.0000E+00  0.0000E+00
      2.005  0.5601E-02  0.1083E-01  0.4853E-01  0.4308E-02  0.0000E+00  0.0000E+00  0.0000E+00  0.0000E+00  0.0000E+00
      2.105  0.4788E-02  0.7775E-02  0.3455E-01  0.3029E-02  0.0000E+00  0.0000E+00  0.0000E+00  0.0000E+00  0.0000E+00
      2.204  0.4320E-02  0.5638E-02  0.4028E-01  0.2383E-02  0.0000E+00  0.0000E+00  0.0000E+00  0.0000E+00  0.0000E+00
      2.304  0.6409E-02  0.4700E-02  0.5674E-01  0.1935E-02  0.0000E+00  0.0000E+00  0.0000E+00  0.0000E+00  0.0000E+00
      2.403  0.1862E-01  0.4906E-02  0.5262E-01  0.2357E-02  0.0000E+00  0.0000E+00  0.0000E+00  0.0000E+00  0.0000E+00
      2.502  0.4338E-01  0.9915E-02  0.3117E-01  0.6614E-02  0.0000E+00  0.0000E+00  0.0000E+00  0.0000E+00  0.0000E+00
      2.602  0.6263E-01  0.1839E-01  0.2433E-01  0.1703E-01  0.0000E+00  0.0000E+00  0.0000E+00  0.0000E+00  0.0000E+00
      2.701  0.5838E-01  0.2117E-01  0.2917E-01  0.2905E-01  0.0000E+00  0.0000E+00  0.0000E+00  0.0000E+00  0.0000E+00
      2.801  0.5359E-01  0.1933E-01  0.4235E-01  0.3438E-01  0.0000E+00  0.0000E+00  0.0000E+00  0.0000E+00  0.0000E+00
      2.900  0.4747E-01  0.1597E-01  0.5300E-01  0.2858E-01  0.0000E+00  0.0000E+00  0.0000E+00  0.0000E+00  0.0000E+00
      3.000  0.2983E-01  0.1205E-01  0.5692E-01  0.2044E-01  0.0000E+00  0.0000E+00  0.0000E+00  0.0000E+00  0.0000E+00
      3.099  0.2695E-01  0.1102E-01  0.5761E-01  0.1886E-01  0.0000E+00  0.0000E+00  0.0000E+00  0.0000E+00  0.0000E+00
      3.198  0.3031E-01  0.1145E-01  0.4982E-01  0.1898E-01  0.0000E+00  0.0000E+00  0.0000E+00  0.0000E+00  0.0000E+00
      3.298  0.2548E-01  0.9090E-02  0.3905E-01  0.1567E-01  0.0000E+00  0.0000E+00  0.0000E+00  0.0000E+00  0.0000E+00
      3.397  0.2520E-01  0.7133E-02  0.3556E-01  0.1843E-01  0.0000E+00  0.0000E+00  0.0000E+00  0.0000E+00  0.0000E+00
      3.497  0.2944E-01  0.5796E-02  0.3307E-01  0.2336E-01  0.0000E+00  0.0000E+00  0.0000E+00  0.0000E+00  0.0000E+00
      3.596  0.3119E-01  0.6442E-02  0.2666E-01  0.2437E-01  0.0000E+00  0.0000E+00  0.0000E+00  0.0000E+00  0.0000E+00
      3.695  0.2770E-01  0.7295E-02  0.2724E-01  0.2240E-01  0.0000E+00  0.0000E+00  0.0000E+00  0.0000E+00  0.0000E+00
      3.795  0.1862E-01  0.5571E-02  0.2419E-01  0.1750E-01  0.0000E+00  0.0000E+00  0.0000E+00  0.0000E+00  0.0000E+00
      3.894  0.1532E-01  0.4683E-02  0.1733E-01  0.1479E-01  0.0000E+00  0.0000E+00  0.0000E+00  0.0000E+00  0.0000E+00
      3.994  0.1470E-01  0.4706E-02  0.1854E-01  0.1391E-01  0.0000E+00  0.0000E+00  0.0000E+00  0.0000E+00  0.0000E+00
      4.093  0.1428E-01  0.4562E-02  0.1979E-01  0.1197E-01  0.0000E+00  0.0000E+00  0.0000E+00  0.0000E+00  0.0000E+00
      4.192  0.1245E-01  0.3523E-02  0.1619E-01  0.7667E-02  0.0000E+00  0.0000E+00  0.0000E+00  0.0000E+00  0.0000E+00
      4.292  0.9277E-02  0.2396E-02  0.1399E-01  0.4691E-02  0.0000E+00  0.0000E+00  0.0000E+00  0.0000E+00  0.0000E+00
      4.391  0.7488E-02  0.2067E-02  0.1214E-01  0.3386E-02  0.0000E+00  0.0000E+00  0.0000E+00  0.0000E+00  0.0000E+00
      4.491  0.8249E-02  0.2248E-02  0.9128E-02  0.2189E-02  0.0000E+00  0.0000E+00  0.0000E+00  0.0000E+00  0.0000E+00
      4.590  0.8161E-02  0.2217E-02  0.5853E-02  0.1603E-02  0.0000E+00  0.0000E+00  0.0000E+00  0.0000E+00  0.0000E+00
      4.689  0.5331E-02  0.1361E-02  0.3336E-02  0.1053E-02  0.0000E+00  0.0000E+00  0.0000E+00  0.0000E+00  0.0000E+00
      4.789  0.2690E-02  0.8276E-03  0.1827E-02  0.4544E-03  0.0000E+00  0.0000E+00  0.0000E+00  0.0000E+00  0.0000E+00
      4.888  0.1395E-02  0.4725E-03  0.9347E-03  0.1680E-03  0.0000E+00  0.0000E+00  0.0000E+00  0.0000E+00  0.0000E+00
      4.988  0.3323E-03  0.1422E-03  0.2559E-03  0.3771E-04  0.0000E+00  0.0000E+00  0.0000E+00  0.0000E+00  0.0000E+00
      5.087  0.1065E-03  0.1120E-03  0.1466E-03  0.2091E-04  0.0000E+00  0.0000E+00  0.0000E+00  0.0000E+00  0.0000E+00
      5.187  0.3269E-04  0.3735E-04  0.4776E-04  0.6852E-05  0.0000E+00  0.0000E+00  0.0000E+00  0.0000E+00  0.0000E+00
      5.286  0.1979E-05  0.2265E-05  0.2895E-05  0.4154E-06  0.0000E+00  0.0000E+00  0.0000E+00  0.0000E+00  0.0000E+00
      5.385  0.1959E-07  0.2242E-07  0.2866E-07  0.4112E-08  0.0000E+00  0.0000E+00  0.0000E+00  0.0000E+00  0.0000E+00
      5.485  0.2970E-10  0.3400E-10  0.4345E-10  0.6235E-11  0.0000E+00  0.0000E+00  0.0000E+00  0.0000E+00  0.0000E+00
      5.584  0.6644E-14  0.7606E-14  0.9722E-14  0.1395E-14  0.0000E+00  0.0000E+00  0.0000E+00  0.0000E+00  0.0000E+00
      5.684  0.2071E-18  0.2371E-18  0.3031E-18  0.4349E-19  0.0000E+00  0.0000E+00  0.0000E+00  0.0000E+00  0.0000E+00
      5.783  0.0000E+00  0.0000E+00  0.0000E+00  0.0000E+00  0.0000E+00  0.0000E+00  0.0000E+00  0.0000E+00  0.0000E+00
      5.882  0.0000E+00  0.0000E+00  0.0000E+00  0.0000E+00  0.0000E+00  0.0000E+00  0.0000E+00  0.0000E+00  0.0000E+00
      5.982  0.0000E+00  0.0000E+00  0.0000E+00  0.0000E+00  0.0000E+00  0.0000E+00  0.0000E+00  0.0000E+00  0.0000E+00
      6.081  0.0000E+00  0.0000E+00  0.0000E+00  0.0000E+00  0.0000E+00  0.0000E+00  0.0000E+00  0.0000E+00  0.0000E+00
      6.181  0.0000E+00  0.0000E+00  0.0000E+00  0.0000E+00  0.0000E+00  0.0000E+00  0.0000E+00  0.0000E+00  0.0000E+00
      6.280  0.0000E+00  0.0000E+00  0.0000E+00  0.0000E+00  0.0000E+00  0.0000E+00  0.0000E+00  0.0000E+00  0.0000E+00
      6.379  0.0000E+00  0.0000E+00  0.0000E+00  0.0000E+00  0.0000E+00  0.0000E+00  0.0000E+00  0.0000E+00  0.0000E+00
