 running   42 mpi-ranks, on    1 nodes
 distrk:  each k-point on   42 cores,    1 groups
 distr:  one band on    7 cores,    6 groups
 vasp.6.5.0 16Dec24 (build Jan 08 2025 16:17:04) complex                        
  
 POSCAR found type information on POSCAR B H 
 POSCAR found :  2 types and     144 ions
 Reading from existing POTCAR
 scaLAPACK will be used
 Reading from existing POTCAR
 LDA part: xc-table for (Slater+PW92), standard interpolation
 POSCAR, INCAR and KPOINTS ok, starting setup
 FFT: planning ... GRIDC
 FFT: planning ... GRID_SOFT
 FFT: planning ... GRID
 WAVECAR not read
 entering main loop
       N       E                     dE             d eps       ncg     rms          rms(c)
DAV:   1     0.328972200778E+04    0.32897E+04   -0.13063E+05  3564   0.109E+03
DAV:   2    -0.267144243596E+03   -0.35569E+04   -0.34110E+04  4896   0.228E+02
DAV:   3    -0.867363459537E+03   -0.60022E+03   -0.59467E+03  3912   0.101E+02
DAV:   4    -0.891622177651E+03   -0.24259E+02   -0.23930E+02  4140   0.218E+01
DAV:   5    -0.892403019218E+03   -0.78084E+00   -0.77557E+00  4584   0.347E+00    0.386E+01
DAV:   6    -0.823908922927E+03    0.68494E+02   -0.90990E+01  3876   0.135E+01    0.202E+01
DAV:   7    -0.807059645571E+03    0.16849E+02   -0.69914E+01  3924   0.112E+01    0.625E+00
DAV:   8    -0.806120155585E+03    0.93949E+00   -0.62202E+00  4116   0.436E+00    0.181E+00
DAV:   9    -0.805746727995E+03    0.37343E+00   -0.70715E-01  3936   0.130E+00    0.828E-01
DAV:  10    -0.805673179438E+03    0.73549E-01   -0.10224E-01  4236   0.476E-01    0.457E-01
DAV:  11    -0.805594205071E+03    0.78974E-01   -0.12912E-01  3912   0.390E-01    0.279E-01
DAV:  12    -0.805602878707E+03   -0.86736E-02   -0.32948E-02  4092   0.231E-01    0.203E-01
DAV:  13    -0.805622146495E+03   -0.19268E-01   -0.90250E-03  3612   0.152E-01    0.108E-01
DAV:  14    -0.805638222117E+03   -0.16076E-01   -0.57379E-03  3948   0.832E-02    0.639E-02
DAV:  15    -0.805652091362E+03   -0.13869E-01   -0.12272E-03  3888   0.388E-02    0.376E-02
DAV:  16    -0.805665113090E+03   -0.13022E-01   -0.15184E-03  3876   0.326E-02    0.191E-02
DAV:  17    -0.805669647565E+03   -0.45345E-02   -0.32593E-04  4032   0.155E-02    0.122E-02
DAV:  18    -0.805673368495E+03   -0.37209E-02   -0.38104E-04  3888   0.123E-02    0.614E-03
DAV:  19    -0.805674367043E+03   -0.99855E-03   -0.55013E-05  3816   0.509E-03    0.302E-03
DAV:  20    -0.805674822268E+03   -0.45523E-03   -0.14666E-05  3084   0.283E-03    0.162E-03
DAV:  21    -0.805674983505E+03   -0.16124E-03   -0.41411E-06  3096   0.161E-03    0.799E-04
DAV:  22    -0.805675024155E+03   -0.40650E-04   -0.56188E-07  3012   0.769E-04    0.325E-04
DAV:  23    -0.805675036522E+03   -0.12367E-04   -0.12415E-07  2796   0.366E-04    0.135E-04
DAV:  24    -0.805675039749E+03   -0.32272E-05   -0.27847E-08  2664   0.197E-04    0.594E-05
DAV:  25    -0.805675040471E+03   -0.72172E-06    0.48360E-09  2436   0.111E-04
   1 F= -.81835188E+03 E0= -.81835188E+03  d E =-.181075E-04
