       N       E                     dE             d eps       ncg     rms          rms(c)
DAV:   1     0.331503111436E+04    0.33150E+04   -0.13792E+05  3744   0.108E+03
DAV:   2    -0.408978067016E+03   -0.37240E+04   -0.36001E+04  5244   0.229E+02
DAV:   3    -0.100413318594E+04   -0.59516E+03   -0.58981E+03  4404   0.986E+01
DAV:   4    -0.102328528723E+04   -0.19152E+02   -0.19020E+02  4404   0.198E+01
DAV:   5    -0.102381306093E+04   -0.52777E+00   -0.52640E+00  4716   0.294E+00    0.423E+01
DAV:   6    -0.963727312496E+03    0.60086E+02   -0.60093E+01  3972   0.106E+01    0.237E+01
DAV:   7    -0.940419587951E+03    0.23308E+02   -0.71199E+01  4188   0.108E+01    0.485E+00
DAV:   8    -0.940147943755E+03    0.27164E+00   -0.53608E+00  4392   0.345E+00    0.219E+00
DAV:   9    -0.939862397258E+03    0.28555E+00   -0.73463E-01  4344   0.133E+00    0.103E+00
DAV:  10    -0.939791109908E+03    0.71287E-01   -0.19597E-01  4476   0.966E-01    0.684E-01
DAV:  11    -0.939762238607E+03    0.28871E-01   -0.70232E-02  4416   0.531E-01    0.436E-01
DAV:  12    -0.939734654116E+03    0.27584E-01   -0.65457E-02  4344   0.439E-01    0.296E-01
DAV:  13    -0.939726768968E+03    0.78851E-02   -0.56794E-02  4284   0.363E-01    0.193E-01
DAV:  14    -0.939735831443E+03   -0.90625E-02   -0.11983E-02  4032   0.184E-01    0.140E-01
DAV:  15    -0.939750275040E+03   -0.14444E-01   -0.78240E-03  4068   0.132E-01    0.826E-02
DAV:  16    -0.939755005209E+03   -0.47302E-02   -0.14160E-03  4212   0.791E-02    0.663E-02
DAV:  17    -0.939763357182E+03   -0.83520E-02   -0.10829E-03  3960   0.588E-02    0.437E-02
DAV:  18    -0.939774328755E+03   -0.10972E-01   -0.10129E-03  3948   0.423E-02    0.240E-02
DAV:  19    -0.939780425229E+03   -0.60965E-02   -0.37234E-04  4092   0.225E-02    0.154E-02
DAV:  20    -0.939784954230E+03   -0.45290E-02   -0.27218E-04  3972   0.164E-02    0.916E-03
DAV:  21    -0.939786566714E+03   -0.16125E-02   -0.61422E-05  4308   0.858E-03    0.617E-03
DAV:  22    -0.939787578147E+03   -0.10114E-02   -0.33905E-05  3912   0.671E-03    0.367E-03
DAV:  23    -0.939788061064E+03   -0.48292E-03   -0.13315E-05  3924   0.416E-03    0.233E-03
DAV:  24    -0.939788235256E+03   -0.17419E-03   -0.27851E-06  3504   0.217E-03    0.154E-03
DAV:  25    -0.939788408013E+03   -0.17276E-03   -0.42139E-06  3414   0.201E-03    0.740E-04
DAV:  26    -0.939788443668E+03   -0.35656E-04   -0.39343E-07  2916   0.818E-04    0.381E-04
DAV:  27    -0.939788464772E+03   -0.21104E-04   -0.30438E-07  2712   0.519E-04    0.191E-04
DAV:  28    -0.939788472060E+03   -0.72880E-05   -0.88536E-08  2772   0.277E-04    0.800E-05
DAV:  29    -0.939788474068E+03   -0.20079E-05   -0.91457E-09  2808   0.155E-04    0.370E-05
DAV:  30    -0.939788474570E+03   -0.50195E-06    0.48278E-09  2496   0.862E-05
   1 F= -.95251680E+03 E0= -.95242171E+03  d E =-.190187E+00
