 126 126   0   0
  0.6180874E+02  0.1709927E-08  0.1894240E-08  0.2404406E-08  0.1500000E-16
  1.000000000000000E-004
  CAR 
 phonon_dispersion                       
      3.25972334    -21.00379989  301     -4.33920979      1.00000000
    -21.004  0.0000E+00  0.0000E+00
    -20.923  0.0000E+00  0.0000E+00
    -20.842  0.0000E+00  0.0000E+00
    -20.761  0.0000E+00  0.0000E+00
    -20.680  0.0000E+00  0.0000E+00
    -20.599  0.0000E+00  0.0000E+00
    -20.519  0.0000E+00  0.0000E+00
    -20.438  0.0000E+00  0.0000E+00
    -20.357  0.0000E+00  0.0000E+00
    -20.276  0.0000E+00  0.0000E+00
    -20.195  0.8862E-18  0.7167E-19
    -20.114  0.1301E-10  0.1053E-11
    -20.033  0.1451E-05  0.1173E-06
    -19.952  0.1194E-02  0.9665E-04
    -19.872  0.1844E-01  0.1588E-02
    -19.791  0.2694E-01  0.3767E-02
    -19.710  0.3494E-01  0.6592E-02
    -19.629  0.5780E-01  0.1127E-01
    -19.548  0.4358E-02  0.1162E-01
    -19.467  0.2310E-04  0.1162E-01
    -19.386  0.8657E-02  0.1232E-01
    -19.305  0.6717E-01  0.1775E-01
    -19.224  0.2262E-01  0.1958E-01
    -19.144  0.2484E-01  0.2159E-01
    -19.063  0.1709E-01  0.2297E-01
    -18.982  0.3281E-02  0.2324E-01
    -18.901  0.1489E-04  0.2324E-01
    -18.820  0.5368E-09  0.2324E-01
    -18.739  0.1205E-15  0.2324E-01
    -18.658  0.0000E+00  0.2324E-01
    -18.577  0.0000E+00  0.2324E-01
    -18.497  0.0000E+00  0.2324E-01
    -18.416  0.0000E+00  0.2324E-01
    -18.335  0.0000E+00  0.2324E-01
    -18.254  0.0000E+00  0.2324E-01
    -18.173  0.0000E+00  0.2324E-01
    -18.092  0.0000E+00  0.2324E-01
    -18.011  0.0000E+00  0.2324E-01
    -17.930  0.0000E+00  0.2324E-01
    -17.850  0.0000E+00  0.2324E-01
    -17.769  0.0000E+00  0.2324E-01
    -17.688  0.0000E+00  0.2324E-01
    -17.607  0.0000E+00  0.2324E-01
    -17.526  0.0000E+00  0.2324E-01
    -17.445  0.0000E+00  0.2324E-01
    -17.364  0.0000E+00  0.2324E-01
    -17.283  0.0000E+00  0.2324E-01
    -17.203  0.0000E+00  0.2324E-01
    -17.122  0.0000E+00  0.2324E-01
    -17.041  0.0000E+00  0.2324E-01
    -16.960  0.0000E+00  0.2324E-01
    -16.879  0.0000E+00  0.2324E-01
    -16.798  0.0000E+00  0.2324E-01
    -16.717  0.0000E+00  0.2324E-01
    -16.636  0.0000E+00  0.2324E-01
    -16.555  0.0000E+00  0.2324E-01
    -16.475  0.0000E+00  0.2324E-01
    -16.394  0.0000E+00  0.2324E-01
    -16.313  0.0000E+00  0.2324E-01
    -16.232  0.0000E+00  0.2324E-01
    -16.151  0.0000E+00  0.2324E-01
    -16.070  0.0000E+00  0.2324E-01
    -15.989  0.0000E+00  0.2324E-01
    -15.908  0.0000E+00  0.2324E-01
    -15.828  0.0000E+00  0.2324E-01
    -15.747  0.0000E+00  0.2324E-01
    -15.666  0.3785E-11  0.2324E-01
    -15.585  0.1045E-05  0.2324E-01
    -15.504  0.1980E-02  0.2340E-01
    -15.423  0.4038E-01  0.2667E-01
    -15.342  0.2136E-01  0.2839E-01
    -15.261  0.1738E-01  0.2980E-01
    -15.181  0.1173E+00  0.3929E-01
    -15.100  0.5480E-01  0.4372E-01
    -15.019  0.1393E-01  0.4485E-01
    -14.938  0.1940E-01  0.4641E-01
    -14.857  0.8233E-03  0.4648E-01
    -14.776  0.3663E-06  0.4648E-01
    -14.695  0.1110E-11  0.4648E-01
    -14.614  0.0000E+00  0.4648E-01
    -14.534  0.0000E+00  0.4648E-01
    -14.453  0.0000E+00  0.4648E-01
    -14.372  0.0000E+00  0.4648E-01
    -14.291  0.0000E+00  0.4648E-01
    -14.210  0.0000E+00  0.4648E-01
    -14.129  0.0000E+00  0.4648E-01
    -14.048  0.0000E+00  0.4648E-01
    -13.967  0.0000E+00  0.4648E-01
    -13.886  0.0000E+00  0.4648E-01
    -13.806  0.7719E-15  0.4648E-01
    -13.725  0.2444E-08  0.4648E-01
    -13.644  0.4892E-04  0.4649E-01
    -13.563  0.7942E-02  0.4713E-01
    -13.482  0.2224E-01  0.4893E-01
    -13.401  0.1699E-02  0.4906E-01
    -13.320  0.1526E-05  0.4906E-01
    -13.239  0.4285E-06  0.4906E-01
    -13.159  0.9182E-03  0.4914E-01
    -13.078  0.2624E-01  0.5126E-01
    -12.997  0.5918E-01  0.5605E-01
    -12.916  0.4382E-01  0.5959E-01
    -12.835  0.1953E-01  0.6117E-01
    -12.754  0.2381E-01  0.6310E-01
    -12.673  0.2113E-02  0.6327E-01
    -12.592  0.2388E-05  0.6327E-01
    -12.512  0.4220E-04  0.6327E-01
    -12.431  0.7046E-02  0.6384E-01
    -12.350  0.5184E-01  0.6803E-01
    -12.269  0.2070E-01  0.6971E-01
    -12.188  0.1838E-03  0.6972E-01
    -12.107  0.1415E-07  0.6972E-01
    -12.026  0.6973E-14  0.6972E-01
    -11.945  0.0000E+00  0.6972E-01
    -11.865  0.0000E+00  0.6972E-01
    -11.784  0.0000E+00  0.6972E-01
    -11.703  0.0000E+00  0.6972E-01
    -11.622  0.2083E-15  0.6972E-01
    -11.541  0.9036E-09  0.6972E-01
    -11.460  0.2949E-04  0.6972E-01
    -11.379  0.9903E-02  0.7053E-01
    -11.298  0.6587E-01  0.7585E-01
    -11.218  0.3281E-01  0.7851E-01
    -11.137  0.7678E-02  0.7913E-01
    -11.056  0.2383E-01  0.8106E-01
    -10.975  0.7156E-02  0.8163E-01
    -10.894  0.3814E-01  0.8472E-01
    -10.813  0.4994E-01  0.8876E-01
    -10.732  0.4099E-01  0.9207E-01
    -10.651  0.2439E-01  0.9405E-01
    -10.570  0.2579E-02  0.9425E-01
    -10.490  0.3625E-05  0.9425E-01
    -10.409  0.1546E-08  0.9425E-01
    -10.328  0.4138E-04  0.9426E-01
    -10.247  0.1316E-01  0.9532E-01
    -10.166  0.8537E-01  0.1022E+00
    -10.085  0.4520E-01  0.1059E+00
    -10.004  0.5716E-01  0.1105E+00
     -9.923  0.6009E-01  0.1154E+00
     -9.843  0.1034E-01  0.1162E+00
     -9.762  0.3400E-04  0.1162E+00
     -9.681  0.5120E-03  0.1162E+00
     -9.600  0.1896E-01  0.1178E+00
     -9.519  0.2582E-01  0.1199E+00
     -9.438  0.3281E-02  0.1201E+00
     -9.357  0.3089E-01  0.1226E+00
     -9.276  0.3196E-01  0.1252E+00
     -9.196  0.1691E-01  0.1266E+00
     -9.115  0.1504E-01  0.1278E+00
     -9.034  0.3111E-03  0.1278E+00
     -8.953  0.4274E-03  0.1279E+00
     -8.872  0.1646E-01  0.1292E+00
     -8.791  0.1475E-01  0.1304E+00
     -8.710  0.2914E-03  0.1304E+00
     -8.629  0.7687E-05  0.1304E+00
     -8.549  0.5284E-02  0.1308E+00
     -8.468  0.4684E-01  0.1346E+00
     -8.387  0.1169E-01  0.1356E+00
     -8.306  0.4253E-02  0.1359E+00
     -8.225  0.2552E-01  0.1380E+00
     -8.144  0.2602E-01  0.1401E+00
     -8.063  0.8041E-02  0.1407E+00
     -7.982  0.5042E-04  0.1407E+00
     -7.901  0.3640E-03  0.1408E+00
     -7.821  0.2989E-01  0.1432E+00
     -7.740  0.6108E-01  0.1481E+00
     -7.659  0.3076E-01  0.1506E+00
     -7.578  0.6509E-01  0.1559E+00
     -7.497  0.2441E-01  0.1578E+00
     -7.416  0.1575E-01  0.1591E+00
     -7.335  0.6132E-01  0.1641E+00
     -7.254  0.1481E+00  0.1761E+00
     -7.174  0.5754E-01  0.1807E+00
     -7.093  0.1896E-01  0.1822E+00
     -7.012  0.3112E-01  0.1848E+00
     -6.931  0.5667E-01  0.1893E+00
     -6.850  0.2093E-01  0.1910E+00
     -6.769  0.6066E-03  0.1911E+00
     -6.688  0.2040E-06  0.1911E+00
     -6.607  0.2998E-10  0.1911E+00
     -6.527  0.3143E-05  0.1911E+00
     -6.446  0.2410E-02  0.1913E+00
     -6.365  0.2322E-01  0.1932E+00
     -6.284  0.6265E-02  0.1937E+00
     -6.203  0.6806E-03  0.1937E+00
     -6.122  0.2899E-01  0.1961E+00
     -6.041  0.5271E-01  0.2003E+00
     -5.960  0.7950E-01  0.2068E+00
     -5.880  0.1512E-01  0.2080E+00
     -5.799  0.3751E-01  0.2110E+00
     -5.718  0.2520E-01  0.2131E+00
     -5.637  0.1302E-01  0.2141E+00
     -5.556  0.1694E-01  0.2155E+00
     -5.475  0.1805E-02  0.2156E+00
     -5.394  0.1438E-01  0.2168E+00
     -5.313  0.1026E+00  0.2251E+00
     -5.233  0.4203E-01  0.2285E+00
     -5.152  0.5468E-03  0.2285E+00
     -5.071  0.8080E-07  0.2285E+00
     -4.990  0.7095E-07  0.2285E+00
     -4.909  0.2487E-03  0.2286E+00
     -4.828  0.8575E-02  0.2292E+00
     -4.747  0.7016E-02  0.2298E+00
     -4.666  0.2284E-03  0.2298E+00
     -4.585  0.1354E-01  0.2309E+00
     -4.505  0.4444E-01  0.2345E+00
     -4.424  0.7431E-01  0.2405E+00
     -4.343  0.4084E-01  0.2438E+00
     -4.262  0.7735E-01  0.2501E+00
     -4.181  0.3624E-01  0.2530E+00
     -4.100  0.5369E-03  0.2531E+00
     -4.019  0.9023E-07  0.2531E+00
     -3.938  0.1153E-12  0.2531E+00
     -3.858  0.0000E+00  0.2531E+00
     -3.777  0.0000E+00  0.2531E+00
     -3.696  0.0000E+00  0.2531E+00
     -3.615  0.0000E+00  0.2531E+00
     -3.534  0.9801E-15  0.2531E+00
     -3.453  0.2895E-08  0.2531E+00
     -3.372  0.5412E-04  0.2531E+00
     -3.291  0.8258E-02  0.2537E+00
     -3.211  0.2202E-01  0.2555E+00
     -3.130  0.1594E-02  0.2556E+00
     -3.049  0.1340E-05  0.2556E+00
     -2.968  0.7916E-11  0.2556E+00
     -2.887  0.0000E+00  0.2556E+00
     -2.806  0.0000E+00  0.2556E+00
     -2.725  0.0000E+00  0.2556E+00
     -2.644  0.0000E+00  0.2556E+00
     -2.564  0.0000E+00  0.2556E+00
     -2.483  0.0000E+00  0.2556E+00
     -2.402  0.0000E+00  0.2556E+00
     -2.321  0.0000E+00  0.2556E+00
     -2.240  0.0000E+00  0.2556E+00
     -2.159  0.0000E+00  0.2556E+00
     -2.078  0.0000E+00  0.2556E+00
     -1.997  0.0000E+00  0.2556E+00
     -1.916  0.0000E+00  0.2556E+00
     -1.836  0.3547E-11  0.2556E+00
     -1.755  0.7916E-06  0.2556E+00
     -1.674  0.1224E-02  0.2557E+00
     -1.593  0.2105E-01  0.2575E+00
     -1.512  0.1211E-01  0.2584E+00
     -1.431  0.3879E-01  0.2616E+00
     -1.350  0.3692E-01  0.2646E+00
     -1.269  0.4587E-02  0.2649E+00
     -1.189  0.4353E-01  0.2684E+00
     -1.108  0.2806E-01  0.2707E+00
     -1.027  0.4505E-01  0.2744E+00
     -0.946  0.8109E-02  0.2750E+00
     -0.865  0.3307E-04  0.2750E+00
     -0.784  0.2737E-02  0.2752E+00
     -0.703  0.5988E-01  0.2801E+00
     -0.622  0.5204E-01  0.2843E+00
     -0.542  0.2785E-01  0.2865E+00
     -0.461  0.6391E-02  0.2871E+00
     -0.380  0.5675E-01  0.2916E+00
     -0.299  0.1043E+00  0.3001E+00
     -0.218  0.5578E-01  0.3046E+00
     -0.137  0.1536E-02  0.3047E+00
     -0.056  0.1222E-01  0.3057E+00
      0.025  0.3735E-01  0.3087E+00
      0.105  0.6108E-01  0.3137E+00
      0.186  0.5987E-01  0.3185E+00
      0.267  0.9309E-02  0.3193E+00
      0.348  0.1091E-01  0.3201E+00
      0.429  0.7486E-03  0.3202E+00
      0.510  0.5909E-06  0.3202E+00
      0.591  0.4952E-06  0.3202E+00
      0.672  0.6853E-03  0.3203E+00
      0.752  0.1078E-01  0.3211E+00
      0.833  0.1537E-01  0.3224E+00
      0.914  0.5348E-01  0.3267E+00
      0.995  0.1519E-01  0.3279E+00
      1.076  0.6049E-02  0.3284E+00
      1.157  0.1213E-01  0.3294E+00
      1.238  0.5348E-01  0.3337E+00
      1.319  0.1053E+00  0.3422E+00
      1.400  0.5016E-01  0.3463E+00
      1.480  0.5946E-01  0.3511E+00
      1.561  0.5098E-01  0.3552E+00
      1.642  0.1356E-01  0.3563E+00
      1.723  0.1427E-01  0.3575E+00
      1.804  0.4040E-01  0.3608E+00
      1.885  0.1291E-01  0.3618E+00
      1.966  0.4902E-01  0.3658E+00
      2.047  0.9772E-01  0.3737E+00
      2.127  0.4682E-01  0.3775E+00
      2.208  0.2425E-01  0.3794E+00
      2.289  0.2309E-02  0.3796E+00
      2.370  0.2870E-05  0.3796E+00
      2.451  0.2562E-10  0.3796E+00
      2.532  0.0000E+00  0.3796E+00
      2.613  0.0000E+00  0.3796E+00
      2.694  0.0000E+00  0.3796E+00
      2.774  0.0000E+00  0.3796E+00
      2.855  0.0000E+00  0.3796E+00
      2.936  0.0000E+00  0.3796E+00
      3.017  0.0000E+00  0.3796E+00
      3.098  0.0000E+00  0.3796E+00
      3.179  0.0000E+00  0.3796E+00
      3.260  0.0000E+00  0.3796E+00
