o-B14                                   
   1.00000000000000     
     5.7009706947548366    0.0000000000000000    0.0000000000000000
     0.0000000000000000    4.0440580960754238    0.0000000000000000
    -0.0000000000000000    0.0000000000000000    6.2018711954847161
  B             
    14
Direct
  0.5212898848530571  0.5000000000000000  0.6379577017723996
  0.4787101151469431  0.5000000000000000  0.3620422982276005
  0.9787101151469429  0.5000000000000000  0.6379577017723996
  0.0212898848530570  0.5000000000000000  0.3620422982276005
  0.5974496620689648  0.5000000000000000  0.8998683156397813
  0.4025503379310351  0.5000000000000000  0.1001316843602186
  0.9025503379310352  0.5000000000000000  0.8998683156397813
  0.0974496620689648  0.5000000000000000  0.1001316843602186
  0.7500000000000000  0.7915649321693391  0.7295793958654466
  0.2500000000000000  0.2084350678306610  0.2704206041345531
  0.7500000000000000  0.2084350678306610  0.7295793958654466
  0.2500000000000000  0.7915649321693391  0.2704206041345531
  0.2500000000000000  0.5000000000000000  0.5239930349963140
  0.7500000000000000  0.5000000000000000  0.4760069650036861
