k-points
0
Monkhorst-pack
9   13  8
0   0   0