B15
1.0
    6.6402997971         0.0000000000         0.0000000000
    0.0000000000         4.6930999756         0.0000000000
    0.0000000000         0.0000000000         4.5869998932
    B
   15
Direct
     0.139300000         0.684830000         0.850950000
     0.860700000         0.315170000         0.850950000
     0.139300000         0.315170000         0.850950000
     0.860700000         0.684830000         0.850950000
     0.500000000         0.000000000         0.601540000
     0.220880000         0.000000000         0.043100000
     0.779120000         0.000000000         0.043100000
     0.623740000         0.000000000         0.318680000
     0.376260000         0.000000000         0.318680000
     0.767040000         0.000000000         0.663270000
     0.232960000         0.000000000         0.663270000
     0.000000000         0.195650000         0.160350000
     0.000000000         0.804350000         0.160350000
     0.000000000         0.799720000         0.535020000
     0.000000000         0.200280000         0.535020000