k-points
0
Monkhorst-pack
20  28  18
0   0   0