 vasp.6.5.0 16Dec24 (build Jan 08 2025 16:17:04) complex                        
  
 executed on             LinuxIFC date 2026.01.31  07:50:24
 running   42 mpi-ranks, on    1 nodes
 distrk:  each k-point on   42 cores,    1 groups
 distr:  one band on NCORE=   7 cores,    6 groups


--------------------------------------------------------------------------------------------------------


 INCAR:
   SYSTEM = SCF
   PREC = Accurate
   LORBIT = 11
   ENCUT = 600
   LCHARG = .FALSE.
   LWAVE = .FALSE.
   ALGO = Normal
   NELM = 150
   EDIFF = 1E-6
   EDIFFG = -1E-3
   SIGMA = 0.1
   ISMEAR = 0
   NSW = 0
   IBRION = -1
   NCORE = 7
   LREAL = Auto
   GGA = PE
   IVDW = 12
   LDIPOL = .TRUE.
   IDIPOL = 3
   DIPOL = 0.5 0.5 0.200879

 POTCAR:    PAW_PBE B 06Sep2000                   
 POTCAR:    PAW_PBE H 15Jun2001                   
 POTCAR:    PAW_PBE B 06Sep2000                   
   SHA256 =  a32ced30f5ae56fd4d10b4325ff17eb3e4e38ee0f4288bc219fb012fddfa6e97 B/POTCAR              
   COPYR  = (c) Copyright 06Sep2000 Georg Kresse                                                    
   COPYR  = This file is part of the software VASP. Any use, copying, and all other rights are regul
   COPYR  = If you do not have a valid VASP license, you may not use, copy or distribute this file. 
   VRHFIN =B: s2p1                                                                                  
   LEXCH  = PE                                                                                      
   EATOM  =    71.1703 eV,    5.2309 Ry                                                             
                                                                                                    
   TITEL  = PAW_PBE B 06Sep2000                                                                     
   LULTRA =        F    use ultrasoft PP ?                                                          
   IUNSCR =        1    unscreen: 0-lin 1-nonlin 2-no                                               
   RPACOR =    1.200    partial core radius                                                         
   POMASS =   10.811; ZVAL   =    3.000    mass and valenz                                          
   RCORE  =    1.700    outmost cutoff radius                                                       
   RWIGS  =    1.710; RWIGS  =    0.905    wigner-seitz radius (au A)                               
   ENMAX  =  318.614; ENMIN  =  238.960 eV                                                          
   ICORE  =        2    local potential                                                             
   LCOR   =        T    correct aug charges                                                         
   LPAW   =        T    paw PP                                                                      
   EAUG   =  535.514                                                                                
   DEXC   =    0.000                                                                                
   RMAX   =    1.732    core radius for proj-oper                                                   
   RAUG   =    1.300    factor for augmentation sphere                                              
   RDEP   =    1.757    radius for radial grids                                                     
   RDEPT  =    1.436    core radius for aug-charge                                                  
                                                                                                    
   Atomic configuration                                                                             
    4 entries                                                                                       
     n  l   j            E        occ.                                                              
     1  0  0.50      -180.5896   2.0000                                                             
     2  0  0.50        -9.4431   2.0000                                                             
     2  1  0.50        -3.6068   1.0000                                                             
     3  2  1.50        -4.0817   0.0000                                                             
   Description                                                                                      
     l       E           TYP  RCUT    TYP  RCUT                                                     
     0     -9.4430752     23  1.500                                                                 
     0      0.8675899     23  1.500                                                                 
     1     -3.6067955     23  1.700                                                                 
     1      6.1086146     23  1.700                                                                 
     2     -4.0817478      7  1.700                                                                 
  local pseudopotential read in
  partial core-charges read in
  partial kinetic energy density read in
  atomic valenz-charges read in
  non local Contribution for L=           0  read in
    real space projection operators read in
  non local Contribution for L=           0  read in
    real space projection operators read in
  non local Contribution for L=           1  read in
    real space projection operators read in
  non local Contribution for L=           1  read in
    real space projection operators read in
    PAW grid and wavefunctions read in
 
   number of l-projection  operators is LMAX  =           4
   number of lm-projection operators is LMMAX =           8
 
 POTCAR:    PAW_PBE H 15Jun2001                   
   SHA256 =  030f79b5d3ab3cf0e668861823c8fb652ff669f3e15e46930bd03bfd63a607b6 H/POTCAR              
   COPYR  = (c) Copyright 15Jun2001 Georg Kresse                                                    
   COPYR  = This file is part of the software VASP. Any use, copying, and all other rights are regul
   COPYR  = If you do not have a valid VASP license, you may not use, copy or distribute this file. 
   VRHFIN =H: ultrasoft test                                                                        
   LEXCH  = PE                                                                                      
   EATOM  =    12.4884 eV,    0.9179 Ry                                                             
                                                                                                    
   TITEL  = PAW_PBE H 15Jun2001                                                                     
   LULTRA =        F    use ultrasoft PP ?                                                          
   IUNSCR =        0    unscreen: 0-lin 1-nonlin 2-no                                               
   RPACOR =    0.000    partial core radius                                                         
   POMASS =    1.000; ZVAL   =    1.000    mass and valenz                                          
   RCORE  =    1.100    outmost cutoff radius                                                       
   RWIGS  =    0.700; RWIGS  =    0.370    wigner-seitz radius (au A)                               
   ENMAX  =  250.000; ENMIN  =  200.000 eV                                                          
   RCLOC  =    0.701    cutoff for local pot                                                        
   LCOR   =        T    correct aug charges                                                         
   LPAW   =        T    paw PP                                                                      
   EAUG   =  400.000                                                                                
   RMAX   =    1.123    core radius for proj-oper                                                   
   RAUG   =    1.200    factor for augmentation sphere                                              
   RDEP   =    1.112    radius for radial grids                                                     
   RDEPT  =    0.926    core radius for aug-charge                                                  
                                                                                                    
   Atomic configuration                                                                             
    2 entries                                                                                       
     n  l   j            E        occ.                                                              
     1  0  0.50        -6.4927   1.0000                                                             
     2  1  0.50        -3.4015   0.0000                                                             
   Description                                                                                      
     l       E           TYP  RCUT    TYP  RCUT                                                     
     0     -6.4927494     23  1.100                                                                 
     0      6.8029130     23  1.100                                                                 
     1     -4.0817478     23  1.100                                                                 
  local pseudopotential read in
  atomic valenz-charges read in
  non local Contribution for L=           0  read in
    real space projection operators read in
  non local Contribution for L=           0  read in
    real space projection operators read in
  non local Contribution for L=           1  read in
    real space projection operators read in
    PAW grid and wavefunctions read in
 
   number of l-projection  operators is LMAX  =           3
   number of lm-projection operators is LMMAX =           5
 
 Optimization of the real space projectors (new method)

 maximal supplied QI-value         = 22.11
 optimisation between [QCUT,QGAM] = [ 12.38, 24.98] = [ 42.93,174.79] Ry 
 Optimized for a Real-space Cutoff    1.03 Angstroem

   l    n(q)    QCUT    max X(q) W(low)/X(q) W(high)/X(q)  e(spline) 
   0      8    12.381    53.033    0.22E-03    0.47E-03    0.92E-07
   0      8    12.381    34.740    0.21E-03    0.46E-03    0.93E-07
   1      7    12.381    30.949    0.11E-03    0.42E-03    0.70E-07
   1      7    12.381    19.518    0.10E-03    0.38E-03    0.67E-07
 Optimization of the real space projectors (new method)

 maximal supplied QI-value         = 34.20
 optimisation between [QCUT,QGAM] = [ 12.31, 24.97] = [ 42.46,174.58] Ry 
 Optimized for a Real-space Cutoff    1.13 Angstroem

   l    n(q)    QCUT    max X(q) W(low)/X(q) W(high)/X(q)  e(spline) 
   0      8    12.313    19.460    0.10E-03    0.25E-03    0.27E-06
   0      8    12.313    12.209    0.92E-04    0.23E-03    0.26E-06
   1      8    12.313     4.655    0.24E-03    0.28E-03    0.15E-06
  PAW_PBE B 06Sep2000                   :
 energy of atom  1       EATOM=  -71.1703
 kinetic energy error for atom=    0.0007 (will be added to EATOM!!)
  PAW_PBE H 15Jun2001                   :
 energy of atom  2       EATOM=  -12.4884
 kinetic energy error for atom=    0.0004 (will be added to EATOM!!)
 
 
 POSCAR: generated by phonopy
  positions in direct lattice
  No initial velocities read in
 IVDW         = 12
 VDW_S6       =    1.0000
 VDW_S8       =    0.7875
 VDW_A1       =    0.4289
 VDW_A2       =    4.4407
 VDW_RADIUS   =   50.2022 A
 VDW_CNRADIUS =   21.1671 A


 exchange-correlation table for PE
   RHO(1)=    0.500       N(1)  =     2000
   RHO(2)=  100.500       N(2)  =     4000
 


--------------------------------------------------------------------------------------------------------


 ion  position               nearest neighbor table
   1  0.174  0.214  0.149- 217 1.65 235 1.66  73 1.68  19 1.73 181 1.76 145 1.76
   2  0.507  0.214  0.149- 218 1.65 236 1.66  74 1.68  20 1.73 182 1.76 146 1.76
   3  0.840  0.214  0.149- 219 1.65 237 1.66  75 1.68  21 1.73 183 1.76 147 1.76
   4  0.174  0.547  0.149- 220 1.65 238 1.66  76 1.68  22 1.73 184 1.76 148 1.76
   5  0.507  0.547  0.149- 221 1.65 239 1.66  77 1.68  23 1.73 185 1.76 149 1.76
   6  0.840  0.547  0.149- 222 1.65 240 1.66  78 1.68  24 1.73 186 1.76 150 1.76
   7  0.174  0.881  0.149- 223 1.65 241 1.66  79 1.68  25 1.73 187 1.76 151 1.76
   8  0.507  0.881  0.149- 224 1.65 242 1.66  80 1.68  26 1.73 188 1.76 152 1.76
   9  0.840  0.881  0.149- 225 1.65 243 1.66  81 1.68  27 1.73 189 1.76 153 1.76
  10  0.174  0.214  0.252- 226 1.65 244 1.66  82 1.68  28 1.73 154 1.76 190 1.76
  11  0.507  0.214  0.252- 227 1.65 245 1.66  83 1.68  29 1.73 155 1.76 191 1.76
  12  0.840  0.214  0.252- 228 1.65 246 1.66  84 1.68  30 1.73 156 1.76 192 1.76
  13  0.174  0.547  0.252- 229 1.65 247 1.66  85 1.68  31 1.73 157 1.76 193 1.76
  14  0.507  0.547  0.252- 230 1.65 248 1.66  86 1.68  32 1.73 158 1.76 194 1.76
  15  0.840  0.547  0.252- 231 1.65 249 1.66  87 1.68  33 1.73 159 1.76 195 1.76
  16  0.174  0.881  0.252- 232 1.65 250 1.66  88 1.68  34 1.73 160 1.76 196 1.76
  17  0.507  0.881  0.252- 233 1.65 251 1.66  89 1.68  35 1.73 161 1.76 197 1.76
  18  0.840  0.881  0.252- 234 1.65 252 1.66  90 1.68  36 1.73 162 1.76 198 1.76
  19  0.160  0.119  0.149- 235 1.65 217 1.66  91 1.68   1 1.73 163 1.76 199 1.76
  20  0.493  0.119  0.149- 236 1.65 218 1.66  92 1.68   2 1.73 164 1.76 200 1.76
  21  0.826  0.119  0.149- 237 1.65 219 1.66  93 1.68   3 1.73 165 1.76 201 1.76
  22  0.160  0.453  0.149- 238 1.65 220 1.66  94 1.68   4 1.73 166 1.76 202 1.76
  23  0.493  0.453  0.149- 239 1.65 221 1.66  95 1.68   5 1.73 167 1.76 203 1.76
  24  0.826  0.453  0.149- 240 1.65 222 1.66  96 1.68   6 1.73 168 1.76 204 1.76
  25  0.160  0.786  0.149- 241 1.65 223 1.66  97 1.68   7 1.73 169 1.76 205 1.76
  26  0.493  0.786  0.149- 242 1.65 224 1.66  98 1.68   8 1.73 170 1.76 206 1.76
  27  0.826  0.786  0.149- 243 1.65 225 1.66  99 1.68   9 1.73 171 1.76 207 1.76
  28  0.160  0.119  0.252- 244 1.65 226 1.66 100 1.68  10 1.73 208 1.76 172 1.76
  29  0.493  0.119  0.252- 245 1.65 227 1.66 101 1.68  11 1.73 209 1.76 173 1.76
  30  0.826  0.119  0.252- 246 1.65 228 1.66 102 1.68  12 1.73 210 1.76 174 1.76
  31  0.160  0.453  0.252- 247 1.65 229 1.66 103 1.68  13 1.73 211 1.76 175 1.76
  32  0.493  0.453  0.252- 248 1.65 230 1.66 104 1.68  14 1.73 212 1.76 176 1.76
  33  0.826  0.453  0.252- 249 1.65 231 1.66 105 1.68  15 1.73 213 1.76 177 1.76
  34  0.160  0.786  0.252- 250 1.65 232 1.66 106 1.68  16 1.73 214 1.76 178 1.76
  35  0.493  0.786  0.252- 251 1.65 233 1.66 107 1.68  17 1.73 215 1.76 179 1.76
  36  0.826  0.786  0.252- 252 1.65 234 1.66 108 1.68  18 1.73 216 1.76 180 1.76
  37  0.328  0.214  0.135- 235 1.64 109 1.69 218 1.71  56 1.73 145 1.78 181 1.92
  38  0.661  0.214  0.135- 236 1.64 110 1.69 219 1.71  57 1.73 146 1.78 182 1.92
  39  0.994  0.214  0.135- 237 1.64 111 1.69 217 1.71  55 1.73 147 1.78 183 1.92
  40  0.328  0.547  0.135- 238 1.64 112 1.69 221 1.71  59 1.73 148 1.78 184 1.92
  41  0.661  0.547  0.135- 239 1.64 113 1.69 222 1.71  60 1.73 149 1.78 185 1.92
  42  0.994  0.547  0.135- 240 1.64 114 1.69 220 1.71  58 1.73 150 1.78 186 1.92
  43  0.328  0.880  0.135- 241 1.64 115 1.69 224 1.71  62 1.73 151 1.78 187 1.92
  44  0.661  0.880  0.135- 242 1.64 116 1.69 225 1.71  63 1.73 152 1.78 188 1.92
  45  0.994  0.880  0.135- 243 1.64 117 1.69 223 1.71  61 1.73 153 1.78 189 1.92
  46  0.328  0.214  0.266- 244 1.64 118 1.69 227 1.71  65 1.73 190 1.78 154 1.92
  47  0.661  0.214  0.266- 245 1.64 119 1.69 228 1.71  66 1.73 191 1.78 155 1.92
  48  0.994  0.214  0.266- 246 1.64 120 1.69 226 1.71  64 1.73 192 1.78 156 1.92
  49  0.328  0.547  0.266- 247 1.64 121 1.69 230 1.71  68 1.73 193 1.78 157 1.92
  50  0.661  0.547  0.266- 248 1.64 122 1.69 231 1.71  69 1.73 194 1.78 158 1.92
  51  0.994  0.547  0.266- 249 1.64 123 1.69 229 1.71  67 1.73 195 1.78 159 1.92
  52  0.328  0.880  0.266- 250 1.64 124 1.69 233 1.71  71 1.73 196 1.78 160 1.92
  53  0.661  0.880  0.266- 251 1.64 125 1.69 234 1.71  72 1.73 197 1.78 161 1.92
  54  0.994  0.880  0.266- 252 1.64 126 1.69 232 1.71  70 1.73 198 1.78 162 1.92
  55  0.006  0.120  0.135- 217 1.64 127 1.69 237 1.71  39 1.73 199 1.78 163 1.92
  56  0.339  0.120  0.135- 218 1.64 128 1.69 235 1.71  37 1.73 200 1.78 164 1.92
  57  0.672  0.120  0.135- 219 1.64 129 1.69 236 1.71  38 1.73 201 1.78 165 1.92
  58  0.006  0.453  0.135- 220 1.64 130 1.69 240 1.71  42 1.73 202 1.78 166 1.92
  59  0.339  0.453  0.135- 221 1.64 131 1.69 238 1.71  40 1.73 203 1.78 167 1.92
  60  0.672  0.453  0.135- 222 1.64 132 1.69 239 1.71  41 1.73 204 1.78 168 1.92
  61  0.006  0.786  0.135- 223 1.64 133 1.69 243 1.71  45 1.73 205 1.78 169 1.92
  62  0.339  0.786  0.135- 224 1.64 134 1.69 241 1.71  43 1.73 206 1.78 170 1.92
  63  0.672  0.786  0.135- 225 1.64 135 1.69 242 1.71  44 1.73 207 1.78 171 1.92
  64  0.006  0.120  0.266- 226 1.64 136 1.69 246 1.71  48 1.73 172 1.78 208 1.92
  65  0.339  0.120  0.266- 227 1.64 137 1.69 244 1.71  46 1.73 173 1.78 209 1.92
  66  0.672  0.120  0.266- 228 1.64 138 1.69 245 1.71  47 1.73 174 1.78 210 1.92
  67  0.006  0.453  0.266- 229 1.64 139 1.69 249 1.71  51 1.73 175 1.78 211 1.92
  68  0.339  0.453  0.266- 230 1.64 140 1.69 247 1.71  49 1.73 176 1.78 212 1.92
  69  0.672  0.453  0.266- 231 1.64 141 1.69 248 1.71  50 1.73 177 1.78 213 1.92
  70  0.006  0.786  0.266- 232 1.64 142 1.69 252 1.71  54 1.73 178 1.78 214 1.92
  71  0.339  0.786  0.266- 233 1.64 143 1.69 250 1.71  52 1.73 179 1.78 215 1.92
  72  0.672  0.786  0.266- 234 1.64 144 1.69 251 1.71  53 1.73 180 1.78 216 1.92
  73  0.199  0.300  0.132-  94 1.66   1 1.68 109 1.73 181 1.76 145 1.81
  74  0.532  0.300  0.133-  95 1.66   2 1.68 110 1.73 182 1.76 146 1.80
  75  0.865  0.300  0.133-  96 1.66   3 1.68 111 1.73 183 1.76 147 1.80
  76  0.199  0.633  0.133-  97 1.66   4 1.68 112 1.73 184 1.76 148 1.80
  77  0.532  0.633  0.133-  98 1.66   5 1.68 113 1.73 185 1.76 149 1.80
  78  0.865  0.633  0.133-  99 1.66   6 1.68 114 1.73 186 1.76 150 1.80
  79  0.199  0.966  0.133-  91 1.66   7 1.68 115 1.73 187 1.76 151 1.80
  80  0.532  0.966  0.133-  92 1.66   8 1.68 116 1.73 188 1.76 152 1.80
  81  0.865  0.966  0.133-  93 1.66   9 1.68 117 1.73 189 1.76 153 1.80
  82  0.199  0.300  0.269- 103 1.66  10 1.68 118 1.73 154 1.76 190 1.80
  83  0.532  0.300  0.269- 104 1.66  11 1.68 119 1.73 155 1.76 191 1.80
  84  0.865  0.300  0.269- 105 1.66  12 1.68 120 1.73 156 1.76 192 1.80
  85  0.199  0.633  0.269- 106 1.66  13 1.68 121 1.73 157 1.76 193 1.80
  86  0.532  0.633  0.269- 107 1.66  14 1.68 122 1.73 158 1.76 194 1.80
  87  0.865  0.633  0.269- 108 1.66  15 1.68 123 1.73 159 1.76 195 1.80
  88  0.199  0.966  0.269- 100 1.66  16 1.68 124 1.73 160 1.76 196 1.80
  89  0.532  0.966  0.269- 101 1.66  17 1.68 125 1.73 161 1.76 197 1.80
  90  0.865  0.966  0.269- 102 1.66  18 1.68 126 1.73 162 1.76 198 1.80
  91  0.135  0.034  0.133-  79 1.66  19 1.68 127 1.73 163 1.76 199 1.80
  92  0.468  0.034  0.133-  80 1.66  20 1.68 128 1.73 164 1.76 200 1.80
  93  0.801  0.034  0.133-  81 1.66  21 1.68 129 1.73 165 1.76 201 1.80
  94  0.135  0.367  0.133-  73 1.66  22 1.68 130 1.73 166 1.76 202 1.80
  95  0.468  0.367  0.133-  74 1.66  23 1.68 131 1.73 167 1.76 203 1.80
  96  0.801  0.367  0.133-  75 1.66  24 1.68 132 1.73 168 1.76 204 1.80
  97  0.135  0.700  0.133-  76 1.66  25 1.68 133 1.73 169 1.76 205 1.80
  98  0.468  0.700  0.133-  77 1.66  26 1.68 134 1.73 170 1.76 206 1.80
  99  0.801  0.700  0.133-  78 1.66  27 1.68 135 1.73 171 1.76 207 1.80
 100  0.135  0.034  0.269-  88 1.66  28 1.68 136 1.73 208 1.76 172 1.80
 101  0.468  0.034  0.269-  89 1.66  29 1.68 137 1.73 209 1.76 173 1.80
 102  0.801  0.034  0.269-  90 1.66  30 1.68 138 1.73 210 1.76 174 1.80
 103  0.135  0.367  0.269-  82 1.66  31 1.68 139 1.73 211 1.76 175 1.80
 104  0.468  0.367  0.269-  83 1.66  32 1.68 140 1.73 212 1.76 176 1.80
 105  0.801  0.367  0.269-  84 1.66  33 1.68 141 1.73 213 1.76 177 1.80
 106  0.135  0.700  0.269-  85 1.66  34 1.68 142 1.73 214 1.76 178 1.80
 107  0.468  0.700  0.269-  86 1.66  35 1.68 143 1.73 215 1.76 179 1.80
 108  0.801  0.700  0.269-  87 1.66  36 1.68 144 1.73 216 1.76 180 1.80
 109  0.300  0.299  0.121- 131 1.66  37 1.69  73 1.73 181 1.81 145 1.84
 110  0.633  0.299  0.121- 132 1.66  38 1.69  74 1.73 182 1.81 146 1.84
 111  0.966  0.299  0.121- 130 1.66  39 1.69  75 1.73 183 1.81 147 1.84
 112  0.300  0.632  0.121- 134 1.66  40 1.69  76 1.73 184 1.81 148 1.84
 113  0.633  0.632  0.121- 135 1.66  41 1.69  77 1.73 185 1.81 149 1.84
 114  0.966  0.632  0.121- 133 1.66  42 1.69  78 1.73 186 1.81 150 1.84
 115  0.300  0.965  0.121- 128 1.66  43 1.69  79 1.73 187 1.81 151 1.84
 116  0.633  0.965  0.121- 129 1.66  44 1.69  80 1.73 188 1.81 152 1.84
 117  0.966  0.965  0.121- 127 1.66  45 1.69  81 1.73 189 1.81 153 1.84
 118  0.300  0.299  0.280- 140 1.66  46 1.69  82 1.73 154 1.81 190 1.84
 119  0.633  0.299  0.280- 141 1.66  47 1.69  83 1.73 155 1.81 191 1.84
 120  0.966  0.299  0.280- 139 1.66  48 1.69  84 1.73 156 1.81 192 1.84
 121  0.300  0.632  0.280- 143 1.66  49 1.69  85 1.73 157 1.81 193 1.84
 122  0.633  0.632  0.280- 144 1.66  50 1.69  86 1.73 158 1.81 194 1.84
 123  0.966  0.632  0.280- 142 1.66  51 1.69  87 1.73 159 1.81 195 1.84
 124  0.300  0.965  0.280- 137 1.66  52 1.69  88 1.73 160 1.81 196 1.84
 125  0.633  0.965  0.280- 138 1.66  53 1.69  89 1.73 161 1.81 197 1.84
 126  0.966  0.965  0.280- 136 1.66  54 1.69  90 1.73 162 1.81 198 1.84
 127  0.034  0.035  0.121- 117 1.66  55 1.69  91 1.73 163 1.81 199 1.84
 128  0.367  0.035  0.121- 115 1.66  56 1.69  92 1.73 164 1.81 200 1.84
 129  0.700  0.035  0.121- 116 1.66  57 1.69  93 1.73 165 1.81 201 1.84
 130  0.034  0.368  0.121- 111 1.66  58 1.69  94 1.73 166 1.81 202 1.84
 131  0.367  0.368  0.121- 109 1.66  59 1.69  95 1.73 167 1.81 203 1.84
 132  0.700  0.368  0.121- 110 1.66  60 1.69  96 1.73 168 1.81 204 1.84
 133  0.034  0.701  0.121- 114 1.66  61 1.69  97 1.73 169 1.81 205 1.84
 134  0.367  0.701  0.121- 112 1.66  62 1.69  98 1.73 170 1.81 206 1.84
 135  0.700  0.701  0.121- 113 1.66  63 1.69  99 1.73 171 1.81 207 1.84
 136  0.034  0.035  0.280- 126 1.66  64 1.69 100 1.73 208 1.81 172 1.84
 137  0.367  0.035  0.280- 124 1.66  65 1.69 101 1.73 209 1.81 173 1.84
 138  0.700  0.035  0.280- 125 1.66  66 1.69 102 1.73 210 1.81 174 1.84
 139  0.034  0.368  0.280- 120 1.66  67 1.69 103 1.73 211 1.81 175 1.84
 140  0.367  0.368  0.280- 118 1.66  68 1.69 104 1.73 212 1.81 176 1.84
 141  0.700  0.368  0.280- 119 1.66  69 1.69 105 1.73 213 1.81 177 1.84
 142  0.034  0.701  0.280- 123 1.66  70 1.69 106 1.73 214 1.81 178 1.84
 143  0.367  0.701  0.280- 121 1.66  71 1.69 107 1.73 215 1.81 179 1.84
 144  0.700  0.701  0.280- 122 1.66  72 1.69 108 1.73 216 1.81 180 1.84
 145  0.260  0.255  0.173- 190 1.70   1 1.76  37 1.78  73 1.81 109 1.84 235 1.96
 146  0.594  0.255  0.173- 191 1.70   2 1.76  38 1.78  74 1.80 110 1.84 236 1.96
 147  0.927  0.255  0.173- 192 1.70   3 1.76  39 1.78  75 1.80 111 1.84 237 1.96
 148  0.260  0.589  0.173- 193 1.70   4 1.76  40 1.78  76 1.80 112 1.84 238 1.96
 149  0.594  0.589  0.173- 194 1.70   5 1.76  41 1.78  77 1.80 113 1.84 239 1.96
 150  0.927  0.589  0.173- 195 1.70   6 1.76  42 1.78  78 1.80 114 1.84 240 1.96
 151  0.260  0.922  0.173- 196 1.70   7 1.76  43 1.78  79 1.80 115 1.84 241 1.96
 152  0.594  0.922  0.173- 197 1.70   8 1.76  44 1.78  80 1.80 116 1.84 242 1.96
 153  0.927  0.922  0.173- 198 1.70   9 1.76  45 1.78  81 1.80 117 1.84 243 1.96
 154  0.233  0.226  0.300-  10 1.76  82 1.76 244 1.79 118 1.81  46 1.92
 155  0.566  0.226  0.300-  11 1.76  83 1.76 245 1.79 119 1.81  47 1.92
 156  0.899  0.226  0.300-  12 1.76  84 1.76 246 1.79 120 1.81  48 1.92
 157  0.233  0.559  0.300-  13 1.76  85 1.76 247 1.79 121 1.81  49 1.92
 158  0.566  0.559  0.300-  14 1.76  86 1.76 248 1.79 122 1.81  50 1.92
 159  0.899  0.559  0.300-  15 1.76  87 1.76 249 1.79 123 1.81  51 1.92
 160  0.233  0.892  0.300-  16 1.76  88 1.76 250 1.79 124 1.81  52 1.92
 161  0.566  0.892  0.300-  17 1.76  89 1.76 251 1.79 125 1.81  53 1.92
 162  0.899  0.892  0.300-  18 1.76  90 1.76 252 1.79 126 1.81  54 1.92
 163  0.101  0.108  0.101-  19 1.76  91 1.76 217 1.79 127 1.81  55 1.92
 164  0.434  0.108  0.101-  20 1.76  92 1.76 218 1.79 128 1.81  56 1.92
 165  0.767  0.108  0.101-  21 1.76  93 1.76 219 1.79 129 1.81  57 1.92
 166  0.101  0.441  0.101-  22 1.76  94 1.76 220 1.79 130 1.81  58 1.92
 167  0.434  0.441  0.101-  23 1.76  95 1.76 221 1.79 131 1.81  59 1.92
 168  0.767  0.441  0.101-  24 1.76  96 1.76 222 1.79 132 1.81  60 1.92
 169  0.101  0.774  0.101-  25 1.76  97 1.76 223 1.79 133 1.81  61 1.92
 170  0.434  0.774  0.101-  26 1.76  98 1.76 224 1.79 134 1.81  62 1.92
 171  0.767  0.774  0.101-  27 1.76  99 1.76 225 1.79 135 1.81  63 1.92
 172  0.073  0.078  0.229- 199 1.70  28 1.76  64 1.78 100 1.80 136 1.84 226 1.96
 173  0.406  0.078  0.229- 200 1.70  29 1.76  65 1.78 101 1.80 137 1.84 227 1.96
 174  0.740  0.078  0.229- 201 1.70  30 1.76  66 1.78 102 1.80 138 1.84 228 1.96
 175  0.073  0.411  0.229- 202 1.70  31 1.76  67 1.78 103 1.80 139 1.84 229 1.96
 176  0.406  0.411  0.229- 203 1.70  32 1.76  68 1.78 104 1.80 140 1.84 230 1.96
 177  0.740  0.411  0.229- 204 1.70  33 1.76  69 1.78 105 1.80 141 1.84 231 1.96
 178  0.073  0.745  0.229- 205 1.70  34 1.76  70 1.78 106 1.80 142 1.84 232 1.96
 179  0.406  0.745  0.229- 206 1.70  35 1.76  71 1.78 107 1.80 143 1.84 233 1.96
 180  0.740  0.745  0.229- 207 1.70  36 1.76  72 1.78 108 1.80 144 1.84 234 1.96
 181  0.233  0.226  0.101-  73 1.76   1 1.76 235 1.79 109 1.81  37 1.92
 182  0.566  0.226  0.101-   2 1.76  74 1.76 236 1.79 110 1.81  38 1.92
 183  0.899  0.226  0.101-   3 1.76  75 1.76 237 1.79 111 1.81  39 1.92
 184  0.233  0.559  0.101-   4 1.76  76 1.76 238 1.79 112 1.81  40 1.92
 185  0.566  0.559  0.101-   5 1.76  77 1.76 239 1.79 113 1.81  41 1.92
 186  0.899  0.559  0.101-   6 1.76  78 1.76 240 1.79 114 1.81  42 1.92
 187  0.233  0.892  0.101-   7 1.76  79 1.76 241 1.79 115 1.81  43 1.92
 188  0.566  0.892  0.101-   8 1.76  80 1.76 242 1.79 116 1.81  44 1.92
 189  0.899  0.892  0.101-   9 1.76  81 1.76 243 1.79 117 1.81  45 1.92
 190  0.260  0.255  0.229- 145 1.70  10 1.76  46 1.78  82 1.80 118 1.84 244 1.96
 191  0.594  0.255  0.229- 146 1.70  11 1.76  47 1.78  83 1.80 119 1.84 245 1.96
 192  0.927  0.255  0.229- 147 1.70  12 1.76  48 1.78  84 1.80 120 1.84 246 1.96
 193  0.260  0.589  0.229- 148 1.70  13 1.76  49 1.78  85 1.80 121 1.84 247 1.96
 194  0.594  0.589  0.229- 149 1.70  14 1.76  50 1.78  86 1.80 122 1.84 248 1.96
 195  0.927  0.589  0.229- 150 1.70  15 1.76  51 1.78  87 1.80 123 1.84 249 1.96
 196  0.260  0.922  0.229- 151 1.70  16 1.76  52 1.78  88 1.80 124 1.84 250 1.96
 197  0.594  0.922  0.229- 152 1.70  17 1.76  53 1.78  89 1.80 125 1.84 251 1.96
 198  0.927  0.922  0.229- 153 1.70  18 1.76  54 1.78  90 1.80 126 1.84 252 1.96
 199  0.073  0.078  0.173- 172 1.70  19 1.76  55 1.78  91 1.80 127 1.84 217 1.96
 200  0.406  0.078  0.173- 173 1.70  20 1.76  56 1.78  92 1.80 128 1.84 218 1.96
 201  0.740  0.078  0.173- 174 1.70  21 1.76  57 1.78  93 1.80 129 1.84 219 1.96
 202  0.073  0.411  0.173- 175 1.70  22 1.76  58 1.78  94 1.80 130 1.84 220 1.96
 203  0.406  0.411  0.173- 176 1.70  23 1.76  59 1.78  95 1.80 131 1.84 221 1.96
 204  0.740  0.411  0.173- 177 1.70  24 1.76  60 1.78  96 1.80 132 1.84 222 1.96
 205  0.073  0.745  0.173- 178 1.70  25 1.76  61 1.78  97 1.80 133 1.84 223 1.96
 206  0.406  0.745  0.173- 179 1.70  26 1.76  62 1.78  98 1.80 134 1.84 224 1.96
 207  0.740  0.745  0.173- 180 1.70  27 1.76  63 1.78  99 1.80 135 1.84 225 1.96
 208  0.101  0.108  0.300-  28 1.76 100 1.76 226 1.79 136 1.81  64 1.92
 209  0.434  0.108  0.300-  29 1.76 101 1.76 227 1.79 137 1.81  65 1.92
 210  0.767  0.108  0.300-  30 1.76 102 1.76 228 1.79 138 1.81  66 1.92
 211  0.101  0.441  0.300-  31 1.76 103 1.76 229 1.79 139 1.81  67 1.92
 212  0.434  0.441  0.300-  32 1.76 104 1.76 230 1.79 140 1.81  68 1.92
 213  0.767  0.441  0.300-  33 1.76 105 1.76 231 1.79 141 1.81  69 1.92
 214  0.101  0.774  0.300-  34 1.76 106 1.76 232 1.79 142 1.81  70 1.92
 215  0.434  0.774  0.300-  35 1.76 107 1.76 233 1.79 143 1.81  71 1.92
 216  0.767  0.774  0.300-  36 1.76 108 1.76 234 1.79 144 1.81  72 1.92
 217  0.084  0.174  0.144-  55 1.64   1 1.65  19 1.66  39 1.71 163 1.79 199 1.96
 218  0.417  0.174  0.144-  56 1.64   2 1.65  20 1.66  37 1.71 164 1.79 200 1.96
 219  0.750  0.174  0.144-  57 1.64   3 1.65  21 1.66  38 1.71 165 1.79 201 1.96
 220  0.084  0.508  0.144-  58 1.64   4 1.65  22 1.66  42 1.71 166 1.79 202 1.96
 221  0.417  0.508  0.144-  59 1.64   5 1.65  23 1.66  40 1.71 167 1.79 203 1.96
 222  0.750  0.508  0.144-  60 1.64   6 1.65  24 1.66  41 1.71 168 1.79 204 1.96
 223  0.084  0.841  0.144-  61 1.64   7 1.65  25 1.66  45 1.71 169 1.79 205 1.96
 224  0.417  0.841  0.144-  62 1.64   8 1.65  26 1.66  43 1.71 170 1.79 206 1.96
 225  0.750  0.841  0.144-  63 1.64   9 1.65  27 1.66  44 1.71 171 1.79 207 1.96
 226  0.084  0.174  0.258-  64 1.64  10 1.65  28 1.66  48 1.71 208 1.79 172 1.96
 227  0.417  0.174  0.258-  65 1.64  11 1.65  29 1.66  46 1.71 209 1.79 173 1.96
 228  0.750  0.174  0.258-  66 1.64  12 1.65  30 1.66  47 1.71 210 1.79 174 1.96
 229  0.084  0.508  0.258-  67 1.64  13 1.65  31 1.66  51 1.71 211 1.79 175 1.96
 230  0.417  0.508  0.258-  68 1.64  14 1.65  32 1.66  49 1.71 212 1.79 176 1.96
 231  0.750  0.508  0.258-  69 1.64  15 1.65  33 1.66  50 1.71 213 1.79 177 1.96
 232  0.084  0.841  0.258-  70 1.64  16 1.65  34 1.66  54 1.71 214 1.79 178 1.96
 233  0.417  0.841  0.258-  71 1.64  17 1.65  35 1.66  52 1.71 215 1.79 179 1.96
 234  0.750  0.841  0.258-  72 1.64  18 1.65  36 1.66  53 1.71 216 1.79 180 1.96
 235  0.250  0.159  0.144-  37 1.64  19 1.65   1 1.66  56 1.71 181 1.79 145 1.96
 236  0.583  0.159  0.144-  38 1.64  20 1.65   2 1.66  57 1.71 182 1.79 146 1.96
 237  0.916  0.159  0.144-  39 1.64  21 1.65   3 1.66  55 1.71 183 1.79 147 1.96
 238  0.250  0.492  0.144-  40 1.64  22 1.65   4 1.66  59 1.71 184 1.79 148 1.96
 239  0.583  0.492  0.144-  41 1.64  23 1.65   5 1.66  60 1.71 185 1.79 149 1.96
 240  0.916  0.492  0.144-  42 1.64  24 1.65   6 1.66  58 1.71 186 1.79 150 1.96
 241  0.250  0.826  0.144-  43 1.64  25 1.65   7 1.66  62 1.71 187 1.79 151 1.96
 242  0.583  0.826  0.144-  44 1.64  26 1.65   8 1.66  63 1.71 188 1.79 152 1.96
 243  0.916  0.826  0.144-  45 1.64  27 1.65   9 1.66  61 1.71 189 1.79 153 1.96
 244  0.250  0.159  0.258-  46 1.64  28 1.65  10 1.66  65 1.71 154 1.79 190 1.96
 245  0.583  0.159  0.258-  47 1.64  29 1.65  11 1.66  66 1.71 155 1.79 191 1.96
 246  0.916  0.159  0.258-  48 1.64  30 1.65  12 1.66  64 1.71 156 1.79 192 1.96
 247  0.250  0.492  0.258-  49 1.64  31 1.65  13 1.66  68 1.71 157 1.79 193 1.96
 248  0.583  0.492  0.258-  50 1.64  32 1.65  14 1.66  69 1.71 158 1.79 194 1.96
 249  0.916  0.492  0.258-  51 1.64  33 1.65  15 1.66  67 1.71 159 1.79 195 1.96
 250  0.250  0.826  0.258-  52 1.64  34 1.65  16 1.66  71 1.71 160 1.79 196 1.96
 251  0.583  0.826  0.258-  53 1.64  35 1.65  17 1.66  72 1.71 161 1.79 197 1.96
 252  0.916  0.826  0.258-  54 1.64  36 1.65  18 1.66  70 1.71 162 1.79 198 1.96
 253  0.167  0.167  0.075-
 254  0.500  0.167  0.075-
 255  0.833  0.167  0.075-
 256  0.167  0.500  0.075-
 257  0.500  0.500  0.075-
 258  0.833  0.500  0.075-
 259  0.167  0.833  0.075-
 260  0.500  0.833  0.075-
 261  0.833  0.833  0.075-
 262  0.167  0.167  0.327-
 263  0.500  0.167  0.327-
 264  0.833  0.167  0.327-
 265  0.167  0.500  0.327-
 266  0.500  0.500  0.327-
 267  0.833  0.500  0.327-
 268  0.167  0.833  0.327-
 269  0.500  0.833  0.327-
 270  0.833  0.833  0.327-
 
  LATTYP: Found a simple monoclinic cell.
 ALAT       =    16.8193272821
 B/A-ratio  =     1.7889013122
 C/A-ratio  =     1.0834587613
 COS(beta)  =    -0.0406370190
  
  Lattice vectors:
  
 A1 = (  16.8159717533,  -0.3359526934,   0.0000000000)
 A2 = (   0.0000000000,   0.0000000000, -30.0881166460)
 A3 = (  -0.3766923650,  18.2191537439,   0.0000000000)


Analysis of symmetry for initial positions (statically):
=====================================================================
 Subroutine PRICEL returns:
 Original cell was already a primitive cell.
 

 Routine SETGRP: Setting up the symmetry group for a 
 simple monoclinic supercell.


 Subroutine GETGRP returns: Found  1 space group operations
 (whereof  1 operations were pure point group operations)
 out of a pool of  4 trial point group operations.


The static configuration has the point symmetry C_1 .


Analysis of symmetry for dynamics (positions and initial velocities):
=====================================================================
 Subroutine PRICEL returns:
 Original cell was already a primitive cell.
 

 Routine SETGRP: Setting up the symmetry group for a 
 simple monoclinic supercell.


 Subroutine GETGRP returns: Found  1 space group operations
 (whereof  1 operations were pure point group operations)
 out of a pool of  4 trial point group operations.


The dynamic configuration has the point symmetry C_1 .


 Subroutine INISYM returns: Found  1 space group operations
 (whereof  1 operations are pure point group operations),
 and found     1 'primitive' translations


----------------------------------------------------------------------------------------

                                     Primitive cell                                     

  volume of cell :    9214.3721

  direct lattice vectors                    reciprocal lattice vectors
    16.815971753 -0.335952693  0.000000000     0.059491848  0.001230031  0.000000000
    -0.376692365 18.219153744  0.000000000     0.001097002  0.054909973  0.000000000
     0.000000000  0.000000000 30.088116646     0.000000000  0.000000000  0.033235713

  length of vectors
    16.819327282 18.223047503 30.088116646     0.059504562  0.054920930  0.033235713

  position of ions in fractional coordinates (direct lattice)
     0.173518296  0.213847804  0.149295451
     0.506851629  0.213847804  0.149295451
     0.840184962  0.213847804  0.149295451
     0.173518296  0.547181137  0.149295451
     0.506851629  0.547181137  0.149295451
     0.840184962  0.547181137  0.149295451
     0.173518296  0.880514470  0.149295451
     0.506851629  0.880514470  0.149295451
     0.840184962  0.880514470  0.149295451
     0.173518296  0.213847804  0.252461721
     0.506851629  0.213847804  0.252461721
     0.840184962  0.213847804  0.252461721
     0.173518296  0.547181137  0.252461721
     0.506851629  0.547181137  0.252461721
     0.840184962  0.547181137  0.252461721
     0.173518296  0.880514470  0.252461721
     0.506851629  0.880514470  0.252461721
     0.840184962  0.880514470  0.252461721
     0.159815038  0.119485530  0.149295451
     0.493148371  0.119485530  0.149295451
     0.826481704  0.119485530  0.149295451
     0.159815038  0.452818863  0.149295451
     0.493148371  0.452818863  0.149295451
     0.826481704  0.452818863  0.149295451
     0.159815038  0.786152196  0.149295451
     0.493148371  0.786152196  0.149295451
     0.826481704  0.786152196  0.149295451
     0.159815038  0.119485530  0.252461721
     0.493148371  0.119485530  0.252461721
     0.826481704  0.119485530  0.252461721
     0.159815038  0.452818863  0.252461721
     0.493148371  0.452818863  0.252461721
     0.826481704  0.452818863  0.252461721
     0.159815038  0.786152196  0.252461721
     0.493148371  0.786152196  0.252461721
     0.826481704  0.786152196  0.252461721
     0.327689203  0.213722076  0.135448422
     0.661022536  0.213722076  0.135448422
     0.994355869  0.213722076  0.135448422
     0.327689203  0.547055410  0.135448422
     0.661022536  0.547055410  0.135448422
     0.994355869  0.547055410  0.135448422
     0.327689203  0.880388743  0.135448422
     0.661022536  0.880388743  0.135448422
     0.994355869  0.880388743  0.135448422
     0.327689203  0.213722076  0.266308749
     0.661022536  0.213722076  0.266308749
     0.994355869  0.213722076  0.266308749
     0.327689203  0.547055410  0.266308749
     0.661022536  0.547055410  0.266308749
     0.994355869  0.547055410  0.266308749
     0.327689203  0.880388743  0.266308749
     0.661022536  0.880388743  0.266308749
     0.994355869  0.880388743  0.266308749
     0.005644131  0.119611257  0.135448422
     0.338977464  0.119611257  0.135448422
     0.672310797  0.119611257  0.135448422
     0.005644131  0.452944590  0.135448422
     0.338977464  0.452944590  0.135448422
     0.672310797  0.452944590  0.135448422
     0.005644131  0.786277924  0.135448422
     0.338977464  0.786277924  0.135448422
     0.672310797  0.786277924  0.135448422
     0.005644131  0.119611257  0.266308749
     0.338977464  0.119611257  0.266308749
     0.672310797  0.119611257  0.266308749
     0.005644131  0.452944590  0.266308749
     0.338977464  0.452944590  0.266308749
     0.672310797  0.452944590  0.266308749
     0.005644131  0.786277924  0.266308749
     0.338977464  0.786277924  0.266308749
     0.672310797  0.786277924  0.266308749
     0.198671933  0.299795999  0.132458030
     0.532005266  0.299795999  0.132790387
     0.865338600  0.299795999  0.132790387
     0.198671933  0.633129332  0.132790387
     0.532005266  0.633129332  0.132790387
     0.865338600  0.633129332  0.132790387
     0.198671933  0.966462665  0.132790387
     0.532005266  0.966462665  0.132790387
     0.865338600  0.966462665  0.132790387
     0.198671933  0.299795999  0.268966785
     0.532005266  0.299795999  0.268966785
     0.865338600  0.299795999  0.268966785
     0.198671933  0.633129332  0.268966785
     0.532005266  0.633129332  0.268966785
     0.865338600  0.633129332  0.268966785
     0.198671933  0.966462665  0.268966785
     0.532005266  0.966462665  0.268966785
     0.865338600  0.966462665  0.268966785
     0.134661400  0.033537332  0.132790387
     0.467994734  0.033537332  0.132790387
     0.801328067  0.033537332  0.132790387
     0.134661400  0.366870666  0.132790387
     0.467994734  0.366870666  0.132790387
     0.801328067  0.366870666  0.132790387
     0.134661400  0.700203999  0.132790387
     0.467994734  0.700203999  0.132790387
     0.801328067  0.700203999  0.132790387
     0.134661400  0.033537332  0.268966785
     0.467994734  0.033537332  0.268966785
     0.801328067  0.033537332  0.268966785
     0.134661400  0.366870666  0.268966785
     0.467994734  0.366870666  0.268966785
     0.801328067  0.366870666  0.268966785
     0.134661400  0.700203999  0.268966785
     0.467994734  0.700203999  0.268966785
     0.801328067  0.700203999  0.268966785
     0.299764170  0.298588052  0.121495949
     0.633097503  0.298588052  0.121495949
     0.966430837  0.298588052  0.121495949
     0.299764170  0.631921385  0.121495949
     0.633097503  0.631921385  0.121495949
     0.966430837  0.631921385  0.121495949
     0.299764170  0.965254718  0.121495949
     0.633097503  0.965254718  0.121495949
     0.966430837  0.965254718  0.121495949
     0.299764170  0.298588052  0.280261223
     0.633097503  0.298588052  0.280261223
     0.966430837  0.298588052  0.280261223
     0.299764170  0.631921385  0.280261223
     0.633097503  0.631921385  0.280261223
     0.966430837  0.631921385  0.280261223
     0.299764170  0.965254718  0.280261223
     0.633097503  0.965254718  0.280261223
     0.966430837  0.965254718  0.280261223
     0.033569164  0.034745279  0.121495949
     0.366902497  0.034745279  0.121495949
     0.700235830  0.034745279  0.121495949
     0.033569164  0.368078612  0.121495949
     0.366902497  0.368078612  0.121495949
     0.700235830  0.368078612  0.121495949
     0.033569164  0.701411946  0.121495949
     0.366902497  0.701411946  0.121495949
     0.700235830  0.701411946  0.121495949
     0.033569164  0.034745279  0.280261223
     0.366902497  0.034745279  0.280261223
     0.700235830  0.034745279  0.280261223
     0.033569164  0.368078612  0.280261223
     0.366902497  0.368078612  0.280261223
     0.700235830  0.368078612  0.280261223
     0.033569164  0.701411946  0.280261223
     0.366902497  0.701411946  0.280261223
     0.700235830  0.701411946  0.280261223
     0.260467523  0.255177294  0.172608614
     0.593800857  0.255177294  0.172608614
     0.927134190  0.255177294  0.172608614
     0.260467523  0.588510627  0.172608614
     0.593800857  0.588510627  0.172608614
     0.927134190  0.588510627  0.172608614
     0.260467523  0.921843961  0.172608614
     0.593800857  0.921843961  0.172608614
     0.927134190  0.921843961  0.172608614
     0.232774103  0.225751811  0.300295150
     0.566107437  0.225751811  0.300295150
     0.899440770  0.225751811  0.300295150
     0.232774103  0.559085145  0.300295150
     0.566107437  0.559085145  0.300295150
     0.899440770  0.559085145  0.300295150
     0.232774103  0.892418478  0.300295150
     0.566107437  0.892418478  0.300295150
     0.899440770  0.892418478  0.300295150
     0.100559230  0.107581522  0.101462024
     0.433892563  0.107581522  0.101462024
     0.767225897  0.107581522  0.101462024
     0.100559230  0.440914855  0.101462024
     0.433892563  0.440914855  0.101462024
     0.767225897  0.440914855  0.101462024
     0.100559230  0.774248189  0.101462024
     0.433892563  0.774248189  0.101462024
     0.767225897  0.774248189  0.101462024
     0.072865810  0.078156039  0.229148560
     0.406199143  0.078156039  0.229148560
     0.739532477  0.078156039  0.229148560
     0.072865810  0.411489373  0.229148560
     0.406199143  0.411489373  0.229148560
     0.739532477  0.411489373  0.229148560
     0.072865810  0.744822706  0.229148560
     0.406199143  0.744822706  0.229148560
     0.739532477  0.744822706  0.229148560
     0.232774103  0.225751811  0.101462024
     0.566107437  0.225751811  0.101462024
     0.899440770  0.225751811  0.101462024
     0.232774103  0.559085145  0.101462024
     0.566107437  0.559085145  0.101462024
     0.899440770  0.559085145  0.101462024
     0.232774103  0.892418478  0.101462024
     0.566107437  0.892418478  0.101462024
     0.899440770  0.892418478  0.101462024
     0.260467523  0.255177294  0.229148560
     0.593800857  0.255177294  0.229148560
     0.927134190  0.255177294  0.229148560
     0.260467523  0.588510627  0.229148560
     0.593800857  0.588510627  0.229148560
     0.927134190  0.588510627  0.229148560
     0.260467523  0.921843961  0.229148560
     0.593800857  0.921843961  0.229148560
     0.927134190  0.921843961  0.229148560
     0.072865810  0.078156039  0.172608614
     0.406199143  0.078156039  0.172608614
     0.739532477  0.078156039  0.172608614
     0.072865810  0.411489373  0.172608614
     0.406199143  0.411489373  0.172608614
     0.739532477  0.411489373  0.172608614
     0.072865810  0.744822706  0.172608614
     0.406199143  0.744822706  0.172608614
     0.739532477  0.744822706  0.172608614
     0.100559230  0.107581522  0.300295150
     0.433892563  0.107581522  0.300295150
     0.767225897  0.107581522  0.300295150
     0.100559230  0.440914855  0.300295150
     0.433892563  0.440914855  0.300295150
     0.767225897  0.440914855  0.300295150
     0.100559230  0.774248189  0.300295150
     0.433892563  0.774248189  0.300295150
     0.767225897  0.774248189  0.300295150
     0.083774896  0.174278168  0.143807416
     0.417108229  0.174278168  0.143807416
     0.750441562  0.174278168  0.143807416
     0.083774896  0.507611501  0.143807416
     0.417108229  0.507611501  0.143807416
     0.750441562  0.507611501  0.143807416
     0.083774896  0.840944834  0.143807416
     0.417108229  0.840944834  0.143807416
     0.750441562  0.840944834  0.143807416
     0.083774896  0.174278168  0.257949756
     0.417108229  0.174278168  0.257949756
     0.750441562  0.174278168  0.257949756
     0.083774896  0.507611501  0.257949756
     0.417108229  0.507611501  0.257949756
     0.750441562  0.507611501  0.257949756
     0.083774896  0.840944834  0.257949756
     0.417108229  0.840944834  0.257949756
     0.750441562  0.840944834  0.257949756
     0.249558438  0.159055156  0.143807416
     0.582891771  0.159055156  0.143807416
     0.916225104  0.159055156  0.143807416
     0.249558438  0.492388489  0.143807416
     0.582891771  0.492388489  0.143807416
     0.916225104  0.492388489  0.143807416
     0.249558438  0.825721822  0.143807416
     0.582891771  0.825721822  0.143807416
     0.916225104  0.825721822  0.143807416
     0.249558438  0.159055156  0.257949756
     0.582891771  0.159055156  0.257949756
     0.916225104  0.159055156  0.257949756
     0.249558438  0.492388489  0.257949756
     0.582891771  0.492388489  0.257949756
     0.916225104  0.492388489  0.257949756
     0.249558438  0.825721822  0.257949756
     0.582891771  0.825721822  0.257949756
     0.916225104  0.825721822  0.257949756
     0.166666667  0.166666667  0.075214930
     0.500000000  0.166666667  0.075214930
     0.833333333  0.166666667  0.075214930
     0.166666667  0.500000000  0.075214930
     0.500000000  0.500000000  0.075214930
     0.833333333  0.500000000  0.075214930
     0.166666667  0.833333333  0.075214930
     0.500000000  0.833333333  0.075214930
     0.833333333  0.833333333  0.075214930
     0.166666667  0.166666667  0.326542243
     0.500000000  0.166666667  0.326542243
     0.833333333  0.166666667  0.326542243
     0.166666667  0.500000000  0.326542243
     0.500000000  0.500000000  0.326542243
     0.833333333  0.500000000  0.326542243
     0.166666667  0.833333333  0.326542243
     0.500000000  0.833333333  0.326542243
     0.833333333  0.833333333  0.326542243

  ion indices of the primitive-cell ions
   primitive index   ion index
                 1           1
                 2           2
                 3           3
                 4           4
                 5           5
                 6           6
                 7           7
                 8           8
                 9           9
                10          10
                11          11
                12          12
                13          13
                14          14
                15          15
                16          16
                17          17
                18          18
                19          19
                20          20
                21          21
                22          22
                23          23
                24          24
                25          25
                26          26
                27          27
                28          28
                29          29
                30          30
                31          31
                32          32
                33          33
                34          34
                35          35
                36          36
                37          37
                38          38
                39          39
                40          40
                41          41
                42          42
                43          43
                44          44
                45          45
                46          46
                47          47
                48          48
                49          49
                50          50
                51          51
                52          52
                53          53
                54          54
                55          55
                56          56
                57          57
                58          58
                59          59
                60          60
                61          61
                62          62
                63          63
                64          64
                65          65
                66          66
                67          67
                68          68
                69          69
                70          70
                71          71
                72          72
                73          73
                74          74
                75          75
                76          76
                77          77
                78          78
                79          79
                80          80
                81          81
                82          82
                83          83
                84          84
                85          85
                86          86
                87          87
                88          88
                89          89
                90          90
                91          91
                92          92
                93          93
                94          94
                95          95
                96          96
                97          97
                98          98
                99          99
               100         100
               101         101
               102         102
               103         103
               104         104
               105         105
               106         106
               107         107
               108         108
               109         109
               110         110
               111         111
               112         112
               113         113
               114         114
               115         115
               116         116
               117         117
               118         118
               119         119
               120         120
               121         121
               122         122
               123         123
               124         124
               125         125
               126         126
               127         127
               128         128
               129         129
               130         130
               131         131
               132         132
               133         133
               134         134
               135         135
               136         136
               137         137
               138         138
               139         139
               140         140
               141         141
               142         142
               143         143
               144         144
               145         145
               146         146
               147         147
               148         148
               149         149
               150         150
               151         151
               152         152
               153         153
               154         154
               155         155
               156         156
               157         157
               158         158
               159         159
               160         160
               161         161
               162         162
               163         163
               164         164
               165         165
               166         166
               167         167
               168         168
               169         169
               170         170
               171         171
               172         172
               173         173
               174         174
               175         175
               176         176
               177         177
               178         178
               179         179
               180         180
               181         181
               182         182
               183         183
               184         184
               185         185
               186         186
               187         187
               188         188
               189         189
               190         190
               191         191
               192         192
               193         193
               194         194
               195         195
               196         196
               197         197
               198         198
               199         199
               200         200
               201         201
               202         202
               203         203
               204         204
               205         205
               206         206
               207         207
               208         208
               209         209
               210         210
               211         211
               212         212
               213         213
               214         214
               215         215
               216         216
               217         217
               218         218
               219         219
               220         220
               221         221
               222         222
               223         223
               224         224
               225         225
               226         226
               227         227
               228         228
               229         229
               230         230
               231         231
               232         232
               233         233
               234         234
               235         235
               236         236
               237         237
               238         238
               239         239
               240         240
               241         241
               242         242
               243         243
               244         244
               245         245
               246         246
               247         247
               248         248
               249         249
               250         250
               251         251
               252         252
               253         253
               254         254
               255         255
               256         256
               257         257
               258         258
               259         259
               260         260
               261         261
               262         262
               263         263
               264         264
               265         265
               266         266
               267         267
               268         268
               269         269
               270         270

----------------------------------------------------------------------------------------

 
 
 KPOINTS: k-points                                

Automatic generation of k-mesh.
 Grid dimensions read from file:
 generate k-points for:    4    3    1

 Generating k-lattice:

  Cartesian coordinates                     Fractional coordinates (reciprocal lattice)
     0.014872962  0.000307508  0.000000000     0.250000000  0.000000000  0.000000000
     0.000365667  0.018303324  0.000000000     0.000000000  0.333333333  0.000000000
     0.000000000  0.000000000  0.033235713     0.000000000  0.000000000  1.000000000

  Length of vectors
     0.014876141  0.018306977  0.033235713

  Shift w.r.t. Gamma in fractional coordinates (k-lattice)
     0.500000000  0.000000000  0.000000000

 
 Subroutine IBZKPT returns following result:
 ===========================================
 
 Found      6 irreducible k-points:
 
 Following reciprocal coordinates:
            Coordinates               Weight
  0.125000  0.000000  0.000000      2.000000
  0.375000  0.000000  0.000000      2.000000
  0.125000  0.333333  0.000000      2.000000
  0.375000  0.333333  0.000000      2.000000
 -0.375000  0.333333  0.000000      2.000000
 -0.125000  0.333333  0.000000      2.000000
 
 Following cartesian coordinates:
            Coordinates               Weight
  0.007436  0.000154  0.000000      2.000000
  0.022309  0.000461  0.000000      2.000000
  0.007802  0.018457  0.000000      2.000000
  0.022675  0.018765  0.000000      2.000000
 -0.021944  0.017842  0.000000      2.000000
 -0.007071  0.018150  0.000000      2.000000
 


--------------------------------------------------------------------------------------------------------




 Dimension of arrays:
   k-points           NKPTS =      6   k-points in BZ     NKDIM =      6   number of bands    NBANDS=    528
   number of dos      NEDOS =    301   number of ions     NIONS =    270
   non local maximal  LDIM  =      4   non local SUM 2l+1 LMDIM =      8
   total plane-waves  NPLWV = ******
   max r-space proj   IRMAX =   3331   max aug-charges    IRDMAX=   8728
   dimension x,y,z NGX =   140 NGY =  150 NGZ =  240
   dimension x,y,z NGXF=   280 NGYF=  300 NGZF=  480
   support grid    NGXF=   280 NGYF=  300 NGZF=  480
   ions per type =             252  18
   NGX,Y,Z   is equivalent  to a cutoff of  13.84, 13.68, 13.26 a.u.
   NGXF,Y,Z  is equivalent  to a cutoff of  27.68, 27.37, 26.52 a.u.

 SYSTEM =  SCF                                     
 POSCAR =  generated by phonopy                    

 Startparameter for this run:
   NWRITE =      2    write-flag & timer
   PREC   = accura    normal or accurate (medium, high low for compatibility)
   ISTART =      0    job   : 0-new  1-cont  2-samecut
   ICHARG =      2    charge: 1-file 2-atom 10-const
   ISPIN  =      1    spin polarized calculation?
   LNONCOLLINEAR =      F non collinear calculations
   LSORBIT =      F    spin-orbit coupling
   INIWAV =      1    electr: 0-lowe 1-rand  2-diag
   LASPH  =      F    aspherical Exc in radial PAW
 Electronic Relaxation 1
   ENCUT  =  600.0 eV  44.10 Ry    6.64 a.u.  33.59 36.40 60.09*2*pi/ulx,y,z
   ENINI  =  600.0     initial cutoff
   ENAUG  =  535.5 eV  augmentation charge cutoff
   NELM   =    150;   NELMIN=  2; NELMDL= -5     # of ELM steps 
   EDIFF  = 0.1E-05   stopping-criterion for ELM
   LREAL  =      T    real-space projection
   NLSPLINE    = F    spline interpolate recip. space projectors
   LCOMPAT=      F    compatible to vasp.4.4
   GGA_COMPAT  = T    GGA compatible to vasp.4.4-vasp.4.6
   LMAXPAW     = -100 max onsite density
   LMAXMIX     =    2 max onsite mixed and CHGCAR
   VOSKOWN=      0    Vosko Wilk Nusair interpolation
   ROPT   =   -0.00025  -0.00025
 Ionic relaxation
   EDIFFG = -.1E-02   stopping-criterion for IOM
   NSW    =      0    number of steps for IOM
   NBLOCK =      1;   KBLOCK =      1    inner block; outer block 
   IBRION =     -1    ionic relax: 0-MD 1-quasi-New 2-CG
   NFREE  =      0    steps in history (QN), initial steepest desc. (CG)
   ISIF   =      2    stress and relaxation
   IWAVPR =     10    prediction:  0-non 1-charg 2-wave 3-comb
   ISYM   =      2    0-nonsym 1-usesym 2-fastsym
   LCORR  =      T    Harris-Foulkes like correction to forces

   POTIM  = 0.5000    time-step for ionic-motion
   TEIN   =    0.0    initial temperature
   TEBEG  =    0.0;   TEEND  =   0.0 temperature during run
   SMASS  =  -3.00    Nose mass-parameter (am)
   estimated Nose-frequenzy (Omega)   =  0.10E-29 period in steps = 0.13E+47 mass=  -0.646E-26a.u.
   SCALEE = 1.0000    scale energy and forces
   NPACO  =    256;   APACO  = 10.0  distance and # of slots for P.C.
   PSTRESS=    0.0 pullay stress

  Mass of Ions in am
   POMASS =  10.81  1.00
  Ionic Valenz
   ZVAL   =   3.00  1.00
  Atomic Wigner-Seitz radii
   RWIGS  =  -1.00 -1.00
  virtual crystal weights 
   VCA    =   1.00  1.00
   NELECT =     774.0000    total number of electrons
   NUPDOWN=      -1.0000    fix difference up-down

 DOS related values:
   EMIN   =  10.00;   EMAX   =-10.00  energy-range for DOS
   EFERMI =   0.00;   METHOD = LEGACY      
   ISMEAR =     0;   SIGMA  =   0.10  broadening in eV -4-tet -1-fermi 0-gaus
   EFERMI_NEDOS =   21; number of points for ismear=-14 and -15

 Electronic relaxation 2 (details)
   IALGO  =     38    algorithm
   LDIAG  =      T    sub-space diagonalisation (order eigenvalues)
   LSUBROT=      F    optimize rotation matrix (better conditioning)
   TURBO    =      0    0=normal 1=particle mesh
   IRESTART =      0    0=no restart 2=restart with 2 vectors
   NREBOOT  =      0    no. of reboots
   NMIN     =      0    reboot dimension
   EREF     =   0.00    reference energy to select bands
   IMIX   =      4    mixing-type and parameters
     AMIX     =   0.40;   BMIX     =  1.00
     AMIX_MAG =   1.60;   BMIX_MAG =  1.00
     AMIN     =   0.10
     WC   =   100.;   INIMIX=   1;  MIXPRE=   1;  MAXMIX= -45

 Intra band minimization:
   WEIMIN = 0.0000     energy-eigenvalue tresh-hold
   EBREAK =  0.47E-09  absolut break condition
   DEPER  =   0.30     relativ break condition  

   TIME   =   0.40     timestep for ELM

  volume/ion in A,a.u.               =      34.13       230.30
  Fermi-wavevector in a.u.,A,eV,Ry     =   0.716968  1.354873  6.993985  0.514043
  Thomas-Fermi vector in A             =   1.805526
 
 Write flags
   LWAVE        =      F    write WAVECAR
   LDOWNSAMPLE  =      F    k-point downsampling of WAVECAR
   LCHARG       =      F    write CHGCAR
   LVTOT        =      F    write LOCPOT, total local potential
   LVHAR        =      F    write LOCPOT, Hartree potential only
   WRT_POTENTIAL= false  ! write potential to hdf5 file
   LELF         =      F    write electronic localiz. function (ELF)
   LORBIT       =     11    0 simple, 1 ext, 2 COOP (PROOUT), +10 PAW based schemes


 Python interface
   PLUGINS active      =      F    recompile with -DPLUGINS to activate
 
 Dipole corrections
   LMONO      =      F    monopole corrections only (constant potential shift)
   LDIPOL     =      T    correct potential (dipole corrections)
   IDIPOL     =      3    1-x, 2-y, 3-z, 4-all directions 
   EPSILON    =  1.0000000 bulk dielectric constant
   LVACPOTAV  =      F  vacuum potentials using an averaging scheme for the charge density
   VACPOTFLAT =  0.1000000 required flatness to determine vacuum potential
 
Coulomb truncation method
  LTRUNCATE          =      F  Coulomb kernel truncation to be used
  IDIMENSIONALITY    =      3  Dimensionality of cutoff (0 molecules / 2 surfaces)
  ISURFACE           =     -1  Direction of surface normal
  LCOARSEN           =      F  Coarsen the charge grid before padding, preferred

 
 Exchange correlation treatment:
   GGA     = PE    functional components
   XC_C    = 1    coefficients multiplying the functional components
   LIBXC   =     F    Libxc                    
   VOSKOWN =     0    Vosko Wilk Nusair interpolation
   LHFCALC =     F    Hartree Fock is set to
   LHFONE  =     F    Hartree Fock one center treatment
   AEXX    =    0.0000 exact exchange contribution

 Parameters of functionals:
   PE:
     No parameter
 
 Van der Waals corrections
   IVDW    =    12    specifies the selected vdW correction

 Linear response parameters
   LEPSILON=     F    determine dielectric tensor
   LRPA    =     F    only Hartree local field effects (RPA)
   LNABLA  =     F    use nabla operator in PAW spheres
   LVEL    =     F    velocity operator in full k-point grid
   CSHIFT  =0.1000    complex shift for real part using Kramers Kronig
   OMEGAMAX=  -1.0    maximum frequency
   DEG_THRESHOLD= 0.2000000E-02 threshold for treating states as degnerate
   RTIME   =   -0.100 relaxation time in fs
  (WPLASMAI=    0.000 imaginary part of plasma frequency in eV, 0.658/RTIME)
   DFIELD  = 0.0000000 0.0000000 0.0000000 field for delta impulse in time
 
  Optional k-point grid parameters
   LKPOINTS_OPT  =     F    use optional k-point grid
   KPOINTS_OPT_MODE=     1    mode for optional k-point grid
 
 Orbital magnetization related:
   ORBITALMAG=     F  switch on orbital magnetization
   LCHIMAG   =     F  perturbation theory with respect to B field
   DQ        =  0.001000  dq finite difference perturbation B field
   LLRAUG    =     F  two centre corrections for induced B field
   LBONE     =     F  B-component reconstruction in AE one-centre
   LVGVCALC  =     T  calculate vGv susceptibility
   LVGVAPPL  =     F  apply vGv susceptibility instead of pGv for G=0

 Random number generation:
   RANDOM_GENERATOR = DEFAULT
   PCG_SEED         = not used


--------------------------------------------------------------------------------------------------------


 Static calculation
 charge density and potential will be updated during run
 non-spin polarized calculation
 Variant of blocked Davidson
 Davidson routine will perform the subspace rotation
 perform sub-space diagonalisation
    after iterative eigenvector-optimisation
 modified Broyden-mixing scheme, WC =      100.0
 initial mixing is a Kerker type mixing with AMIX =  0.4000 and BMIX =      1.0000
 Hartree-type preconditioning will be used
 using additional bands          141
 real space projection scheme for non local part
 use partial core corrections
 calculate Harris-corrections to forces 
   (improved forces if not selfconsistent)
 use gradient corrections 
 use of overlap-Matrix (Vanderbilt PP)
 Gauss-broadening in eV      SIGMA  =   0.10


--------------------------------------------------------------------------------------------------------


  energy-cutoff  :      600.00
  volume of cell :     9214.37
      direct lattice vectors                 reciprocal lattice vectors
    16.815971753 -0.335952693  0.000000000     0.059491848  0.001230031  0.000000000
    -0.376692365 18.219153744  0.000000000     0.001097002  0.054909973  0.000000000
     0.000000000  0.000000000 30.088116646     0.000000000  0.000000000  0.033235713

  length of vectors
    16.819327282 18.223047503 30.088116646     0.059504562  0.054920930  0.033235713


 
 k-points in units of 2pi/SCALE and weight: k-points                                
   0.00743648  0.00015375  0.00000000       0.167
   0.02230944  0.00046126  0.00000000       0.167
   0.00780215  0.01845708  0.00000000       0.167
   0.02267511  0.01876459  0.00000000       0.167
  -0.02194378  0.01784206  0.00000000       0.167
  -0.00707081  0.01814957  0.00000000       0.167
 
 k-points in reciprocal lattice and weights: k-points                                
   0.12500000  0.00000000  0.00000000       0.167
   0.37500000  0.00000000  0.00000000       0.167
   0.12500000  0.33333333  0.00000000       0.167
   0.37500000  0.33333333  0.00000000       0.167
  -0.37500000  0.33333333  0.00000000       0.167
  -0.12500000  0.33333333  0.00000000       0.167
 
 position of ions in fractional coordinates (direct lattice) 
   0.17351830  0.21384780  0.14929545
   0.50685163  0.21384780  0.14929545
   0.84018496  0.21384780  0.14929545
   0.17351830  0.54718114  0.14929545
   0.50685163  0.54718114  0.14929545
   0.84018496  0.54718114  0.14929545
   0.17351830  0.88051447  0.14929545
   0.50685163  0.88051447  0.14929545
   0.84018496  0.88051447  0.14929545
   0.17351830  0.21384780  0.25246172
   0.50685163  0.21384780  0.25246172
   0.84018496  0.21384780  0.25246172
   0.17351830  0.54718114  0.25246172
   0.50685163  0.54718114  0.25246172
   0.84018496  0.54718114  0.25246172
   0.17351830  0.88051447  0.25246172
   0.50685163  0.88051447  0.25246172
   0.84018496  0.88051447  0.25246172
   0.15981504  0.11948553  0.14929545
   0.49314837  0.11948553  0.14929545
   0.82648170  0.11948553  0.14929545
   0.15981504  0.45281886  0.14929545
   0.49314837  0.45281886  0.14929545
   0.82648170  0.45281886  0.14929545
   0.15981504  0.78615220  0.14929545
   0.49314837  0.78615220  0.14929545
   0.82648170  0.78615220  0.14929545
   0.15981504  0.11948553  0.25246172
   0.49314837  0.11948553  0.25246172
   0.82648170  0.11948553  0.25246172
   0.15981504  0.45281886  0.25246172
   0.49314837  0.45281886  0.25246172
   0.82648170  0.45281886  0.25246172
   0.15981504  0.78615220  0.25246172
   0.49314837  0.78615220  0.25246172
   0.82648170  0.78615220  0.25246172
   0.32768920  0.21372208  0.13544842
   0.66102254  0.21372208  0.13544842
   0.99435587  0.21372208  0.13544842
   0.32768920  0.54705541  0.13544842
   0.66102254  0.54705541  0.13544842
   0.99435587  0.54705541  0.13544842
   0.32768920  0.88038874  0.13544842
   0.66102254  0.88038874  0.13544842
   0.99435587  0.88038874  0.13544842
   0.32768920  0.21372208  0.26630875
   0.66102254  0.21372208  0.26630875
   0.99435587  0.21372208  0.26630875
   0.32768920  0.54705541  0.26630875
   0.66102254  0.54705541  0.26630875
   0.99435587  0.54705541  0.26630875
   0.32768920  0.88038874  0.26630875
   0.66102254  0.88038874  0.26630875
   0.99435587  0.88038874  0.26630875
   0.00564413  0.11961126  0.13544842
   0.33897746  0.11961126  0.13544842
   0.67231080  0.11961126  0.13544842
   0.00564413  0.45294459  0.13544842
   0.33897746  0.45294459  0.13544842
   0.67231080  0.45294459  0.13544842
   0.00564413  0.78627792  0.13544842
   0.33897746  0.78627792  0.13544842
   0.67231080  0.78627792  0.13544842
   0.00564413  0.11961126  0.26630875
   0.33897746  0.11961126  0.26630875
   0.67231080  0.11961126  0.26630875
   0.00564413  0.45294459  0.26630875
   0.33897746  0.45294459  0.26630875
   0.67231080  0.45294459  0.26630875
   0.00564413  0.78627792  0.26630875
   0.33897746  0.78627792  0.26630875
   0.67231080  0.78627792  0.26630875
   0.19867193  0.29979600  0.13245803
   0.53200527  0.29979600  0.13279039
   0.86533860  0.29979600  0.13279039
   0.19867193  0.63312933  0.13279039
   0.53200527  0.63312933  0.13279039
   0.86533860  0.63312933  0.13279039
   0.19867193  0.96646267  0.13279039
   0.53200527  0.96646267  0.13279039
   0.86533860  0.96646267  0.13279039
   0.19867193  0.29979600  0.26896678
   0.53200527  0.29979600  0.26896678
   0.86533860  0.29979600  0.26896678
   0.19867193  0.63312933  0.26896678
   0.53200527  0.63312933  0.26896678
   0.86533860  0.63312933  0.26896678
   0.19867193  0.96646267  0.26896678
   0.53200527  0.96646267  0.26896678
   0.86533860  0.96646267  0.26896678
   0.13466140  0.03353733  0.13279039
   0.46799473  0.03353733  0.13279039
   0.80132807  0.03353733  0.13279039
   0.13466140  0.36687067  0.13279039
   0.46799473  0.36687067  0.13279039
   0.80132807  0.36687067  0.13279039
   0.13466140  0.70020400  0.13279039
   0.46799473  0.70020400  0.13279039
   0.80132807  0.70020400  0.13279039
   0.13466140  0.03353733  0.26896678
   0.46799473  0.03353733  0.26896678
   0.80132807  0.03353733  0.26896678
   0.13466140  0.36687067  0.26896678
   0.46799473  0.36687067  0.26896678
   0.80132807  0.36687067  0.26896678
   0.13466140  0.70020400  0.26896678
   0.46799473  0.70020400  0.26896678
   0.80132807  0.70020400  0.26896678
   0.29976417  0.29858805  0.12149595
   0.63309750  0.29858805  0.12149595
   0.96643084  0.29858805  0.12149595
   0.29976417  0.63192139  0.12149595
   0.63309750  0.63192139  0.12149595
   0.96643084  0.63192139  0.12149595
   0.29976417  0.96525472  0.12149595
   0.63309750  0.96525472  0.12149595
   0.96643084  0.96525472  0.12149595
   0.29976417  0.29858805  0.28026122
   0.63309750  0.29858805  0.28026122
   0.96643084  0.29858805  0.28026122
   0.29976417  0.63192139  0.28026122
   0.63309750  0.63192139  0.28026122
   0.96643084  0.63192139  0.28026122
   0.29976417  0.96525472  0.28026122
   0.63309750  0.96525472  0.28026122
   0.96643084  0.96525472  0.28026122
   0.03356916  0.03474528  0.12149595
   0.36690250  0.03474528  0.12149595
   0.70023583  0.03474528  0.12149595
   0.03356916  0.36807861  0.12149595
   0.36690250  0.36807861  0.12149595
   0.70023583  0.36807861  0.12149595
   0.03356916  0.70141195  0.12149595
   0.36690250  0.70141195  0.12149595
   0.70023583  0.70141195  0.12149595
   0.03356916  0.03474528  0.28026122
   0.36690250  0.03474528  0.28026122
   0.70023583  0.03474528  0.28026122
   0.03356916  0.36807861  0.28026122
   0.36690250  0.36807861  0.28026122
   0.70023583  0.36807861  0.28026122
   0.03356916  0.70141195  0.28026122
   0.36690250  0.70141195  0.28026122
   0.70023583  0.70141195  0.28026122
   0.26046752  0.25517729  0.17260861
   0.59380086  0.25517729  0.17260861
   0.92713419  0.25517729  0.17260861
   0.26046752  0.58851063  0.17260861
   0.59380086  0.58851063  0.17260861
   0.92713419  0.58851063  0.17260861
   0.26046752  0.92184396  0.17260861
   0.59380086  0.92184396  0.17260861
   0.92713419  0.92184396  0.17260861
   0.23277410  0.22575181  0.30029515
   0.56610744  0.22575181  0.30029515
   0.89944077  0.22575181  0.30029515
   0.23277410  0.55908514  0.30029515
   0.56610744  0.55908514  0.30029515
   0.89944077  0.55908514  0.30029515
   0.23277410  0.89241848  0.30029515
   0.56610744  0.89241848  0.30029515
   0.89944077  0.89241848  0.30029515
   0.10055923  0.10758152  0.10146202
   0.43389256  0.10758152  0.10146202
   0.76722590  0.10758152  0.10146202
   0.10055923  0.44091486  0.10146202
   0.43389256  0.44091486  0.10146202
   0.76722590  0.44091486  0.10146202
   0.10055923  0.77424819  0.10146202
   0.43389256  0.77424819  0.10146202
   0.76722590  0.77424819  0.10146202
   0.07286581  0.07815604  0.22914856
   0.40619914  0.07815604  0.22914856
   0.73953248  0.07815604  0.22914856
   0.07286581  0.41148937  0.22914856
   0.40619914  0.41148937  0.22914856
   0.73953248  0.41148937  0.22914856
   0.07286581  0.74482271  0.22914856
   0.40619914  0.74482271  0.22914856
   0.73953248  0.74482271  0.22914856
   0.23277410  0.22575181  0.10146202
   0.56610744  0.22575181  0.10146202
   0.89944077  0.22575181  0.10146202
   0.23277410  0.55908514  0.10146202
   0.56610744  0.55908514  0.10146202
   0.89944077  0.55908514  0.10146202
   0.23277410  0.89241848  0.10146202
   0.56610744  0.89241848  0.10146202
   0.89944077  0.89241848  0.10146202
   0.26046752  0.25517729  0.22914856
   0.59380086  0.25517729  0.22914856
   0.92713419  0.25517729  0.22914856
   0.26046752  0.58851063  0.22914856
   0.59380086  0.58851063  0.22914856
   0.92713419  0.58851063  0.22914856
   0.26046752  0.92184396  0.22914856
   0.59380086  0.92184396  0.22914856
   0.92713419  0.92184396  0.22914856
   0.07286581  0.07815604  0.17260861
   0.40619914  0.07815604  0.17260861
   0.73953248  0.07815604  0.17260861
   0.07286581  0.41148937  0.17260861
   0.40619914  0.41148937  0.17260861
   0.73953248  0.41148937  0.17260861
   0.07286581  0.74482271  0.17260861
   0.40619914  0.74482271  0.17260861
   0.73953248  0.74482271  0.17260861
   0.10055923  0.10758152  0.30029515
   0.43389256  0.10758152  0.30029515
   0.76722590  0.10758152  0.30029515
   0.10055923  0.44091486  0.30029515
   0.43389256  0.44091486  0.30029515
   0.76722590  0.44091486  0.30029515
   0.10055923  0.77424819  0.30029515
   0.43389256  0.77424819  0.30029515
   0.76722590  0.77424819  0.30029515
   0.08377490  0.17427817  0.14380742
   0.41710823  0.17427817  0.14380742
   0.75044156  0.17427817  0.14380742
   0.08377490  0.50761150  0.14380742
   0.41710823  0.50761150  0.14380742
   0.75044156  0.50761150  0.14380742
   0.08377490  0.84094483  0.14380742
   0.41710823  0.84094483  0.14380742
   0.75044156  0.84094483  0.14380742
   0.08377490  0.17427817  0.25794976
   0.41710823  0.17427817  0.25794976
   0.75044156  0.17427817  0.25794976
   0.08377490  0.50761150  0.25794976
   0.41710823  0.50761150  0.25794976
   0.75044156  0.50761150  0.25794976
   0.08377490  0.84094483  0.25794976
   0.41710823  0.84094483  0.25794976
   0.75044156  0.84094483  0.25794976
   0.24955844  0.15905516  0.14380742
   0.58289177  0.15905516  0.14380742
   0.91622510  0.15905516  0.14380742
   0.24955844  0.49238849  0.14380742
   0.58289177  0.49238849  0.14380742
   0.91622510  0.49238849  0.14380742
   0.24955844  0.82572182  0.14380742
   0.58289177  0.82572182  0.14380742
   0.91622510  0.82572182  0.14380742
   0.24955844  0.15905516  0.25794976
   0.58289177  0.15905516  0.25794976
   0.91622510  0.15905516  0.25794976
   0.24955844  0.49238849  0.25794976
   0.58289177  0.49238849  0.25794976
   0.91622510  0.49238849  0.25794976
   0.24955844  0.82572182  0.25794976
   0.58289177  0.82572182  0.25794976
   0.91622510  0.82572182  0.25794976
   0.16666667  0.16666667  0.07521493
   0.50000000  0.16666667  0.07521493
   0.83333333  0.16666667  0.07521493
   0.16666667  0.50000000  0.07521493
   0.50000000  0.50000000  0.07521493
   0.83333333  0.50000000  0.07521493
   0.16666667  0.83333333  0.07521493
   0.50000000  0.83333333  0.07521493
   0.83333333  0.83333333  0.07521493
   0.16666667  0.16666667  0.32654224
   0.50000000  0.16666667  0.32654224
   0.83333333  0.16666667  0.32654224
   0.16666667  0.50000000  0.32654224
   0.50000000  0.50000000  0.32654224
   0.83333333  0.50000000  0.32654224
   0.16666667  0.83333333  0.32654224
   0.50000000  0.83333333  0.32654224
   0.83333333  0.83333333  0.32654224
 
 position of ions in cartesian coordinates  (Angst):
   2.83732392  3.83783207  4.49201895
   8.44264784  3.72584784  4.49201895
  14.04797176  3.61386361  4.49201895
   2.71175980  9.91088332  4.49201895
   8.31708372  9.79889909  4.49201895
  13.92240764  9.68691486  4.49201895
   2.58619568 15.98393457  4.49201895
   8.19151960 15.87195034  4.49201895
  13.79684352 15.75996611  4.49201895
   2.83732392  3.83783207  7.59609770
   8.44264784  3.72584784  7.59609770
  14.04797176  3.61386361  7.59609770
   2.71175980  9.91088332  7.59609770
   8.31708372  9.79889909  7.59609770
  13.92240764  9.68691486  7.59609770
   2.58619568 15.98393457  7.59609770
   8.19151960 15.87195034  7.59609770
  13.79684352 15.75996611  7.59609770
   2.64243587  2.12323495  4.49201895
   8.24775979  2.01125071  4.49201895
  13.85308371  1.89926648  4.49201895
   2.51687175  8.19628619  4.49201895
   8.12219567  8.08430196  4.49201895
  13.72751959  7.97231773  4.49201895
   2.39130763 14.26933744  4.49201895
   7.99663155 14.15735321  4.49201895
  13.60195546 14.04536898  4.49201895
   2.64243587  2.12323495  7.59609770
   8.24775979  2.01125071  7.59609770
  13.85308371  1.89926648  7.59609770
   2.51687175  8.19628619  7.59609770
   8.12219567  8.08430196  7.59609770
  13.72751959  7.97231773  7.59609770
   2.39130763 14.26933744  7.59609770
   7.99663155 14.15735321  7.59609770
  13.60195546 14.04536898  7.59609770
   5.42990490  3.78374730  4.07538793
  11.03522882  3.67176307  4.07538793
  16.64055274  3.55977883  4.07538793
   5.30434078  9.85679854  4.07538793
  10.90966470  9.74481431  4.07538793
  16.51498861  9.63283008  4.07538793
   5.17877666 15.92984979  4.07538793
  10.78410057 15.81786556  4.07538793
  16.38942449 15.70588133  4.07538793
   5.42990490  3.78374730  8.01272872
  11.03522882  3.67176307  8.01272872
  16.64055274  3.55977883  8.01272872
   5.30434078  9.85679854  8.01272872
  10.90966470  9.74481431  8.01272872
  16.51498861  9.63283008  8.01272872
   5.17877666 15.92984979  8.01272872
  10.78410057 15.81786556  8.01272872
  16.38942449 15.70588133  8.01272872
   0.04985490  2.17731972  4.07538793
   5.65517881  2.06533549  4.07538793
  11.26050273  1.95335126  4.07538793
  -0.07570923  8.25037097  4.07538793
   5.52961469  8.13838674  4.07538793
  11.13493861  8.02640251  4.07538793
  -0.20127335 14.32342222  4.07538793
   5.40405057 14.21143798  4.07538793
  11.00937449 14.09945375  4.07538793
   0.04985490  2.17731972  8.01272872
   5.65517881  2.06533549  8.01272872
  11.26050273  1.95335126  8.01272872
  -0.07570923  8.25037097  8.01272872
   5.52961469  8.13838674  8.01272872
  11.13493861  8.02640251  8.01272872
  -0.20127335 14.32342222  8.01272872
   5.40405057 14.21143798  8.01272872
  11.00937449 14.09945375  8.01272872
   3.22793075  5.39528502  3.98541264
   8.83325467  5.28330079  3.99541264
  14.43857858  5.17131656  3.99541264
   3.10236663 11.46833627  3.99541264
   8.70769054 11.35635204  3.99541264
  14.31301446 11.24436780  3.99541264
   2.97680250 17.54138751  3.99541264
   8.58212642 17.42940328  3.99541264
  14.18745034 17.31741905  3.99541264
   3.22793075  5.39528502  8.09270400
   8.83325467  5.28330079  8.09270400
  14.43857858  5.17131656  8.09270400
   3.10236663 11.46833627  8.09270400
   8.70769054 11.35635204  8.09270400
  14.31301446 11.24436780  8.09270400
   2.97680250 17.54138751  8.09270400
   8.58212642 17.42940328  8.09270400
  14.18745034 17.31741905  8.09270400
   2.25182905  0.56578195  3.99541264
   7.85715297  0.45379772  3.99541264
  13.46247688  0.34181349  3.99541264
   2.12626493  6.63883320  3.99541264
   7.73158885  6.52684897  3.99541264
  13.33691276  6.41486474  3.99541264
   2.00070081 12.71188445  3.99541264
   7.60602472 12.59990022  3.99541264
  13.21134864 12.48791599  3.99541264
   2.25182905  0.56578195  8.09270400
   7.85715297  0.45379772  8.09270400
  13.46247688  0.34181349  8.09270400
   2.12626493  6.63883320  8.09270400
   7.73158885  6.52684897  8.09270400
  13.33691276  6.41486474  8.09270400
   2.00070081 12.71188445  8.09270400
   7.60602472 12.59990022  8.09270400
  13.21134864 12.48791599  8.09270400
   4.92834997  5.33931504  3.65558429
  10.53367389  5.22733081  3.65558429
  16.13899781  5.11534658  3.65558429
   4.80278585 11.41236629  3.65558429
  10.40810977 11.30038206  3.65558429
  16.01343369 11.18839783  3.65558429
   4.67722173 17.48541754  3.65558429
  10.28254565 17.37343331  3.65558429
  15.88786957 17.26144908  3.65558429
   4.92834997  5.33931504  8.43253236
  10.53367389  5.22733081  8.43253236
  16.13899781  5.11534658  8.43253236
   4.80278585 11.41236629  8.43253236
  10.40810977 11.30038206  8.43253236
  16.01343369 11.18839783  8.43253236
   4.67722173 17.48541754  8.43253236
  10.28254565 17.37343331  8.43253236
  15.88786957 17.26144908  8.43253236
   0.55140982  0.62175193  3.65558429
   6.15673374  0.50976770  3.65558429
  11.76205766  0.39778347  3.65558429
   0.42584570  6.69480318  3.65558429
   6.03116962  6.58281895  3.65558429
  11.63649354  6.47083472  3.65558429
   0.30028158 12.76785443  3.65558429
   5.90560550 12.65587019  3.65558429
  11.51092942 12.54388596  3.65558429
   0.55140982  0.62175193  8.43253236
   6.15673374  0.50976770  8.43253236
  11.76205766  0.39778347  8.43253236
   0.42584570  6.69480318  8.43253236
   6.03116962  6.58281895  8.43253236
  11.63649354  6.47083472  8.43253236
   0.30028158 12.76785443  8.43253236
   5.90560550 12.65587019  8.43253236
  11.51092942 12.54388596  8.43253236
   4.28389117  4.56160958  5.19346810
   9.88921509  4.44962535  5.19346810
  15.49453901  4.33764112  5.19346810
   4.15832705 10.63466083  5.19346810
   9.76365097 10.52267660  5.19346810
  15.36897489 10.41069237  5.19346810
   4.03276293 16.70771208  5.19346810
   9.63808685 16.59572785  5.19346810
  15.24341077 16.48374362  5.19346810
   3.82928376  4.03480587  9.03531549
   9.43460768  3.92282164  9.03531549
  15.03993160  3.81083741  9.03531549
   3.70371964 10.10785712  9.03531549
   9.30904356  9.99587289  9.03531549
  14.91436747  9.88388866  9.03531549
   3.57815552 16.18090837  9.03531549
   9.18347944 16.06892413  9.03531549
  14.78880335 15.95693990  9.03531549
   1.65047603  1.92626115  3.05280121
   7.25579995  1.81427692  3.05280121
  12.86112387  1.70229269  3.05280121
   1.52491191  7.99931240  3.05280121
   7.13023583  7.88732816  3.05280121
  12.73555975  7.77534393  3.05280121
   1.39934779 14.07236364  3.05280121
   7.00467171 13.96037941  3.05280121
  12.60999563 13.84839518  3.05280121
   1.19586862  1.39945743  6.89464861
   6.80119254  1.28747320  6.89464861
  12.40651646  1.17548897  6.89464861
   1.07030450  7.47250868  6.89464861
   6.67562842  7.36052445  6.89464861
  12.28095233  7.24854022  6.89464861
   0.94474038 13.54555993  6.89464861
   6.55006430 13.43357570  6.89464861
  12.15538821 13.32159147  6.89464861
   3.82928376  4.03480587  3.05280121
   9.43460768  3.92282164  3.05280121
  15.03993160  3.81083741  3.05280121
   3.70371964 10.10785712  3.05280121
   9.30904356  9.99587289  3.05280121
  14.91436747  9.88388866  3.05280121
   3.57815552 16.18090837  3.05280121
   9.18347944 16.06892413  3.05280121
  14.78880335 15.95693990  3.05280121
   4.28389117  4.56160958  6.89464861
   9.88921509  4.44962535  6.89464861
  15.49453901  4.33764112  6.89464861
   4.15832705 10.63466083  6.89464861
   9.76365097 10.52267660  6.89464861
  15.36897489 10.41069237  6.89464861
   4.03276293 16.70771208  6.89464861
   9.63808685 16.59572785  6.89464861
  15.24341077 16.48374362  6.89464861
   1.19586862  1.39945743  5.19346810
   6.80119254  1.28747320  5.19346810
  12.40651646  1.17548897  5.19346810
   1.07030450  7.47250868  5.19346810
   6.67562842  7.36052445  5.19346810
  12.28095233  7.24854022  5.19346810
   0.94474038 13.54555993  5.19346810
   6.55006430 13.43357570  5.19346810
  12.15538821 13.32159147  5.19346810
   1.65047603  1.92626115  9.03531549
   7.25579995  1.81427692  9.03531549
  12.86112387  1.70229269  9.03531549
   1.52491191  7.99931240  9.03531549
   7.13023583  7.88732816  9.03531549
  12.73555975  7.77534393  9.03531549
   1.39934779 14.07236364  9.03531549
   7.00467171 13.96037941  9.03531549
  12.60999563 13.84839518  9.03531549
   1.34310702  3.14705633  4.32689431
   6.94843094  3.03507210  4.32689431
  12.55375486  2.92308787  4.32689431
   1.21754290  9.22010758  4.32689431
   6.82286682  9.10812335  4.32689431
  12.42819074  8.99613912  4.32689431
   1.09197878 15.29315883  4.32689431
   6.69730270 15.18117460  4.32689431
  12.30262661 15.06919036  4.32689431
   1.34310702  3.14705633  7.76122234
   6.94843094  3.03507210  7.76122234
  12.55375486  2.92308787  7.76122234
   1.21754290  9.22010758  7.76122234
   6.82286682  9.10812335  7.76122234
  12.42819074  8.99613912  7.76122234
   1.09197878 15.29315883  7.76122234
   6.69730270 15.18117460  7.76122234
  12.30262661 15.06919036  7.76122234
   4.13665278  2.81401051  4.32689431
   9.74197669  2.70202627  4.32689431
  15.34730061  2.59004204  4.32689431
   4.01108865  8.88706175  4.32689431
   9.61641257  8.77507752  4.32689431
  15.22173649  8.66309329  4.32689431
   3.88552453 14.96011300  4.32689431
   9.49084845 14.84812877  4.32689431
  15.09617237 14.73614454  4.32689431
   4.13665278  2.81401051  7.76122234
   9.74197669  2.70202627  7.76122234
  15.34730061  2.59004204  7.76122234
   4.01108865  8.88706175  7.76122234
   9.61641257  8.77507752  7.76122234
  15.22173649  8.66309329  7.76122234
   3.88552453 14.96011300  7.76122234
   9.49084845 14.84812877  7.76122234
  15.09617237 14.73614454  7.76122234
   2.73987990  2.98053351  2.26307560
   8.34520382  2.86854928  2.26307560
  13.95052773  2.75656505  2.26307560
   2.61431578  9.05358476  2.26307560
   8.21963969  8.94160053  2.26307560
  13.82496361  8.82961629  2.26307560
   2.48875165 15.12663600  2.26307560
   8.09407557 15.01465177  2.26307560
  13.69939949 14.90266754  2.26307560
   2.73987990  2.98053351  9.82504111
   8.34520382  2.86854928  9.82504111
  13.95052773  2.75656505  9.82504111
   2.61431578  9.05358476  9.82504111
   8.21963969  8.94160053  9.82504111
  13.82496361  8.82961629  9.82504111
   2.48875165 15.12663600  9.82504111
   8.09407557 15.01465177  9.82504111
  13.69939949 14.90266754  9.82504111
 


--------------------------------------------------------------------------------------------------------


 k-point     1 :   0.1250 0.0000 0.0000  plane waves:  307555
 k-point     2 :   0.3750 0.0000 0.0000  plane waves:  307539
 k-point     3 :   0.1250 0.3333 0.0000  plane waves:  307444
 k-point     4 :   0.3750 0.3333 0.0000  plane waves:  307495
 k-point     5 :  -0.3750 0.3333 0.0000  plane waves:  307487
 k-point     6 :  -0.1250 0.3333 0.0000  plane waves:  307465

 maximum and minimum number of plane-waves per node :     43971    43870

 maximum number of plane-waves:    307555
 maximum index in each direction: 
   IXMAX=   33   IYMAX=   36   IZMAX=   60
   IXMIN=  -33   IYMIN=  -36   IZMIN=  -60


 real space projection operators:
  total allocation   :      40704.62 KBytes
  max/ min on nodes  :       5818.38       5811.52


 parallel 3D FFT for wavefunctions:
    minimum data exchange during FFTs selected (reduces bandwidth)
 parallel 3D FFT for charge:
    minimum data exchange during FFTs selected (reduces bandwidth)


 total amount of memory used by VASP MPI-rank0   566661. kBytes
=======================================================================

   base                                    :      30000. kBytes
   nonlr-proj                              :      22360. kBytes
   fftplans                                :      54945. kBytes
   grid                                    :      85464. kBytes
   one-center                              :        119. kBytes
   wavefun                                 :     373773. kBytes
 
     INWAV:  cpu time      0.0000: real time      0.0000
 Broyden mixing: mesh for mixing (old mesh)
   NGX = 67   NGY = 73   NGZ =121
  (NGX  =280   NGY  =300   NGZ  =480)
  gives a total of 591811 points

 initial charge density was supplied:
 charge density of overlapping atoms calculated
 number of electron     774.0000000 magnetization 
 keeping initial charge density in first step


--------------------------------------------------------------------------------------------------------


 Maximum index for non-local projection operator          490
 Maximum index for augmentation-charges          486 (set IRDMAX)


--------------------------------------------------------------------------------------------------------


 First call to EWALD:  gamma=   0.085
 Maximum number of real-space cells   3x   3x   2
 Maximum number of reciprocal cells   2x   2x   4

    FEWALD:  cpu time      0.0351: real time      0.0353


--------------------------------------- Ionic step        1  -------------------------------------------




--------------------------------------- Iteration      1(   1)  ---------------------------------------


    POTLOK:  cpu time      1.0139: real time      1.0228
    SETDIJ:  cpu time      0.0191: real time      0.0192
     EDDAV:  cpu time    244.4023: real time    246.9022
       DOS:  cpu time      0.0019: real time      0.0019
    --------------------------------------------
      LOOP:  cpu time    245.4375: real time    247.9466

 eigenvalue-minimisations  :  6576
 total energy-change (2. order) : 0.6074814E+04  (-0.2926662E+05)
 number of electron     774.0000000 magnetization 
 augmentation part      774.0000000 magnetization 

 DIPCOR: dipole corrections for dipol
 direction  3 min pos   337,
 dipolmoment           0.000000      0.000000     -0.000016 electrons x Angstroem
 Tr[quadrupol]    -40079.373933

 energy correction for charged system         0.000000 eV
 dipol+quadrupol energy correction           -0.000000 eV
 added-field ion interaction          0.000006 eV  (added to PSCEN)


 Free energy of the ion-electron system (eV)
  ---------------------------------------------------
  alpha Z        PSCENC =       489.09711040
  Ewald energy   TEWEN  =    239465.33460256
  -Hartree energ DENC   =   -251529.65215801
  -exchange      EXHF   =         0.00000000
  -V(xc)+E(xc)   XCENC  =      1799.35178475
  PAW double counting   =     11000.37860124   -10784.99777464
  entropy T*S    EENTRO =        -0.34733099
  eigenvalues    EBANDS =     -2523.87430490
  atomic energy  EATOM  =     18159.52318148
  Solvation  Ediel_sol  =         0.00000000
  ---------------------------------------------------
  free energy    TOTEN  =      6074.81371188 eV

  energy without entropy =     6075.16104288  energy(sigma->0) =     6074.98737738


--------------------------------------------------------------------------------------------------------




--------------------------------------- Iteration      1(   2)  ---------------------------------------


     EDDAV:  cpu time    316.8746: real time    319.8851
       DOS:  cpu time      0.0009: real time      0.0009
    --------------------------------------------
      LOOP:  cpu time    316.8756: real time    319.8860

 eigenvalue-minimisations  :  9072
 total energy-change (2. order) :-0.6967922E+04  (-0.6723968E+04)
 number of electron     774.0000000 magnetization 
 augmentation part      774.0000000 magnetization 

 DIPCOR: dipole corrections for dipol
 direction  3 min pos   337,
 dipolmoment           0.000000      0.000000     -0.000016 electrons x Angstroem
 Tr[quadrupol]    -40079.373933

 energy correction for charged system         0.000000 eV
 dipol+quadrupol energy correction           -0.000000 eV
 added-field ion interaction          0.000006 eV  (added to PSCEN)


 Free energy of the ion-electron system (eV)
  ---------------------------------------------------
  alpha Z        PSCENC =       489.09711040
  Ewald energy   TEWEN  =    239465.33460256
  -Hartree energ DENC   =   -251529.65215801
  -exchange      EXHF   =         0.00000000
  -V(xc)+E(xc)   XCENC  =      1799.35178475
  PAW double counting   =     11000.37860124   -10784.99777464
  entropy T*S    EENTRO =        -0.18743450
  eigenvalues    EBANDS =     -9491.95659179
  atomic energy  EATOM  =     18159.52318148
  Solvation  Ediel_sol  =         0.00000000
  ---------------------------------------------------
  free energy    TOTEN  =      -893.10867851 eV

  energy without entropy =     -892.92124401  energy(sigma->0) =     -893.01496126


--------------------------------------------------------------------------------------------------------




--------------------------------------- Iteration      1(   3)  ---------------------------------------


     EDDAV:  cpu time    261.2921: real time    264.1183
       DOS:  cpu time      0.0007: real time      0.0007
    --------------------------------------------
      LOOP:  cpu time    261.2927: real time    264.1190

 eigenvalue-minimisations  :  7200
 total energy-change (2. order) :-0.8690914E+03  (-0.8562808E+03)
 number of electron     774.0000000 magnetization 
 augmentation part      774.0000000 magnetization 

 DIPCOR: dipole corrections for dipol
 direction  3 min pos   337,
 dipolmoment           0.000000      0.000000     -0.000016 electrons x Angstroem
 Tr[quadrupol]    -40079.373933

 energy correction for charged system         0.000000 eV
 dipol+quadrupol energy correction           -0.000000 eV
 added-field ion interaction          0.000006 eV  (added to PSCEN)


 Free energy of the ion-electron system (eV)
  ---------------------------------------------------
  alpha Z        PSCENC =       489.09711040
  Ewald energy   TEWEN  =    239465.33460256
  -Hartree energ DENC   =   -251529.65215801
  -exchange      EXHF   =         0.00000000
  -V(xc)+E(xc)   XCENC  =      1799.35178475
  PAW double counting   =     11000.37860124   -10784.99777464
  entropy T*S    EENTRO =        -0.48076688
  eigenvalues    EBANDS =    -10360.75463362
  atomic energy  EATOM  =     18159.52318148
  Solvation  Ediel_sol  =         0.00000000
  ---------------------------------------------------
  free energy    TOTEN  =     -1762.20005273 eV

  energy without entropy =    -1761.71928584  energy(sigma->0) =    -1761.95966928


--------------------------------------------------------------------------------------------------------




--------------------------------------- Iteration      1(   4)  ---------------------------------------


     EDDAV:  cpu time    301.6650: real time    304.6770
       DOS:  cpu time      0.0020: real time      0.0021
    --------------------------------------------
      LOOP:  cpu time    301.6670: real time    304.6791

 eigenvalue-minimisations  :  8556
 total energy-change (2. order) :-0.2954898E+02  (-0.2931578E+02)
 number of electron     774.0000000 magnetization 
 augmentation part      774.0000000 magnetization 

 DIPCOR: dipole corrections for dipol
 direction  3 min pos   337,
 dipolmoment           0.000000      0.000000     -0.000016 electrons x Angstroem
 Tr[quadrupol]    -40079.373933

 energy correction for charged system         0.000000 eV
 dipol+quadrupol energy correction           -0.000000 eV
 added-field ion interaction          0.000006 eV  (added to PSCEN)


 Free energy of the ion-electron system (eV)
  ---------------------------------------------------
  alpha Z        PSCENC =       489.09711040
  Ewald energy   TEWEN  =    239465.33460256
  -Hartree energ DENC   =   -251529.65215801
  -exchange      EXHF   =         0.00000000
  -V(xc)+E(xc)   XCENC  =      1799.35178475
  PAW double counting   =     11000.37860124   -10784.99777464
  entropy T*S    EENTRO =        -0.50886550
  eigenvalues    EBANDS =    -10390.27551475
  atomic energy  EATOM  =     18159.52318148
  Solvation  Ediel_sol  =         0.00000000
  ---------------------------------------------------
  free energy    TOTEN  =     -1791.74903248 eV

  energy without entropy =    -1791.24016697  energy(sigma->0) =    -1791.49459972


--------------------------------------------------------------------------------------------------------




--------------------------------------- Iteration      1(   5)  ---------------------------------------


     EDDAV:  cpu time    297.6521: real time    300.5775
       DOS:  cpu time      0.0029: real time      0.0029
    CHARGE:  cpu time     14.8995: real time     15.0478
    MIXING:  cpu time      0.0257: real time      0.0259
    --------------------------------------------
      LOOP:  cpu time    312.5798: real time    315.6537

 eigenvalue-minimisations  :  8388
 total energy-change (2. order) :-0.1007064E+01  (-0.1004927E+01)
 number of electron     773.9999998 magnetization 
 augmentation part       -1.5338545 magnetization 

 DIPCOR: dipole corrections for dipol
 direction  3 min pos   337,
 dipolmoment           0.000000      0.000000     -0.000016 electrons x Angstroem
 Tr[quadrupol]    -40079.373933

 energy correction for charged system         0.000000 eV
 dipol+quadrupol energy correction           -0.000000 eV
 added-field ion interaction          0.000006 eV  (added to PSCEN)


 Broyden mixing:
  rms(total) = 0.54681E+01    rms(broyden)= 0.54681E+01
  rms(prec ) = 0.58360E+01
  weight for this iteration     100.00

 Free energy of the ion-electron system (eV)
  ---------------------------------------------------
  alpha Z        PSCENC =       489.09711040
  Ewald energy   TEWEN  =    239465.33460256
  -Hartree energ DENC   =   -251529.65215801
  -exchange      EXHF   =         0.00000000
  -V(xc)+E(xc)   XCENC  =      1799.35178475
  PAW double counting   =     11000.37860124   -10784.99777464
  entropy T*S    EENTRO =        -0.50956013
  eigenvalues    EBANDS =    -10391.28188377
  atomic energy  EATOM  =     18159.52318148
  Solvation  Ediel_sol  =         0.00000000
  ---------------------------------------------------
  free energy    TOTEN  =     -1792.75609612 eV

  energy without entropy =    -1792.24653599  energy(sigma->0) =    -1792.50131605


--------------------------------------------------------------------------------------------------------




--------------------------------------- Iteration      1(   6)  ---------------------------------------


    POTLOK:  cpu time      1.0039: real time      1.0127
    SETDIJ:  cpu time      0.0115: real time      0.0116
     EDDAV:  cpu time    266.2719: real time    268.8991
       DOS:  cpu time      0.0010: real time      0.0010
    CHARGE:  cpu time     15.0582: real time     15.2081
    MIXING:  cpu time      0.0258: real time      0.0262
    --------------------------------------------
      LOOP:  cpu time    282.3723: real time    285.1587

 eigenvalue-minimisations  :  7308
 total energy-change (2. order) : 0.1271953E+03  (-0.1779262E+02)
 number of electron     773.9999997 magnetization 
 augmentation part       -2.1123969 magnetization 

 DIPCOR: dipole corrections for dipol
 direction  3 min pos   337,
 dipolmoment           0.000000      0.000000     -0.014327 electrons x Angstroem
 Tr[quadrupol]    -40109.869085

 energy correction for charged system         0.000000 eV
 dipol+quadrupol energy correction           -0.000002 eV
 added-field ion interaction          0.005759 eV  (added to PSCEN)


 Broyden mixing:
  rms(total) = 0.29115E+01    rms(broyden)= 0.29115E+01
  rms(prec ) = 0.30477E+01
  weight for this iteration     100.00

 eigenvalues of (default mixing * dielectric matrix)
  average eigenvalue GAMMA=   1.8717
  1.8717

 Free energy of the ion-electron system (eV)
  ---------------------------------------------------
  alpha Z        PSCENC =       489.10286133
  Ewald energy   TEWEN  =    239465.33460256
  -Hartree energ DENC   =   -252819.63526997
  -exchange      EXHF   =         0.00000000
  -V(xc)+E(xc)   XCENC  =      1827.34817931
  PAW double counting   =     27654.17817295   -27450.36480877
  entropy T*S    EENTRO =        -0.14350966
  eigenvalues    EBANDS =     -8990.90423049
  atomic energy  EATOM  =     18159.52318148
  Solvation  Ediel_sol  =         0.00000000
  ---------------------------------------------------
  free energy    TOTEN  =     -1665.56082126 eV

  energy without entropy =    -1665.41731161  energy(sigma->0) =    -1665.48906643


--------------------------------------------------------------------------------------------------------




--------------------------------------- Iteration      1(   7)  ---------------------------------------


    POTLOK:  cpu time      1.0158: real time      1.0295
    SETDIJ:  cpu time      0.0074: real time      0.0074
     EDDAV:  cpu time    276.0631: real time    279.0572
       DOS:  cpu time      0.0013: real time      0.0013
    CHARGE:  cpu time     14.9854: real time     15.2072
    MIXING:  cpu time      0.0261: real time      0.0263
    --------------------------------------------
      LOOP:  cpu time    292.0991: real time    295.3290

 eigenvalue-minimisations  :  7692
 total energy-change (2. order) : 0.3026463E+02  (-0.1135035E+02)
 number of electron     773.9999996 magnetization 
 augmentation part       -2.6180999 magnetization 

 DIPCOR: dipole corrections for dipol
 direction  3 min pos   337,
 dipolmoment           0.000000      0.000000     -0.011762 electrons x Angstroem
 Tr[quadrupol]    -40133.435670

 energy correction for charged system         0.000000 eV
 dipol+quadrupol energy correction           -0.000001 eV
 added-field ion interaction          0.004728 eV  (added to PSCEN)


 Broyden mixing:
  rms(total) = 0.88269E+00    rms(broyden)= 0.88269E+00
  rms(prec ) = 0.91833E+00
  weight for this iteration     100.00

 eigenvalues of (default mixing * dielectric matrix)
  average eigenvalue GAMMA=   1.7537
  1.3898  2.1175

 Free energy of the ion-electron system (eV)
  ---------------------------------------------------
  alpha Z        PSCENC =       489.10183088
  Ewald energy   TEWEN  =    239465.33460256
  -Hartree energ DENC   =   -253906.93599250
  -exchange      EXHF   =         0.00000000
  -V(xc)+E(xc)   XCENC  =      1859.99197700
  PAW double counting   =     54924.62548481   -54730.11624651
  entropy T*S    EENTRO =        -0.14584997
  eigenvalues    EBANDS =     -7896.67517429
  atomic energy  EATOM  =     18159.52318148
  Solvation  Ediel_sol  =         0.00000000
  ---------------------------------------------------
  free energy    TOTEN  =     -1635.29618654 eV

  energy without entropy =    -1635.15033657  energy(sigma->0) =    -1635.22326155


--------------------------------------------------------------------------------------------------------




--------------------------------------- Iteration      1(   8)  ---------------------------------------


    POTLOK:  cpu time      0.9636: real time      0.9947
    SETDIJ:  cpu time      0.0133: real time      0.0134
     EDDAV:  cpu time    277.8995: real time    280.6501
       DOS:  cpu time      0.0254: real time      0.0255
    CHARGE:  cpu time     15.0862: real time     15.2095
    MIXING:  cpu time      0.0318: real time      0.0321
    --------------------------------------------
      LOOP:  cpu time    294.0198: real time    296.9254

 eigenvalue-minimisations  :  7752
 total energy-change (2. order) : 0.9615902E+00  (-0.9390588E+00)
 number of electron     773.9999997 magnetization 
 augmentation part       -2.7919555 magnetization 

 DIPCOR: dipole corrections for dipol
 direction  3 min pos   337,
 dipolmoment           0.000000      0.000000     -0.016221 electrons x Angstroem
 Tr[quadrupol]    -40142.946325

 energy correction for charged system         0.000000 eV
 dipol+quadrupol energy correction           -0.000003 eV
 added-field ion interaction          0.006521 eV  (added to PSCEN)


 Broyden mixing:
  rms(total) = 0.32557E+00    rms(broyden)= 0.32557E+00
  rms(prec ) = 0.36375E+00
  weight for this iteration     100.00

 eigenvalues of (default mixing * dielectric matrix)
  average eigenvalue GAMMA=   1.6882
  1.0520  1.5366  2.4759

 Free energy of the ion-electron system (eV)
  ---------------------------------------------------
  alpha Z        PSCENC =       489.10362191
  Ewald energy   TEWEN  =    239465.33460256
  -Hartree energ DENC   =   -254156.28509880
  -exchange      EXHF   =         0.00000000
  -V(xc)+E(xc)   XCENC  =      1867.55850123
  PAW double counting   =     64572.16441097   -64378.44254082
  entropy T*S    EENTRO =        -0.14610355
  eigenvalues    EBANDS =     -7653.14517135
  atomic energy  EATOM  =     18159.52318148
  Solvation  Ediel_sol  =         0.00000000
  ---------------------------------------------------
  free energy    TOTEN  =     -1634.33459637 eV

  energy without entropy =    -1634.18849282  energy(sigma->0) =    -1634.26154459


--------------------------------------------------------------------------------------------------------




--------------------------------------- Iteration      1(   9)  ---------------------------------------


    POTLOK:  cpu time      1.0219: real time      1.0296
    SETDIJ:  cpu time      0.0075: real time      0.0075
     EDDAV:  cpu time    277.6187: real time    280.6439
       DOS:  cpu time      0.0027: real time      0.0028
    CHARGE:  cpu time     15.0923: real time     15.2317
    MIXING:  cpu time      0.0289: real time      0.0292
    --------------------------------------------
      LOOP:  cpu time    293.7719: real time    296.9446

 eigenvalue-minimisations  :  7692
 total energy-change (2. order) : 0.4187047E+00  (-0.1245541E+00)
 number of electron     773.9999997 magnetization 
 augmentation part       -2.7899288 magnetization 

 DIPCOR: dipole corrections for dipol
 direction  3 min pos   337,
 dipolmoment           0.000000      0.000000     -0.007918 electrons x Angstroem
 Tr[quadrupol]    -40152.629756

 energy correction for charged system         0.000000 eV
 dipol+quadrupol energy correction           -0.000001 eV
 added-field ion interaction          0.003183 eV  (added to PSCEN)


 Broyden mixing:
  rms(total) = 0.11460E+00    rms(broyden)= 0.11460E+00
  rms(prec ) = 0.14707E+00
  weight for this iteration     100.00

 eigenvalues of (default mixing * dielectric matrix)
  average eigenvalue GAMMA=   1.5946
  2.3851  1.8520  1.0706  1.0706

 Free energy of the ion-electron system (eV)
  ---------------------------------------------------
  alpha Z        PSCENC =       489.10028620
  Ewald energy   TEWEN  =    239465.33460256
  -Hartree energ DENC   =   -254379.30681318
  -exchange      EXHF   =         0.00000000
  -V(xc)+E(xc)   XCENC  =      1871.69022814
  PAW double counting   =     68460.09929880   -68266.45120843
  entropy T*S    EENTRO =        -0.14538631
  eigenvalues    EBANDS =     -7433.76008088
  atomic energy  EATOM  =     18159.52318148
  Solvation  Ediel_sol  =         0.00000000
  ---------------------------------------------------
  free energy    TOTEN  =     -1633.91589162 eV

  energy without entropy =    -1633.77050532  energy(sigma->0) =    -1633.84319847


--------------------------------------------------------------------------------------------------------




--------------------------------------- Iteration      1(  10)  ---------------------------------------


    POTLOK:  cpu time      1.0270: real time      1.0372
    SETDIJ:  cpu time      0.0075: real time      0.0076
     EDDAV:  cpu time    290.4542: real time    293.6684
       DOS:  cpu time      0.0007: real time      0.0007
    CHARGE:  cpu time     14.8810: real time     15.0341
    MIXING:  cpu time      0.0258: real time      0.0260
    --------------------------------------------
      LOOP:  cpu time    306.3963: real time    309.7740

 eigenvalue-minimisations  :  8148
 total energy-change (2. order) : 0.5316242E-01  (-0.1734515E-01)
 number of electron     773.9999997 magnetization 
 augmentation part       -2.7862270 magnetization 

 DIPCOR: dipole corrections for dipol
 direction  3 min pos   337,
 dipolmoment           0.000000      0.000000     -0.012231 electrons x Angstroem
 Tr[quadrupol]    -40157.759708

 energy correction for charged system         0.000000 eV
 dipol+quadrupol energy correction           -0.000001 eV
 added-field ion interaction          0.004916 eV  (added to PSCEN)


 Broyden mixing:
  rms(total) = 0.64835E-01    rms(broyden)= 0.64835E-01
  rms(prec ) = 0.94370E-01
  weight for this iteration     100.00

 eigenvalues of (default mixing * dielectric matrix)
  average eigenvalue GAMMA=   1.6561
  2.4017  2.4017  0.9802  1.2484  1.2484

 Free energy of the ion-electron system (eV)
  ---------------------------------------------------
  alpha Z        PSCENC =       489.10201894
  Ewald energy   TEWEN  =    239465.33460256
  -Hartree energ DENC   =   -254474.65478599
  -exchange      EXHF   =         0.00000000
  -V(xc)+E(xc)   XCENC  =      1872.46710626
  PAW double counting   =     68346.62201521   -68152.66921507
  entropy T*S    EENTRO =        -0.14500708
  eigenvalues    EBANDS =     -7339.44264551
  atomic energy  EATOM  =     18159.52318148
  Solvation  Ediel_sol  =         0.00000000
  ---------------------------------------------------
  free energy    TOTEN  =     -1633.86272920 eV

  energy without entropy =    -1633.71772212  energy(sigma->0) =    -1633.79022566


--------------------------------------------------------------------------------------------------------




--------------------------------------- Iteration      1(  11)  ---------------------------------------


    POTLOK:  cpu time      1.0030: real time      1.0136
    SETDIJ:  cpu time      0.0185: real time      0.0186
     EDDAV:  cpu time    269.1532: real time    272.5446
       DOS:  cpu time      0.0007: real time      0.0007
    CHARGE:  cpu time     14.9094: real time     15.2151
    MIXING:  cpu time      0.0257: real time      0.0260
    --------------------------------------------
      LOOP:  cpu time    285.1105: real time    288.8186

 eigenvalue-minimisations  :  7476
 total energy-change (2. order) : 0.5615775E-01  (-0.9327252E-02)
 number of electron     773.9999997 magnetization 
 augmentation part       -2.7843621 magnetization 

 DIPCOR: dipole corrections for dipol
 direction  3 min pos   337,
 dipolmoment           0.000000      0.000000     -0.000632 electrons x Angstroem
 Tr[quadrupol]    -40164.465063

 energy correction for charged system         0.000000 eV
 dipol+quadrupol energy correction           -0.000000 eV
 added-field ion interaction          0.000254 eV  (added to PSCEN)


 Broyden mixing:
  rms(total) = 0.29826E-01    rms(broyden)= 0.29826E-01
  rms(prec ) = 0.53062E-01
  weight for this iteration     100.00

 eigenvalues of (default mixing * dielectric matrix)
  average eigenvalue GAMMA=   1.6570
  2.6617  2.6617  1.4799  1.2126  0.9631  0.9631

 Free energy of the ion-electron system (eV)
  ---------------------------------------------------
  alpha Z        PSCENC =       489.09735781
  Ewald energy   TEWEN  =    239465.33460256
  -Hartree energ DENC   =   -254605.38572610
  -exchange      EXHF   =         0.00000000
  -V(xc)+E(xc)   XCENC  =      1873.72696374
  PAW double counting   =     68336.76495810   -68142.62508473
  entropy T*S    EENTRO =        -0.14483296
  eigenvalues    EBANDS =     -7210.09799136
  atomic energy  EATOM  =     18159.52318148
  Solvation  Ediel_sol  =         0.00000000
  ---------------------------------------------------
  free energy    TOTEN  =     -1633.80657145 eV

  energy without entropy =    -1633.66173850  energy(sigma->0) =    -1633.73415498


--------------------------------------------------------------------------------------------------------




--------------------------------------- Iteration      1(  12)  ---------------------------------------


    POTLOK:  cpu time      0.9836: real time      1.0055
    SETDIJ:  cpu time      0.0117: real time      0.0119
     EDDAV:  cpu time    273.3424: real time    277.7704
       DOS:  cpu time      0.0020: real time      0.0020
    CHARGE:  cpu time     15.0454: real time     15.1903
    MIXING:  cpu time      0.0310: real time      0.0312
    --------------------------------------------
      LOOP:  cpu time    289.4161: real time    294.0113

 eigenvalue-minimisations  :  7644
 total energy-change (2. order) : 0.2885215E-02  (-0.3764209E-02)
 number of electron     773.9999997 magnetization 
 augmentation part       -2.7881496 magnetization 

 DIPCOR: dipole corrections for dipol
 direction  3 min pos   337,
 dipolmoment           0.000000      0.000000     -0.007202 electrons x Angstroem
 Tr[quadrupol]    -40168.821791

 energy correction for charged system         0.000000 eV
 dipol+quadrupol energy correction           -0.000001 eV
 added-field ion interaction          0.002895 eV  (added to PSCEN)


 Broyden mixing:
  rms(total) = 0.21245E-01    rms(broyden)= 0.21245E-01
  rms(prec ) = 0.34699E-01
  weight for this iteration     100.00

 eigenvalues of (default mixing * dielectric matrix)
  average eigenvalue GAMMA=   1.7822
  3.6324  2.5242  1.6466  1.6466  0.9425  1.0416  1.0416

 Free energy of the ion-electron system (eV)
  ---------------------------------------------------
  alpha Z        PSCENC =       489.09999862
  Ewald energy   TEWEN  =    239465.33460256
  -Hartree energ DENC   =   -254688.05911937
  -exchange      EXHF   =         0.00000000
  -V(xc)+E(xc)   XCENC  =      1874.31773250
  PAW double counting   =     68239.43741249   -68045.24311630
  entropy T*S    EENTRO =        -0.14471443
  eigenvalues    EBANDS =     -7128.06966380
  atomic energy  EATOM  =     18159.52318148
  Solvation  Ediel_sol  =         0.00000000
  ---------------------------------------------------
  free energy    TOTEN  =     -1633.80368624 eV

  energy without entropy =    -1633.65897181  energy(sigma->0) =    -1633.73132903


--------------------------------------------------------------------------------------------------------




--------------------------------------- Iteration      1(  13)  ---------------------------------------


    POTLOK:  cpu time      1.0188: real time      1.0255
    SETDIJ:  cpu time      0.0093: real time      0.0094
     EDDAV:  cpu time    262.9795: real time    265.1303
       DOS:  cpu time      0.0007: real time      0.0007
    CHARGE:  cpu time     14.9444: real time     15.0407
    MIXING:  cpu time      0.0323: real time      0.0325
    --------------------------------------------
      LOOP:  cpu time    278.9850: real time    281.2392

 eigenvalue-minimisations  :  7188
 total energy-change (2. order) :-0.2279988E-01  (-0.2240951E-02)
 number of electron     773.9999997 magnetization 
 augmentation part       -2.7909846 magnetization 

 DIPCOR: dipole corrections for dipol
 direction  3 min pos   337,
 dipolmoment           0.000000      0.000000      0.008689 electrons x Angstroem
 Tr[quadrupol]    -40173.349906

 energy correction for charged system         0.000000 eV
 dipol+quadrupol energy correction           -0.000001 eV
 added-field ion interaction         -0.003493 eV  (added to PSCEN)


 Broyden mixing:
  rms(total) = 0.11703E-01    rms(broyden)= 0.11703E-01
  rms(prec ) = 0.18156E-01
  weight for this iteration     100.00

 eigenvalues of (default mixing * dielectric matrix)
  average eigenvalue GAMMA=   1.8997
  4.6443  2.4860  2.4860  1.5476  1.0986  0.9254  1.0049  1.0049

 Free energy of the ion-electron system (eV)
  ---------------------------------------------------
  alpha Z        PSCENC =       489.09361034
  Ewald energy   TEWEN  =    239465.33460256
  -Hartree energ DENC   =   -254769.33910095
  -exchange      EXHF   =         0.00000000
  -V(xc)+E(xc)   XCENC  =      1874.76630081
  PAW double counting   =     68202.00497005   -68007.80282584
  entropy T*S    EENTRO =        -0.14468442
  eigenvalues    EBANDS =     -7047.26254014
  atomic energy  EATOM  =     18159.52318148
  Solvation  Ediel_sol  =         0.00000000
  ---------------------------------------------------
  free energy    TOTEN  =     -1633.82648612 eV

  energy without entropy =    -1633.68180170  energy(sigma->0) =    -1633.75414391


--------------------------------------------------------------------------------------------------------




--------------------------------------- Iteration      1(  14)  ---------------------------------------


    POTLOK:  cpu time      1.0206: real time      1.0276
    SETDIJ:  cpu time      0.0091: real time      0.0092
     EDDAV:  cpu time    264.1137: real time    266.3581
       DOS:  cpu time      0.0020: real time      0.0020
    CHARGE:  cpu time     15.0696: real time     15.2189
    MIXING:  cpu time      0.0262: real time      0.0264
    --------------------------------------------
      LOOP:  cpu time    280.2413: real time    282.6422

 eigenvalue-minimisations  :  7248
 total energy-change (2. order) :-0.1511882E-01  (-0.5052333E-03)
 number of electron     773.9999996 magnetization 
 augmentation part       -2.7921191 magnetization 

 DIPCOR: dipole corrections for dipol
 direction  3 min pos   337,
 dipolmoment           0.000000      0.000000     -0.005981 electrons x Angstroem
 Tr[quadrupol]    -40175.435484

 energy correction for charged system         0.000000 eV
 dipol+quadrupol energy correction           -0.000000 eV
 added-field ion interaction          0.002404 eV  (added to PSCEN)


 Broyden mixing:
  rms(total) = 0.68586E-02    rms(broyden)= 0.68586E-02
  rms(prec ) = 0.10700E-01
  weight for this iteration     100.00

 eigenvalues of (default mixing * dielectric matrix)
  average eigenvalue GAMMA=   1.9174
  5.2514  2.7759  2.4904  1.4654  1.4654  1.0532  1.0532  0.9511  0.7504

 Free energy of the ion-electron system (eV)
  ---------------------------------------------------
  alpha Z        PSCENC =       489.09950791
  Ewald energy   TEWEN  =    239465.33460256
  -Hartree energ DENC   =   -254805.08968210
  -exchange      EXHF   =         0.00000000
  -V(xc)+E(xc)   XCENC  =      1874.84607658
  PAW double counting   =     68186.08011662   -67991.89556205
  entropy T*S    EENTRO =        -0.14463757
  eigenvalues    EBANDS =     -7011.59520838
  atomic energy  EATOM  =     18159.52318148
  Solvation  Ediel_sol  =         0.00000000
  ---------------------------------------------------
  free energy    TOTEN  =     -1633.84160494 eV

  energy without entropy =    -1633.69696737  energy(sigma->0) =    -1633.76928615


--------------------------------------------------------------------------------------------------------




--------------------------------------- Iteration      1(  15)  ---------------------------------------


    POTLOK:  cpu time      1.0195: real time      1.0280
    SETDIJ:  cpu time      0.0076: real time      0.0077
     EDDAV:  cpu time    266.4566: real time    269.1266
       DOS:  cpu time      0.0020: real time      0.0020
    CHARGE:  cpu time     14.8686: real time     15.0045
    MIXING:  cpu time      0.0339: real time      0.0342
    --------------------------------------------
      LOOP:  cpu time    282.3882: real time    285.2028

 eigenvalue-minimisations  :  7368
 total energy-change (2. order) :-0.9517847E-02  (-0.2020629E-03)
 number of electron     773.9999996 magnetization 
 augmentation part       -2.7924476 magnetization 

 DIPCOR: dipole corrections for dipol
 direction  3 min pos   337,
 dipolmoment           0.000000      0.000000      0.003914 electrons x Angstroem
 Tr[quadrupol]    -40176.515531

 energy correction for charged system         0.000000 eV
 dipol+quadrupol energy correction           -0.000000 eV
 added-field ion interaction         -0.001573 eV  (added to PSCEN)


 Broyden mixing:
  rms(total) = 0.48569E-02    rms(broyden)= 0.48569E-02
  rms(prec ) = 0.70296E-02
  weight for this iteration     100.00

 eigenvalues of (default mixing * dielectric matrix)
  average eigenvalue GAMMA=   2.0169
  5.9441  3.1829  2.3732  2.3732  1.5534  1.0347  1.0347  1.0792  0.9186  0.6751

 Free energy of the ion-electron system (eV)
  ---------------------------------------------------
  alpha Z        PSCENC =       489.09553034
  Ewald energy   TEWEN  =    239465.33460256
  -Hartree energ DENC   =   -254823.34967293
  -exchange      EXHF   =         0.00000000
  -V(xc)+E(xc)   XCENC  =      1874.83610824
  PAW double counting   =     68178.90528933   -67984.72516405
  entropy T*S    EENTRO =        -0.14460021
  eigenvalues    EBANDS =     -6993.32639754
  atomic energy  EATOM  =     18159.52318148
  Solvation  Ediel_sol  =         0.00000000
  ---------------------------------------------------
  free energy    TOTEN  =     -1633.85112278 eV

  energy without entropy =    -1633.70652258  energy(sigma->0) =    -1633.77882268


--------------------------------------------------------------------------------------------------------




--------------------------------------- Iteration      1(  16)  ---------------------------------------


    POTLOK:  cpu time      1.0280: real time      1.0402
    SETDIJ:  cpu time      0.0143: real time      0.0144
     EDDAV:  cpu time    271.1911: real time    274.4133
       DOS:  cpu time      0.0046: real time      0.0047
    CHARGE:  cpu time     15.0496: real time     15.1916
    MIXING:  cpu time      0.0363: real time      0.0365
    --------------------------------------------
      LOOP:  cpu time    287.3239: real time    290.7006

 eigenvalue-minimisations  :  7536
 total energy-change (2. order) :-0.1030914E-01  (-0.1098466E-03)
 number of electron     773.9999996 magnetization 
 augmentation part       -2.7922387 magnetization 

 DIPCOR: dipole corrections for dipol
 direction  3 min pos   337,
 dipolmoment           0.000000      0.000000      0.002530 electrons x Angstroem
 Tr[quadrupol]    -40177.173363

 energy correction for charged system         0.000000 eV
 dipol+quadrupol energy correction           -0.000000 eV
 added-field ion interaction         -0.001017 eV  (added to PSCEN)


 Broyden mixing:
  rms(total) = 0.24046E-02    rms(broyden)= 0.24046E-02
  rms(prec ) = 0.36765E-02
  weight for this iteration     100.00

 eigenvalues of (default mixing * dielectric matrix)
  average eigenvalue GAMMA=   2.0192
  6.2647  3.5743  2.4122  2.4122  1.5011  1.3290  1.0651  1.0651  0.9599  0.9599
  0.6677

 Free energy of the ion-electron system (eV)
  ---------------------------------------------------
  alpha Z        PSCENC =       489.09608672
  Ewald energy   TEWEN  =    239465.33460256
  -Hartree energ DENC   =   -254835.02097989
  -exchange      EXHF   =         0.00000000
  -V(xc)+E(xc)   XCENC  =      1874.80880691
  PAW double counting   =     68187.38560073   -67993.19562047
  entropy T*S    EENTRO =        -0.14459598
  eigenvalues    EBANDS =     -6981.64851398
  atomic energy  EATOM  =     18159.52318148
  Solvation  Ediel_sol  =         0.00000000
  ---------------------------------------------------
  free energy    TOTEN  =     -1633.86143192 eV

  energy without entropy =    -1633.71683594  energy(sigma->0) =    -1633.78913393


--------------------------------------------------------------------------------------------------------




--------------------------------------- Iteration      1(  17)  ---------------------------------------


    POTLOK:  cpu time      1.0209: real time      1.0308
    SETDIJ:  cpu time      0.0074: real time      0.0074
     EDDAV:  cpu time    267.1272: real time    270.9334
       DOS:  cpu time      0.0022: real time      0.0022
    CHARGE:  cpu time     15.0929: real time     15.2339
    MIXING:  cpu time      0.0419: real time      0.0422
    --------------------------------------------
      LOOP:  cpu time    283.2925: real time    287.2499

 eigenvalue-minimisations  :  7428
 total energy-change (2. order) :-0.5322622E-02  (-0.3041215E-04)
 number of electron     773.9999996 magnetization 
 augmentation part       -2.7923761 magnetization 

 DIPCOR: dipole corrections for dipol
 direction  3 min pos   337,
 dipolmoment           0.000000      0.000000      0.000928 electrons x Angstroem
 Tr[quadrupol]    -40177.318190

 energy correction for charged system         0.000000 eV
 dipol+quadrupol energy correction           -0.000000 eV
 added-field ion interaction         -0.000373 eV  (added to PSCEN)


 Broyden mixing:
  rms(total) = 0.15619E-02    rms(broyden)= 0.15619E-02
  rms(prec ) = 0.24549E-02
  weight for this iteration     100.00

 eigenvalues of (default mixing * dielectric matrix)
  average eigenvalue GAMMA=   2.0676
  6.6528  4.0226  2.5215  2.5215  1.7656  1.5893  1.0808  1.0808  0.9807  0.9543
  0.9543  0.6869

 Free energy of the ion-electron system (eV)
  ---------------------------------------------------
  alpha Z        PSCENC =       489.09673081
  Ewald energy   TEWEN  =    239465.33460256
  -Hartree energ DENC   =   -254838.44806446
  -exchange      EXHF   =         0.00000000
  -V(xc)+E(xc)   XCENC  =      1874.80241813
  PAW double counting   =     68193.51379638   -67999.32563222
  entropy T*S    EENTRO =        -0.14462856
  eigenvalues    EBANDS =     -6978.21915866
  atomic energy  EATOM  =     18159.52318148
  Solvation  Ediel_sol  =         0.00000000
  ---------------------------------------------------
  free energy    TOTEN  =     -1633.86675454 eV

  energy without entropy =    -1633.72212599  energy(sigma->0) =    -1633.79444026


--------------------------------------------------------------------------------------------------------




--------------------------------------- Iteration      1(  18)  ---------------------------------------


    POTLOK:  cpu time      1.0264: real time      1.0337
    SETDIJ:  cpu time      0.0100: real time      0.0100
     EDDAV:  cpu time    271.6349: real time    273.9446
       DOS:  cpu time      0.0007: real time      0.0007
    CHARGE:  cpu time     15.0651: real time     15.2130
    MIXING:  cpu time      0.0313: real time      0.0317
    --------------------------------------------
      LOOP:  cpu time    287.7685: real time    290.2337

 eigenvalue-minimisations  :  7536
 total energy-change (2. order) :-0.3830555E-02  (-0.2432097E-04)
 number of electron     773.9999996 magnetization 
 augmentation part       -2.7923986 magnetization 

 DIPCOR: dipole corrections for dipol
 direction  3 min pos   337,
 dipolmoment           0.000000      0.000000      0.002091 electrons x Angstroem
 Tr[quadrupol]    -40177.435347

 energy correction for charged system         0.000000 eV
 dipol+quadrupol energy correction           -0.000000 eV
 added-field ion interaction         -0.000841 eV  (added to PSCEN)


 Broyden mixing:
  rms(total) = 0.10159E-02    rms(broyden)= 0.10159E-02
  rms(prec ) = 0.15062E-02
  weight for this iteration     100.00

 eigenvalues of (default mixing * dielectric matrix)
  average eigenvalue GAMMA=   2.1552
  6.9636  4.7749  2.9121  2.4969  2.1763  1.4894  1.4606  1.0734  1.0734  1.0022
  1.0022  0.8987  0.6944

 Free energy of the ion-electron system (eV)
  ---------------------------------------------------
  alpha Z        PSCENC =       489.09626313
  Ewald energy   TEWEN  =    239465.33460256
  -Hartree energ DENC   =   -254841.85692660
  -exchange      EXHF   =         0.00000000
  -V(xc)+E(xc)   XCENC  =      1874.80918267
  PAW double counting   =     68192.36200640   -67998.17327344
  entropy T*S    EENTRO =        -0.14463760
  eigenvalues    EBANDS =     -6974.82098370
  atomic energy  EATOM  =     18159.52318148
  Solvation  Ediel_sol  =         0.00000000
  ---------------------------------------------------
  free energy    TOTEN  =     -1633.87058510 eV

  energy without entropy =    -1633.72594750  energy(sigma->0) =    -1633.79826630


--------------------------------------------------------------------------------------------------------




--------------------------------------- Iteration      1(  19)  ---------------------------------------


    POTLOK:  cpu time      1.0037: real time      1.0144
    SETDIJ:  cpu time      0.0079: real time      0.0080
     EDDAV:  cpu time    272.8001: real time    275.1289
       DOS:  cpu time      0.0029: real time      0.0029
    CHARGE:  cpu time     14.8198: real time     14.9310
    MIXING:  cpu time      0.0325: real time      0.0327
    --------------------------------------------
      LOOP:  cpu time    288.6670: real time    291.1179

 eigenvalue-minimisations  :  7584
 total energy-change (2. order) :-0.2572959E-02  (-0.1770066E-04)
 number of electron     773.9999996 magnetization 
 augmentation part       -2.7924484 magnetization 

 DIPCOR: dipole corrections for dipol
 direction  3 min pos   337,
 dipolmoment           0.000000      0.000000      0.000871 electrons x Angstroem
 Tr[quadrupol]    -40177.476589

 energy correction for charged system         0.000000 eV
 dipol+quadrupol energy correction           -0.000000 eV
 added-field ion interaction         -0.000350 eV  (added to PSCEN)


 Broyden mixing:
  rms(total) = 0.52383E-03    rms(broyden)= 0.52383E-03
  rms(prec ) = 0.75398E-03
  weight for this iteration     100.00

 eigenvalues of (default mixing * dielectric matrix)
  average eigenvalue GAMMA=   2.1895
  7.3891  5.2304  3.1570  2.4984  2.3561  1.6268  1.4837  1.1370  1.1370  1.0356
  1.0356  0.9362  0.9362  0.6940

 Free energy of the ion-electron system (eV)
  ---------------------------------------------------
  alpha Z        PSCENC =       489.09675358
  Ewald energy   TEWEN  =    239465.33460256
  -Hartree energ DENC   =   -254844.07576652
  -exchange      EXHF   =         0.00000000
  -V(xc)+E(xc)   XCENC  =      1874.81608189
  PAW double counting   =     68190.06221378   -67995.87375861
  entropy T*S    EENTRO =        -0.14462214
  eigenvalues    EBANDS =     -6972.61184407
  atomic energy  EATOM  =     18159.52318148
  Solvation  Ediel_sol  =         0.00000000
  ---------------------------------------------------
  free energy    TOTEN  =     -1633.87315806 eV

  energy without entropy =    -1633.72853592  energy(sigma->0) =    -1633.80084699


--------------------------------------------------------------------------------------------------------




--------------------------------------- Iteration      1(  20)  ---------------------------------------


    POTLOK:  cpu time      1.0347: real time      1.0424
    SETDIJ:  cpu time      0.0083: real time      0.0084
     EDDAV:  cpu time    270.8591: real time    273.6574
       DOS:  cpu time      0.0007: real time      0.0007
    CHARGE:  cpu time     15.0387: real time     15.1800
    MIXING:  cpu time      0.0384: real time      0.0388
    --------------------------------------------
      LOOP:  cpu time    286.9800: real time    289.9277

 eigenvalue-minimisations  :  7500
 total energy-change (2. order) :-0.8913918E-03  (-0.3264581E-05)
 number of electron     773.9999996 magnetization 
 augmentation part       -2.7924671 magnetization 

 DIPCOR: dipole corrections for dipol
 direction  3 min pos   337,
 dipolmoment           0.000000      0.000000      0.000458 electrons x Angstroem
 Tr[quadrupol]    -40177.474486

 energy correction for charged system         0.000000 eV
 dipol+quadrupol energy correction           -0.000000 eV
 added-field ion interaction         -0.000184 eV  (added to PSCEN)


 Broyden mixing:
  rms(total) = 0.31933E-03    rms(broyden)= 0.31933E-03
  rms(prec ) = 0.44665E-03
  weight for this iteration     100.00

 eigenvalues of (default mixing * dielectric matrix)
  average eigenvalue GAMMA=   2.2662
  7.7140  6.0123  3.3991  2.6342  2.3802  2.1446  1.5476  1.3003  1.0584  1.0584
  1.0816  1.0816  0.9435  0.9435  0.6940

 Free energy of the ion-electron system (eV)
  ---------------------------------------------------
  alpha Z        PSCENC =       489.09692000
  Ewald energy   TEWEN  =    239465.33460256
  -Hartree energ DENC   =   -254844.70918471
  -exchange      EXHF   =         0.00000000
  -V(xc)+E(xc)   XCENC  =      1874.81535415
  PAW double counting   =     68189.09188510   -67994.90342722
  entropy T*S    EENTRO =        -0.14462190
  eigenvalues    EBANDS =     -6971.97875891
  atomic energy  EATOM  =     18159.52318148
  Solvation  Ediel_sol  =         0.00000000
  ---------------------------------------------------
  free energy    TOTEN  =     -1633.87404945 eV

  energy without entropy =    -1633.72942755  energy(sigma->0) =    -1633.80173850


--------------------------------------------------------------------------------------------------------




--------------------------------------- Iteration      1(  21)  ---------------------------------------


    POTLOK:  cpu time      1.0302: real time      1.0389
    SETDIJ:  cpu time      0.0130: real time      0.0131
     EDDAV:  cpu time    250.2982: real time    252.8979
       DOS:  cpu time      0.0039: real time      0.0039
    CHARGE:  cpu time     15.0740: real time     15.2198
    MIXING:  cpu time      0.0416: real time      0.0419
    --------------------------------------------
      LOOP:  cpu time    266.4608: real time    269.2154

 eigenvalue-minimisations  :  6804
 total energy-change (2. order) :-0.5477501E-03  (-0.1492670E-05)
 number of electron     773.9999996 magnetization 
 augmentation part       -2.7924419 magnetization 

 DIPCOR: dipole corrections for dipol
 direction  3 min pos   337,
 dipolmoment           0.000000      0.000000      0.000107 electrons x Angstroem
 Tr[quadrupol]    -40177.469100

 energy correction for charged system         0.000000 eV
 dipol+quadrupol energy correction           -0.000000 eV
 added-field ion interaction         -0.000043 eV  (added to PSCEN)


 Broyden mixing:
  rms(total) = 0.15870E-03    rms(broyden)= 0.15870E-03
  rms(prec ) = 0.21430E-03
  weight for this iteration     100.00

 eigenvalues of (default mixing * dielectric matrix)
  average eigenvalue GAMMA=   2.2966
  8.0988  6.4046  3.7617  2.8290  2.4297  2.2396  1.6218  1.3078  1.3078  1.0539
  1.0539  1.1067  0.9560  0.9560  0.9242  0.6939

 Free energy of the ion-electron system (eV)
  ---------------------------------------------------
  alpha Z        PSCENC =       489.09706106
  Ewald energy   TEWEN  =    239465.33460256
  -Hartree energ DENC   =   -254845.11196757
  -exchange      EXHF   =         0.00000000
  -V(xc)+E(xc)   XCENC  =      1874.81410719
  PAW double counting   =     68189.48096032   -67995.29222066
  entropy T*S    EENTRO =        -0.14462371
  eigenvalues    EBANDS =     -6971.57569789
  atomic energy  EATOM  =     18159.52318148
  Solvation  Ediel_sol  =         0.00000000
  ---------------------------------------------------
  free energy    TOTEN  =     -1633.87459720 eV

  energy without entropy =    -1633.72997349  energy(sigma->0) =    -1633.80228534


--------------------------------------------------------------------------------------------------------




--------------------------------------- Iteration      1(  22)  ---------------------------------------


    POTLOK:  cpu time      1.0140: real time      1.0225
    SETDIJ:  cpu time      0.0172: real time      0.0173
     EDDAV:  cpu time    238.9905: real time    241.9321
       DOS:  cpu time      0.0010: real time      0.0010
    CHARGE:  cpu time     14.9963: real time     15.1502
    MIXING:  cpu time      0.0409: real time      0.0414
    --------------------------------------------
      LOOP:  cpu time    255.0598: real time    258.1643

 eigenvalue-minimisations  :  6444
 total energy-change (2. order) :-0.1887675E-03  (-0.3706641E-06)
 number of electron     773.9999996 magnetization 
 augmentation part       -2.7924439 magnetization 

 DIPCOR: dipole corrections for dipol
 direction  3 min pos   337,
 dipolmoment           0.000000      0.000000     -0.000117 electrons x Angstroem
 Tr[quadrupol]    -40177.469543

 energy correction for charged system         0.000000 eV
 dipol+quadrupol energy correction           -0.000000 eV
 added-field ion interaction          0.000047 eV  (added to PSCEN)


 Broyden mixing:
  rms(total) = 0.92197E-04    rms(broyden)= 0.92196E-04
  rms(prec ) = 0.11657E-03
  weight for this iteration     100.00

 eigenvalues of (default mixing * dielectric matrix)
  average eigenvalue GAMMA=   2.3207
  8.4837  6.6362  4.1131  3.0117  2.4636  2.2146  1.9676  1.4854  1.3707  0.6938
  1.0640  1.0640  1.0762  1.0762  0.9295  0.9295  0.8721

 Free energy of the ion-electron system (eV)
  ---------------------------------------------------
  alpha Z        PSCENC =       489.09715088
  Ewald energy   TEWEN  =    239465.33460256
  -Hartree energ DENC   =   -254845.31488076
  -exchange      EXHF   =         0.00000000
  -V(xc)+E(xc)   XCENC  =      1874.81404955
  PAW double counting   =     68189.64680218   -67995.45805798
  entropy T*S    EENTRO =        -0.14462357
  eigenvalues    EBANDS =     -6971.37301029
  atomic energy  EATOM  =     18159.52318148
  Solvation  Ediel_sol  =         0.00000000
  ---------------------------------------------------
  free energy    TOTEN  =     -1633.87478597 eV

  energy without entropy =    -1633.73016240  energy(sigma->0) =    -1633.80247418


--------------------------------------------------------------------------------------------------------




--------------------------------------- Iteration      1(  23)  ---------------------------------------


    POTLOK:  cpu time      1.0259: real time      1.0356
    SETDIJ:  cpu time      0.0106: real time      0.0107
     EDDAV:  cpu time    215.7634: real time    219.8637
       DOS:  cpu time      0.0022: real time      0.0022
    CHARGE:  cpu time     15.0103: real time     15.1854
    MIXING:  cpu time      0.0398: real time      0.0403
    --------------------------------------------
      LOOP:  cpu time    231.8522: real time    236.1380

 eigenvalue-minimisations  :  5676
 total energy-change (2. order) :-0.8846784E-04  (-0.1367159E-06)
 number of electron     773.9999996 magnetization 
 augmentation part       -2.7924499 magnetization 

 DIPCOR: dipole corrections for dipol
 direction  3 min pos   337,
 dipolmoment           0.000000      0.000000     -0.000238 electrons x Angstroem
 Tr[quadrupol]    -40177.469621

 energy correction for charged system         0.000000 eV
 dipol+quadrupol energy correction           -0.000000 eV
 added-field ion interaction          0.000095 eV  (added to PSCEN)


 Broyden mixing:
  rms(total) = 0.43225E-04    rms(broyden)= 0.43225E-04
  rms(prec ) = 0.52179E-04
  weight for this iteration     100.00

 eigenvalues of (default mixing * dielectric matrix)
  average eigenvalue GAMMA=   2.3447
  8.7360  6.8850  4.3996  3.2741  2.5293  2.2792  2.2764  1.6100  1.3016  1.3016
  1.1562  1.0578  1.0578  0.9551  0.9551  0.9460  0.6939  0.7892

 Free energy of the ion-electron system (eV)
  ---------------------------------------------------
  alpha Z        PSCENC =       489.09719941
  Ewald energy   TEWEN  =    239465.33460256
  -Hartree energ DENC   =   -254845.39240851
  -exchange      EXHF   =         0.00000000
  -V(xc)+E(xc)   XCENC  =      1874.81365514
  PAW double counting   =     68189.69030699   -67995.50161775
  entropy T*S    EENTRO =        -0.14462348
  eigenvalues    EBANDS =     -6971.29517027
  atomic energy  EATOM  =     18159.52318148
  Solvation  Ediel_sol  =         0.00000000
  ---------------------------------------------------
  free energy    TOTEN  =     -1633.87487443 eV

  energy without entropy =    -1633.73025095  energy(sigma->0) =    -1633.80256269


--------------------------------------------------------------------------------------------------------




--------------------------------------- Iteration      1(  24)  ---------------------------------------


    POTLOK:  cpu time      1.0194: real time      1.0282
    SETDIJ:  cpu time      0.0146: real time      0.0147
     EDDAV:  cpu time    210.4873: real time    212.7165
       DOS:  cpu time      0.0027: real time      0.0027
    CHARGE:  cpu time     14.8556: real time     14.9823
    MIXING:  cpu time      0.0336: real time      0.0338
    --------------------------------------------
      LOOP:  cpu time    226.4133: real time    228.7783

 eigenvalue-minimisations  :  5436
 total energy-change (2. order) :-0.2897099E-04  (-0.3808852E-07)
 number of electron     773.9999996 magnetization 
 augmentation part       -2.7924523 magnetization 

 DIPCOR: dipole corrections for dipol
 direction  3 min pos   337,
 dipolmoment           0.000000      0.000000     -0.000282 electrons x Angstroem
 Tr[quadrupol]    -40177.470838

 energy correction for charged system         0.000000 eV
 dipol+quadrupol energy correction           -0.000000 eV
 added-field ion interaction          0.000113 eV  (added to PSCEN)


 Broyden mixing:
  rms(total) = 0.19527E-04    rms(broyden)= 0.19527E-04
  rms(prec ) = 0.23149E-04
  weight for this iteration     100.00

 eigenvalues of (default mixing * dielectric matrix)
  average eigenvalue GAMMA=   2.3351
  8.8782  6.9168  4.6120  3.3217  2.5938  2.4834  2.0279  2.0279  1.5168  1.2532
  1.1513  1.1513  1.0506  1.0506  0.9579  0.9579  0.9386  0.6939  0.7826

 Free energy of the ion-electron system (eV)
  ---------------------------------------------------
  alpha Z        PSCENC =       489.09721710
  Ewald energy   TEWEN  =    239465.33460256
  -Hartree energ DENC   =   -254845.41704549
  -exchange      EXHF   =         0.00000000
  -V(xc)+E(xc)   XCENC  =      1874.81341895
  PAW double counting   =     68189.72383459   -67995.53514897
  entropy T*S    EENTRO =        -0.14462369
  eigenvalues    EBANDS =     -6971.27033992
  atomic energy  EATOM  =     18159.52318148
  Solvation  Ediel_sol  =         0.00000000
  ---------------------------------------------------
  free energy    TOTEN  =     -1633.87490340 eV

  energy without entropy =    -1633.73027971  energy(sigma->0) =    -1633.80259156


--------------------------------------------------------------------------------------------------------




--------------------------------------- Iteration      1(  25)  ---------------------------------------


    POTLOK:  cpu time      1.0117: real time      1.0206
    SETDIJ:  cpu time      0.0100: real time      0.0100
     EDDAV:  cpu time    199.3130: real time    201.8666
       DOS:  cpu time      0.0038: real time      0.0038
    CHARGE:  cpu time     15.0391: real time     15.2139
    MIXING:  cpu time      0.0408: real time      0.0412
    --------------------------------------------
      LOOP:  cpu time    215.4184: real time    218.1562

 eigenvalue-minimisations  :  5040
 total energy-change (2. order) :-0.6954484E-05  (-0.3372853E-08)
 number of electron     773.9999996 magnetization 
 augmentation part       -2.7924499 magnetization 

 DIPCOR: dipole corrections for dipol
 direction  3 min pos   337,
 dipolmoment           0.000000      0.000000     -0.000290 electrons x Angstroem
 Tr[quadrupol]    -40177.472705

 energy correction for charged system         0.000000 eV
 dipol+quadrupol energy correction           -0.000000 eV
 added-field ion interaction          0.000117 eV  (added to PSCEN)


 Broyden mixing:
  rms(total) = 0.83495E-05    rms(broyden)= 0.83495E-05
  rms(prec ) = 0.10497E-04
  weight for this iteration     100.00

 eigenvalues of (default mixing * dielectric matrix)
  average eigenvalue GAMMA=   2.3123
  8.9710  6.8965  4.7724  3.3522  2.7939  2.4815  2.1198  2.1198  1.5794  1.3131
  1.2295  1.2295  1.0590  1.0590  0.6939  0.9658  0.9658  0.9350  0.9066  0.8030

 Free energy of the ion-electron system (eV)
  ---------------------------------------------------
  alpha Z        PSCENC =       489.09722067
  Ewald energy   TEWEN  =    239465.33460256
  -Hartree energ DENC   =   -254845.43769148
  -exchange      EXHF   =         0.00000000
  -V(xc)+E(xc)   XCENC  =      1874.81352057
  PAW double counting   =     68189.69350718   -67995.50480443
  entropy T*S    EENTRO =        -0.14462363
  eigenvalues    EBANDS =     -6971.24982329
  atomic energy  EATOM  =     18159.52318148
  Solvation  Ediel_sol  =         0.00000000
  ---------------------------------------------------
  free energy    TOTEN  =     -1633.87491036 eV

  energy without entropy =    -1633.73028673  energy(sigma->0) =    -1633.80259854


--------------------------------------------------------------------------------------------------------




--------------------------------------- Iteration      1(  26)  ---------------------------------------


    POTLOK:  cpu time      1.0368: real time      1.0491
    SETDIJ:  cpu time      0.0074: real time      0.0074
     EDDAV:  cpu time    183.3275: real time    185.2540
       DOS:  cpu time      0.0047: real time      0.0048
    CHARGE:  cpu time     15.3667: real time     15.5533
    MIXING:  cpu time      0.0400: real time      0.0404
    --------------------------------------------
      LOOP:  cpu time    199.7832: real time    201.9090

 eigenvalue-minimisations  :  4488
 total energy-change (2. order) :-0.2637134E-05  (-0.6217703E-09)
 number of electron     773.9999996 magnetization 
 augmentation part       -2.7924499 magnetization 

 DIPCOR: dipole corrections for dipol
 direction  3 min pos   337,
 dipolmoment           0.000000      0.000000     -0.000294 electrons x Angstroem
 Tr[quadrupol]    -40177.474021

 energy correction for charged system         0.000000 eV
 dipol+quadrupol energy correction           -0.000000 eV
 added-field ion interaction          0.000118 eV  (added to PSCEN)


 Broyden mixing:
  rms(total) = 0.47613E-05    rms(broyden)= 0.47613E-05
  rms(prec ) = 0.61819E-05
  weight for this iteration     100.00

 eigenvalues of (default mixing * dielectric matrix)
  average eigenvalue GAMMA=   2.2937
  9.0043  6.8871  4.8688  3.4670  2.9410  2.4598  2.2854  1.9009  1.9009  1.5524
  1.2065  1.2065  0.6939  1.0654  1.0654  1.0324  1.0324  0.9854  0.9290  0.8419
  0.8419

 Free energy of the ion-electron system (eV)
  ---------------------------------------------------
  alpha Z        PSCENC =       489.09722214
  Ewald energy   TEWEN  =    239465.33460256
  -Hartree energ DENC   =   -254845.44803798
  -exchange      EXHF   =         0.00000000
  -V(xc)+E(xc)   XCENC  =      1874.81358056
  PAW double counting   =     68189.67704488   -67995.48834592
  entropy T*S    EENTRO =        -0.14462359
  eigenvalues    EBANDS =     -6971.23953712
  atomic energy  EATOM  =     18159.52318148
  Solvation  Ediel_sol  =         0.00000000
  ---------------------------------------------------
  free energy    TOTEN  =     -1633.87491300 eV

  energy without entropy =    -1633.73028940  energy(sigma->0) =    -1633.80260120


--------------------------------------------------------------------------------------------------------




--------------------------------------- Iteration      1(  27)  ---------------------------------------


    POTLOK:  cpu time      1.0576: real time      1.0667
    SETDIJ:  cpu time      0.0147: real time      0.0148
     EDDAV:  cpu time    179.0907: real time    183.3126
       DOS:  cpu time      0.0007: real time      0.0007
    CHARGE:  cpu time     14.8798: real time     15.1812
    MIXING:  cpu time      0.0421: real time      0.0431
    --------------------------------------------
      LOOP:  cpu time    195.0857: real time    199.6190

 eigenvalue-minimisations  :  4416
 total energy-change (2. order) :-0.1002700E-05  ( 0.1351244E-08)
 number of electron     773.9999996 magnetization 
 augmentation part       -2.7924507 magnetization 

 DIPCOR: dipole corrections for dipol
 direction  3 min pos   337,
 dipolmoment           0.000000      0.000000     -0.000295 electrons x Angstroem
 Tr[quadrupol]    -40177.474995

 energy correction for charged system         0.000000 eV
 dipol+quadrupol energy correction           -0.000000 eV
 added-field ion interaction          0.000119 eV  (added to PSCEN)


 Broyden mixing:
  rms(total) = 0.20666E-05    rms(broyden)= 0.20666E-05
  rms(prec ) = 0.33976E-05
  weight for this iteration     100.00

 eigenvalues of (default mixing * dielectric matrix)
  average eigenvalue GAMMA=   2.2667
  9.0231  6.8731  4.9476  3.5227  3.0855  2.4848  2.3094  2.1637  1.8252  1.5885
  1.2883  1.2111  1.2111  1.0567  1.0567  0.6939  0.9987  0.9987  0.9356  0.9356
  0.8291  0.8291

 Free energy of the ion-electron system (eV)
  ---------------------------------------------------
  alpha Z        PSCENC =       489.09722255
  Ewald energy   TEWEN  =    239465.33460256
  -Hartree energ DENC   =   -254845.45201036
  -exchange      EXHF   =         0.00000000
  -V(xc)+E(xc)   XCENC  =      1874.81358469
  PAW double counting   =     68189.67587713   -67995.48718028
  entropy T*S    EENTRO =        -0.14462360
  eigenvalues    EBANDS =     -6971.23556817
  atomic energy  EATOM  =     18159.52318148
  Solvation  Ediel_sol  =         0.00000000
  ---------------------------------------------------
  free energy    TOTEN  =     -1633.87491400 eV

  energy without entropy =    -1633.73029040  energy(sigma->0) =    -1633.80260220


--------------------------------------------------------------------------------------------------------




--------------------------------------- Iteration      1(  28)  ---------------------------------------


    POTLOK:  cpu time      0.9875: real time      1.0098
    SETDIJ:  cpu time      0.0139: real time      0.0141
     EDDAV:  cpu time    185.9690: real time    187.7095
       DOS:  cpu time      0.0010: real time      0.0010
    --------------------------------------------
      LOOP:  cpu time    186.9718: real time    188.7347

 eigenvalue-minimisations  :  4548
 total energy-change (2. order) :-0.3432797E-06  ( 0.1925141E-08)
 number of electron     773.9999996 magnetization 
 augmentation part       -2.7924507 magnetization 

 DIPCOR: dipole corrections for dipol
 direction  3 min pos   337,
 dipolmoment           0.000000      0.000000     -0.000294 electrons x Angstroem
 Tr[quadrupol]    -40177.475800

 energy correction for charged system         0.000000 eV
 dipol+quadrupol energy correction           -0.000000 eV
 added-field ion interaction          0.000118 eV  (added to PSCEN)


 Free energy of the ion-electron system (eV)
  ---------------------------------------------------
  alpha Z        PSCENC =       489.09722221
  Ewald energy   TEWEN  =    239465.33460256
  -Hartree energ DENC   =   -254845.45512493
  -exchange      EXHF   =         0.00000000
  -V(xc)+E(xc)   XCENC  =      1874.81358708
  PAW double counting   =     68189.67584079   -67995.48714119
  entropy T*S    EENTRO =        -0.14462361
  eigenvalues    EBANDS =     -6971.23245874
  atomic energy  EATOM  =     18159.52318148
  Solvation  Ediel_sol  =         0.00000000
  ---------------------------------------------------
  free energy    TOTEN  =     -1633.87491434 eV

  energy without entropy =    -1633.73029073  energy(sigma->0) =    -1633.80260254


--------------------------------------------------------------------------------------------------------




 average (electrostatic) potential at core
  the test charge radii are     0.7672  0.5201
  (the norm of the test charge is              1.0000)
       1 -35.2408       2 -35.2404       3 -35.2408       4 -35.2405       5 -35.2406
       6 -35.2406       7 -35.2406       8 -35.2405       9 -35.2405      10 -35.2409
      11 -35.2406      12 -35.2406      13 -35.2407      14 -35.2407      15 -35.2406
      16 -35.2407      17 -35.2406      18 -35.2408      19 -35.2396      20 -35.2402
      21 -35.2407      22 -35.2404      23 -35.2407      24 -35.2406      25 -35.2405
      26 -35.2405      27 -35.2406      28 -35.2408      29 -35.2406      30 -35.2406
      31 -35.2407      32 -35.2407      33 -35.2406      34 -35.2407      35 -35.2406
      36 -35.2407      37 -35.4831      38 -35.4854      39 -35.4854      40 -35.4852
      41 -35.4853      42 -35.4856      43 -35.4853      44 -35.4853      45 -35.4853
      46 -35.4855      47 -35.4853      48 -35.4854      49 -35.4854      50 -35.4854
      51 -35.4854      52 -35.4854      53 -35.4854      54 -35.4854      55 -35.4850
      56 -35.4845      57 -35.4855      58 -35.4855      59 -35.4853      60 -35.4854
      61 -35.4853      62 -35.4853      63 -35.4854      64 -35.4854      65 -35.4853
      66 -35.4853      67 -35.4854      68 -35.4854      69 -35.4854      70 -35.4854
      71 -35.4854      72 -35.4854      73 -34.4395      74 -34.4380      75 -34.4379
      76 -34.4376      77 -34.4378      78 -34.4378      79 -34.4377      80 -34.4377
      81 -34.4378      82 -34.4378      83 -34.4378      84 -34.4378      85 -34.4379
      86 -34.4379      87 -34.4379      88 -34.4379      89 -34.4378      90 -34.4379
      91 -34.4368      92 -34.4373      93 -34.4380      94 -34.4384      95 -34.4378
      96 -34.4378      97 -34.4377      98 -34.4378      99 -34.4378     100 -34.4379
     101 -34.4378     102 -34.4378     103 -34.4380     104 -34.4379     105 -34.4379
     106 -34.4379     107 -34.4379     108 -34.4379     109 -34.5159     110 -34.5187
     111 -34.5187     112 -34.5184     113 -34.5186     114 -34.5186     115 -34.5185
     116 -34.5186     117 -34.5184     118 -34.5185     119 -34.5186     120 -34.5186
     121 -34.5186     122 -34.5187     123 -34.5186     124 -34.5186     125 -34.5186
     126 -34.5187     127 -34.5179     128 -34.5183     129 -34.5188     130 -34.5187
     131 -34.5186     132 -34.5185     133 -34.5185     134 -34.5185     135 -34.5186
     136 -34.5187     137 -34.5186     138 -34.5186     139 -34.5187     140 -34.5187
     141 -34.5186     142 -34.5186     143 -34.5186     144 -34.5187     145 -34.7687
     146 -34.7680     147 -34.7682     148 -34.7680     149 -34.7681     150 -34.7680
     151 -34.7681     152 -34.7681     153 -34.7680     154 -35.9983     155 -35.9981
     156 -35.9981     157 -35.9981     158 -35.9982     159 -35.9981     160 -35.9981
     161 -35.9981     162 -35.9982     163 -35.9967     164 -35.9973     165 -35.9982
     166 -35.9966     167 -35.9979     168 -35.9980     169 -35.9980     170 -35.9980
     171 -35.9981     172 -34.7680     173 -34.7680     174 -34.7681     175 -34.7682
     176 -34.7682     177 -34.7681     178 -34.7681     179 -34.7681     180 -34.7682
     181 -35.9969     182 -35.9981     183 -35.9982     184 -35.9981     185 -35.9981
     186 -35.9981     187 -35.9980     188 -35.9980     189 -35.9980     190 -34.7687
     191 -34.7680     192 -34.7681     193 -34.7681     194 -34.7682     195 -34.7681
     196 -34.7681     197 -34.7681     198 -34.7682     199 -34.7674     200 -34.7677
     201 -34.7682     202 -34.7698     203 -34.7682     204 -34.7681     205 -34.7680
     206 -34.7680     207 -34.7681     208 -35.9982     209 -35.9981     210 -35.9981
     211 -35.9981     212 -35.9982     213 -35.9981     214 -35.9981     215 -35.9981
     216 -35.9982     217 -35.0494     218 -35.0491     219 -35.0504     220 -35.0503
     221 -35.0502     222 -35.0501     223 -35.0500     224 -35.0501     225 -35.0502
     226 -35.0502     227 -35.0502     228 -35.0501     229 -35.0503     230 -35.0502
     231 -35.0502     232 -35.0502     233 -35.0502     234 -35.0502     235 -35.0490
     236 -35.0502     237 -35.0503     238 -35.0500     239 -35.0501     240 -35.0501
     241 -35.0501     242 -35.0501     243 -35.0501     244 -35.0503     245 -35.0501
     246 -35.0501     247 -35.0502     248 -35.0502     249 -35.0502     250 -35.0502
     251 -35.0502     252 -35.0502     253 -38.7931     254 -38.7955     255 -38.7958
     256 -38.7957     257 -38.7957     258 -38.7957     259 -38.7957     260 -38.7957
     261 -38.7957     262 -38.7958     263 -38.7957     264 -38.7958     265 -38.7958
     266 -38.7958     267 -38.7958     268 -38.7958     269 -38.7957     270 -38.7958
 
 
 
 E-fermi :  -3.3450     XC(G=0):  -3.0531     alpha+bet : -3.0894

 val. band max:       -3.3692630388   @ k =  -0.1250   0.3333   0.0000
 cond. band min:      -3.3423732920   @ k =   0.3750   0.3333   0.0000
 fundamental gap:      0.0268897468
 Fermi energy:        -3.3449594045

 k-point     1 :       0.1250    0.0000    0.0000
  band No.  band energies     occupation 
      1     -18.5953      2.00000
      2     -18.5241      2.00000
      3     -18.5211      2.00000
      4     -18.4145      2.00000
      5     -18.3852      2.00000
      6     -18.3686      2.00000
      7     -18.3487      2.00000
      8     -18.3155      2.00000
      9     -18.3125      2.00000
     10     -18.3063      2.00000
     11     -18.2758      2.00000
     12     -18.2533      2.00000
     13     -18.2077      2.00000
     14     -18.1634      2.00000
     15     -18.1432      2.00000
     16     -18.1007      2.00000
     17     -18.0718      2.00000
     18     -18.0488      2.00000
     19     -17.8011      2.00000
     20     -17.7769      2.00000
     21     -17.7667      2.00000
     22     -17.6903      2.00000
     23     -17.6537      2.00000
     24     -17.6284      2.00000
     25     -17.6200      2.00000
     26     -17.5955      2.00000
     27     -17.5856      2.00000
     28     -17.5112      2.00000
     29     -17.4750      2.00000
     30     -17.4681      2.00000
     31     -17.4602      2.00000
     32     -17.4502      2.00000
     33     -17.3304      2.00000
     34     -17.2943      2.00000
     35     -17.2867      2.00000
     36     -17.1616      2.00000
     37     -14.4705      2.00000
     38     -14.4328      2.00000
     39     -14.4228      2.00000
     40     -14.3993      2.00000
     41     -14.3762      2.00000
     42     -14.3420      2.00000
     43     -14.3220      2.00000
     44     -14.2676      2.00000
     45     -14.2349      2.00000
     46     -14.2310      2.00000
     47     -14.2167      2.00000
     48     -14.2126      2.00000
     49     -14.1783      2.00000
     50     -14.1492      2.00000
     51     -14.1342      2.00000
     52     -14.1301      2.00000
     53     -14.0730      2.00000
     54     -14.0605      2.00000
     55     -14.0295      2.00000
     56     -13.9499      2.00000
     57     -13.9204      2.00000
     58     -13.9192      2.00000
     59     -13.9036      2.00000
     60     -13.9031      2.00000
     61     -13.8997      2.00000
     62     -13.8990      2.00000
     63     -13.8688      2.00000
     64     -13.7525      2.00000
     65     -13.7439      2.00000
     66     -13.7337      2.00000
     67     -13.7271      2.00000
     68     -13.7168      2.00000
     69     -13.6620      2.00000
     70     -13.6540      2.00000
     71     -13.4927      2.00000
     72     -13.4913      2.00000
     73     -12.3482      2.00000
     74     -12.3129      2.00000
     75     -12.1253      2.00000
     76     -12.0979      2.00000
     77     -11.9252      2.00000
     78     -11.8073      2.00000
     79     -11.7968      2.00000
     80     -11.7957      2.00000
     81     -11.7950      2.00000
     82     -11.7551      2.00000
     83     -11.7360      2.00000
     84     -11.6998      2.00000
     85     -11.6583      2.00000
     86     -11.6437      2.00000
     87     -11.6419      2.00000
     88     -11.6408      2.00000
     89     -11.5855      2.00000
     90     -11.5769      2.00000
     91     -11.5687      2.00000
     92     -11.5232      2.00000
     93     -11.5225      2.00000
     94     -11.5177      2.00000
     95     -11.5031      2.00000
     96     -11.4844      2.00000
     97     -11.4211      2.00000
     98     -11.4168      2.00000
     99     -11.4103      2.00000
    100     -11.3894      2.00000
    101     -11.3475      2.00000
    102     -11.3379      2.00000
    103     -11.2928      2.00000
    104     -11.2526      2.00000
    105     -11.1906      2.00000
    106     -11.0964      2.00000
    107     -11.0777      2.00000
    108     -11.0271      2.00000
    109     -11.0158      2.00000
    110     -10.9754      2.00000
    111     -10.8543      2.00000
    112     -10.8331      2.00000
    113     -10.7834      2.00000
    114     -10.7782      2.00000
    115     -10.7768      2.00000
    116     -10.7491      2.00000
    117     -10.6121      2.00000
    118     -10.6103      2.00000
    119     -10.5667      2.00000
    120     -10.5384      2.00000
    121     -10.4820      2.00000
    122     -10.4743      2.00000
    123     -10.3885      2.00000
    124     -10.3719      2.00000
    125     -10.3207      2.00000
    126     -10.3205      2.00000
    127     -10.3147      2.00000
    128     -10.2449      2.00000
    129     -10.2305      2.00000
    130     -10.2006      2.00000
    131     -10.1920      2.00000
    132     -10.1663      2.00000
    133     -10.1476      2.00000
    134     -10.1421      2.00000
    135     -10.1248      2.00000
    136     -10.0962      2.00000
    137     -10.0940      2.00000
    138     -10.0914      2.00000
    139     -10.0887      2.00000
    140     -10.0853      2.00000
    141     -10.0195      2.00000
    142      -9.9374      2.00000
    143      -9.9371      2.00000
    144      -9.9129      2.00000
    145      -9.9104      2.00000
    146      -9.8728      2.00000
    147      -9.8640      2.00000
    148      -9.8609      2.00000
    149      -9.7940      2.00000
    150      -9.6950      2.00000
    151      -9.6173      2.00000
    152      -9.3817      2.00000
    153      -9.2768      2.00000
    154      -9.2224      2.00000
    155      -9.1795      2.00000
    156      -9.1065      2.00000
    157      -9.0925      2.00000
    158      -9.0750      2.00000
    159      -9.0212      2.00000
    160      -8.9769      2.00000
    161      -8.9643      2.00000
    162      -8.9016      2.00000
    163      -8.8858      2.00000
    164      -8.8559      2.00000
    165      -8.8529      2.00000
    166      -8.8484      2.00000
    167      -8.8386      2.00000
    168      -8.8376      2.00000
    169      -8.8288      2.00000
    170      -8.7658      2.00000
    171      -8.7024      2.00000
    172      -8.6971      2.00000
    173      -8.6317      2.00000
    174      -8.5594      2.00000
    175      -8.4918      2.00000
    176      -8.4877      2.00000
    177      -8.3901      2.00000
    178      -8.3727      2.00000
    179      -8.3226      2.00000
    180      -8.3152      2.00000
    181      -8.2909      2.00000
    182      -8.2579      2.00000
    183      -8.2024      2.00000
    184      -8.1892      2.00000
    185      -8.1443      2.00000
    186      -8.1226      2.00000
    187      -8.1214      2.00000
    188      -8.0789      2.00000
    189      -8.0779      2.00000
    190      -8.0635      2.00000
    191      -8.0319      2.00000
    192      -8.0307      2.00000
    193      -8.0071      2.00000
    194      -7.9798      2.00000
    195      -7.9789      2.00000
    196      -7.9331      2.00000
    197      -7.9136      2.00000
    198      -7.8578      2.00000
    199      -7.8107      2.00000
    200      -7.8042      2.00000
    201      -7.7988      2.00000
    202      -7.7842      2.00000
    203      -7.7723      2.00000
    204      -7.7642      2.00000
    205      -7.7181      2.00000
    206      -7.6858      2.00000
    207      -7.5946      2.00000
    208      -7.5853      2.00000
    209      -7.5464      2.00000
    210      -7.5341      2.00000
    211      -7.4731      2.00000
    212      -7.4238      2.00000
    213      -7.4152      2.00000
    214      -7.3093      2.00000
    215      -7.2977      2.00000
    216      -7.2194      2.00000
    217      -7.1795      2.00000
    218      -7.1585      2.00000
    219      -7.1457      2.00000
    220      -7.1324      2.00000
    221      -7.1309      2.00000
    222      -7.1054      2.00000
    223      -7.0900      2.00000
    224      -7.0887      2.00000
    225      -7.0808      2.00000
    226      -7.0767      2.00000
    227      -7.0683      2.00000
    228      -7.0203      2.00000
    229      -7.0149      2.00000
    230      -6.9801      2.00000
    231      -6.9551      2.00000
    232      -6.9139      2.00000
    233      -6.9098      2.00000
    234      -6.9094      2.00000
    235      -6.8652      2.00000
    236      -6.8528      2.00000
    237      -6.8422      2.00000
    238      -6.8337      2.00000
    239      -6.7333      2.00000
    240      -6.6937      2.00000
    241      -6.6824      2.00000
    242      -6.6584      2.00000
    243      -6.6396      2.00000
    244      -6.6294      2.00000
    245      -6.6131      2.00000
    246      -6.6116      2.00000
    247      -6.5742      2.00000
    248      -6.5464      2.00000
    249      -6.5310      2.00000
    250      -6.5284      2.00000
    251      -6.5052      2.00000
    252      -6.4872      2.00000
    253      -6.4760      2.00000
    254      -6.4543      2.00000
    255      -6.4203      2.00000
    256      -6.3271      2.00000
    257      -6.3269      2.00000
    258      -6.3242      2.00000
    259      -6.3168      2.00000
    260      -6.3005      2.00000
    261      -6.2766      2.00000
    262      -6.2495      2.00000
    263      -6.2000      2.00000
    264      -6.1959      2.00000
    265      -6.1786      2.00000
    266      -6.1632      2.00000
    267      -6.1554      2.00000
    268      -6.1511      2.00000
    269      -6.1468      2.00000
    270      -6.1264      2.00000
    271      -6.1239      2.00000
    272      -6.1137      2.00000
    273      -6.0152      2.00000
    274      -6.0123      2.00000
    275      -5.9767      2.00000
    276      -5.9750      2.00000
    277      -5.9634      2.00000
    278      -5.9486      2.00000
    279      -5.9385      2.00000
    280      -5.9005      2.00000
    281      -5.8966      2.00000
    282      -5.8882      2.00000
    283      -5.8652      2.00000
    284      -5.8579      2.00000
    285      -5.8482      2.00000
    286      -5.8392      2.00000
    287      -5.8360      2.00000
    288      -5.8333      2.00000
    289      -5.8252      2.00000
    290      -5.8165      2.00000
    291      -5.7989      2.00000
    292      -5.7841      2.00000
    293      -5.7648      2.00000
    294      -5.7531      2.00000
    295      -5.7157      2.00000
    296      -5.7134      2.00000
    297      -5.7001      2.00000
    298      -5.6987      2.00000
    299      -5.6798      2.00000
    300      -5.6678      2.00000
    301      -5.5801      2.00000
    302      -5.5570      2.00000
    303      -5.4833      2.00000
    304      -5.4807      2.00000
    305      -5.4775      2.00000
    306      -5.4723      2.00000
    307      -5.4505      2.00000
    308      -5.4501      2.00000
    309      -5.4346      2.00000
    310      -5.3787      2.00000
    311      -5.3535      2.00000
    312      -5.2906      2.00000
    313      -5.2786      2.00000
    314      -5.2722      2.00000
    315      -5.2566      2.00000
    316      -5.2144      2.00000
    317      -5.1872      2.00000
    318      -5.1781      2.00000
    319      -5.1010      2.00000
    320      -5.0937      2.00000
    321      -5.0909      2.00000
    322      -5.0742      2.00000
    323      -5.0715      2.00000
    324      -5.0635      2.00000
    325      -5.0516      2.00000
    326      -5.0351      2.00000
    327      -5.0061      2.00000
    328      -4.9940      2.00000
    329      -4.9745      2.00000
    330      -4.9732      2.00000
    331      -4.9545      2.00000
    332      -4.9296      2.00000
    333      -4.9153      2.00000
    334      -4.9139      2.00000
    335      -4.9126      2.00000
    336      -4.9102      2.00000
    337      -4.8968      2.00000
    338      -4.8850      2.00000
    339      -4.8769      2.00000
    340      -4.8516      2.00000
    341      -4.8485      2.00000
    342      -4.8414      2.00000
    343      -4.8041      2.00000
    344      -4.7666      2.00000
    345      -4.7144      2.00000
    346      -4.6868      2.00000
    347      -4.6695      2.00000
    348      -4.6107      2.00000
    349      -4.6045      2.00000
    350      -4.4543      2.00000
    351      -4.4116      2.00000
    352      -4.3993      2.00000
    353      -4.3797      2.00000
    354      -4.3541      2.00000
    355      -4.3450      2.00000
    356      -4.3196      2.00000
    357      -4.3114      2.00000
    358      -4.2733      2.00000
    359      -4.2578      2.00000
    360      -4.2556      2.00000
    361      -4.2450      2.00000
    362      -4.2208      2.00000
    363      -4.2196      2.00000
    364      -4.2178      2.00000
    365      -4.2108      2.00000
    366      -4.2010      2.00000
    367      -4.1950      2.00000
    368      -4.1216      2.00000
    369      -4.1182      2.00000
    370      -4.0919      2.00000
    371      -4.0443      2.00000
    372      -4.0383      2.00000
    373      -4.0300      2.00000
    374      -4.0025      2.00000
    375      -3.9441      2.00000
    376      -3.9288      2.00000
    377      -3.8305      2.00000
    378      -3.7651      2.00000
    379      -3.7438      2.00000
    380      -3.7405      2.00000
    381      -3.7349      2.00000
    382      -3.7286      2.00000
    383      -3.6977      2.00000
    384      -3.6532      1.99999
    385      -3.5274      1.99012
    386      -3.5143      1.98337
    387      -3.4852      1.95272
    388      -3.4509      1.86591
    389      -3.3900      1.47579
    390      -3.3412      0.95792
    391      -3.2808      0.36457
    392      -3.0105      0.00000
    393      -2.4332      0.00000
    394      -2.3239      0.00000
    395      -2.2906      0.00000
    396      -2.2549      0.00000
    397      -2.2464      0.00000
    398      -2.2109      0.00000
    399      -2.2035      0.00000
    400      -2.1672      0.00000
    401      -2.1163      0.00000
    402      -2.1088      0.00000
    403      -2.0501      0.00000
    404      -1.9739      0.00000
    405      -1.8939      0.00000
    406      -1.6610      0.00000
    407      -1.5972      0.00000
    408      -1.4889      0.00000
    409      -1.4825      0.00000
    410      -1.4017      0.00000
    411      -1.3990      0.00000
    412      -1.2744      0.00000
    413      -1.2417      0.00000
    414      -1.1293      0.00000
    415      -0.8952      0.00000
    416      -0.7110      0.00000
    417      -0.6553      0.00000
    418      -0.6373      0.00000
    419      -0.6209      0.00000
    420      -0.5895      0.00000
    421      -0.4565      0.00000
    422      -0.4217      0.00000
    423      -0.3683      0.00000
    424      -0.3624      0.00000
    425      -0.2439      0.00000
    426      -0.2031      0.00000
    427      -0.1825      0.00000
    428      -0.1230      0.00000
    429      -0.1108      0.00000
    430      -0.0452      0.00000
    431       0.0664      0.00000
    432       0.1012      0.00000
    433       0.1589      0.00000
    434       0.1981      0.00000
    435       0.2063      0.00000
    436       0.2067      0.00000
    437       0.2551      0.00000
    438       0.3400      0.00000
    439       0.4144      0.00000
    440       0.4217      0.00000
    441       0.4416      0.00000
    442       0.4483      0.00000
    443       0.4851      0.00000
    444       0.5303      0.00000
    445       0.5541      0.00000
    446       0.5616      0.00000
    447       0.5653      0.00000
    448       0.5669      0.00000
    449       0.6772      0.00000
    450       0.6777      0.00000
    451       0.7090      0.00000
    452       0.7313      0.00000
    453       0.7669      0.00000
    454       0.8195      0.00000
    455       0.8329      0.00000
    456       0.8566      0.00000
    457       0.8621      0.00000
    458       0.8628      0.00000
    459       0.9148      0.00000
    460       0.9259      0.00000
    461       0.9449      0.00000
    462       0.9492      0.00000
    463       0.9513      0.00000
    464       0.9777      0.00000
    465       1.0651      0.00000
    466       1.1002      0.00000
    467       1.1236      0.00000
    468       1.1811      0.00000
    469       1.2097      0.00000
    470       1.2722      0.00000
    471       1.2949      0.00000
    472       1.3240      0.00000
    473       1.3672      0.00000
    474       1.3812      0.00000
    475       1.4041      0.00000
    476       1.4061      0.00000
    477       1.4206      0.00000
    478       1.4296      0.00000
    479       1.4590      0.00000
    480       1.4918      0.00000
    481       1.4922      0.00000
    482       1.5048      0.00000
    483       1.5161      0.00000
    484       1.5484      0.00000
    485       1.5636      0.00000
    486       1.5870      0.00000
    487       1.5881      0.00000
    488       1.5956      0.00000
    489       1.6174      0.00000
    490       1.6203      0.00000
    491       1.6271      0.00000
    492       1.6500      0.00000
    493       1.6605      0.00000
    494       1.6716      0.00000
    495       1.7122      0.00000
    496       1.7288      0.00000
    497       1.7709      0.00000
    498       1.7774      0.00000
    499       1.7864      0.00000
    500       1.8721      0.00000
    501       1.8755      0.00000
    502       1.8934      0.00000
    503       1.9037      0.00000
    504       1.9168      0.00000
    505       1.9457      0.00000
    506       1.9492      0.00000
    507       2.0064      0.00000
    508       2.0801      0.00000
    509       2.0886      0.00000
    510       2.0967      0.00000
    511       2.1188      0.00000
    512       2.1216      0.00000
    513       2.1251      0.00000
    514       2.1493      0.00000
    515       2.1690      0.00000
    516       2.1724      0.00000
    517       2.1792      0.00000
    518       2.2055      0.00000
    519       2.2141      0.00000
    520       2.2389      0.00000
    521       2.2427      0.00000
    522       2.2694      0.00000
    523       2.3033      0.00000
    524       2.3274      0.00000
    525       2.3408      0.00000
    526       2.3523      0.00000
    527       2.3682      0.00000
    528       2.3982      0.00000

 k-point     2 :       0.3750    0.0000    0.0000
  band No.  band energies     occupation 
      1     -18.5640      2.00000
      2     -18.5027      2.00000
      3     -18.4984      2.00000
      4     -18.4893      2.00000
      5     -18.4454      2.00000
      6     -18.4305      2.00000
      7     -18.3545      2.00000
      8     -18.2944      2.00000
      9     -18.2904      2.00000
     10     -18.2813      2.00000
     11     -18.2386      2.00000
     12     -18.2236      2.00000
     13     -18.2031      2.00000
     14     -18.1884      2.00000
     15     -18.1744      2.00000
     16     -17.9965      2.00000
     17     -17.9842      2.00000
     18     -17.9695      2.00000
     19     -17.9029      2.00000
     20     -17.8867      2.00000
     21     -17.8685      2.00000
     22     -17.7213      2.00000
     23     -17.7057      2.00000
     24     -17.6869      2.00000
     25     -17.5893      2.00000
     26     -17.5573      2.00000
     27     -17.5125      2.00000
     28     -17.4920      2.00000
     29     -17.4906      2.00000
     30     -17.4125      2.00000
     31     -17.3874      2.00000
     32     -17.3811      2.00000
     33     -17.3377      2.00000
     34     -17.3177      2.00000
     35     -17.3163      2.00000
     36     -17.2165      2.00000
     37     -14.4560      2.00000
     38     -14.4020      2.00000
     39     -14.4015      2.00000
     40     -14.3546      2.00000
     41     -14.3473      2.00000
     42     -14.3444      2.00000
     43     -14.3282      2.00000
     44     -14.2922      2.00000
     45     -14.2541      2.00000
     46     -14.2153      2.00000
     47     -14.2149      2.00000
     48     -14.2141      2.00000
     49     -14.2037      2.00000
     50     -14.1681      2.00000
     51     -14.1513      2.00000
     52     -14.1459      2.00000
     53     -14.1449      2.00000
     54     -14.0998      2.00000
     55     -14.0471      2.00000
     56     -14.0344      2.00000
     57     -14.0180      2.00000
     58     -13.9639      2.00000
     59     -13.8998      2.00000
     60     -13.8962      2.00000
     61     -13.8790      2.00000
     62     -13.7794      2.00000
     63     -13.7771      2.00000
     64     -13.7729      2.00000
     65     -13.7299      2.00000
     66     -13.7253      2.00000
     67     -13.6937      2.00000
     68     -13.6853      2.00000
     69     -13.6197      2.00000
     70     -13.5908      2.00000
     71     -13.5287      2.00000
     72     -13.5161      2.00000
     73     -12.2647      2.00000
     74     -12.1854      2.00000
     75     -12.0654      2.00000
     76     -12.0373      2.00000
     77     -11.9988      2.00000
     78     -11.9699      2.00000
     79     -11.8919      2.00000
     80     -11.8406      2.00000
     81     -11.8259      2.00000
     82     -11.8094      2.00000
     83     -11.7775      2.00000
     84     -11.7761      2.00000
     85     -11.7674      2.00000
     86     -11.7559      2.00000
     87     -11.7313      2.00000
     88     -11.6819      2.00000
     89     -11.5952      2.00000
     90     -11.5772      2.00000
     91     -11.5733      2.00000
     92     -11.5141      2.00000
     93     -11.5133      2.00000
     94     -11.5064      2.00000
     95     -11.4931      2.00000
     96     -11.3726      2.00000
     97     -11.3520      2.00000
     98     -11.3368      2.00000
     99     -11.3139      2.00000
    100     -11.2604      2.00000
    101     -11.2220      2.00000
    102     -11.2120      2.00000
    103     -11.1900      2.00000
    104     -11.1872      2.00000
    105     -11.0742      2.00000
    106     -11.0729      2.00000
    107     -11.0524      2.00000
    108     -11.0313      2.00000
    109     -11.0176      2.00000
    110     -10.9798      2.00000
    111     -10.9516      2.00000
    112     -10.9000      2.00000
    113     -10.8955      2.00000
    114     -10.8897      2.00000
    115     -10.7486      2.00000
    116     -10.7462      2.00000
    117     -10.7023      2.00000
    118     -10.6935      2.00000
    119     -10.6796      2.00000
    120     -10.6192      2.00000
    121     -10.5812      2.00000
    122     -10.5280      2.00000
    123     -10.5026      2.00000
    124     -10.4686      2.00000
    125     -10.4599      2.00000
    126     -10.3846      2.00000
    127     -10.3739      2.00000
    128     -10.3353      2.00000
    129     -10.3189      2.00000
    130     -10.2827      2.00000
    131     -10.2697      2.00000
    132     -10.2559      2.00000
    133     -10.2011      2.00000
    134     -10.1959      2.00000
    135     -10.1064      2.00000
    136     -10.1056      2.00000
    137      -9.9878      2.00000
    138      -9.9857      2.00000
    139      -9.9433      2.00000
    140      -9.9091      2.00000
    141      -9.8523      2.00000
    142      -9.7943      2.00000
    143      -9.7289      2.00000
    144      -9.6853      2.00000
    145      -9.6384      2.00000
    146      -9.6244      2.00000
    147      -9.5944      2.00000
    148      -9.5724      2.00000
    149      -9.4802      2.00000
    150      -9.4378      2.00000
    151      -9.4133      2.00000
    152      -9.3789      2.00000
    153      -9.3715      2.00000
    154      -9.3544      2.00000
    155      -9.3481      2.00000
    156      -9.3256      2.00000
    157      -9.3125      2.00000
    158      -9.2811      2.00000
    159      -9.2072      2.00000
    160      -9.0728      2.00000
    161      -9.0230      2.00000
    162      -8.9830      2.00000
    163      -8.9509      2.00000
    164      -8.9301      2.00000
    165      -8.8992      2.00000
    166      -8.8762      2.00000
    167      -8.8419      2.00000
    168      -8.8266      2.00000
    169      -8.8044      2.00000
    170      -8.7740      2.00000
    171      -8.7341      2.00000
    172      -8.7297      2.00000
    173      -8.6630      2.00000
    174      -8.6628      2.00000
    175      -8.6372      2.00000
    176      -8.6073      2.00000
    177      -8.5813      2.00000
    178      -8.5114      2.00000
    179      -8.4940      2.00000
    180      -8.4821      2.00000
    181      -8.4054      2.00000
    182      -8.2709      2.00000
    183      -8.2636      2.00000
    184      -8.2208      2.00000
    185      -8.1764      2.00000
    186      -8.1476      2.00000
    187      -8.1270      2.00000
    188      -8.1266      2.00000
    189      -8.0665      2.00000
    190      -8.0495      2.00000
    191      -8.0445      2.00000
    192      -8.0082      2.00000
    193      -7.9241      2.00000
    194      -7.9150      2.00000
    195      -7.8785      2.00000
    196      -7.8123      2.00000
    197      -7.8107      2.00000
    198      -7.7926      2.00000
    199      -7.7914      2.00000
    200      -7.7829      2.00000
    201      -7.7333      2.00000
    202      -7.6910      2.00000
    203      -7.6059      2.00000
    204      -7.5706      2.00000
    205      -7.5668      2.00000
    206      -7.5521      2.00000
    207      -7.4959      2.00000
    208      -7.4776      2.00000
    209      -7.4751      2.00000
    210      -7.4145      2.00000
    211      -7.4074      2.00000
    212      -7.3291      2.00000
    213      -7.2907      2.00000
    214      -7.2883      2.00000
    215      -7.2661      2.00000
    216      -7.2586      2.00000
    217      -7.2424      2.00000
    218      -7.2300      2.00000
    219      -7.1986      2.00000
    220      -7.1946      2.00000
    221      -7.1567      2.00000
    222      -7.1562      2.00000
    223      -7.1196      2.00000
    224      -7.0870      2.00000
    225      -7.0810      2.00000
    226      -7.0605      2.00000
    227      -7.0324      2.00000
    228      -7.0209      2.00000
    229      -6.9957      2.00000
    230      -6.9702      2.00000
    231      -6.9485      2.00000
    232      -6.9219      2.00000
    233      -6.9168      2.00000
    234      -6.9132      2.00000
    235      -6.8830      2.00000
    236      -6.8470      2.00000
    237      -6.8288      2.00000
    238      -6.7741      2.00000
    239      -6.7542      2.00000
    240      -6.7501      2.00000
    241      -6.7414      2.00000
    242      -6.7142      2.00000
    243      -6.6884      2.00000
    244      -6.6596      2.00000
    245      -6.6261      2.00000
    246      -6.6226      2.00000
    247      -6.6203      2.00000
    248      -6.6108      2.00000
    249      -6.5776      2.00000
    250      -6.5594      2.00000
    251      -6.5162      2.00000
    252      -6.4898      2.00000
    253      -6.4735      2.00000
    254      -6.4546      2.00000
    255      -6.4531      2.00000
    256      -6.4526      2.00000
    257      -6.4389      2.00000
    258      -6.3866      2.00000
    259      -6.3526      2.00000
    260      -6.3426      2.00000
    261      -6.3383      2.00000
    262      -6.3280      2.00000
    263      -6.3083      2.00000
    264      -6.2690      2.00000
    265      -6.2502      2.00000
    266      -6.2232      2.00000
    267      -6.2111      2.00000
    268      -6.1904      2.00000
    269      -6.1750      2.00000
    270      -6.1666      2.00000
    271      -6.1245      2.00000
    272      -6.1011      2.00000
    273      -6.0945      2.00000
    274      -6.0892      2.00000
    275      -6.0385      2.00000
    276      -5.9325      2.00000
    277      -5.9142      2.00000
    278      -5.8847      2.00000
    279      -5.8812      2.00000
    280      -5.8355      2.00000
    281      -5.8313      2.00000
    282      -5.8256      2.00000
    283      -5.8177      2.00000
    284      -5.7932      2.00000
    285      -5.7885      2.00000
    286      -5.7847      2.00000
    287      -5.7687      2.00000
    288      -5.7584      2.00000
    289      -5.7246      2.00000
    290      -5.6966      2.00000
    291      -5.6671      2.00000
    292      -5.6418      2.00000
    293      -5.6388      2.00000
    294      -5.6273      2.00000
    295      -5.6191      2.00000
    296      -5.6171      2.00000
    297      -5.6049      2.00000
    298      -5.5649      2.00000
    299      -5.5617      2.00000
    300      -5.5441      2.00000
    301      -5.5331      2.00000
    302      -5.5309      2.00000
    303      -5.5069      2.00000
    304      -5.5035      2.00000
    305      -5.4920      2.00000
    306      -5.4664      2.00000
    307      -5.4415      2.00000
    308      -5.4186      2.00000
    309      -5.3544      2.00000
    310      -5.3526      2.00000
    311      -5.3047      2.00000
    312      -5.2969      2.00000
    313      -5.2850      2.00000
    314      -5.2716      2.00000
    315      -5.2670      2.00000
    316      -5.2660      2.00000
    317      -5.2429      2.00000
    318      -5.2263      2.00000
    319      -5.2197      2.00000
    320      -5.2087      2.00000
    321      -5.1647      2.00000
    322      -5.1240      2.00000
    323      -5.1185      2.00000
    324      -5.1104      2.00000
    325      -5.0755      2.00000
    326      -5.0439      2.00000
    327      -5.0409      2.00000
    328      -5.0257      2.00000
    329      -5.0138      2.00000
    330      -4.9712      2.00000
    331      -4.9470      2.00000
    332      -4.9336      2.00000
    333      -4.9262      2.00000
    334      -4.9232      2.00000
    335      -4.9066      2.00000
    336      -4.8959      2.00000
    337      -4.8809      2.00000
    338      -4.8339      2.00000
    339      -4.8247      2.00000
    340      -4.8185      2.00000
    341      -4.8003      2.00000
    342      -4.8000      2.00000
    343      -4.7781      2.00000
    344      -4.7491      2.00000
    345      -4.7383      2.00000
    346      -4.7237      2.00000
    347      -4.7109      2.00000
    348      -4.6803      2.00000
    349      -4.6662      2.00000
    350      -4.5871      2.00000
    351      -4.5268      2.00000
    352      -4.5247      2.00000
    353      -4.5100      2.00000
    354      -4.4718      2.00000
    355      -4.4199      2.00000
    356      -4.4175      2.00000
    357      -4.3941      2.00000
    358      -4.3806      2.00000
    359      -4.3341      2.00000
    360      -4.3305      2.00000
    361      -4.3121      2.00000
    362      -4.2948      2.00000
    363      -4.2806      2.00000
    364      -4.2759      2.00000
    365      -4.2271      2.00000
    366      -4.2199      2.00000
    367      -4.2147      2.00000
    368      -4.1860      2.00000
    369      -4.1582      2.00000
    370      -4.1273      2.00000
    371      -4.1230      2.00000
    372      -4.1136      2.00000
    373      -4.0464      2.00000
    374      -4.0182      2.00000
    375      -3.9078      2.00000
    376      -3.8969      2.00000
    377      -3.8399      2.00000
    378      -3.7834      2.00000
    379      -3.7777      2.00000
    380      -3.7747      2.00000
    381      -3.6928      2.00000
    382      -3.6378      1.99997
    383      -3.5551      1.99704
    384      -3.5523      1.99664
    385      -3.5428      1.99486
    386      -3.3975      1.54270
    387      -3.3001      0.52589
    388      -3.1838      0.02268
    389      -3.1136      0.00107
    390      -2.9217      0.00000
    391      -2.9017      0.00000
    392      -2.7335      0.00000
    393      -2.6954      0.00000
    394      -2.4813      0.00000
    395      -2.4014      0.00000
    396      -2.2893      0.00000
    397      -2.2691      0.00000
    398      -2.2564      0.00000
    399      -2.1975      0.00000
    400      -2.1827      0.00000
    401      -2.1464      0.00000
    402      -2.1392      0.00000
    403      -2.1273      0.00000
    404      -2.0900      0.00000
    405      -2.0882      0.00000
    406      -1.6540      0.00000
    407      -1.5858      0.00000
    408      -1.5277      0.00000
    409      -1.4841      0.00000
    410      -1.3632      0.00000
    411      -1.3278      0.00000
    412      -1.3009      0.00000
    413      -1.2677      0.00000
    414      -1.2013      0.00000
    415      -0.8949      0.00000
    416      -0.8555      0.00000
    417      -0.7710      0.00000
    418      -0.6943      0.00000
    419      -0.6683      0.00000
    420      -0.6616      0.00000
    421      -0.5670      0.00000
    422      -0.5070      0.00000
    423      -0.2054      0.00000
    424      -0.1517      0.00000
    425      -0.1053      0.00000
    426      -0.0976      0.00000
    427      -0.0592      0.00000
    428      -0.0470      0.00000
    429      -0.0411      0.00000
    430      -0.0263      0.00000
    431       0.1499      0.00000
    432       0.1626      0.00000
    433       0.1958      0.00000
    434       0.2196      0.00000
    435       0.3086      0.00000
    436       0.3099      0.00000
    437       0.3411      0.00000
    438       0.3414      0.00000
    439       0.3465      0.00000
    440       0.3549      0.00000
    441       0.3576      0.00000
    442       0.4053      0.00000
    443       0.5335      0.00000
    444       0.5394      0.00000
    445       0.5537      0.00000
    446       0.6164      0.00000
    447       0.6389      0.00000
    448       0.6476      0.00000
    449       0.6621      0.00000
    450       0.6782      0.00000
    451       0.6808      0.00000
    452       0.6917      0.00000
    453       0.7154      0.00000
    454       0.7396      0.00000
    455       0.7845      0.00000
    456       0.8189      0.00000
    457       0.8376      0.00000
    458       0.8526      0.00000
    459       0.8897      0.00000
    460       0.9008      0.00000
    461       0.9186      0.00000
    462       0.9723      0.00000
    463       1.0276      0.00000
    464       1.0585      0.00000
    465       1.0651      0.00000
    466       1.0756      0.00000
    467       1.1031      0.00000
    468       1.1378      0.00000
    469       1.2137      0.00000
    470       1.2252      0.00000
    471       1.2396      0.00000
    472       1.2430      0.00000
    473       1.2681      0.00000
    474       1.3212      0.00000
    475       1.3431      0.00000
    476       1.3671      0.00000
    477       1.3711      0.00000
    478       1.4255      0.00000
    479       1.4515      0.00000
    480       1.4659      0.00000
    481       1.4686      0.00000
    482       1.5154      0.00000
    483       1.5236      0.00000
    484       1.5346      0.00000
    485       1.5552      0.00000
    486       1.5655      0.00000
    487       1.5752      0.00000
    488       1.5934      0.00000
    489       1.6053      0.00000
    490       1.6728      0.00000
    491       1.6770      0.00000
    492       1.6877      0.00000
    493       1.6929      0.00000
    494       1.6934      0.00000
    495       1.6997      0.00000
    496       1.7252      0.00000
    497       1.7258      0.00000
    498       1.7918      0.00000
    499       1.9037      0.00000
    500       1.9142      0.00000
    501       1.9179      0.00000
    502       1.9473      0.00000
    503       1.9681      0.00000
    504       1.9690      0.00000
    505       1.9716      0.00000
    506       2.0121      0.00000
    507       2.0167      0.00000
    508       2.0629      0.00000
    509       2.0926      0.00000
    510       2.0990      0.00000
    511       2.1050      0.00000
    512       2.1181      0.00000
    513       2.1195      0.00000
    514       2.1260      0.00000
    515       2.1291      0.00000
    516       2.1563      0.00000
    517       2.1672      0.00000
    518       2.1713      0.00000
    519       2.2107      0.00000
    520       2.2428      0.00000
    521       2.2450      0.00000
    522       2.2679      0.00000
    523       2.3000      0.00000
    524       2.3156      0.00000
    525       2.3333      0.00000
    526       2.3538      0.00000
    527       2.3826      0.00000
    528       2.4008      0.00000

 k-point     3 :       0.1250    0.3333    0.0000
  band No.  band energies     occupation 
      1     -18.5839      2.00000
      2     -18.5586      2.00000
      3     -18.4975      2.00000
      4     -18.4126      2.00000
      5     -18.3744      2.00000
      6     -18.3740      2.00000
      7     -18.3493      2.00000
      8     -18.3449      2.00000
      9     -18.2956      2.00000
     10     -18.2927      2.00000
     11     -18.2894      2.00000
     12     -18.2470      2.00000
     13     -18.2060      2.00000
     14     -18.1682      2.00000
     15     -18.1400      2.00000
     16     -18.0910      2.00000
     17     -18.0871      2.00000
     18     -18.0432      2.00000
     19     -17.7936      2.00000
     20     -17.7894      2.00000
     21     -17.7619      2.00000
     22     -17.6793      2.00000
     23     -17.6709      2.00000
     24     -17.6223      2.00000
     25     -17.6125      2.00000
     26     -17.6080      2.00000
     27     -17.5806      2.00000
     28     -17.5074      2.00000
     29     -17.5002      2.00000
     30     -17.4921      2.00000
     31     -17.4441      2.00000
     32     -17.3984      2.00000
     33     -17.3535      2.00000
     34     -17.3324      2.00000
     35     -17.2270      2.00000
     36     -17.1838      2.00000
     37     -14.4932      2.00000
     38     -14.4632      2.00000
     39     -14.3659      2.00000
     40     -14.3594      2.00000
     41     -14.3410      2.00000
     42     -14.3329      2.00000
     43     -14.3146      2.00000
     44     -14.2947      2.00000
     45     -14.2936      2.00000
     46     -14.2695      2.00000
     47     -14.1835      2.00000
     48     -14.1693      2.00000
     49     -14.1649      2.00000
     50     -14.1587      2.00000
     51     -14.1323      2.00000
     52     -14.1274      2.00000
     53     -14.1270      2.00000
     54     -14.0961      2.00000
     55     -14.0093      2.00000
     56     -13.9909      2.00000
     57     -13.9560      2.00000
     58     -13.9381      2.00000
     59     -13.9170      2.00000
     60     -13.8786      2.00000
     61     -13.8774      2.00000
     62     -13.8639      2.00000
     63     -13.8250      2.00000
     64     -13.7801      2.00000
     65     -13.7741      2.00000
     66     -13.7291      2.00000
     67     -13.7187      2.00000
     68     -13.7049      2.00000
     69     -13.6766      2.00000
     70     -13.6105      2.00000
     71     -13.5561      2.00000
     72     -13.3917      2.00000
     73     -12.5128      2.00000
     74     -12.2953      2.00000
     75     -12.0863      2.00000
     76     -11.9079      2.00000
     77     -11.8675      2.00000
     78     -11.8539      2.00000
     79     -11.8499      2.00000
     80     -11.8471      2.00000
     81     -11.8182      2.00000
     82     -11.7542      2.00000
     83     -11.7377      2.00000
     84     -11.7304      2.00000
     85     -11.7177      2.00000
     86     -11.6776      2.00000
     87     -11.6151      2.00000
     88     -11.5954      2.00000
     89     -11.5951      2.00000
     90     -11.5900      2.00000
     91     -11.5671      2.00000
     92     -11.5618      2.00000
     93     -11.5529      2.00000
     94     -11.5302      2.00000
     95     -11.5200      2.00000
     96     -11.5082      2.00000
     97     -11.4917      2.00000
     98     -11.4788      2.00000
     99     -11.4343      2.00000
    100     -11.2675      2.00000
    101     -11.2286      2.00000
    102     -11.2170      2.00000
    103     -11.1876      2.00000
    104     -11.1839      2.00000
    105     -11.1296      2.00000
    106     -11.0878      2.00000
    107     -11.0365      2.00000
    108     -10.9912      2.00000
    109     -10.9220      2.00000
    110     -10.9044      2.00000
    111     -10.8823      2.00000
    112     -10.8108      2.00000
    113     -10.8102      2.00000
    114     -10.7999      2.00000
    115     -10.7460      2.00000
    116     -10.7254      2.00000
    117     -10.6960      2.00000
    118     -10.6625      2.00000
    119     -10.6472      2.00000
    120     -10.6414      2.00000
    121     -10.6187      2.00000
    122     -10.5670      2.00000
    123     -10.5417      2.00000
    124     -10.5220      2.00000
    125     -10.4242      2.00000
    126     -10.4102      2.00000
    127     -10.3785      2.00000
    128     -10.3185      2.00000
    129     -10.2924      2.00000
    130     -10.2732      2.00000
    131     -10.2422      2.00000
    132     -10.2118      2.00000
    133     -10.1202      2.00000
    134     -10.1125      2.00000
    135     -10.0767      2.00000
    136     -10.0671      2.00000
    137     -10.0608      2.00000
    138     -10.0584      2.00000
    139      -9.9993      2.00000
    140      -9.9716      2.00000
    141      -9.9154      2.00000
    142      -9.9078      2.00000
    143      -9.8773      2.00000
    144      -9.8669      2.00000
    145      -9.8084      2.00000
    146      -9.7307      2.00000
    147      -9.7157      2.00000
    148      -9.6370      2.00000
    149      -9.5898      2.00000
    150      -9.5735      2.00000
    151      -9.5447      2.00000
    152      -9.4546      2.00000
    153      -9.4406      2.00000
    154      -9.4281      2.00000
    155      -9.3131      2.00000
    156      -9.2422      2.00000
    157      -9.1573      2.00000
    158      -9.1410      2.00000
    159      -9.1184      2.00000
    160      -9.0190      2.00000
    161      -8.9750      2.00000
    162      -8.9509      2.00000
    163      -8.9412      2.00000
    164      -8.8972      2.00000
    165      -8.8841      2.00000
    166      -8.8759      2.00000
    167      -8.7602      2.00000
    168      -8.7592      2.00000
    169      -8.7256      2.00000
    170      -8.6927      2.00000
    171      -8.6868      2.00000
    172      -8.6525      2.00000
    173      -8.6275      2.00000
    174      -8.5254      2.00000
    175      -8.4553      2.00000
    176      -8.4456      2.00000
    177      -8.4345      2.00000
    178      -8.4234      2.00000
    179      -8.3042      2.00000
    180      -8.2837      2.00000
    181      -8.2445      2.00000
    182      -8.2268      2.00000
    183      -8.2101      2.00000
    184      -8.2067      2.00000
    185      -8.1881      2.00000
    186      -8.1701      2.00000
    187      -8.1537      2.00000
    188      -8.1506      2.00000
    189      -8.1091      2.00000
    190      -8.0585      2.00000
    191      -8.0317      2.00000
    192      -7.9914      2.00000
    193      -7.9795      2.00000
    194      -7.9276      2.00000
    195      -7.9116      2.00000
    196      -7.9088      2.00000
    197      -7.9024      2.00000
    198      -7.8645      2.00000
    199      -7.8354      2.00000
    200      -7.8220      2.00000
    201      -7.7943      2.00000
    202      -7.7804      2.00000
    203      -7.7574      2.00000
    204      -7.7075      2.00000
    205      -7.6845      2.00000
    206      -7.6621      2.00000
    207      -7.5746      2.00000
    208      -7.5684      2.00000
    209      -7.5237      2.00000
    210      -7.4726      2.00000
    211      -7.4420      2.00000
    212      -7.4356      2.00000
    213      -7.3945      2.00000
    214      -7.3327      2.00000
    215      -7.3201      2.00000
    216      -7.2568      2.00000
    217      -7.1933      2.00000
    218      -7.1821      2.00000
    219      -7.1771      2.00000
    220      -7.1611      2.00000
    221      -7.1420      2.00000
    222      -7.1418      2.00000
    223      -7.1385      2.00000
    224      -7.1320      2.00000
    225      -7.1190      2.00000
    226      -7.0910      2.00000
    227      -7.0511      2.00000
    228      -7.0317      2.00000
    229      -7.0252      2.00000
    230      -6.9855      2.00000
    231      -6.9226      2.00000
    232      -6.8886      2.00000
    233      -6.8869      2.00000
    234      -6.8816      2.00000
    235      -6.8672      2.00000
    236      -6.8665      2.00000
    237      -6.8373      2.00000
    238      -6.8264      2.00000
    239      -6.7898      2.00000
    240      -6.7793      2.00000
    241      -6.7212      2.00000
    242      -6.6964      2.00000
    243      -6.6684      2.00000
    244      -6.6634      2.00000
    245      -6.6575      2.00000
    246      -6.6506      2.00000
    247      -6.6212      2.00000
    248      -6.6000      2.00000
    249      -6.5037      2.00000
    250      -6.4602      2.00000
    251      -6.4596      2.00000
    252      -6.4388      2.00000
    253      -6.4294      2.00000
    254      -6.4238      2.00000
    255      -6.4099      2.00000
    256      -6.4077      2.00000
    257      -6.3713      2.00000
    258      -6.3218      2.00000
    259      -6.3097      2.00000
    260      -6.3027      2.00000
    261      -6.2998      2.00000
    262      -6.2912      2.00000
    263      -6.2462      2.00000
    264      -6.1945      2.00000
    265      -6.1857      2.00000
    266      -6.1811      2.00000
    267      -6.1806      2.00000
    268      -6.1549      2.00000
    269      -6.1536      2.00000
    270      -6.1496      2.00000
    271      -6.1275      2.00000
    272      -6.0462      2.00000
    273      -6.0413      2.00000
    274      -6.0276      2.00000
    275      -5.9961      2.00000
    276      -5.9784      2.00000
    277      -5.9593      2.00000
    278      -5.9580      2.00000
    279      -5.9427      2.00000
    280      -5.9376      2.00000
    281      -5.9301      2.00000
    282      -5.8865      2.00000
    283      -5.8840      2.00000
    284      -5.8628      2.00000
    285      -5.8376      2.00000
    286      -5.8350      2.00000
    287      -5.8220      2.00000
    288      -5.8128      2.00000
    289      -5.7829      2.00000
    290      -5.7730      2.00000
    291      -5.7638      2.00000
    292      -5.7435      2.00000
    293      -5.7262      2.00000
    294      -5.6951      2.00000
    295      -5.6612      2.00000
    296      -5.6218      2.00000
    297      -5.6198      2.00000
    298      -5.6107      2.00000
    299      -5.5919      2.00000
    300      -5.5710      2.00000
    301      -5.5529      2.00000
    302      -5.5331      2.00000
    303      -5.4739      2.00000
    304      -5.4655      2.00000
    305      -5.4421      2.00000
    306      -5.4407      2.00000
    307      -5.3941      2.00000
    308      -5.3644      2.00000
    309      -5.3101      2.00000
    310      -5.2983      2.00000
    311      -5.2811      2.00000
    312      -5.2797      2.00000
    313      -5.2736      2.00000
    314      -5.2332      2.00000
    315      -5.2197      2.00000
    316      -5.2183      2.00000
    317      -5.2004      2.00000
    318      -5.1770      2.00000
    319      -5.1763      2.00000
    320      -5.1755      2.00000
    321      -5.1550      2.00000
    322      -5.1275      2.00000
    323      -5.0988      2.00000
    324      -5.0968      2.00000
    325      -5.0909      2.00000
    326      -5.0853      2.00000
    327      -5.0186      2.00000
    328      -4.9509      2.00000
    329      -4.9497      2.00000
    330      -4.9450      2.00000
    331      -4.9360      2.00000
    332      -4.9355      2.00000
    333      -4.9337      2.00000
    334      -4.9334      2.00000
    335      -4.9319      2.00000
    336      -4.9311      2.00000
    337      -4.8895      2.00000
    338      -4.8835      2.00000
    339      -4.8459      2.00000
    340      -4.8214      2.00000
    341      -4.8165      2.00000
    342      -4.8011      2.00000
    343      -4.7894      2.00000
    344      -4.7871      2.00000
    345      -4.7797      2.00000
    346      -4.7352      2.00000
    347      -4.6595      2.00000
    348      -4.6290      2.00000
    349      -4.5886      2.00000
    350      -4.5670      2.00000
    351      -4.5429      2.00000
    352      -4.5381      2.00000
    353      -4.5377      2.00000
    354      -4.5354      2.00000
    355      -4.4195      2.00000
    356      -4.4063      2.00000
    357      -4.3836      2.00000
    358      -4.3364      2.00000
    359      -4.3293      2.00000
    360      -4.3082      2.00000
    361      -4.2984      2.00000
    362      -4.2921      2.00000
    363      -4.2459      2.00000
    364      -4.2376      2.00000
    365      -4.1845      2.00000
    366      -4.1712      2.00000
    367      -4.1669      2.00000
    368      -4.1400      2.00000
    369      -4.1311      2.00000
    370      -4.1093      2.00000
    371      -4.1038      2.00000
    372      -4.0287      2.00000
    373      -3.9868      2.00000
    374      -3.8235      2.00000
    375      -3.8098      2.00000
    376      -3.8088      2.00000
    377      -3.7963      2.00000
    378      -3.7927      2.00000
    379      -3.7890      2.00000
    380      -3.7072      2.00000
    381      -3.6876      2.00000
    382      -3.6837      2.00000
    383      -3.6338      1.99996
    384      -3.5527      1.99670
    385      -3.5062      1.97745
    386      -3.4921      1.96260
    387      -3.4739      1.93175
    388      -3.4529      1.87302
    389      -3.4107      1.64738
    390      -3.2466      0.16423
    391      -3.1766      0.01729
    392      -2.8000      0.00000
    393      -2.7488      0.00000
    394      -2.3850      0.00000
    395      -2.2732      0.00000
    396      -2.2672      0.00000
    397      -2.2549      0.00000
    398      -2.2095      0.00000
    399      -2.1982      0.00000
    400      -2.1716      0.00000
    401      -2.1345      0.00000
    402      -2.1082      0.00000
    403      -2.0627      0.00000
    404      -2.0385      0.00000
    405      -1.7242      0.00000
    406      -1.6509      0.00000
    407      -1.5568      0.00000
    408      -1.5413      0.00000
    409      -1.4844      0.00000
    410      -1.4420      0.00000
    411      -1.3539      0.00000
    412      -1.3060      0.00000
    413      -1.1697      0.00000
    414      -1.1537      0.00000
    415      -0.8313      0.00000
    416      -0.7573      0.00000
    417      -0.6940      0.00000
    418      -0.6455      0.00000
    419      -0.6021      0.00000
    420      -0.5814      0.00000
    421      -0.4605      0.00000
    422      -0.4365      0.00000
    423      -0.3845      0.00000
    424      -0.3597      0.00000
    425      -0.3474      0.00000
    426      -0.3162      0.00000
    427      -0.1615      0.00000
    428      -0.1246      0.00000
    429      -0.0811      0.00000
    430       0.0096      0.00000
    431       0.0660      0.00000
    432       0.0668      0.00000
    433       0.0759      0.00000
    434       0.1705      0.00000
    435       0.3035      0.00000
    436       0.3069      0.00000
    437       0.3335      0.00000
    438       0.4008      0.00000
    439       0.4096      0.00000
    440       0.4308      0.00000
    441       0.4819      0.00000
    442       0.4965      0.00000
    443       0.4994      0.00000
    444       0.5082      0.00000
    445       0.5226      0.00000
    446       0.5253      0.00000
    447       0.5680      0.00000
    448       0.5781      0.00000
    449       0.6074      0.00000
    450       0.6259      0.00000
    451       0.6793      0.00000
    452       0.6848      0.00000
    453       0.7481      0.00000
    454       0.7582      0.00000
    455       0.7992      0.00000
    456       0.8181      0.00000
    457       0.8357      0.00000
    458       0.8705      0.00000
    459       0.8921      0.00000
    460       0.9198      0.00000
    461       0.9420      0.00000
    462       0.9971      0.00000
    463       1.0660      0.00000
    464       1.0691      0.00000
    465       1.0840      0.00000
    466       1.1076      0.00000
    467       1.1711      0.00000
    468       1.2131      0.00000
    469       1.2464      0.00000
    470       1.2824      0.00000
    471       1.3314      0.00000
    472       1.3360      0.00000
    473       1.3498      0.00000
    474       1.3850      0.00000
    475       1.4022      0.00000
    476       1.4189      0.00000
    477       1.4314      0.00000
    478       1.4368      0.00000
    479       1.4551      0.00000
    480       1.4581      0.00000
    481       1.5005      0.00000
    482       1.5057      0.00000
    483       1.5085      0.00000
    484       1.5211      0.00000
    485       1.5240      0.00000
    486       1.5287      0.00000
    487       1.5470      0.00000
    488       1.5872      0.00000
    489       1.5891      0.00000
    490       1.6149      0.00000
    491       1.6328      0.00000
    492       1.6638      0.00000
    493       1.6646      0.00000
    494       1.6659      0.00000
    495       1.6784      0.00000
    496       1.6940      0.00000
    497       1.7537      0.00000
    498       1.7974      0.00000
    499       1.7989      0.00000
    500       1.8416      0.00000
    501       1.8454      0.00000
    502       1.8784      0.00000
    503       1.9653      0.00000
    504       1.9851      0.00000
    505       2.0327      0.00000
    506       2.0379      0.00000
    507       2.0435      0.00000
    508       2.0464      0.00000
    509       2.0474      0.00000
    510       2.0547      0.00000
    511       2.0929      0.00000
    512       2.1179      0.00000
    513       2.1302      0.00000
    514       2.1402      0.00000
    515       2.1434      0.00000
    516       2.1583      0.00000
    517       2.1647      0.00000
    518       2.1667      0.00000
    519       2.2076      0.00000
    520       2.2236      0.00000
    521       2.2297      0.00000
    522       2.2814      0.00000
    523       2.2875      0.00000
    524       2.2888      0.00000
    525       2.3208      0.00000
    526       2.3532      0.00000
    527       2.3668      0.00000
    528       2.4502      0.00000

 k-point     4 :       0.3750    0.3333    0.0000
  band No.  band energies     occupation 
      1     -18.5511      2.00000
      2     -18.5317      2.00000
      3     -18.4980      2.00000
      4     -18.4684      2.00000
      5     -18.4608      2.00000
      6     -18.4197      2.00000
      7     -18.3418      2.00000
      8     -18.3230      2.00000
      9     -18.2899      2.00000
     10     -18.2609      2.00000
     11     -18.2532      2.00000
     12     -18.2133      2.00000
     13     -18.1989      2.00000
     14     -18.1947      2.00000
     15     -18.1723      2.00000
     16     -17.9939      2.00000
     17     -17.9880      2.00000
     18     -17.9683      2.00000
     19     -17.9056      2.00000
     20     -17.8790      2.00000
     21     -17.8734      2.00000
     22     -17.7244      2.00000
     23     -17.6973      2.00000
     24     -17.6922      2.00000
     25     -17.5934      2.00000
     26     -17.5526      2.00000
     27     -17.5423      2.00000
     28     -17.4927      2.00000
     29     -17.4365      2.00000
     30     -17.4163      2.00000
     31     -17.4122      2.00000
     32     -17.3768      2.00000
     33     -17.3664      2.00000
     34     -17.3183      2.00000
     35     -17.2639      2.00000
     36     -17.2406      2.00000
     37     -14.4562      2.00000
     38     -14.4043      2.00000
     39     -14.3975      2.00000
     40     -14.3681      2.00000
     41     -14.3550      2.00000
     42     -14.3508      2.00000
     43     -14.3316      2.00000
     44     -14.2844      2.00000
     45     -14.2586      2.00000
     46     -14.2291      2.00000
     47     -14.2061      2.00000
     48     -14.2030      2.00000
     49     -14.1789      2.00000
     50     -14.1668      2.00000
     51     -14.1543      2.00000
     52     -14.1424      2.00000
     53     -14.1095      2.00000
     54     -14.1040      2.00000
     55     -14.0905      2.00000
     56     -14.0336      2.00000
     57     -13.9945      2.00000
     58     -13.9367      2.00000
     59     -13.9354      2.00000
     60     -13.8767      2.00000
     61     -13.8508      2.00000
     62     -13.8044      2.00000
     63     -13.8015      2.00000
     64     -13.7812      2.00000
     65     -13.7658      2.00000
     66     -13.6985      2.00000
     67     -13.6917      2.00000
     68     -13.6359      2.00000
     69     -13.6201      2.00000
     70     -13.6125      2.00000
     71     -13.6093      2.00000
     72     -13.4652      2.00000
     73     -12.3244      2.00000
     74     -12.1100      2.00000
     75     -12.0855      2.00000
     76     -12.0386      2.00000
     77     -11.9137      2.00000
     78     -11.8689      2.00000
     79     -11.8666      2.00000
     80     -11.8482      2.00000
     81     -11.8239      2.00000
     82     -11.8212      2.00000
     83     -11.7788      2.00000
     84     -11.7644      2.00000
     85     -11.7359      2.00000
     86     -11.7181      2.00000
     87     -11.6936      2.00000
     88     -11.6699      2.00000
     89     -11.6517      2.00000
     90     -11.6456      2.00000
     91     -11.6057      2.00000
     92     -11.5589      2.00000
     93     -11.5047      2.00000
     94     -11.4837      2.00000
     95     -11.4827      2.00000
     96     -11.4760      2.00000
     97     -11.4412      2.00000
     98     -11.4123      2.00000
     99     -11.3940      2.00000
    100     -11.3632      2.00000
    101     -11.3300      2.00000
    102     -11.2035      2.00000
    103     -11.1580      2.00000
    104     -11.1402      2.00000
    105     -11.1230      2.00000
    106     -11.1218      2.00000
    107     -11.0448      2.00000
    108     -11.0286      2.00000
    109     -10.9976      2.00000
    110     -10.8995      2.00000
    111     -10.8946      2.00000
    112     -10.8888      2.00000
    113     -10.8713      2.00000
    114     -10.7369      2.00000
    115     -10.6910      2.00000
    116     -10.6731      2.00000
    117     -10.6670      2.00000
    118     -10.6651      2.00000
    119     -10.6433      2.00000
    120     -10.6264      2.00000
    121     -10.5129      2.00000
    122     -10.4740      2.00000
    123     -10.4397      2.00000
    124     -10.4183      2.00000
    125     -10.4112      2.00000
    126     -10.3812      2.00000
    127     -10.3439      2.00000
    128     -10.3275      2.00000
    129     -10.3151      2.00000
    130     -10.2918      2.00000
    131     -10.2680      2.00000
    132     -10.2321      2.00000
    133     -10.2311      2.00000
    134     -10.1987      2.00000
    135     -10.1661      2.00000
    136     -10.1076      2.00000
    137     -10.0903      2.00000
    138     -10.0548      2.00000
    139     -10.0180      2.00000
    140     -10.0022      2.00000
    141      -9.9827      2.00000
    142      -9.9684      2.00000
    143      -9.8871      2.00000
    144      -9.7539      2.00000
    145      -9.6618      2.00000
    146      -9.6158      2.00000
    147      -9.6042      2.00000
    148      -9.4723      2.00000
    149      -9.4665      2.00000
    150      -9.4448      2.00000
    151      -9.3866      2.00000
    152      -9.3437      2.00000
    153      -9.3328      2.00000
    154      -9.2924      2.00000
    155      -9.2883      2.00000
    156      -9.2606      2.00000
    157      -9.1768      2.00000
    158      -9.1382      2.00000
    159      -9.1196      2.00000
    160      -9.1126      2.00000
    161      -9.1023      2.00000
    162      -9.0686      2.00000
    163      -8.9951      2.00000
    164      -8.9778      2.00000
    165      -8.9731      2.00000
    166      -8.9421      2.00000
    167      -8.9078      2.00000
    168      -8.8595      2.00000
    169      -8.8522      2.00000
    170      -8.7776      2.00000
    171      -8.7440      2.00000
    172      -8.6569      2.00000
    173      -8.5911      2.00000
    174      -8.5650      2.00000
    175      -8.5613      2.00000
    176      -8.5572      2.00000
    177      -8.5397      2.00000
    178      -8.5131      2.00000
    179      -8.3686      2.00000
    180      -8.3627      2.00000
    181      -8.3425      2.00000
    182      -8.3057      2.00000
    183      -8.2348      2.00000
    184      -8.1979      2.00000
    185      -8.1958      2.00000
    186      -8.1797      2.00000
    187      -8.1319      2.00000
    188      -8.0991      2.00000
    189      -8.0684      2.00000
    190      -8.0587      2.00000
    191      -8.0393      2.00000
    192      -8.0302      2.00000
    193      -7.9854      2.00000
    194      -7.9611      2.00000
    195      -7.9600      2.00000
    196      -7.8840      2.00000
    197      -7.8355      2.00000
    198      -7.8057      2.00000
    199      -7.7852      2.00000
    200      -7.7608      2.00000
    201      -7.7272      2.00000
    202      -7.7202      2.00000
    203      -7.7164      2.00000
    204      -7.6250      2.00000
    205      -7.5243      2.00000
    206      -7.5076      2.00000
    207      -7.5019      2.00000
    208      -7.4934      2.00000
    209      -7.3833      2.00000
    210      -7.3740      2.00000
    211      -7.3614      2.00000
    212      -7.3613      2.00000
    213      -7.3396      2.00000
    214      -7.3370      2.00000
    215      -7.2476      2.00000
    216      -7.2397      2.00000
    217      -7.2239      2.00000
    218      -7.2097      2.00000
    219      -7.2047      2.00000
    220      -7.1714      2.00000
    221      -7.1705      2.00000
    222      -7.1665      2.00000
    223      -7.1627      2.00000
    224      -7.1037      2.00000
    225      -7.0826      2.00000
    226      -7.0764      2.00000
    227      -7.0589      2.00000
    228      -7.0418      2.00000
    229      -7.0308      2.00000
    230      -7.0210      2.00000
    231      -7.0076      2.00000
    232      -6.9606      2.00000
    233      -6.9469      2.00000
    234      -6.8977      2.00000
    235      -6.8368      2.00000
    236      -6.8151      2.00000
    237      -6.8123      2.00000
    238      -6.7905      2.00000
    239      -6.7776      2.00000
    240      -6.7706      2.00000
    241      -6.7597      2.00000
    242      -6.7360      2.00000
    243      -6.7304      2.00000
    244      -6.6952      2.00000
    245      -6.6925      2.00000
    246      -6.6919      2.00000
    247      -6.6847      2.00000
    248      -6.6107      2.00000
    249      -6.5870      2.00000
    250      -6.5852      2.00000
    251      -6.5831      2.00000
    252      -6.4929      2.00000
    253      -6.4550      2.00000
    254      -6.4470      2.00000
    255      -6.4429      2.00000
    256      -6.4408      2.00000
    257      -6.3720      2.00000
    258      -6.3705      2.00000
    259      -6.3469      2.00000
    260      -6.3384      2.00000
    261      -6.2879      2.00000
    262      -6.2514      2.00000
    263      -6.2474      2.00000
    264      -6.2468      2.00000
    265      -6.2436      2.00000
    266      -6.2094      2.00000
    267      -6.1784      2.00000
    268      -6.1680      2.00000
    269      -6.1398      2.00000
    270      -6.1006      2.00000
    271      -6.0368      2.00000
    272      -6.0315      2.00000
    273      -6.0230      2.00000
    274      -6.0194      2.00000
    275      -5.9864      2.00000
    276      -5.9736      2.00000
    277      -5.9418      2.00000
    278      -5.9173      2.00000
    279      -5.9138      2.00000
    280      -5.9043      2.00000
    281      -5.8802      2.00000
    282      -5.7908      2.00000
    283      -5.7810      2.00000
    284      -5.7543      2.00000
    285      -5.7395      2.00000
    286      -5.7338      2.00000
    287      -5.7298      2.00000
    288      -5.7178      2.00000
    289      -5.7094      2.00000
    290      -5.6977      2.00000
    291      -5.6916      2.00000
    292      -5.6601      2.00000
    293      -5.6488      2.00000
    294      -5.6331      2.00000
    295      -5.6322      2.00000
    296      -5.6082      2.00000
    297      -5.5972      2.00000
    298      -5.5953      2.00000
    299      -5.5668      2.00000
    300      -5.5445      2.00000
    301      -5.5443      2.00000
    302      -5.5279      2.00000
    303      -5.4843      2.00000
    304      -5.4485      2.00000
    305      -5.4338      2.00000
    306      -5.4282      2.00000
    307      -5.4165      2.00000
    308      -5.4131      2.00000
    309      -5.3910      2.00000
    310      -5.3884      2.00000
    311      -5.3855      2.00000
    312      -5.3708      2.00000
    313      -5.3657      2.00000
    314      -5.2458      2.00000
    315      -5.2428      2.00000
    316      -5.2281      2.00000
    317      -5.2043      2.00000
    318      -5.1916      2.00000
    319      -5.1829      2.00000
    320      -5.1799      2.00000
    321      -5.1607      2.00000
    322      -5.1499      2.00000
    323      -5.0545      2.00000
    324      -5.0516      2.00000
    325      -5.0487      2.00000
    326      -5.0164      2.00000
    327      -4.9943      2.00000
    328      -4.9890      2.00000
    329      -4.9823      2.00000
    330      -4.9669      2.00000
    331      -4.9661      2.00000
    332      -4.9491      2.00000
    333      -4.9425      2.00000
    334      -4.9342      2.00000
    335      -4.9317      2.00000
    336      -4.9309      2.00000
    337      -4.9249      2.00000
    338      -4.8799      2.00000
    339      -4.8358      2.00000
    340      -4.8341      2.00000
    341      -4.8310      2.00000
    342      -4.8178      2.00000
    343      -4.8169      2.00000
    344      -4.7404      2.00000
    345      -4.7094      2.00000
    346      -4.6780      2.00000
    347      -4.6774      2.00000
    348      -4.6526      2.00000
    349      -4.6466      2.00000
    350      -4.6341      2.00000
    351      -4.6217      2.00000
    352      -4.6204      2.00000
    353      -4.6195      2.00000
    354      -4.6077      2.00000
    355      -4.4987      2.00000
    356      -4.4512      2.00000
    357      -4.3732      2.00000
    358      -4.3557      2.00000
    359      -4.3539      2.00000
    360      -4.3369      2.00000
    361      -4.3216      2.00000
    362      -4.3168      2.00000
    363      -4.3051      2.00000
    364      -4.2903      2.00000
    365      -4.2568      2.00000
    366      -4.2553      2.00000
    367      -4.2477      2.00000
    368      -4.2416      2.00000
    369      -4.1864      2.00000
    370      -4.1576      2.00000
    371      -4.1281      2.00000
    372      -4.0562      2.00000
    373      -4.0262      2.00000
    374      -3.9827      2.00000
    375      -3.9286      2.00000
    376      -3.9277      2.00000
    377      -3.9241      2.00000
    378      -3.8771      2.00000
    379      -3.7594      2.00000
    380      -3.6492      1.99998
    381      -3.6278      1.99994
    382      -3.6207      1.99990
    383      -3.5718      1.99866
    384      -3.5622      1.99788
    385      -3.3424      0.97083
    386      -3.1989      0.03883
    387      -3.1869      0.02537
    388      -3.0753      0.00014
    389      -3.0174      0.00000
    390      -3.0164      0.00000
    391      -2.8449      0.00000
    392      -2.8445      0.00000
    393      -2.7886      0.00000
    394      -2.6439      0.00000
    395      -2.4253      0.00000
    396      -2.2837      0.00000
    397      -2.2762      0.00000
    398      -2.2559      0.00000
    399      -2.2029      0.00000
    400      -2.1636      0.00000
    401      -2.1563      0.00000
    402      -2.1185      0.00000
    403      -2.1119      0.00000
    404      -2.1099      0.00000
    405      -2.0607      0.00000
    406      -1.6813      0.00000
    407      -1.5542      0.00000
    408      -1.5345      0.00000
    409      -1.4487      0.00000
    410      -1.3982      0.00000
    411      -1.3663      0.00000
    412      -1.2588      0.00000
    413      -1.2533      0.00000
    414      -1.1996      0.00000
    415      -0.8634      0.00000
    416      -0.8301      0.00000
    417      -0.7937      0.00000
    418      -0.7123      0.00000
    419      -0.6923      0.00000
    420      -0.6515      0.00000
    421      -0.5007      0.00000
    422      -0.3651      0.00000
    423      -0.2798      0.00000
    424      -0.2166      0.00000
    425      -0.1341      0.00000
    426      -0.1325      0.00000
    427      -0.1305      0.00000
    428      -0.0517      0.00000
    429      -0.0399      0.00000
    430      -0.0192      0.00000
    431       0.0420      0.00000
    432       0.2085      0.00000
    433       0.2107      0.00000
    434       0.2340      0.00000
    435       0.2462      0.00000
    436       0.2513      0.00000
    437       0.3341      0.00000
    438       0.3920      0.00000
    439       0.4288      0.00000
    440       0.4548      0.00000
    441       0.4695      0.00000
    442       0.4825      0.00000
    443       0.4843      0.00000
    444       0.4911      0.00000
    445       0.4942      0.00000
    446       0.5817      0.00000
    447       0.6004      0.00000
    448       0.6192      0.00000
    449       0.6324      0.00000
    450       0.6810      0.00000
    451       0.6885      0.00000
    452       0.6917      0.00000
    453       0.6928      0.00000
    454       0.6988      0.00000
    455       0.7236      0.00000
    456       0.7686      0.00000
    457       0.7932      0.00000
    458       0.8312      0.00000
    459       0.8883      0.00000
    460       0.9680      0.00000
    461       0.9948      0.00000
    462       1.0093      0.00000
    463       1.0260      0.00000
    464       1.0648      0.00000
    465       1.1049      0.00000
    466       1.1100      0.00000
    467       1.1579      0.00000
    468       1.1773      0.00000
    469       1.2547      0.00000
    470       1.2622      0.00000
    471       1.2688      0.00000
    472       1.2826      0.00000
    473       1.3170      0.00000
    474       1.3291      0.00000
    475       1.3333      0.00000
    476       1.3616      0.00000
    477       1.4016      0.00000
    478       1.4195      0.00000
    479       1.4339      0.00000
    480       1.4609      0.00000
    481       1.4704      0.00000
    482       1.5259      0.00000
    483       1.5309      0.00000
    484       1.5561      0.00000
    485       1.5632      0.00000
    486       1.5741      0.00000
    487       1.5747      0.00000
    488       1.6030      0.00000
    489       1.6106      0.00000
    490       1.6171      0.00000
    491       1.6336      0.00000
    492       1.6425      0.00000
    493       1.6620      0.00000
    494       1.6798      0.00000
    495       1.7202      0.00000
    496       1.7352      0.00000
    497       1.7653      0.00000
    498       1.7928      0.00000
    499       1.8807      0.00000
    500       1.8846      0.00000
    501       1.8933      0.00000
    502       1.9488      0.00000
    503       1.9519      0.00000
    504       1.9602      0.00000
    505       1.9617      0.00000
    506       2.0066      0.00000
    507       2.0136      0.00000
    508       2.0546      0.00000
    509       2.0805      0.00000
    510       2.0833      0.00000
    511       2.0939      0.00000
    512       2.0965      0.00000
    513       2.1012      0.00000
    514       2.1177      0.00000
    515       2.1339      0.00000
    516       2.1400      0.00000
    517       2.1519      0.00000
    518       2.1532      0.00000
    519       2.1718      0.00000
    520       2.1744      0.00000
    521       2.1776      0.00000
    522       2.1885      0.00000
    523       2.2126      0.00000
    524       2.2280      0.00000
    525       2.2614      0.00000
    526       2.3552      0.00000
    527       2.4123      0.00000
    528       2.4301      0.00000

 k-point     5 :      -0.3750    0.3333    0.0000
  band No.  band energies     occupation 
      1     -18.5567      2.00000
      2     -18.5224      2.00000
      3     -18.4887      2.00000
      4     -18.4761      2.00000
      5     -18.4723      2.00000
      6     -18.4134      2.00000
      7     -18.3475      2.00000
      8     -18.3137      2.00000
      9     -18.2806      2.00000
     10     -18.2686      2.00000
     11     -18.2648      2.00000
     12     -18.2070      2.00000
     13     -18.2047      2.00000
     14     -18.1833      2.00000
     15     -18.1779      2.00000
     16     -17.9987      2.00000
     17     -17.9773      2.00000
     18     -17.9742      2.00000
     19     -17.8994      2.00000
     20     -17.8926      2.00000
     21     -17.8661      2.00000
     22     -17.7184      2.00000
     23     -17.7108      2.00000
     24     -17.6847      2.00000
     25     -17.6065      2.00000
     26     -17.5334      2.00000
     27     -17.5176      2.00000
     28     -17.5149      2.00000
     29     -17.4609      2.00000
     30     -17.4291      2.00000
     31     -17.3966      2.00000
     32     -17.3578      2.00000
     33     -17.3425      2.00000
     34     -17.3400      2.00000
     35     -17.2876      2.00000
     36     -17.2254      2.00000
     37     -14.4360      2.00000
     38     -14.4221      2.00000
     39     -14.4054      2.00000
     40     -14.3852      2.00000
     41     -14.3820      2.00000
     42     -14.3406      2.00000
     43     -14.2972      2.00000
     44     -14.2827      2.00000
     45     -14.2438      2.00000
     46     -14.2188      2.00000
     47     -14.2182      2.00000
     48     -14.2084      2.00000
     49     -14.1915      2.00000
     50     -14.1812      2.00000
     51     -14.1545      2.00000
     52     -14.1130      2.00000
     53     -14.1034      2.00000
     54     -14.0990      2.00000
     55     -14.0947      2.00000
     56     -14.0434      2.00000
     57     -14.0113      2.00000
     58     -13.9187      2.00000
     59     -13.9029      2.00000
     60     -13.8690      2.00000
     61     -13.8500      2.00000
     62     -13.8368      2.00000
     63     -13.7983      2.00000
     64     -13.7900      2.00000
     65     -13.7766      2.00000
     66     -13.6886      2.00000
     67     -13.6868      2.00000
     68     -13.6428      2.00000
     69     -13.6357      2.00000
     70     -13.6093      2.00000
     71     -13.5997      2.00000
     72     -13.4734      2.00000
     73     -12.3493      2.00000
     74     -12.1298      2.00000
     75     -12.0142      2.00000
     76     -12.0123      2.00000
     77     -11.9462      2.00000
     78     -11.9085      2.00000
     79     -11.8182      2.00000
     80     -11.8116      2.00000
     81     -11.7876      2.00000
     82     -11.7872      2.00000
     83     -11.7794      2.00000
     84     -11.7742      2.00000
     85     -11.7641      2.00000
     86     -11.7390      2.00000
     87     -11.7240      2.00000
     88     -11.6743      2.00000
     89     -11.6554      2.00000
     90     -11.6289      2.00000
     91     -11.6178      2.00000
     92     -11.5951      2.00000
     93     -11.5368      2.00000
     94     -11.5125      2.00000
     95     -11.4738      2.00000
     96     -11.4277      2.00000
     97     -11.4068      2.00000
     98     -11.3532      2.00000
     99     -11.3462      2.00000
    100     -11.3330      2.00000
    101     -11.2503      2.00000
    102     -11.2497      2.00000
    103     -11.2422      2.00000
    104     -11.2218      2.00000
    105     -11.1326      2.00000
    106     -11.1175      2.00000
    107     -11.0598      2.00000
    108     -11.0099      2.00000
    109     -10.9934      2.00000
    110     -10.9676      2.00000
    111     -10.9596      2.00000
    112     -10.9360      2.00000
    113     -10.8736      2.00000
    114     -10.8532      2.00000
    115     -10.8399      2.00000
    116     -10.6965      2.00000
    117     -10.6739      2.00000
    118     -10.6300      2.00000
    119     -10.5741      2.00000
    120     -10.5613      2.00000
    121     -10.5360      2.00000
    122     -10.5267      2.00000
    123     -10.3785      2.00000
    124     -10.3448      2.00000
    125     -10.3412      2.00000
    126     -10.3335      2.00000
    127     -10.3301      2.00000
    128     -10.3237      2.00000
    129     -10.2393      2.00000
    130     -10.2296      2.00000
    131     -10.2257      2.00000
    132     -10.1587      2.00000
    133     -10.1370      2.00000
    134     -10.1016      2.00000
    135     -10.0937      2.00000
    136     -10.0711      2.00000
    137     -10.0572      2.00000
    138     -10.0282      2.00000
    139     -10.0127      2.00000
    140      -9.9912      2.00000
    141      -9.9767      2.00000
    142      -9.9664      2.00000
    143      -9.9382      2.00000
    144      -9.8062      2.00000
    145      -9.7958      2.00000
    146      -9.7923      2.00000
    147      -9.6793      2.00000
    148      -9.6737      2.00000
    149      -9.5356      2.00000
    150      -9.4821      2.00000
    151      -9.4751      2.00000
    152      -9.3588      2.00000
    153      -9.3494      2.00000
    154      -9.3425      2.00000
    155      -9.3361      2.00000
    156      -9.2655      2.00000
    157      -9.1662      2.00000
    158      -9.0815      2.00000
    159      -9.0795      2.00000
    160      -9.0136      2.00000
    161      -8.9963      2.00000
    162      -8.9689      2.00000
    163      -8.9663      2.00000
    164      -8.9419      2.00000
    165      -8.9074      2.00000
    166      -8.9052      2.00000
    167      -8.8819      2.00000
    168      -8.8587      2.00000
    169      -8.8252      2.00000
    170      -8.7743      2.00000
    171      -8.7280      2.00000
    172      -8.7217      2.00000
    173      -8.7207      2.00000
    174      -8.6680      2.00000
    175      -8.6062      2.00000
    176      -8.5907      2.00000
    177      -8.5570      2.00000
    178      -8.4883      2.00000
    179      -8.3397      2.00000
    180      -8.2767      2.00000
    181      -8.2579      2.00000
    182      -8.2464      2.00000
    183      -8.2444      2.00000
    184      -8.2358      2.00000
    185      -8.2321      2.00000
    186      -8.2168      2.00000
    187      -8.1118      2.00000
    188      -8.0762      2.00000
    189      -8.0695      2.00000
    190      -7.9945      2.00000
    191      -7.9914      2.00000
    192      -7.9846      2.00000
    193      -7.9835      2.00000
    194      -7.9644      2.00000
    195      -7.9129      2.00000
    196      -7.9000      2.00000
    197      -7.8573      2.00000
    198      -7.8407      2.00000
    199      -7.8030      2.00000
    200      -7.7333      2.00000
    201      -7.7006      2.00000
    202      -7.6699      2.00000
    203      -7.6526      2.00000
    204      -7.6440      2.00000
    205      -7.6067      2.00000
    206      -7.5912      2.00000
    207      -7.5183      2.00000
    208      -7.5007      2.00000
    209      -7.4636      2.00000
    210      -7.3979      2.00000
    211      -7.3453      2.00000
    212      -7.3423      2.00000
    213      -7.3365      2.00000
    214      -7.3098      2.00000
    215      -7.2774      2.00000
    216      -7.2712      2.00000
    217      -7.2529      2.00000
    218      -7.2427      2.00000
    219      -7.2419      2.00000
    220      -7.2111      2.00000
    221      -7.1725      2.00000
    222      -7.1595      2.00000
    223      -7.1150      2.00000
    224      -7.1088      2.00000
    225      -7.1078      2.00000
    226      -7.0459      2.00000
    227      -7.0378      2.00000
    228      -7.0345      2.00000
    229      -7.0235      2.00000
    230      -7.0109      2.00000
    231      -6.9526      2.00000
    232      -6.9312      2.00000
    233      -6.9257      2.00000
    234      -6.9227      2.00000
    235      -6.8692      2.00000
    236      -6.8578      2.00000
    237      -6.8555      2.00000
    238      -6.8481      2.00000
    239      -6.8077      2.00000
    240      -6.7714      2.00000
    241      -6.7541      2.00000
    242      -6.7109      2.00000
    243      -6.6918      2.00000
    244      -6.6862      2.00000
    245      -6.6603      2.00000
    246      -6.6421      2.00000
    247      -6.6266      2.00000
    248      -6.5996      2.00000
    249      -6.5895      2.00000
    250      -6.5246      2.00000
    251      -6.4984      2.00000
    252      -6.4960      2.00000
    253      -6.4957      2.00000
    254      -6.4853      2.00000
    255      -6.4848      2.00000
    256      -6.4844      2.00000
    257      -6.4402      2.00000
    258      -6.3539      2.00000
    259      -6.3534      2.00000
    260      -6.2970      2.00000
    261      -6.2776      2.00000
    262      -6.2714      2.00000
    263      -6.2654      2.00000
    264      -6.2569      2.00000
    265      -6.2478      2.00000
    266      -6.2441      2.00000
    267      -6.2286      2.00000
    268      -6.1513      2.00000
    269      -6.1300      2.00000
    270      -6.1173      2.00000
    271      -6.0886      2.00000
    272      -6.0701      2.00000
    273      -6.0509      2.00000
    274      -6.0183      2.00000
    275      -5.9926      2.00000
    276      -5.9330      2.00000
    277      -5.9190      2.00000
    278      -5.9025      2.00000
    279      -5.8901      2.00000
    280      -5.8828      2.00000
    281      -5.8014      2.00000
    282      -5.7908      2.00000
    283      -5.7873      2.00000
    284      -5.7465      2.00000
    285      -5.7364      2.00000
    286      -5.7263      2.00000
    287      -5.7208      2.00000
    288      -5.7165      2.00000
    289      -5.7104      2.00000
    290      -5.7063      2.00000
    291      -5.6710      2.00000
    292      -5.6674      2.00000
    293      -5.6468      2.00000
    294      -5.6154      2.00000
    295      -5.6148      2.00000
    296      -5.6086      2.00000
    297      -5.6078      2.00000
    298      -5.5501      2.00000
    299      -5.5411      2.00000
    300      -5.5215      2.00000
    301      -5.4894      2.00000
    302      -5.4867      2.00000
    303      -5.4729      2.00000
    304      -5.4647      2.00000
    305      -5.4530      2.00000
    306      -5.4473      2.00000
    307      -5.4411      2.00000
    308      -5.4389      2.00000
    309      -5.4029      2.00000
    310      -5.3885      2.00000
    311      -5.3720      2.00000
    312      -5.3601      2.00000
    313      -5.3483      2.00000
    314      -5.2696      2.00000
    315      -5.2290      2.00000
    316      -5.2264      2.00000
    317      -5.2228      2.00000
    318      -5.1753      2.00000
    319      -5.1734      2.00000
    320      -5.1161      2.00000
    321      -5.1015      2.00000
    322      -5.0684      2.00000
    323      -5.0628      2.00000
    324      -5.0557      2.00000
    325      -5.0556      2.00000
    326      -5.0350      2.00000
    327      -5.0330      2.00000
    328      -5.0130      2.00000
    329      -4.9759      2.00000
    330      -4.9711      2.00000
    331      -4.9666      2.00000
    332      -4.9606      2.00000
    333      -4.9595      2.00000
    334      -4.9553      2.00000
    335      -4.9444      2.00000
    336      -4.9318      2.00000
    337      -4.9095      2.00000
    338      -4.8998      2.00000
    339      -4.8920      2.00000
    340      -4.8890      2.00000
    341      -4.8839      2.00000
    342      -4.8794      2.00000
    343      -4.8632      2.00000
    344      -4.8340      2.00000
    345      -4.8301      2.00000
    346      -4.8049      2.00000
    347      -4.7528      2.00000
    348      -4.7050      2.00000
    349      -4.6727      2.00000
    350      -4.6321      2.00000
    351      -4.5482      2.00000
    352      -4.5298      2.00000
    353      -4.5242      2.00000
    354      -4.5069      2.00000
    355      -4.4077      2.00000
    356      -4.3880      2.00000
    357      -4.3770      2.00000
    358      -4.3439      2.00000
    359      -4.3359      2.00000
    360      -4.3342      2.00000
    361      -4.2813      2.00000
    362      -4.2801      2.00000
    363      -4.2724      2.00000
    364      -4.2625      2.00000
    365      -4.2545      2.00000
    366      -4.2198      2.00000
    367      -4.2127      2.00000
    368      -4.1944      2.00000
    369      -4.1137      2.00000
    370      -4.0997      2.00000
    371      -4.0889      2.00000
    372      -4.0596      2.00000
    373      -4.0365      2.00000
    374      -4.0219      2.00000
    375      -4.0171      2.00000
    376      -3.9679      2.00000
    377      -3.9612      2.00000
    378      -3.9032      2.00000
    379      -3.8924      2.00000
    380      -3.8004      2.00000
    381      -3.6299      1.99994
    382      -3.6156      1.99987
    383      -3.5052      1.97656
    384      -3.3792      1.37159
    385      -3.3344      0.88078
    386      -3.3252      0.77976
    387      -3.2859      0.40378
    388      -3.0681      0.00009
    389      -3.0175      0.00000
    390      -2.9603      0.00000
    391      -2.9475      0.00000
    392      -2.7623      0.00000
    393      -2.7512      0.00000
    394      -2.5361      0.00000
    395      -2.4323      0.00000
    396      -2.2835      0.00000
    397      -2.2669      0.00000
    398      -2.2614      0.00000
    399      -2.2324      0.00000
    400      -2.1824      0.00000
    401      -2.1792      0.00000
    402      -2.1402      0.00000
    403      -2.1211      0.00000
    404      -2.1041      0.00000
    405      -2.0613      0.00000
    406      -1.6510      0.00000
    407      -1.5994      0.00000
    408      -1.5181      0.00000
    409      -1.4618      0.00000
    410      -1.3750      0.00000
    411      -1.3299      0.00000
    412      -1.3169      0.00000
    413      -1.2726      0.00000
    414      -1.1724      0.00000
    415      -0.8609      0.00000
    416      -0.7692      0.00000
    417      -0.7637      0.00000
    418      -0.6936      0.00000
    419      -0.6465      0.00000
    420      -0.6205      0.00000
    421      -0.5535      0.00000
    422      -0.5061      0.00000
    423      -0.4787      0.00000
    424      -0.1463      0.00000
    425      -0.1298      0.00000
    426      -0.0869      0.00000
    427      -0.0658      0.00000
    428       0.0288      0.00000
    429       0.0381      0.00000
    430       0.0942      0.00000
    431       0.0980      0.00000
    432       0.1302      0.00000
    433       0.1540      0.00000
    434       0.2290      0.00000
    435       0.2437      0.00000
    436       0.2695      0.00000
    437       0.3420      0.00000
    438       0.3454      0.00000
    439       0.3552      0.00000
    440       0.3568      0.00000
    441       0.4036      0.00000
    442       0.4212      0.00000
    443       0.4732      0.00000
    444       0.4875      0.00000
    445       0.5274      0.00000
    446       0.5338      0.00000
    447       0.6011      0.00000
    448       0.6425      0.00000
    449       0.6478      0.00000
    450       0.6713      0.00000
    451       0.7039      0.00000
    452       0.7148      0.00000
    453       0.7488      0.00000
    454       0.7701      0.00000
    455       0.7911      0.00000
    456       0.7922      0.00000
    457       0.8284      0.00000
    458       0.8444      0.00000
    459       0.9103      0.00000
    460       0.9552      0.00000
    461       0.9826      0.00000
    462       1.0259      0.00000
    463       1.0290      0.00000
    464       1.0331      0.00000
    465       1.0606      0.00000
    466       1.1319      0.00000
    467       1.1631      0.00000
    468       1.2139      0.00000
    469       1.2212      0.00000
    470       1.2329      0.00000
    471       1.2630      0.00000
    472       1.2642      0.00000
    473       1.2674      0.00000
    474       1.2773      0.00000
    475       1.3466      0.00000
    476       1.3773      0.00000
    477       1.4044      0.00000
    478       1.4127      0.00000
    479       1.4149      0.00000
    480       1.4665      0.00000
    481       1.5085      0.00000
    482       1.5275      0.00000
    483       1.5333      0.00000
    484       1.5424      0.00000
    485       1.5428      0.00000
    486       1.5447      0.00000
    487       1.5482      0.00000
    488       1.5544      0.00000
    489       1.6255      0.00000
    490       1.6329      0.00000
    491       1.6833      0.00000
    492       1.7042      0.00000
    493       1.7084      0.00000
    494       1.7411      0.00000
    495       1.7532      0.00000
    496       1.7957      0.00000
    497       1.7980      0.00000
    498       1.7983      0.00000
    499       1.8111      0.00000
    500       1.8177      0.00000
    501       1.8344      0.00000
    502       1.8375      0.00000
    503       1.8630      0.00000
    504       1.8889      0.00000
    505       1.9147      0.00000
    506       1.9406      0.00000
    507       1.9929      0.00000
    508       2.0319      0.00000
    509       2.0748      0.00000
    510       2.0756      0.00000
    511       2.1053      0.00000
    512       2.1115      0.00000
    513       2.1377      0.00000
    514       2.1548      0.00000
    515       2.1636      0.00000
    516       2.1750      0.00000
    517       2.1970      0.00000
    518       2.2063      0.00000
    519       2.2135      0.00000
    520       2.2152      0.00000
    521       2.2235      0.00000
    522       2.2315      0.00000
    523       2.2365      0.00000
    524       2.3117      0.00000
    525       2.3267      0.00000
    526       2.3733      0.00000
    527       2.3748      0.00000
    528       2.4042      0.00000

 k-point     6 :      -0.1250    0.3333    0.0000
  band No.  band energies     occupation 
      1     -18.5858      2.00000
      2     -18.5555      2.00000
      3     -18.4988      2.00000
      4     -18.4000      2.00000
      5     -18.3951      2.00000
      6     -18.3759      2.00000
      7     -18.3462      2.00000
      8     -18.3364      2.00000
      9     -18.3073      2.00000
     10     -18.2907      2.00000
     11     -18.2718      2.00000
     12     -18.2564      2.00000
     13     -18.1933      2.00000
     14     -18.1891      2.00000
     15     -18.1315      2.00000
     16     -18.1021      2.00000
     17     -18.0667      2.00000
     18     -18.0528      2.00000
     19     -17.7989      2.00000
     20     -17.7794      2.00000
     21     -17.7663      2.00000
     22     -17.6944      2.00000
     23     -17.6470      2.00000
     24     -17.6315      2.00000
     25     -17.6177      2.00000
     26     -17.5984      2.00000
     27     -17.5849      2.00000
     28     -17.5150      2.00000
     29     -17.5043      2.00000
     30     -17.4684      2.00000
     31     -17.4532      2.00000
     32     -17.4071      2.00000
     33     -17.3478      2.00000
     34     -17.3293      2.00000
     35     -17.2355      2.00000
     36     -17.1783      2.00000
     37     -14.4771      2.00000
     38     -14.4747      2.00000
     39     -14.3996      2.00000
     40     -14.3798      2.00000
     41     -14.3389      2.00000
     42     -14.3216      2.00000
     43     -14.2968      2.00000
     44     -14.2807      2.00000
     45     -14.2778      2.00000
     46     -14.2492      2.00000
     47     -14.2062      2.00000
     48     -14.1967      2.00000
     49     -14.1811      2.00000
     50     -14.1485      2.00000
     51     -14.1325      2.00000
     52     -14.1304      2.00000
     53     -14.1173      2.00000
     54     -14.0699      2.00000
     55     -14.0116      2.00000
     56     -13.9696      2.00000
     57     -13.9500      2.00000
     58     -13.9479      2.00000
     59     -13.9351      2.00000
     60     -13.8791      2.00000
     61     -13.8758      2.00000
     62     -13.8646      2.00000
     63     -13.7886      2.00000
     64     -13.7786      2.00000
     65     -13.7714      2.00000
     66     -13.7668      2.00000
     67     -13.7196      2.00000
     68     -13.6983      2.00000
     69     -13.6910      2.00000
     70     -13.6151      2.00000
     71     -13.5542      2.00000
     72     -13.3939      2.00000
     73     -12.5234      2.00000
     74     -12.3025      2.00000
     75     -12.0240      2.00000
     76     -11.9242      2.00000
     77     -11.8887      2.00000
     78     -11.8490      2.00000
     79     -11.8286      2.00000
     80     -11.8032      2.00000
     81     -11.8021      2.00000
     82     -11.7800      2.00000
     83     -11.7659      2.00000
     84     -11.7544      2.00000
     85     -11.7070      2.00000
     86     -11.6959      2.00000
     87     -11.6610      2.00000
     88     -11.6388      2.00000
     89     -11.6124      2.00000
     90     -11.5991      2.00000
     91     -11.5754      2.00000
     92     -11.5467      2.00000
     93     -11.4999      2.00000
     94     -11.4964      2.00000
     95     -11.4697      2.00000
     96     -11.4628      2.00000
     97     -11.4405      2.00000
     98     -11.4342      2.00000
     99     -11.3758      2.00000
    100     -11.3422      2.00000
    101     -11.2397      2.00000
    102     -11.2133      2.00000
    103     -11.1612      2.00000
    104     -11.1538      2.00000
    105     -11.1271      2.00000
    106     -11.1169      2.00000
    107     -11.0930      2.00000
    108     -11.0710      2.00000
    109     -11.0275      2.00000
    110     -11.0268      2.00000
    111     -10.9233      2.00000
    112     -10.9133      2.00000
    113     -10.9086      2.00000
    114     -10.8174      2.00000
    115     -10.8149      2.00000
    116     -10.7105      2.00000
    117     -10.7081      2.00000
    118     -10.6757      2.00000
    119     -10.6304      2.00000
    120     -10.5417      2.00000
    121     -10.4822      2.00000
    122     -10.4503      2.00000
    123     -10.4445      2.00000
    124     -10.4127      2.00000
    125     -10.3758      2.00000
    126     -10.3746      2.00000
    127     -10.2997      2.00000
    128     -10.2992      2.00000
    129     -10.2760      2.00000
    130     -10.2386      2.00000
    131     -10.2312      2.00000
    132     -10.2075      2.00000
    133     -10.1984      2.00000
    134     -10.1081      2.00000
    135     -10.0814      2.00000
    136     -10.0668      2.00000
    137     -10.0288      2.00000
    138     -10.0215      2.00000
    139      -9.9846      2.00000
    140      -9.9844      2.00000
    141      -9.9169      2.00000
    142      -9.9061      2.00000
    143      -9.8223      2.00000
    144      -9.7927      2.00000
    145      -9.7924      2.00000
    146      -9.7803      2.00000
    147      -9.7709      2.00000
    148      -9.7496      2.00000
    149      -9.7250      2.00000
    150      -9.6070      2.00000
    151      -9.6018      2.00000
    152      -9.5921      2.00000
    153      -9.5480      2.00000
    154      -9.3529      2.00000
    155      -9.2964      2.00000
    156      -9.2520      2.00000
    157      -9.1801      2.00000
    158      -9.0963      2.00000
    159      -9.0912      2.00000
    160      -9.0827      2.00000
    161      -9.0333      2.00000
    162      -8.9534      2.00000
    163      -8.9517      2.00000
    164      -8.8746      2.00000
    165      -8.8547      2.00000
    166      -8.8433      2.00000
    167      -8.7703      2.00000
    168      -8.7586      2.00000
    169      -8.7188      2.00000
    170      -8.7057      2.00000
    171      -8.6888      2.00000
    172      -8.5107      2.00000
    173      -8.4888      2.00000
    174      -8.4641      2.00000
    175      -8.4595      2.00000
    176      -8.4463      2.00000
    177      -8.4381      2.00000
    178      -8.4098      2.00000
    179      -8.3159      2.00000
    180      -8.2885      2.00000
    181      -8.2399      2.00000
    182      -8.2391      2.00000
    183      -8.2360      2.00000
    184      -8.2233      2.00000
    185      -8.2072      2.00000
    186      -8.1813      2.00000
    187      -8.1585      2.00000
    188      -8.1477      2.00000
    189      -8.1456      2.00000
    190      -8.0731      2.00000
    191      -8.0100      2.00000
    192      -7.9773      2.00000
    193      -7.9618      2.00000
    194      -7.9318      2.00000
    195      -7.9055      2.00000
    196      -7.9053      2.00000
    197      -7.8878      2.00000
    198      -7.8670      2.00000
    199      -7.8478      2.00000
    200      -7.8044      2.00000
    201      -7.8023      2.00000
    202      -7.7844      2.00000
    203      -7.7805      2.00000
    204      -7.7403      2.00000
    205      -7.7198      2.00000
    206      -7.5836      2.00000
    207      -7.5410      2.00000
    208      -7.5217      2.00000
    209      -7.4955      2.00000
    210      -7.4932      2.00000
    211      -7.4007      2.00000
    212      -7.3894      2.00000
    213      -7.3804      2.00000
    214      -7.3469      2.00000
    215      -7.3313      2.00000
    216      -7.3262      2.00000
    217      -7.3164      2.00000
    218      -7.2989      2.00000
    219      -7.2348      2.00000
    220      -7.1260      2.00000
    221      -7.1222      2.00000
    222      -7.0998      2.00000
    223      -7.0993      2.00000
    224      -7.0945      2.00000
    225      -7.0894      2.00000
    226      -7.0863      2.00000
    227      -7.0694      2.00000
    228      -7.0530      2.00000
    229      -7.0258      2.00000
    230      -7.0168      2.00000
    231      -7.0127      2.00000
    232      -6.9763      2.00000
    233      -6.9476      2.00000
    234      -6.9208      2.00000
    235      -6.8845      2.00000
    236      -6.8485      2.00000
    237      -6.8289      2.00000
    238      -6.7401      2.00000
    239      -6.7242      2.00000
    240      -6.6776      2.00000
    241      -6.6725      2.00000
    242      -6.6676      2.00000
    243      -6.6307      2.00000
    244      -6.6299      2.00000
    245      -6.6297      2.00000
    246      -6.6190      2.00000
    247      -6.6080      2.00000
    248      -6.5887      2.00000
    249      -6.5792      2.00000
    250      -6.5770      2.00000
    251      -6.4990      2.00000
    252      -6.4758      2.00000
    253      -6.4659      2.00000
    254      -6.4539      2.00000
    255      -6.4370      2.00000
    256      -6.3651      2.00000
    257      -6.3243      2.00000
    258      -6.3065      2.00000
    259      -6.3051      2.00000
    260      -6.2990      2.00000
    261      -6.2973      2.00000
    262      -6.2867      2.00000
    263      -6.2750      2.00000
    264      -6.2297      2.00000
    265      -6.2287      2.00000
    266      -6.2092      2.00000
    267      -6.2037      2.00000
    268      -6.1889      2.00000
    269      -6.1495      2.00000
    270      -6.1055      2.00000
    271      -6.0569      2.00000
    272      -6.0304      2.00000
    273      -6.0230      2.00000
    274      -6.0198      2.00000
    275      -6.0139      2.00000
    276      -5.9984      2.00000
    277      -5.9740      2.00000
    278      -5.9646      2.00000
    279      -5.9374      2.00000
    280      -5.9250      2.00000
    281      -5.9067      2.00000
    282      -5.8759      2.00000
    283      -5.8673      2.00000
    284      -5.8581      2.00000
    285      -5.8518      2.00000
    286      -5.8387      2.00000
    287      -5.8288      2.00000
    288      -5.8070      2.00000
    289      -5.7868      2.00000
    290      -5.7595      2.00000
    291      -5.7189      2.00000
    292      -5.6875      2.00000
    293      -5.6851      2.00000
    294      -5.6595      2.00000
    295      -5.6513      2.00000
    296      -5.6242      2.00000
    297      -5.6218      2.00000
    298      -5.6102      2.00000
    299      -5.6085      2.00000
    300      -5.5879      2.00000
    301      -5.5405      2.00000
    302      -5.5354      2.00000
    303      -5.4842      2.00000
    304      -5.4232      2.00000
    305      -5.4157      2.00000
    306      -5.4030      2.00000
    307      -5.3900      2.00000
    308      -5.3877      2.00000
    309      -5.3528      2.00000
    310      -5.3493      2.00000
    311      -5.2880      2.00000
    312      -5.2878      2.00000
    313      -5.2659      2.00000
    314      -5.2629      2.00000
    315      -5.2596      2.00000
    316      -5.2490      2.00000
    317      -5.2029      2.00000
    318      -5.1927      2.00000
    319      -5.1824      2.00000
    320      -5.1605      2.00000
    321      -5.1500      2.00000
    322      -5.0944      2.00000
    323      -5.0782      2.00000
    324      -5.0497      2.00000
    325      -5.0169      2.00000
    326      -5.0136      2.00000
    327      -4.9901      2.00000
    328      -4.9788      2.00000
    329      -4.9660      2.00000
    330      -4.9626      2.00000
    331      -4.9450      2.00000
    332      -4.9321      2.00000
    333      -4.9307      2.00000
    334      -4.9252      2.00000
    335      -4.9187      2.00000
    336      -4.9121      2.00000
    337      -4.9109      2.00000
    338      -4.9084      2.00000
    339      -4.9030      2.00000
    340      -4.8877      2.00000
    341      -4.8581      2.00000
    342      -4.8480      2.00000
    343      -4.8394      2.00000
    344      -4.8154      2.00000
    345      -4.8030      2.00000
    346      -4.7450      2.00000
    347      -4.6882      2.00000
    348      -4.6844      2.00000
    349      -4.6572      2.00000
    350      -4.6330      2.00000
    351      -4.5096      2.00000
    352      -4.5076      2.00000
    353      -4.5034      2.00000
    354      -4.4447      2.00000
    355      -4.3992      2.00000
    356      -4.3566      2.00000
    357      -4.3099      2.00000
    358      -4.2978      2.00000
    359      -4.2862      2.00000
    360      -4.2630      2.00000
    361      -4.2554      2.00000
    362      -4.2501      2.00000
    363      -4.2385      2.00000
    364      -4.2370      2.00000
    365      -4.2081      2.00000
    366      -4.1926      2.00000
    367      -4.1809      2.00000
    368      -4.1741      2.00000
    369      -4.1695      2.00000
    370      -4.1377      2.00000
    371      -4.0366      2.00000
    372      -4.0002      2.00000
    373      -3.9664      2.00000
    374      -3.8542      2.00000
    375      -3.8207      2.00000
    376      -3.8179      2.00000
    377      -3.7952      2.00000
    378      -3.7810      2.00000
    379      -3.7590      2.00000
    380      -3.7352      2.00000
    381      -3.7296      2.00000
    382      -3.6928      2.00000
    383      -3.6883      2.00000
    384      -3.5908      1.99949
    385      -3.5452      1.99538
    386      -3.5202      1.98678
    387      -3.3926      1.49910
    388      -3.3874      1.45187
    389      -3.3693      1.26893
    390      -3.3409      0.95437
    391      -3.2453      0.15857
    392      -2.7910      0.00000
    393      -2.6997      0.00000
    394      -2.2957      0.00000
    395      -2.2840      0.00000
    396      -2.2367      0.00000
    397      -2.2349      0.00000
    398      -2.2327      0.00000
    399      -2.2246      0.00000
    400      -2.1893      0.00000
    401      -2.1558      0.00000
    402      -2.1032      0.00000
    403      -2.0681      0.00000
    404      -2.0404      0.00000
    405      -1.7772      0.00000
    406      -1.6103      0.00000
    407      -1.5762      0.00000
    408      -1.5679      0.00000
    409      -1.4784      0.00000
    410      -1.4451      0.00000
    411      -1.3520      0.00000
    412      -1.2938      0.00000
    413      -1.2106      0.00000
    414      -1.1261      0.00000
    415      -0.7524      0.00000
    416      -0.6976      0.00000
    417      -0.6605      0.00000
    418      -0.6440      0.00000
    419      -0.6322      0.00000
    420      -0.5880      0.00000
    421      -0.5471      0.00000
    422      -0.4671      0.00000
    423      -0.3971      0.00000
    424      -0.3961      0.00000
    425      -0.3731      0.00000
    426      -0.2691      0.00000
    427      -0.2270      0.00000
    428      -0.1045      0.00000
    429      -0.0608      0.00000
    430       0.0599      0.00000
    431       0.0819      0.00000
    432       0.1099      0.00000
    433       0.1933      0.00000
    434       0.2559      0.00000
    435       0.2668      0.00000
    436       0.3053      0.00000
    437       0.3258      0.00000
    438       0.3493      0.00000
    439       0.3603      0.00000
    440       0.3884      0.00000
    441       0.3959      0.00000
    442       0.4080      0.00000
    443       0.4693      0.00000
    444       0.4879      0.00000
    445       0.5184      0.00000
    446       0.5634      0.00000
    447       0.5705      0.00000
    448       0.5717      0.00000
    449       0.6606      0.00000
    450       0.6664      0.00000
    451       0.7000      0.00000
    452       0.7335      0.00000
    453       0.7402      0.00000
    454       0.7437      0.00000
    455       0.8008      0.00000
    456       0.8021      0.00000
    457       0.8458      0.00000
    458       0.8592      0.00000
    459       0.8735      0.00000
    460       0.9153      0.00000
    461       0.9339      0.00000
    462       1.0375      0.00000
    463       1.1172      0.00000
    464       1.1295      0.00000
    465       1.1435      0.00000
    466       1.1930      0.00000
    467       1.1959      0.00000
    468       1.2229      0.00000
    469       1.2267      0.00000
    470       1.2296      0.00000
    471       1.2886      0.00000
    472       1.3251      0.00000
    473       1.3447      0.00000
    474       1.3475      0.00000
    475       1.3614      0.00000
    476       1.3795      0.00000
    477       1.3844      0.00000
    478       1.4054      0.00000
    479       1.4215      0.00000
    480       1.4558      0.00000
    481       1.4598      0.00000
    482       1.4839      0.00000
    483       1.5000      0.00000
    484       1.5090      0.00000
    485       1.5372      0.00000
    486       1.5738      0.00000
    487       1.5893      0.00000
    488       1.5907      0.00000
    489       1.6084      0.00000
    490       1.6239      0.00000
    491       1.6285      0.00000
    492       1.6370      0.00000
    493       1.6608      0.00000
    494       1.6667      0.00000
    495       1.6763      0.00000
    496       1.7138      0.00000
    497       1.7705      0.00000
    498       1.7919      0.00000
    499       1.8041      0.00000
    500       1.8236      0.00000
    501       1.8391      0.00000
    502       1.8784      0.00000
    503       1.9285      0.00000
    504       1.9586      0.00000
    505       1.9843      0.00000
    506       1.9921      0.00000
    507       2.0057      0.00000
    508       2.0118      0.00000
    509       2.0763      0.00000
    510       2.0888      0.00000
    511       2.1107      0.00000
    512       2.1228      0.00000
    513       2.1502      0.00000
    514       2.1587      0.00000
    515       2.1593      0.00000
    516       2.1596      0.00000
    517       2.1641      0.00000
    518       2.1789      0.00000
    519       2.2166      0.00000
    520       2.2476      0.00000
    521       2.2703      0.00000
    522       2.2728      0.00000
    523       2.3031      0.00000
    524       2.3505      0.00000
    525       2.3616      0.00000
    526       2.3994      0.00000
    527       2.4206      0.00000
    528       2.4557      0.00000


--------------------------------------------------------------------------------------------------------


 soft charge-density along one line, spin component           1
         0         1         2         3         4         5         6         7         8         9
 total charge-density along one line
 
 pseudopotential strength for first ion, spin component:           1
  6.780  10.348  -0.008  -0.001   0.006  -0.013  -0.002   0.009
 10.348  15.790  -0.012  -0.002   0.009  -0.019  -0.003   0.014
 -0.008  -0.012  -2.337   0.000  -0.001  -4.016   0.001  -0.002
 -0.001  -0.002   0.000  -2.333   0.001   0.001  -4.008   0.003
  0.006   0.009  -0.001   0.001  -2.336  -0.002   0.003  -4.015
 -0.013  -0.019  -4.016   0.001  -0.002  -6.705   0.001  -0.004
 -0.002  -0.003   0.001  -4.008   0.003   0.001  -6.687   0.005
  0.009   0.014  -0.002   0.003  -4.015  -0.004   0.005  -6.703
 total augmentation occupancy for first ion, spin component:           1
  3.812  -1.048  -0.238  -0.411   0.429   0.119   0.159  -0.188
 -1.048   0.315   0.155   0.167  -0.215  -0.055  -0.060   0.082
 -0.238   0.155   3.842  -0.108   0.430  -1.085   0.038  -0.142
 -0.411   0.167  -0.108   2.570  -0.040   0.039  -0.637   0.034
  0.429  -0.215   0.430  -0.040   3.843  -0.142   0.034  -1.060
  0.119  -0.055  -1.085   0.039  -0.142   0.317  -0.012   0.048
  0.159  -0.060   0.038  -0.637   0.034  -0.012   0.166  -0.016
 -0.188   0.082  -0.142   0.034  -1.060   0.048  -0.016   0.303


------------------------ aborting loop because EDIFF is reached ----------------------------------------





 total charge

# of ion       s       p       d       tot
------------------------------------------
    1        0.723   1.420   0.000   2.142
    2        0.723   1.421   0.000   2.144
    3        0.723   1.421   0.000   2.144
    4        0.723   1.421   0.000   2.144
    5        0.723   1.421   0.000   2.144
    6        0.723   1.421   0.000   2.144
    7        0.723   1.421   0.000   2.144
    8        0.723   1.421   0.000   2.144
    9        0.723   1.421   0.000   2.144
   10        0.723   1.421   0.000   2.144
   11        0.723   1.421   0.000   2.144
   12        0.723   1.421   0.000   2.144
   13        0.723   1.421   0.000   2.144
   14        0.723   1.421   0.000   2.144
   15        0.723   1.421   0.000   2.144
   16        0.723   1.421   0.000   2.144
   17        0.723   1.421   0.000   2.144
   18        0.723   1.421   0.000   2.144
   19        0.723   1.421   0.000   2.144
   20        0.723   1.421   0.000   2.144
   21        0.723   1.421   0.000   2.144
   22        0.723   1.421   0.000   2.144
   23        0.723   1.421   0.000   2.144
   24        0.723   1.421   0.000   2.144
   25        0.723   1.421   0.000   2.144
   26        0.723   1.421   0.000   2.144
   27        0.723   1.421   0.000   2.144
   28        0.723   1.421   0.000   2.144
   29        0.723   1.421   0.000   2.144
   30        0.723   1.421   0.000   2.144
   31        0.723   1.421   0.000   2.144
   32        0.723   1.421   0.000   2.144
   33        0.723   1.421   0.000   2.144
   34        0.723   1.421   0.000   2.144
   35        0.723   1.421   0.000   2.144
   36        0.723   1.421   0.000   2.144
   37        0.708   1.356   0.000   2.064
   38        0.708   1.356   0.000   2.064
   39        0.708   1.356   0.000   2.064
   40        0.708   1.356   0.000   2.064
   41        0.708   1.356   0.000   2.064
   42        0.708   1.356   0.000   2.063
   43        0.708   1.356   0.000   2.064
   44        0.708   1.356   0.000   2.064
   45        0.708   1.356   0.000   2.064
   46        0.708   1.356   0.000   2.064
   47        0.708   1.356   0.000   2.064
   48        0.708   1.356   0.000   2.064
   49        0.708   1.356   0.000   2.064
   50        0.708   1.356   0.000   2.064
   51        0.708   1.356   0.000   2.064
   52        0.708   1.356   0.000   2.064
   53        0.708   1.356   0.000   2.064
   54        0.708   1.356   0.000   2.064
   55        0.708   1.356   0.000   2.064
   56        0.708   1.356   0.000   2.064
   57        0.708   1.356   0.000   2.064
   58        0.708   1.356   0.000   2.064
   59        0.708   1.356   0.000   2.064
   60        0.708   1.356   0.000   2.064
   61        0.708   1.356   0.000   2.064
   62        0.708   1.356   0.000   2.064
   63        0.708   1.356   0.000   2.064
   64        0.708   1.356   0.000   2.064
   65        0.708   1.356   0.000   2.064
   66        0.708   1.356   0.000   2.064
   67        0.708   1.356   0.000   2.064
   68        0.708   1.356   0.000   2.064
   69        0.708   1.356   0.000   2.064
   70        0.708   1.356   0.000   2.064
   71        0.708   1.356   0.000   2.064
   72        0.708   1.356   0.000   2.064
   73        0.714   1.317   0.000   2.032
   74        0.714   1.318   0.000   2.032
   75        0.714   1.318   0.000   2.032
   76        0.714   1.318   0.000   2.032
   77        0.714   1.318   0.000   2.032
   78        0.714   1.318   0.000   2.032
   79        0.714   1.318   0.000   2.032
   80        0.714   1.318   0.000   2.032
   81        0.714   1.318   0.000   2.032
   82        0.714   1.318   0.000   2.032
   83        0.714   1.318   0.000   2.032
   84        0.714   1.318   0.000   2.032
   85        0.714   1.318   0.000   2.032
   86        0.714   1.318   0.000   2.032
   87        0.714   1.318   0.000   2.032
   88        0.714   1.318   0.000   2.032
   89        0.714   1.318   0.000   2.032
   90        0.714   1.318   0.000   2.032
   91        0.714   1.318   0.000   2.032
   92        0.714   1.318   0.000   2.032
   93        0.714   1.318   0.000   2.032
   94        0.714   1.318   0.000   2.032
   95        0.714   1.318   0.000   2.032
   96        0.714   1.318   0.000   2.032
   97        0.714   1.318   0.000   2.032
   98        0.714   1.318   0.000   2.032
   99        0.714   1.318   0.000   2.032
  100        0.714   1.318   0.000   2.032
  101        0.714   1.318   0.000   2.032
  102        0.714   1.318   0.000   2.032
  103        0.714   1.318   0.000   2.032
  104        0.714   1.318   0.000   2.032
  105        0.714   1.318   0.000   2.032
  106        0.714   1.318   0.000   2.032
  107        0.714   1.318   0.000   2.032
  108        0.714   1.318   0.000   2.032
  109        0.708   1.293   0.000   2.000
  110        0.708   1.292   0.000   2.000
  111        0.708   1.292   0.000   2.000
  112        0.708   1.292   0.000   1.999
  113        0.708   1.292   0.000   2.000
  114        0.708   1.292   0.000   2.000
  115        0.708   1.292   0.000   1.999
  116        0.708   1.292   0.000   2.000
  117        0.708   1.292   0.000   2.000
  118        0.708   1.292   0.000   1.999
  119        0.708   1.292   0.000   1.999
  120        0.708   1.292   0.000   2.000
  121        0.708   1.292   0.000   1.999
  122        0.708   1.292   0.000   1.999
  123        0.708   1.292   0.000   2.000
  124        0.708   1.292   0.000   1.999
  125        0.708   1.292   0.000   1.999
  126        0.708   1.292   0.000   2.000
  127        0.708   1.292   0.000   2.000
  128        0.708   1.292   0.000   2.000
  129        0.708   1.292   0.000   1.999
  130        0.708   1.292   0.000   2.000
  131        0.708   1.292   0.000   1.999
  132        0.708   1.292   0.000   1.999
  133        0.708   1.292   0.000   2.000
  134        0.708   1.292   0.000   2.000
  135        0.708   1.292   0.000   1.999
  136        0.708   1.292   0.000   2.000
  137        0.708   1.292   0.000   1.999
  138        0.708   1.292   0.000   1.999
  139        0.708   1.292   0.000   2.000
  140        0.708   1.292   0.000   1.999
  141        0.708   1.292   0.000   1.999
  142        0.708   1.292   0.000   2.000
  143        0.708   1.292   0.000   1.999
  144        0.708   1.292   0.000   1.999
  145        0.688   1.272   0.000   1.961
  146        0.689   1.274   0.000   1.963
  147        0.689   1.274   0.000   1.963
  148        0.689   1.274   0.000   1.963
  149        0.689   1.274   0.000   1.963
  150        0.689   1.274   0.000   1.963
  151        0.689   1.274   0.000   1.963
  152        0.689   1.274   0.000   1.963
  153        0.689   1.274   0.000   1.963
  154        0.694   1.121   0.000   1.815
  155        0.694   1.121   0.000   1.815
  156        0.694   1.121   0.000   1.815
  157        0.694   1.121   0.000   1.815
  158        0.694   1.121   0.000   1.815
  159        0.694   1.121   0.000   1.815
  160        0.694   1.121   0.000   1.815
  161        0.694   1.121   0.000   1.815
  162        0.694   1.121   0.000   1.815
  163        0.694   1.121   0.000   1.815
  164        0.694   1.121   0.000   1.815
  165        0.694   1.121   0.000   1.815
  166        0.694   1.121   0.000   1.815
  167        0.694   1.121   0.000   1.815
  168        0.694   1.121   0.000   1.815
  169        0.694   1.121   0.000   1.815
  170        0.694   1.121   0.000   1.815
  171        0.694   1.121   0.000   1.815
  172        0.689   1.274   0.000   1.963
  173        0.689   1.274   0.000   1.963
  174        0.689   1.274   0.000   1.963
  175        0.689   1.274   0.000   1.963
  176        0.689   1.274   0.000   1.963
  177        0.689   1.274   0.000   1.963
  178        0.689   1.274   0.000   1.963
  179        0.689   1.274   0.000   1.963
  180        0.689   1.274   0.000   1.963
  181        0.694   1.122   0.000   1.817
  182        0.694   1.121   0.000   1.815
  183        0.694   1.121   0.000   1.815
  184        0.694   1.121   0.000   1.815
  185        0.694   1.121   0.000   1.815
  186        0.694   1.121   0.000   1.815
  187        0.694   1.121   0.000   1.815
  188        0.694   1.121   0.000   1.815
  189        0.694   1.121   0.000   1.815
  190        0.689   1.274   0.000   1.963
  191        0.689   1.274   0.000   1.963
  192        0.689   1.274   0.000   1.963
  193        0.689   1.274   0.000   1.963
  194        0.689   1.274   0.000   1.963
  195        0.689   1.274   0.000   1.963
  196        0.689   1.274   0.000   1.963
  197        0.689   1.274   0.000   1.963
  198        0.689   1.274   0.000   1.963
  199        0.689   1.274   0.000   1.963
  200        0.689   1.274   0.000   1.963
  201        0.689   1.274   0.000   1.963
  202        0.689   1.274   0.000   1.963
  203        0.689   1.274   0.000   1.963
  204        0.689   1.274   0.000   1.963
  205        0.689   1.274   0.000   1.963
  206        0.689   1.274   0.000   1.963
  207        0.689   1.274   0.000   1.963
  208        0.694   1.121   0.000   1.815
  209        0.694   1.121   0.000   1.815
  210        0.694   1.121   0.000   1.815
  211        0.694   1.121   0.000   1.815
  212        0.694   1.121   0.000   1.815
  213        0.694   1.121   0.000   1.815
  214        0.694   1.121   0.000   1.815
  215        0.694   1.121   0.000   1.815
  216        0.694   1.121   0.000   1.815
  217        0.720   1.444   0.000   2.164
  218        0.720   1.444   0.000   2.164
  219        0.720   1.444   0.000   2.164
  220        0.720   1.444   0.000   2.164
  221        0.720   1.444   0.000   2.164
  222        0.720   1.444   0.000   2.164
  223        0.720   1.444   0.000   2.164
  224        0.720   1.444   0.000   2.164
  225        0.720   1.444   0.000   2.164
  226        0.720   1.444   0.000   2.164
  227        0.720   1.444   0.000   2.164
  228        0.720   1.444   0.000   2.164
  229        0.720   1.444   0.000   2.164
  230        0.720   1.444   0.000   2.164
  231        0.720   1.444   0.000   2.164
  232        0.720   1.444   0.000   2.164
  233        0.720   1.444   0.000   2.164
  234        0.720   1.444   0.000   2.164
  235        0.720   1.444   0.000   2.164
  236        0.720   1.444   0.000   2.164
  237        0.720   1.444   0.000   2.164
  238        0.720   1.444   0.000   2.164
  239        0.720   1.444   0.000   2.164
  240        0.720   1.444   0.000   2.164
  241        0.720   1.444   0.000   2.164
  242        0.720   1.444   0.000   2.164
  243        0.720   1.444   0.000   2.164
  244        0.720   1.444   0.000   2.164
  245        0.720   1.444   0.000   2.164
  246        0.720   1.444   0.000   2.164
  247        0.720   1.444   0.000   2.164
  248        0.720   1.444   0.000   2.164
  249        0.720   1.444   0.000   2.164
  250        0.720   1.444   0.000   2.164
  251        0.720   1.444   0.000   2.164
  252        0.720   1.444   0.000   2.164
  253        0.461   0.009   0.000   0.470
  254        0.461   0.009   0.000   0.470
  255        0.461   0.009   0.000   0.470
  256        0.461   0.009   0.000   0.470
  257        0.461   0.009   0.000   0.470
  258        0.461   0.009   0.000   0.470
  259        0.461   0.009   0.000   0.470
  260        0.461   0.009   0.000   0.470
  261        0.461   0.009   0.000   0.470
  262        0.461   0.009   0.000   0.470
  263        0.461   0.009   0.000   0.470
  264        0.461   0.009   0.000   0.470
  265        0.461   0.009   0.000   0.470
  266        0.461   0.009   0.000   0.470
  267        0.461   0.009   0.000   0.470
  268        0.461   0.009   0.000   0.470
  269        0.461   0.009   0.000   0.470
  270        0.461   0.009   0.000   0.470
--------------------------------------------------
tot        186.713 332.259   0.000 518.972
 
    CHARGE:  cpu time     15.1195: real time     15.2243
    FORLOC:  cpu time      1.0448: real time      1.0504
    FORNL :  cpu time     62.0613: real time     62.6029
    STRESS:  cpu time    186.9413: real time    188.5260
    FORCOR:  cpu time      1.8584: real time      1.8689
    FORHAR:  cpu time      1.2778: real time      1.2850
    MIXING:  cpu time      0.0407: real time      0.0410
    OFIELD:  cpu time      0.0002: real time      0.0002

 ---------------------------------------------------------------------------------------------

         DFTD3 V3.0 Rev 1        
 DF pbe       
 parameters
 k1-k3        =   16.0000    1.3333   -4.0000
 Edisp (eV)  -31.95841

 E6    (eV) :   -21.1430
 E8    (eV) :   -10.8155
 % E8        : 33.84
    FORVDW:  cpu time      5.0072: real time      5.0311

  FORCE on cell =-STRESS in cart. coord.  units (eV):
  Direction    XX          YY          ZZ          XY          YZ          ZX
  --------------------------------------------------------------------------------------
  Alpha Z   489.09710   489.09710   489.09710
  Ewald  253230.83634251823.98110************   753.25411     0.13032    -0.14775
  Hartree252455.30755251562.73825************   439.69111    -0.04111     0.01078
  E(xc)   -2475.62485 -2476.44701 -2499.19606     3.78474    -0.00028     0.00011
  Local  ************************508317.34317 -1177.60348    -0.06853     0.12206
  n-local  -222.94238  -236.27540  -218.73556    -6.25669    -0.00827     0.00307
  augment    24.84827    25.12220    27.28583    -0.16484    -0.00034     0.00024
  Kinetic  8251.91165  8284.83793  8663.05144   -13.71151     0.04816    -0.02778
  Fock        0.00000     0.00000     0.00000     0.00000     0.00000     0.00000
  vdW       -33.20144   -32.38485   -21.01021     0.34362    -0.00002     0.00004
  -------------------------------------------------------------------------------------
  Total       2.14426    -0.89147    -4.42737    -0.66295     0.05993    -0.03923
  in kB       0.37284    -0.15501    -0.76982    -0.11527     0.01042    -0.00682
  external pressure =       -0.18 kB  Pullay stress =        0.00 kB


 VOLUME and BASIS-vectors are now :
 -----------------------------------------------------------------------------
  energy-cutoff  :      600.00
  volume of cell :     9214.37
      direct lattice vectors                 reciprocal lattice vectors
    16.815971753 -0.335952693  0.000000000     0.059491848  0.001230031  0.000000000
    -0.376692365 18.219153744  0.000000000     0.001097002  0.054909973  0.000000000
     0.000000000  0.000000000 30.088116646     0.000000000  0.000000000  0.033235713

  length of vectors
    16.819327282 18.223047503 30.088116646     0.059504562  0.054920930  0.033235713


 FORCES acting on ions
    electron-ion (+dipol)            ewald-force                    non-local-force                 convergence-correction
 -----------------------------------------------------------------------------------------------
   0.463E+02 -.348E+02 0.166E+03   -.486E+02 0.379E+02 -.165E+03   0.224E+01 -.304E+01 -.415E+00   -.114E-05 -.643E-06 0.105E-05
   0.464E+02 -.346E+02 0.166E+03   -.486E+02 0.377E+02 -.165E+03   0.225E+01 -.306E+01 -.388E+00   0.272E-06 -.586E-06 0.776E-06
   0.464E+02 -.346E+02 0.166E+03   -.486E+02 0.377E+02 -.165E+03   0.225E+01 -.306E+01 -.387E+00   0.648E-06 -.518E-06 0.116E-05
   0.464E+02 -.346E+02 0.166E+03   -.486E+02 0.377E+02 -.165E+03   0.225E+01 -.306E+01 -.386E+00   -.111E-05 0.155E-05 0.161E-05
   0.464E+02 -.346E+02 0.166E+03   -.486E+02 0.377E+02 -.165E+03   0.225E+01 -.306E+01 -.388E+00   0.282E-06 0.157E-05 0.136E-05
   0.464E+02 -.346E+02 0.166E+03   -.486E+02 0.377E+02 -.165E+03   0.225E+01 -.306E+01 -.387E+00   0.602E-06 0.163E-05 0.173E-05
   0.464E+02 -.346E+02 0.166E+03   -.486E+02 0.377E+02 -.165E+03   0.225E+01 -.306E+01 -.386E+00   -.127E-05 -.162E-05 0.197E-05
   0.464E+02 -.346E+02 0.166E+03   -.486E+02 0.377E+02 -.165E+03   0.225E+01 -.306E+01 -.388E+00   0.315E-07 -.155E-05 0.163E-05
   0.464E+02 -.346E+02 0.166E+03   -.486E+02 0.377E+02 -.165E+03   0.225E+01 -.306E+01 -.387E+00   0.416E-06 -.152E-05 0.203E-05
   0.463E+02 -.346E+02 -.166E+03   -.486E+02 0.377E+02 0.165E+03   0.225E+01 -.305E+01 0.387E+00   -.621E-06 -.954E-06 -.636E-06
   0.464E+02 -.346E+02 -.166E+03   -.486E+02 0.377E+02 0.165E+03   0.225E+01 -.305E+01 0.391E+00   0.816E-06 -.850E-06 -.313E-06
   0.463E+02 -.346E+02 -.166E+03   -.486E+02 0.377E+02 0.165E+03   0.225E+01 -.306E+01 0.389E+00   0.120E-05 -.826E-06 -.675E-06
   0.464E+02 -.346E+02 -.166E+03   -.486E+02 0.377E+02 0.165E+03   0.225E+01 -.305E+01 0.387E+00   -.487E-06 0.122E-05 -.116E-05
   0.464E+02 -.346E+02 -.166E+03   -.486E+02 0.377E+02 0.165E+03   0.225E+01 -.305E+01 0.390E+00   0.855E-06 0.129E-05 -.884E-06
   0.464E+02 -.346E+02 -.166E+03   -.486E+02 0.377E+02 0.165E+03   0.225E+01 -.306E+01 0.389E+00   0.126E-05 0.132E-05 -.127E-05
   0.464E+02 -.346E+02 -.166E+03   -.486E+02 0.377E+02 0.165E+03   0.225E+01 -.305E+01 0.387E+00   -.669E-06 -.191E-05 -.147E-05
   0.464E+02 -.346E+02 -.166E+03   -.486E+02 0.377E+02 0.165E+03   0.225E+01 -.305E+01 0.390E+00   0.638E-06 -.184E-05 -.116E-05
   0.464E+02 -.346E+02 -.166E+03   -.486E+02 0.377E+02 0.165E+03   0.225E+01 -.306E+01 0.389E+00   0.104E-05 -.182E-05 -.153E-05
   -.464E+02 0.346E+02 0.166E+03   0.486E+02 -.377E+02 -.165E+03   -.225E+01 0.306E+01 -.390E+00   -.945E-06 -.125E-05 0.113E-05
   -.464E+02 0.346E+02 0.166E+03   0.486E+02 -.377E+02 -.165E+03   -.225E+01 0.306E+01 -.388E+00   0.101E-06 -.115E-05 0.851E-06
   -.464E+02 0.346E+02 0.166E+03   0.486E+02 -.377E+02 -.165E+03   -.225E+01 0.306E+01 -.386E+00   0.906E-06 -.115E-05 0.122E-05
   -.464E+02 0.346E+02 0.166E+03   0.486E+02 -.377E+02 -.165E+03   -.225E+01 0.306E+01 -.385E+00   -.746E-06 0.188E-05 0.143E-05
   -.463E+02 0.346E+02 0.166E+03   0.486E+02 -.377E+02 -.165E+03   -.225E+01 0.306E+01 -.388E+00   0.380E-06 0.200E-05 0.116E-05
   -.464E+02 0.346E+02 0.166E+03   0.486E+02 -.377E+02 -.165E+03   -.225E+01 0.306E+01 -.386E+00   0.107E-05 0.199E-05 0.161E-05
   -.464E+02 0.346E+02 0.166E+03   0.486E+02 -.377E+02 -.165E+03   -.225E+01 0.306E+01 -.387E+00   -.771E-06 -.311E-06 0.203E-05
   -.464E+02 0.346E+02 0.166E+03   0.486E+02 -.377E+02 -.165E+03   -.225E+01 0.306E+01 -.388E+00   0.308E-06 -.182E-06 0.171E-05
   -.464E+02 0.346E+02 0.166E+03   0.486E+02 -.377E+02 -.165E+03   -.225E+01 0.306E+01 -.386E+00   0.103E-05 -.215E-06 0.216E-05
   -.464E+02 0.346E+02 -.166E+03   0.486E+02 -.377E+02 0.165E+03   -.225E+01 0.306E+01 0.389E+00   -.156E-05 -.979E-06 -.726E-06
   -.463E+02 0.346E+02 -.166E+03   0.486E+02 -.377E+02 0.165E+03   -.225E+01 0.305E+01 0.391E+00   -.506E-06 -.898E-06 -.385E-06
   -.464E+02 0.346E+02 -.166E+03   0.486E+02 -.377E+02 0.165E+03   -.225E+01 0.305E+01 0.387E+00   0.255E-06 -.843E-06 -.751E-06
   -.464E+02 0.346E+02 -.166E+03   0.486E+02 -.377E+02 0.165E+03   -.225E+01 0.306E+01 0.389E+00   -.136E-05 0.217E-05 -.975E-06
   -.463E+02 0.346E+02 -.166E+03   0.486E+02 -.377E+02 0.165E+03   -.225E+01 0.305E+01 0.390E+00   -.285E-06 0.229E-05 -.696E-06
   -.464E+02 0.346E+02 -.166E+03   0.486E+02 -.377E+02 0.165E+03   -.225E+01 0.305E+01 0.387E+00   0.472E-06 0.227E-05 -.111E-05
   -.464E+02 0.346E+02 -.166E+03   0.486E+02 -.377E+02 0.165E+03   -.225E+01 0.306E+01 0.389E+00   -.138E-05 0.139E-07 -.155E-05
   -.464E+02 0.346E+02 -.166E+03   0.486E+02 -.377E+02 0.165E+03   -.225E+01 0.305E+01 0.390E+00   -.326E-06 0.990E-07 -.123E-05
   -.464E+02 0.346E+02 -.166E+03   0.486E+02 -.377E+02 0.165E+03   -.225E+01 0.305E+01 0.387E+00   0.404E-06 0.110E-06 -.166E-05
   -.506E+02 -.265E+02 0.263E+03   0.528E+02 0.299E+02 -.263E+03   -.221E+01 -.343E+01 -.654E+00   -.633E-06 -.166E-05 0.201E-05
   -.506E+02 -.265E+02 0.263E+03   0.528E+02 0.299E+02 -.263E+03   -.221E+01 -.343E+01 -.653E+00   0.740E-06 -.157E-05 0.224E-05
   -.506E+02 -.265E+02 0.263E+03   0.528E+02 0.299E+02 -.263E+03   -.221E+01 -.343E+01 -.654E+00   -.986E-07 -.154E-05 0.260E-05
   -.506E+02 -.265E+02 0.263E+03   0.528E+02 0.299E+02 -.263E+03   -.221E+01 -.344E+01 -.652E+00   -.563E-06 0.589E-06 0.277E-05
   -.506E+02 -.265E+02 0.263E+03   0.528E+02 0.299E+02 -.263E+03   -.221E+01 -.343E+01 -.653E+00   0.817E-06 0.660E-06 0.302E-05
   -.506E+02 -.265E+02 0.263E+03   0.528E+02 0.299E+02 -.263E+03   -.221E+01 -.343E+01 -.653E+00   0.226E-07 0.699E-06 0.330E-05
   -.506E+02 -.265E+02 0.263E+03   0.528E+02 0.299E+02 -.263E+03   -.221E+01 -.344E+01 -.652E+00   -.508E-06 -.238E-05 0.313E-05
   -.506E+02 -.265E+02 0.263E+03   0.528E+02 0.299E+02 -.263E+03   -.221E+01 -.343E+01 -.653E+00   0.906E-06 -.227E-05 0.328E-05
   -.506E+02 -.265E+02 0.263E+03   0.528E+02 0.299E+02 -.263E+03   -.221E+01 -.343E+01 -.653E+00   0.642E-07 -.223E-05 0.362E-05
   -.506E+02 -.265E+02 -.263E+03   0.528E+02 0.299E+02 0.263E+03   -.221E+01 -.343E+01 0.650E+00   -.110E-05 -.190E-05 -.240E-05
   -.506E+02 -.265E+02 -.263E+03   0.528E+02 0.299E+02 0.263E+03   -.221E+01 -.344E+01 0.654E+00   0.245E-06 -.177E-05 -.261E-05
   -.506E+02 -.265E+02 -.263E+03   0.528E+02 0.299E+02 0.263E+03   -.221E+01 -.343E+01 0.651E+00   -.637E-06 -.172E-05 -.297E-05
   -.506E+02 -.265E+02 -.263E+03   0.528E+02 0.299E+02 0.263E+03   -.221E+01 -.343E+01 0.651E+00   -.109E-05 0.368E-06 -.318E-05
   -.506E+02 -.265E+02 -.263E+03   0.528E+02 0.299E+02 0.263E+03   -.221E+01 -.344E+01 0.654E+00   0.249E-06 0.472E-06 -.339E-05
   -.506E+02 -.265E+02 -.263E+03   0.528E+02 0.299E+02 0.263E+03   -.221E+01 -.343E+01 0.651E+00   -.592E-06 0.490E-06 -.371E-05
   -.506E+02 -.265E+02 -.263E+03   0.528E+02 0.299E+02 0.263E+03   -.221E+01 -.343E+01 0.651E+00   -.105E-05 -.261E-05 -.351E-05
   -.506E+02 -.265E+02 -.263E+03   0.528E+02 0.299E+02 0.263E+03   -.221E+01 -.344E+01 0.654E+00   0.336E-06 -.251E-05 -.367E-05
   -.506E+02 -.265E+02 -.263E+03   0.528E+02 0.299E+02 0.263E+03   -.221E+01 -.343E+01 0.651E+00   -.522E-06 -.246E-05 -.401E-05
   0.506E+02 0.265E+02 0.263E+03   -.528E+02 -.299E+02 -.263E+03   0.221E+01 0.343E+01 -.653E+00   -.250E-06 -.230E-06 0.271E-05
   0.506E+02 0.265E+02 0.263E+03   -.528E+02 -.299E+02 -.263E+03   0.221E+01 0.343E+01 -.652E+00   -.590E-06 -.150E-06 0.222E-05
   0.506E+02 0.265E+02 0.263E+03   -.528E+02 -.299E+02 -.263E+03   0.221E+01 0.344E+01 -.652E+00   0.736E-06 -.506E-07 0.229E-05
   0.506E+02 0.265E+02 0.263E+03   -.528E+02 -.299E+02 -.263E+03   0.221E+01 0.343E+01 -.649E+00   -.294E-06 0.273E-05 0.307E-05
   0.506E+02 0.265E+02 0.263E+03   -.528E+02 -.299E+02 -.263E+03   0.221E+01 0.343E+01 -.652E+00   -.685E-06 0.280E-05 0.252E-05
   0.506E+02 0.265E+02 0.263E+03   -.528E+02 -.299E+02 -.263E+03   0.221E+01 0.344E+01 -.652E+00   0.659E-06 0.290E-05 0.268E-05
   0.506E+02 0.265E+02 0.263E+03   -.528E+02 -.299E+02 -.263E+03   0.221E+01 0.343E+01 -.653E+00   -.325E-06 0.410E-06 0.379E-05
   0.506E+02 0.265E+02 0.263E+03   -.528E+02 -.299E+02 -.263E+03   0.221E+01 0.343E+01 -.653E+00   -.757E-06 0.552E-06 0.332E-05
   0.506E+02 0.265E+02 0.263E+03   -.528E+02 -.299E+02 -.263E+03   0.221E+01 0.344E+01 -.652E+00   0.643E-06 0.592E-06 0.338E-05
   0.506E+02 0.265E+02 -.263E+03   -.528E+02 -.299E+02 0.263E+03   0.221E+01 0.343E+01 0.651E+00   0.307E-06 0.247E-07 -.313E-05
   0.506E+02 0.265E+02 -.263E+03   -.528E+02 -.299E+02 0.263E+03   0.221E+01 0.344E+01 0.654E+00   -.290E-07 0.105E-06 -.260E-05
   0.506E+02 0.265E+02 -.263E+03   -.528E+02 -.299E+02 0.263E+03   0.221E+01 0.343E+01 0.651E+00   0.134E-05 0.157E-06 -.268E-05
   0.506E+02 0.265E+02 -.263E+03   -.528E+02 -.299E+02 0.263E+03   0.221E+01 0.343E+01 0.651E+00   0.273E-06 0.294E-05 -.347E-05
   0.506E+02 0.265E+02 -.263E+03   -.528E+02 -.299E+02 0.263E+03   0.221E+01 0.344E+01 0.654E+00   -.671E-07 0.304E-05 -.293E-05
   0.506E+02 0.265E+02 -.263E+03   -.528E+02 -.299E+02 0.263E+03   0.221E+01 0.343E+01 0.651E+00   0.125E-05 0.308E-05 -.305E-05
   0.506E+02 0.265E+02 -.263E+03   -.528E+02 -.299E+02 0.263E+03   0.221E+01 0.343E+01 0.651E+00   0.230E-06 0.688E-06 -.418E-05
   0.506E+02 0.265E+02 -.263E+03   -.528E+02 -.299E+02 0.263E+03   0.221E+01 0.344E+01 0.654E+00   -.153E-06 0.789E-06 -.370E-05
   0.506E+02 0.265E+02 -.263E+03   -.528E+02 -.299E+02 0.263E+03   0.221E+01 0.343E+01 0.651E+00   0.121E-05 0.856E-06 -.377E-05
   0.266E+02 -.538E+02 0.270E+03   -.291E+02 0.582E+02 -.271E+03   0.251E+01 -.443E+01 0.150E+00   -.160E-05 0.754E-06 0.171E-05
   0.265E+02 -.539E+02 0.269E+03   -.290E+02 0.583E+02 -.269E+03   0.251E+01 -.443E+01 0.718E-01   -.280E-06 0.665E-06 0.148E-05
   0.265E+02 -.539E+02 0.269E+03   -.290E+02 0.583E+02 -.269E+03   0.251E+01 -.443E+01 0.669E-01   -.164E-07 0.701E-06 0.196E-05
   0.265E+02 -.539E+02 0.269E+03   -.290E+02 0.583E+02 -.269E+03   0.251E+01 -.443E+01 0.693E-01   -.147E-05 0.127E-05 0.270E-05
   0.265E+02 -.539E+02 0.269E+03   -.290E+02 0.583E+02 -.269E+03   0.251E+01 -.443E+01 0.718E-01   -.186E-06 0.117E-05 0.247E-05
   0.265E+02 -.539E+02 0.269E+03   -.290E+02 0.583E+02 -.269E+03   0.251E+01 -.443E+01 0.664E-01   0.836E-07 0.126E-05 0.289E-05
   0.265E+02 -.539E+02 0.269E+03   -.290E+02 0.583E+02 -.269E+03   0.251E+01 -.443E+01 0.693E-01   -.166E-05 -.134E-05 0.244E-05
   0.265E+02 -.539E+02 0.269E+03   -.290E+02 0.583E+02 -.269E+03   0.251E+01 -.443E+01 0.718E-01   -.396E-06 -.148E-05 0.216E-05
   0.265E+02 -.539E+02 0.269E+03   -.290E+02 0.583E+02 -.269E+03   0.251E+01 -.443E+01 0.667E-01   -.131E-06 -.138E-05 0.258E-05
   0.265E+02 -.539E+02 -.269E+03   -.290E+02 0.583E+02 0.269E+03   0.251E+01 -.443E+01 -.676E-01   -.126E-05 0.135E-06 -.228E-05
   0.265E+02 -.539E+02 -.269E+03   -.290E+02 0.583E+02 0.269E+03   0.251E+01 -.443E+01 -.693E-01   0.672E-07 0.132E-07 -.203E-05
   0.265E+02 -.539E+02 -.269E+03   -.290E+02 0.583E+02 0.269E+03   0.251E+01 -.443E+01 -.705E-01   0.356E-06 0.308E-07 -.248E-05
   0.265E+02 -.539E+02 -.269E+03   -.290E+02 0.583E+02 0.269E+03   0.251E+01 -.443E+01 -.683E-01   -.109E-05 0.558E-06 -.329E-05
   0.265E+02 -.539E+02 -.269E+03   -.290E+02 0.583E+02 0.269E+03   0.251E+01 -.443E+01 -.694E-01   0.179E-06 0.456E-06 -.302E-05
   0.265E+02 -.539E+02 -.269E+03   -.290E+02 0.583E+02 0.269E+03   0.251E+01 -.443E+01 -.705E-01   0.472E-06 0.533E-06 -.348E-05
   0.265E+02 -.539E+02 -.269E+03   -.290E+02 0.583E+02 0.269E+03   0.251E+01 -.443E+01 -.683E-01   -.128E-05 -.209E-05 -.301E-05
   0.265E+02 -.539E+02 -.269E+03   -.290E+02 0.583E+02 0.269E+03   0.251E+01 -.443E+01 -.694E-01   0.114E-08 -.218E-05 -.272E-05
   0.265E+02 -.539E+02 -.269E+03   -.290E+02 0.583E+02 0.269E+03   0.251E+01 -.443E+01 -.705E-01   0.262E-06 -.214E-05 -.315E-05
   -.265E+02 0.539E+02 0.269E+03   0.290E+02 -.583E+02 -.269E+03   -.251E+01 0.443E+01 0.671E-01   -.316E-06 -.171E-05 0.224E-05
   -.265E+02 0.539E+02 0.269E+03   0.290E+02 -.583E+02 -.269E+03   -.251E+01 0.443E+01 0.725E-01   0.582E-06 -.173E-05 0.184E-05
   -.265E+02 0.539E+02 0.269E+03   0.290E+02 -.583E+02 -.269E+03   -.251E+01 0.443E+01 0.694E-01   0.138E-05 -.183E-05 0.224E-05
   -.265E+02 0.539E+02 0.269E+03   0.290E+02 -.583E+02 -.269E+03   -.251E+01 0.442E+01 0.739E-01   -.111E-06 0.912E-06 0.197E-05
   -.265E+02 0.539E+02 0.269E+03   0.290E+02 -.583E+02 -.269E+03   -.251E+01 0.443E+01 0.724E-01   0.759E-06 0.916E-06 0.156E-05
   -.265E+02 0.539E+02 0.269E+03   0.290E+02 -.583E+02 -.269E+03   -.251E+01 0.443E+01 0.693E-01   0.155E-05 0.821E-06 0.203E-05
   -.265E+02 0.539E+02 0.269E+03   0.290E+02 -.583E+02 -.269E+03   -.251E+01 0.443E+01 0.667E-01   -.283E-06 0.376E-06 0.294E-05
   -.265E+02 0.539E+02 0.269E+03   0.290E+02 -.583E+02 -.269E+03   -.251E+01 0.443E+01 0.718E-01   0.658E-06 0.377E-06 0.256E-05
   -.265E+02 0.539E+02 0.269E+03   0.290E+02 -.583E+02 -.269E+03   -.251E+01 0.443E+01 0.693E-01   0.142E-05 0.326E-06 0.300E-05
   -.265E+02 0.539E+02 -.269E+03   0.290E+02 -.583E+02 0.269E+03   -.251E+01 0.443E+01 -.705E-01   -.640E-06 -.103E-05 -.285E-05
   -.265E+02 0.539E+02 -.269E+03   0.290E+02 -.583E+02 0.269E+03   -.251E+01 0.443E+01 -.692E-01   0.219E-06 -.103E-05 -.241E-05
   -.265E+02 0.539E+02 -.269E+03   0.290E+02 -.583E+02 0.269E+03   -.251E+01 0.443E+01 -.683E-01   0.995E-06 -.112E-05 -.282E-05
   -.265E+02 0.539E+02 -.269E+03   0.290E+02 -.583E+02 0.269E+03   -.251E+01 0.443E+01 -.707E-01   -.494E-06 0.165E-05 -.255E-05
   -.265E+02 0.539E+02 -.269E+03   0.290E+02 -.583E+02 0.269E+03   -.251E+01 0.443E+01 -.694E-01   0.390E-06 0.163E-05 -.213E-05
   -.265E+02 0.539E+02 -.269E+03   0.290E+02 -.583E+02 0.269E+03   -.251E+01 0.443E+01 -.683E-01   0.118E-05 0.156E-05 -.257E-05
   -.265E+02 0.539E+02 -.269E+03   0.290E+02 -.583E+02 0.269E+03   -.251E+01 0.443E+01 -.705E-01   -.604E-06 0.109E-05 -.353E-05
   -.265E+02 0.539E+02 -.269E+03   0.290E+02 -.583E+02 0.269E+03   -.251E+01 0.443E+01 -.694E-01   0.260E-06 0.107E-05 -.312E-05
   -.265E+02 0.539E+02 -.269E+03   0.290E+02 -.583E+02 0.269E+03   -.251E+01 0.443E+01 -.683E-01   0.108E-05 0.105E-05 -.357E-05
   -.253E+02 -.432E+02 0.335E+03   0.280E+02 0.472E+02 -.335E+03   -.267E+01 -.408E+01 0.770E+00   -.181E-05 -.464E-06 0.174E-05
   -.252E+02 -.432E+02 0.335E+03   0.278E+02 0.472E+02 -.336E+03   -.268E+01 -.408E+01 0.798E+00   -.450E-06 -.553E-06 0.188E-05
   -.251E+02 -.432E+02 0.335E+03   0.278E+02 0.472E+02 -.336E+03   -.269E+01 -.407E+01 0.797E+00   -.104E-05 -.467E-06 0.243E-05
   -.252E+02 -.432E+02 0.335E+03   0.278E+02 0.472E+02 -.336E+03   -.269E+01 -.407E+01 0.795E+00   -.179E-05 0.981E-07 0.306E-05
   -.252E+02 -.432E+02 0.335E+03   0.278E+02 0.472E+02 -.336E+03   -.268E+01 -.408E+01 0.798E+00   -.386E-06 0.556E-07 0.317E-05
   -.252E+02 -.432E+02 0.335E+03   0.278E+02 0.472E+02 -.336E+03   -.269E+01 -.407E+01 0.797E+00   -.962E-06 0.172E-06 0.366E-05
   -.252E+02 -.432E+02 0.335E+03   0.278E+02 0.472E+02 -.336E+03   -.269E+01 -.407E+01 0.795E+00   -.174E-05 -.247E-05 0.267E-05
   -.252E+02 -.432E+02 0.335E+03   0.278E+02 0.472E+02 -.336E+03   -.268E+01 -.408E+01 0.798E+00   -.369E-06 -.254E-05 0.273E-05
   -.252E+02 -.432E+02 0.335E+03   0.278E+02 0.472E+02 -.336E+03   -.269E+01 -.407E+01 0.797E+00   -.973E-06 -.243E-05 0.324E-05
   -.251E+02 -.432E+02 -.335E+03   0.278E+02 0.472E+02 0.336E+03   -.269E+01 -.408E+01 -.796E+00   -.204E-05 -.110E-05 -.299E-05
   -.252E+02 -.432E+02 -.335E+03   0.278E+02 0.472E+02 0.336E+03   -.268E+01 -.407E+01 -.794E+00   -.710E-06 -.116E-05 -.310E-05
   -.252E+02 -.432E+02 -.335E+03   0.278E+02 0.472E+02 0.336E+03   -.269E+01 -.408E+01 -.799E+00   -.130E-05 -.109E-05 -.365E-05
   -.252E+02 -.432E+02 -.335E+03   0.278E+02 0.472E+02 0.336E+03   -.269E+01 -.408E+01 -.797E+00   -.204E-05 -.536E-06 -.434E-05
   -.252E+02 -.432E+02 -.335E+03   0.278E+02 0.472E+02 0.336E+03   -.268E+01 -.407E+01 -.794E+00   -.714E-06 -.601E-06 -.441E-05
   -.252E+02 -.432E+02 -.335E+03   0.278E+02 0.472E+02 0.336E+03   -.269E+01 -.408E+01 -.799E+00   -.128E-05 -.512E-06 -.495E-05
   -.252E+02 -.432E+02 -.335E+03   0.278E+02 0.472E+02 0.336E+03   -.269E+01 -.408E+01 -.797E+00   -.202E-05 -.316E-05 -.393E-05
   -.252E+02 -.432E+02 -.335E+03   0.278E+02 0.472E+02 0.336E+03   -.268E+01 -.408E+01 -.794E+00   -.643E-06 -.319E-05 -.399E-05
   -.252E+02 -.432E+02 -.335E+03   0.278E+02 0.472E+02 0.336E+03   -.269E+01 -.408E+01 -.799E+00   -.126E-05 -.314E-05 -.452E-05
   0.252E+02 0.432E+02 0.335E+03   -.278E+02 -.472E+02 -.336E+03   0.269E+01 0.407E+01 0.798E+00   0.756E-06 -.550E-06 0.292E-05
   0.252E+02 0.432E+02 0.335E+03   -.278E+02 -.472E+02 -.336E+03   0.268E+01 0.407E+01 0.798E+00   0.639E-06 -.501E-06 0.226E-05
   0.252E+02 0.432E+02 0.335E+03   -.278E+02 -.472E+02 -.336E+03   0.269E+01 0.407E+01 0.795E+00   0.190E-05 -.591E-06 0.248E-05
   0.252E+02 0.432E+02 0.335E+03   -.279E+02 -.472E+02 -.336E+03   0.269E+01 0.407E+01 0.801E+00   0.723E-06 0.203E-05 0.256E-05
   0.251E+02 0.432E+02 0.335E+03   -.278E+02 -.472E+02 -.336E+03   0.268E+01 0.408E+01 0.798E+00   0.594E-06 0.207E-05 0.184E-05
   0.252E+02 0.432E+02 0.335E+03   -.278E+02 -.472E+02 -.336E+03   0.269E+01 0.407E+01 0.795E+00   0.183E-05 0.200E-05 0.213E-05
   0.252E+02 0.432E+02 0.335E+03   -.278E+02 -.472E+02 -.336E+03   0.269E+01 0.407E+01 0.797E+00   0.698E-06 0.140E-05 0.382E-05
   0.252E+02 0.432E+02 0.335E+03   -.278E+02 -.472E+02 -.336E+03   0.268E+01 0.408E+01 0.798E+00   0.551E-06 0.144E-05 0.317E-05
   0.252E+02 0.432E+02 0.335E+03   -.278E+02 -.472E+02 -.336E+03   0.269E+01 0.407E+01 0.795E+00   0.182E-05 0.142E-05 0.342E-05
   0.252E+02 0.432E+02 -.335E+03   -.278E+02 -.472E+02 0.336E+03   0.269E+01 0.408E+01 -.799E+00   0.991E-06 0.382E-07 -.418E-05
   0.252E+02 0.432E+02 -.335E+03   -.278E+02 -.472E+02 0.336E+03   0.268E+01 0.408E+01 -.794E+00   0.916E-06 0.127E-06 -.350E-05
   0.252E+02 0.432E+02 -.335E+03   -.278E+02 -.472E+02 0.336E+03   0.269E+01 0.408E+01 -.797E+00   0.216E-05 0.385E-07 -.375E-05
   0.251E+02 0.432E+02 -.335E+03   -.278E+02 -.472E+02 0.336E+03   0.269E+01 0.408E+01 -.799E+00   0.981E-06 0.265E-05 -.382E-05
   0.252E+02 0.432E+02 -.335E+03   -.278E+02 -.472E+02 0.336E+03   0.268E+01 0.407E+01 -.794E+00   0.920E-06 0.272E-05 -.311E-05
   0.252E+02 0.432E+02 -.335E+03   -.278E+02 -.472E+02 0.336E+03   0.269E+01 0.408E+01 -.797E+00   0.213E-05 0.264E-05 -.337E-05
   0.252E+02 0.432E+02 -.335E+03   -.278E+02 -.472E+02 0.336E+03   0.269E+01 0.408E+01 -.799E+00   0.932E-06 0.208E-05 -.510E-05
   0.252E+02 0.432E+02 -.335E+03   -.278E+02 -.472E+02 0.336E+03   0.268E+01 0.407E+01 -.794E+00   0.855E-06 0.213E-05 -.444E-05
   0.252E+02 0.432E+02 -.335E+03   -.278E+02 -.472E+02 0.336E+03   0.269E+01 0.408E+01 -.797E+00   0.208E-05 0.209E-05 -.467E-05
   -.212E+02 -.441E+02 0.574E+02   0.221E+02 0.459E+02 -.521E+02   -.935E+00 -.177E+01 -.533E+01   -.800E-06 -.268E-07 0.228E-05
   -.215E+02 -.439E+02 0.573E+02   0.224E+02 0.457E+02 -.520E+02   -.921E+00 -.179E+01 -.531E+01   0.852E-06 -.227E-07 0.238E-05
   -.215E+02 -.439E+02 0.573E+02   0.224E+02 0.457E+02 -.520E+02   -.926E+00 -.179E+01 -.531E+01   0.515E-06 -.133E-07 0.252E-05
   -.215E+02 -.439E+02 0.573E+02   0.224E+02 0.457E+02 -.520E+02   -.925E+00 -.179E+01 -.531E+01   -.734E-06 0.148E-05 0.258E-05
   -.215E+02 -.439E+02 0.573E+02   0.224E+02 0.457E+02 -.520E+02   -.921E+00 -.179E+01 -.531E+01   0.872E-06 0.143E-05 0.263E-05
   -.215E+02 -.439E+02 0.573E+02   0.224E+02 0.457E+02 -.520E+02   -.926E+00 -.178E+01 -.531E+01   0.536E-06 0.148E-05 0.275E-05
   -.215E+02 -.439E+02 0.573E+02   0.224E+02 0.457E+02 -.520E+02   -.925E+00 -.179E+01 -.531E+01   -.798E-06 -.187E-05 0.259E-05
   -.215E+02 -.439E+02 0.573E+02   0.224E+02 0.457E+02 -.520E+02   -.920E+00 -.179E+01 -.531E+01   0.796E-06 -.186E-05 0.256E-05
   -.215E+02 -.439E+02 0.573E+02   0.224E+02 0.457E+02 -.520E+02   -.926E+00 -.179E+01 -.531E+01   0.452E-06 -.185E-05 0.271E-05
   0.190E+01 -.376E+01 -.469E+03   -.330E+01 0.385E+01 0.469E+03   0.137E+01 -.103E+00 0.111E+00   -.138E-05 -.128E-05 -.290E-05
   0.190E+01 -.376E+01 -.469E+03   -.330E+01 0.384E+01 0.469E+03   0.137E+01 -.102E+00 0.114E+00   -.252E-06 -.127E-05 -.260E-05
   0.190E+01 -.376E+01 -.469E+03   -.329E+01 0.384E+01 0.469E+03   0.137E+01 -.100E+00 0.109E+00   -.311E-06 -.126E-05 -.335E-05
   0.190E+01 -.375E+01 -.469E+03   -.329E+01 0.384E+01 0.469E+03   0.137E+01 -.101E+00 0.111E+00   -.136E-05 0.300E-06 -.419E-05
   0.190E+01 -.375E+01 -.469E+03   -.329E+01 0.384E+01 0.469E+03   0.137E+01 -.102E+00 0.114E+00   -.255E-06 0.340E-06 -.390E-05
   0.190E+01 -.375E+01 -.469E+03   -.329E+01 0.384E+01 0.469E+03   0.137E+01 -.100E+00 0.109E+00   -.257E-06 0.349E-06 -.464E-05
   0.190E+01 -.376E+01 -.469E+03   -.329E+01 0.384E+01 0.469E+03   0.137E+01 -.101E+00 0.111E+00   -.139E-05 -.219E-05 -.460E-05
   0.190E+01 -.376E+01 -.469E+03   -.329E+01 0.384E+01 0.469E+03   0.137E+01 -.102E+00 0.114E+00   -.266E-06 -.216E-05 -.427E-05
   0.190E+01 -.376E+01 -.469E+03   -.329E+01 0.384E+01 0.469E+03   0.137E+01 -.100E+00 0.109E+00   -.327E-06 -.213E-05 -.499E-05
   -.189E+01 0.377E+01 0.469E+03   0.329E+01 -.385E+01 -.469E+03   -.137E+01 0.103E+00 -.112E+00   0.163E-06 -.313E-06 0.104E-05
   -.191E+01 0.376E+01 0.469E+03   0.330E+01 -.384E+01 -.469E+03   -.137E+01 0.982E-01 -.113E+00   0.585E-06 -.258E-06 0.319E-06
   -.190E+01 0.376E+01 0.469E+03   0.329E+01 -.384E+01 -.469E+03   -.137E+01 0.102E+00 -.111E+00   0.143E-05 -.276E-06 0.873E-06
   -.188E+01 0.372E+01 0.469E+03   0.328E+01 -.381E+01 -.469E+03   -.137E+01 0.112E+00 -.117E+00   0.215E-06 0.220E-05 0.147E-05
   -.191E+01 0.375E+01 0.469E+03   0.330E+01 -.384E+01 -.469E+03   -.137E+01 0.101E+00 -.112E+00   0.622E-06 0.222E-05 0.725E-06
   -.190E+01 0.375E+01 0.469E+03   0.329E+01 -.384E+01 -.469E+03   -.137E+01 0.102E+00 -.111E+00   0.146E-05 0.225E-05 0.134E-05
   -.190E+01 0.375E+01 0.469E+03   0.329E+01 -.384E+01 -.469E+03   -.137E+01 0.103E+00 -.114E+00   0.147E-06 0.498E-06 0.266E-05
   -.190E+01 0.375E+01 0.469E+03   0.329E+01 -.384E+01 -.469E+03   -.137E+01 0.998E-01 -.112E+00   0.618E-06 0.612E-06 0.196E-05
   -.190E+01 0.375E+01 0.469E+03   0.329E+01 -.384E+01 -.469E+03   -.137E+01 0.102E+00 -.111E+00   0.142E-05 0.592E-06 0.253E-05
   0.215E+02 0.439E+02 -.573E+02   -.224E+02 -.457E+02 0.520E+02   0.923E+00 0.179E+01 0.531E+01   -.740E-06 -.117E-05 -.553E-06
   0.215E+02 0.439E+02 -.573E+02   -.224E+02 -.457E+02 0.520E+02   0.928E+00 0.179E+01 0.531E+01   -.450E-06 -.118E-05 -.369E-06
   0.215E+02 0.439E+02 -.573E+02   -.224E+02 -.457E+02 0.520E+02   0.922E+00 0.179E+01 0.531E+01   0.816E-06 -.119E-05 -.428E-06
   0.214E+02 0.439E+02 -.573E+02   -.224E+02 -.457E+02 0.520E+02   0.922E+00 0.179E+01 0.531E+01   -.721E-06 0.213E-05 -.466E-06
   0.215E+02 0.439E+02 -.573E+02   -.224E+02 -.457E+02 0.520E+02   0.927E+00 0.179E+01 0.531E+01   -.376E-06 0.214E-05 -.287E-06
   0.215E+02 0.439E+02 -.573E+02   -.224E+02 -.457E+02 0.520E+02   0.922E+00 0.179E+01 0.531E+01   0.896E-06 0.214E-05 -.432E-06
   0.215E+02 0.439E+02 -.573E+02   -.224E+02 -.457E+02 0.520E+02   0.922E+00 0.179E+01 0.531E+01   -.765E-06 0.625E-06 -.755E-06
   0.215E+02 0.439E+02 -.573E+02   -.224E+02 -.457E+02 0.520E+02   0.928E+00 0.179E+01 0.531E+01   -.470E-06 0.617E-06 -.549E-06
   0.215E+02 0.439E+02 -.573E+02   -.224E+02 -.457E+02 0.520E+02   0.922E+00 0.179E+01 0.531E+01   0.871E-06 0.663E-06 -.667E-06
   0.176E+01 -.348E+01 0.469E+03   -.316E+01 0.355E+01 -.469E+03   0.139E+01 -.110E+00 -.116E+00   -.150E-05 -.111E-05 0.423E-06
   0.190E+01 -.375E+01 0.469E+03   -.329E+01 0.384E+01 -.469E+03   0.137E+01 -.997E-01 -.112E+00   -.351E-06 -.110E-05 0.153E-06
   0.191E+01 -.375E+01 0.469E+03   -.330E+01 0.384E+01 -.469E+03   0.137E+01 -.103E+00 -.114E+00   -.394E-06 -.109E-05 0.896E-06
   0.190E+01 -.376E+01 0.469E+03   -.329E+01 0.385E+01 -.469E+03   0.137E+01 -.102E+00 -.111E+00   -.145E-05 0.499E-06 0.163E-05
   0.190E+01 -.376E+01 0.469E+03   -.329E+01 0.384E+01 -.469E+03   0.137E+01 -.998E-01 -.112E+00   -.335E-06 0.491E-06 0.139E-05
   0.190E+01 -.376E+01 0.469E+03   -.329E+01 0.384E+01 -.469E+03   0.137E+01 -.103E+00 -.114E+00   -.352E-06 0.558E-06 0.205E-05
   0.190E+01 -.375E+01 0.469E+03   -.329E+01 0.384E+01 -.469E+03   0.137E+01 -.102E+00 -.111E+00   -.148E-05 -.199E-05 0.207E-05
   0.190E+01 -.375E+01 0.469E+03   -.329E+01 0.384E+01 -.469E+03   0.137E+01 -.999E-01 -.112E+00   -.386E-06 -.197E-05 0.177E-05
   0.190E+01 -.375E+01 0.469E+03   -.329E+01 0.384E+01 -.469E+03   0.137E+01 -.103E+00 -.114E+00   -.425E-06 -.193E-05 0.246E-05
   -.214E+02 -.439E+02 -.572E+02   0.224E+02 0.457E+02 0.520E+02   -.926E+00 -.179E+01 0.530E+01   -.839E-06 -.382E-06 -.313E-06
   -.215E+02 -.439E+02 -.573E+02   0.224E+02 0.457E+02 0.520E+02   -.928E+00 -.179E+01 0.531E+01   0.785E-06 -.362E-06 -.386E-06
   -.215E+02 -.439E+02 -.573E+02   0.224E+02 0.457E+02 0.520E+02   -.922E+00 -.179E+01 0.531E+01   0.444E-06 -.369E-06 -.497E-06
   -.215E+02 -.439E+02 -.573E+02   0.224E+02 0.457E+02 0.520E+02   -.922E+00 -.179E+01 0.531E+01   -.816E-06 0.110E-05 -.544E-06
   -.215E+02 -.439E+02 -.573E+02   0.224E+02 0.457E+02 0.520E+02   -.927E+00 -.179E+01 0.531E+01   0.763E-06 0.107E-05 -.585E-06
   -.215E+02 -.439E+02 -.573E+02   0.224E+02 0.457E+02 0.520E+02   -.922E+00 -.179E+01 0.531E+01   0.445E-06 0.108E-05 -.664E-06
   -.215E+02 -.439E+02 -.573E+02   0.224E+02 0.457E+02 0.520E+02   -.922E+00 -.179E+01 0.531E+01   -.871E-06 -.226E-05 -.512E-06
   -.215E+02 -.439E+02 -.573E+02   0.224E+02 0.457E+02 0.520E+02   -.928E+00 -.179E+01 0.531E+01   0.736E-06 -.224E-05 -.498E-06
   -.215E+02 -.439E+02 -.573E+02   0.224E+02 0.457E+02 0.520E+02   -.922E+00 -.179E+01 0.531E+01   0.381E-06 -.225E-05 -.614E-06
   0.215E+02 0.439E+02 0.573E+02   -.224E+02 -.457E+02 -.520E+02   0.925E+00 0.179E+01 -.531E+01   -.847E-06 -.157E-05 0.255E-05
   0.215E+02 0.439E+02 0.573E+02   -.224E+02 -.457E+02 -.520E+02   0.921E+00 0.179E+01 -.531E+01   -.534E-06 -.156E-05 0.239E-05
   0.215E+02 0.439E+02 0.573E+02   -.224E+02 -.457E+02 -.520E+02   0.925E+00 0.179E+01 -.531E+01   0.738E-06 -.158E-05 0.248E-05
   0.214E+02 0.439E+02 0.573E+02   -.224E+02 -.457E+02 -.520E+02   0.932E+00 0.178E+01 -.531E+01   -.817E-06 0.175E-05 0.253E-05
   0.215E+02 0.439E+02 0.573E+02   -.224E+02 -.457E+02 -.520E+02   0.921E+00 0.179E+01 -.531E+01   -.486E-06 0.174E-05 0.236E-05
   0.215E+02 0.439E+02 0.573E+02   -.224E+02 -.457E+02 -.520E+02   0.925E+00 0.179E+01 -.531E+01   0.797E-06 0.177E-05 0.249E-05
   0.215E+02 0.439E+02 0.573E+02   -.224E+02 -.457E+02 -.520E+02   0.926E+00 0.179E+01 -.531E+01   -.827E-06 0.209E-06 0.278E-05
   0.215E+02 0.439E+02 0.573E+02   -.224E+02 -.457E+02 -.520E+02   0.921E+00 0.179E+01 -.531E+01   -.525E-06 0.239E-06 0.264E-05
   0.215E+02 0.439E+02 0.573E+02   -.224E+02 -.457E+02 -.520E+02   0.925E+00 0.179E+01 -.531E+01   0.795E-06 0.255E-06 0.271E-05
   -.191E+01 0.375E+01 -.469E+03   0.330E+01 -.383E+01 0.469E+03   -.137E+01 0.100E+00 0.109E+00   0.776E-07 -.957E-07 -.355E-05
   -.190E+01 0.375E+01 -.469E+03   0.329E+01 -.384E+01 0.469E+03   -.137E+01 0.102E+00 0.114E+00   0.486E-06 -.679E-07 -.284E-05
   -.190E+01 0.375E+01 -.469E+03   0.329E+01 -.384E+01 0.469E+03   -.137E+01 0.101E+00 0.111E+00   0.134E-05 -.382E-07 -.339E-05
   -.191E+01 0.376E+01 -.469E+03   0.330E+01 -.385E+01 0.469E+03   -.137E+01 0.100E+00 0.109E+00   0.127E-06 0.237E-05 -.402E-05
   -.190E+01 0.376E+01 -.469E+03   0.329E+01 -.384E+01 0.469E+03   -.137E+01 0.102E+00 0.114E+00   0.540E-06 0.242E-05 -.329E-05
   -.190E+01 0.376E+01 -.469E+03   0.329E+01 -.384E+01 0.469E+03   -.137E+01 0.101E+00 0.111E+00   0.138E-05 0.241E-05 -.386E-05
   -.190E+01 0.376E+01 -.469E+03   0.329E+01 -.384E+01 0.469E+03   -.137E+01 0.100E+00 0.109E+00   0.566E-07 0.766E-06 -.519E-05
   -.190E+01 0.376E+01 -.469E+03   0.329E+01 -.384E+01 0.469E+03   -.137E+01 0.101E+00 0.114E+00   0.490E-06 0.801E-06 -.449E-05
   -.190E+01 0.376E+01 -.469E+03   0.329E+01 -.384E+01 0.469E+03   -.137E+01 0.101E+00 0.111E+00   0.134E-05 0.839E-06 -.505E-05
   0.137E+02 -.618E+02 0.205E+03   -.137E+02 0.649E+02 -.204E+03   0.201E-01 -.302E+01 -.416E+00   -.933E-06 -.828E-06 0.152E-05
   0.137E+02 -.618E+02 0.205E+03   -.137E+02 0.649E+02 -.204E+03   0.230E-01 -.302E+01 -.422E+00   -.535E-06 -.963E-06 0.103E-05
   0.137E+02 -.618E+02 0.205E+03   -.137E+02 0.648E+02 -.204E+03   0.307E-01 -.301E+01 -.419E+00   0.536E-06 -.670E-06 0.136E-05
   0.137E+02 -.618E+02 0.205E+03   -.137E+02 0.648E+02 -.204E+03   0.223E-01 -.302E+01 -.417E+00   -.885E-06 0.200E-05 0.211E-05
   0.137E+02 -.618E+02 0.205E+03   -.137E+02 0.648E+02 -.204E+03   0.205E-01 -.302E+01 -.420E+00   -.464E-06 0.194E-05 0.163E-05
   0.137E+02 -.618E+02 0.205E+03   -.137E+02 0.648E+02 -.204E+03   0.308E-01 -.301E+01 -.419E+00   0.597E-06 0.214E-05 0.201E-05
   0.137E+02 -.618E+02 0.205E+03   -.137E+02 0.648E+02 -.204E+03   0.219E-01 -.302E+01 -.419E+00   -.866E-06 -.801E-06 0.258E-05
   0.137E+02 -.618E+02 0.205E+03   -.137E+02 0.648E+02 -.204E+03   0.203E-01 -.302E+01 -.420E+00   -.433E-06 -.860E-06 0.210E-05
   0.137E+02 -.618E+02 0.205E+03   -.137E+02 0.648E+02 -.204E+03   0.307E-01 -.301E+01 -.419E+00   0.631E-06 -.673E-06 0.244E-05
   0.137E+02 -.618E+02 -.205E+03   -.137E+02 0.649E+02 0.204E+03   0.230E-01 -.302E+01 0.418E+00   -.895E-06 -.156E-05 -.136E-05
   0.137E+02 -.618E+02 -.205E+03   -.137E+02 0.649E+02 0.204E+03   0.242E-01 -.302E+01 0.419E+00   -.539E-06 -.166E-05 -.821E-06
   0.137E+02 -.618E+02 -.205E+03   -.137E+02 0.648E+02 0.204E+03   0.222E-01 -.302E+01 0.422E+00   0.604E-06 -.143E-05 -.115E-05
   0.137E+02 -.618E+02 -.205E+03   -.137E+02 0.648E+02 0.204E+03   0.228E-01 -.302E+01 0.417E+00   -.803E-06 0.122E-05 -.192E-05
   0.137E+02 -.618E+02 -.205E+03   -.137E+02 0.648E+02 0.204E+03   0.243E-01 -.302E+01 0.419E+00   -.394E-06 0.117E-05 -.143E-05
   0.137E+02 -.618E+02 -.205E+03   -.137E+02 0.648E+02 0.204E+03   0.222E-01 -.302E+01 0.422E+00   0.698E-06 0.137E-05 -.181E-05
   0.137E+02 -.618E+02 -.205E+03   -.137E+02 0.648E+02 0.204E+03   0.228E-01 -.302E+01 0.417E+00   -.837E-06 -.156E-05 -.236E-05
   0.137E+02 -.618E+02 -.205E+03   -.137E+02 0.648E+02 0.204E+03   0.243E-01 -.302E+01 0.419E+00   -.448E-06 -.161E-05 -.188E-05
   0.137E+02 -.618E+02 -.205E+03   -.137E+02 0.648E+02 0.204E+03   0.222E-01 -.302E+01 0.422E+00   0.688E-06 -.144E-05 -.221E-05
   -.137E+02 0.618E+02 0.205E+03   0.137E+02 -.648E+02 -.204E+03   -.304E-01 0.301E+01 -.421E+00   -.638E-06 -.115E-05 0.127E-05
   -.137E+02 0.618E+02 0.205E+03   0.137E+02 -.648E+02 -.204E+03   -.197E-01 0.302E+01 -.420E+00   0.848E-06 -.884E-06 0.116E-05
   -.137E+02 0.618E+02 0.205E+03   0.137E+02 -.648E+02 -.204E+03   -.223E-01 0.302E+01 -.419E+00   0.658E-06 -.109E-05 0.162E-05
   -.137E+02 0.618E+02 0.205E+03   0.137E+02 -.649E+02 -.204E+03   -.308E-01 0.301E+01 -.419E+00   -.593E-06 0.163E-05 0.171E-05
   -.137E+02 0.618E+02 0.205E+03   0.137E+02 -.648E+02 -.204E+03   -.204E-01 0.302E+01 -.420E+00   0.845E-06 0.186E-05 0.165E-05
   -.137E+02 0.618E+02 0.205E+03   0.137E+02 -.648E+02 -.204E+03   -.217E-01 0.302E+01 -.419E+00   0.667E-06 0.164E-05 0.208E-05
   -.137E+02 0.618E+02 0.205E+03   0.137E+02 -.648E+02 -.204E+03   -.307E-01 0.301E+01 -.419E+00   -.677E-06 -.122E-05 0.236E-05
   -.137E+02 0.618E+02 0.205E+03   0.137E+02 -.648E+02 -.204E+03   -.202E-01 0.302E+01 -.420E+00   0.740E-06 -.995E-06 0.220E-05
   -.137E+02 0.618E+02 0.205E+03   0.137E+02 -.648E+02 -.204E+03   -.220E-01 0.302E+01 -.419E+00   0.519E-06 -.118E-05 0.269E-05
   -.137E+02 0.618E+02 -.205E+03   0.137E+02 -.648E+02 0.204E+03   -.221E-01 0.302E+01 0.421E+00   -.633E-06 -.482E-06 -.110E-05
   -.137E+02 0.618E+02 -.205E+03   0.137E+02 -.648E+02 0.204E+03   -.243E-01 0.302E+01 0.419E+00   0.809E-06 -.185E-06 -.957E-06
   -.137E+02 0.618E+02 -.205E+03   0.137E+02 -.648E+02 0.204E+03   -.228E-01 0.302E+01 0.417E+00   0.590E-06 -.341E-06 -.141E-05
   -.137E+02 0.618E+02 -.205E+03   0.137E+02 -.649E+02 0.204E+03   -.222E-01 0.302E+01 0.422E+00   -.688E-06 0.238E-05 -.153E-05
   -.137E+02 0.618E+02 -.205E+03   0.137E+02 -.648E+02 0.204E+03   -.243E-01 0.302E+01 0.419E+00   0.743E-06 0.260E-05 -.145E-05
   -.137E+02 0.618E+02 -.205E+03   0.137E+02 -.649E+02 0.204E+03   -.227E-01 0.302E+01 0.417E+00   0.586E-06 0.242E-05 -.189E-05
   -.137E+02 0.618E+02 -.205E+03   0.137E+02 -.648E+02 0.204E+03   -.222E-01 0.302E+01 0.422E+00   -.704E-06 -.443E-06 -.214E-05
   -.137E+02 0.618E+02 -.205E+03   0.137E+02 -.648E+02 0.204E+03   -.243E-01 0.302E+01 0.419E+00   0.726E-06 -.239E-06 -.199E-05
   -.137E+02 0.618E+02 -.205E+03   0.137E+02 -.648E+02 0.204E+03   -.228E-01 0.302E+01 0.418E+00   0.494E-06 -.392E-06 -.245E-05
   0.214E-02 0.173E-01 0.166E+03   -.443E-02 -.219E-01 -.167E+03   -.432E-03 -.114E-02 0.643E+00   -.293E-06 -.291E-06 -.143E-06
   -.123E-02 0.897E-03 0.166E+03   0.142E-02 -.745E-03 -.167E+03   0.686E-04 0.433E-04 0.643E+00   -.480E-08 -.232E-06 -.378E-06
   0.854E-03 0.358E-03 0.166E+03   -.849E-03 -.382E-03 -.167E+03   0.185E-04 -.532E-04 0.643E+00   0.151E-06 -.208E-06 -.854E-07
   0.917E-03 -.740E-02 0.166E+03   -.119E-02 0.710E-02 -.167E+03   -.644E-04 -.255E-05 0.643E+00   -.134E-06 0.443E-06 0.175E-06
   -.102E-02 -.759E-03 0.166E+03   0.997E-03 0.752E-03 -.167E+03   -.320E-05 -.339E-05 0.643E+00   0.145E-06 0.496E-06 -.488E-07
   0.466E-03 -.363E-03 0.166E+03   -.474E-03 0.366E-03 -.167E+03   0.199E-04 -.524E-04 0.643E+00   0.309E-06 0.543E-06 0.247E-06
   0.236E-05 0.157E-03 0.166E+03   -.283E-04 -.161E-03 -.167E+03   -.251E-04 0.460E-04 0.643E+00   -.299E-06 -.308E-06 0.502E-06
   -.113E-03 0.455E-04 0.166E+03   0.113E-03 -.416E-04 -.167E+03   0.317E-05 -.302E-05 0.643E+00   0.151E-08 -.230E-06 0.271E-06
   0.581E-04 0.392E-04 0.166E+03   -.904E-04 -.580E-04 -.167E+03   0.168E-04 -.618E-04 0.643E+00   0.151E-06 -.198E-06 0.559E-06
   -.182E-03 -.153E-02 -.166E+03   0.350E-03 0.174E-02 0.167E+03   0.964E-04 0.142E-04 -.643E+00   -.299E-06 -.296E-06 -.985E-06
   0.916E-03 -.496E-03 -.166E+03   -.876E-03 0.506E-03 0.167E+03   0.428E-05 0.580E-05 -.643E+00   0.123E-08 -.228E-06 -.771E-06
   -.648E-03 -.348E-03 -.166E+03   0.648E-03 0.348E-03 0.167E+03   0.105E-04 -.141E-04 -.643E+00   0.149E-06 -.198E-06 -.106E-05
   -.313E-03 0.164E-02 -.166E+03   0.277E-03 -.167E-02 0.167E+03   -.177E-04 0.431E-05 -.643E+00   -.138E-06 0.435E-06 -.135E-05
   0.732E-03 0.593E-03 -.166E+03   -.714E-03 -.585E-03 0.167E+03   0.348E-05 0.470E-05 -.643E+00   0.143E-06 0.498E-06 -.111E-05
   -.437E-03 0.392E-03 -.166E+03   0.432E-03 -.392E-03 0.167E+03   0.938E-05 -.138E-04 -.643E+00   0.304E-06 0.527E-06 -.141E-05
   -.367E-04 -.159E-03 -.166E+03   0.390E-04 0.168E-03 0.167E+03   -.102E-04 0.161E-04 -.643E+00   -.300E-06 -.297E-06 -.166E-05
   0.164E-03 -.614E-04 -.166E+03   -.170E-03 0.579E-04 0.167E+03   -.118E-05 -.221E-05 -.643E+00   -.115E-08 -.232E-06 -.142E-05
   -.140E-03 -.837E-04 -.166E+03   0.137E-03 0.820E-04 0.167E+03   0.110E-04 -.165E-04 -.643E+00   0.147E-06 -.191E-06 -.172E-05
 -----------------------------------------------------------------------------------------------
   -.694E-02 -.539E-02 -.169E-01   -.113E-11 0.507E-13 0.185E-11   0.772E-02 0.501E-02 0.173E-01   0.748E-07 0.144E-07 -.468E-04
 
 
 POSITION                                       TOTAL-FORCE (eV/Angst)
 -----------------------------------------------------------------------------------
      2.83732      3.83783      4.49202        -0.021983      0.047518     -0.013379
      8.44265      3.72585      4.49202        -0.034163      0.015823     -0.009220
     14.04797      3.61386      4.49202        -0.031824      0.014439     -0.008993
      2.71176      9.91088      4.49202        -0.031996      0.014982     -0.008582
      8.31708      9.79890      4.49202        -0.032112      0.016327     -0.009946
     13.92241      9.68691      4.49202        -0.032094      0.014776     -0.008927
      2.58620     15.98393      4.49202        -0.032233      0.014462     -0.008270
      8.19152     15.87195      4.49202        -0.032269      0.016089     -0.010134
     13.79684     15.75997      4.49202        -0.031925      0.014826     -0.009144
      2.83732      3.83783      7.59610        -0.036029      0.020716      0.010277
      8.44265      3.72585      7.59610        -0.029321      0.019593      0.012721
     14.04797      3.61386      7.59610        -0.035749      0.015508      0.011406
      2.71176      9.91088      7.59610        -0.035082      0.020892      0.009342
      8.31708      9.79890      7.59610        -0.029474      0.019542      0.012658
     13.92241      9.68691      7.59610        -0.035624      0.015431      0.011353
      2.58620     15.98393      7.59610        -0.035158      0.020890      0.009340
      8.19152     15.87195      7.59610        -0.029267      0.019477      0.012705
     13.79684     15.75997      7.59610        -0.035929      0.015432      0.011331
      2.64244      2.12323      4.49202         0.032005     -0.016781     -0.014437
      8.24776      2.01125      4.49202         0.032160     -0.016266     -0.011155
     13.85308      1.89927      4.49202         0.032008     -0.014235     -0.008095
      2.51687      8.19629      4.49202         0.033043     -0.016228     -0.010495
      8.12220      8.08430      4.49202         0.032682     -0.015834     -0.009941
     13.72752      7.97232      4.49202         0.031954     -0.014689     -0.008336
      2.39131     14.26934      4.49202         0.032067     -0.014844     -0.008993
      7.99663     14.15735      4.49202         0.032212     -0.016164     -0.010048
     13.60196     14.04537      4.49202         0.032023     -0.014589     -0.008303
      2.64244      2.12323      7.59610         0.036150     -0.015312      0.011063
      8.24776      2.01125      7.59610         0.029405     -0.019634      0.012732
     13.85308      1.89927      7.59610         0.035124     -0.021006      0.009397
      2.51687      8.19629      7.59610         0.035642     -0.015428      0.011409
      8.12220      8.08430      7.59610         0.029495     -0.019506      0.012648
     13.72752      7.97232      7.59610         0.035020     -0.020922      0.009336
      2.39131     14.26934      7.59610         0.035634     -0.015429      0.011334
      7.99663     14.15735      7.59610         0.029305     -0.019499      0.012711
     13.60196     14.04537      7.59610         0.035243     -0.020917      0.009247
      5.42990      3.78375      4.07539        -0.000718      0.012417      0.010383
     11.03523      3.67176      4.07539         0.004229      0.009088      0.006913
     16.64055      3.55978      4.07539         0.009840      0.013076      0.006184
      5.30434      9.85680      4.07539         0.001923      0.006578      0.007850
     10.90966      9.74481      4.07539         0.004806      0.009367      0.006912
     16.51499      9.63283      4.07539         0.008725      0.013145      0.008002
      5.17878     15.92985      4.07539         0.001891      0.006110      0.008010
     10.78410     15.81787      4.07539         0.004720      0.009340      0.007044
     16.38942     15.70588      4.07539         0.008700      0.013367      0.006193
      5.42990      3.78375      8.01273         0.006664      0.008440     -0.009930
     11.03523      3.67176      8.01273         0.007114      0.004670     -0.005460
     16.64055      3.55978      8.01273         0.004551      0.007248     -0.008579
      5.30434      9.85680      8.01273         0.006174      0.007641     -0.008785
     10.90966      9.74481      8.01273         0.007084      0.004564     -0.005294
     16.51499      9.63283      8.01273         0.004440      0.007263     -0.008485
      5.17878     15.92985      8.01273         0.006137      0.007602     -0.008732
     10.78410     15.81787      8.01273         0.007082      0.004579     -0.005387
     16.38942     15.70588      8.01273         0.004534      0.007168     -0.008437
      0.04985      2.17732      4.07539        -0.007467     -0.013828      0.007365
      5.65518      2.06534      4.07539        -0.004050     -0.009491      0.006859
     11.26050      1.95335      4.07539        -0.001637     -0.005950      0.007962
     -0.07571      8.25037      4.07539        -0.009440     -0.013355      0.004739
      5.52961      8.13839      4.07539        -0.004940     -0.008460      0.006690
     11.13494      8.02640      4.07539        -0.001841     -0.006451      0.007861
     -0.20127     14.32342      4.07539        -0.008679     -0.013394      0.006249
      5.40405     14.21144      4.07539        -0.004765     -0.009373      0.007009
     11.00937     14.09945      4.07539        -0.001770     -0.006162      0.007878
      0.04985      2.17732      8.01273        -0.004698     -0.007202     -0.008444
      5.65518      2.06534      8.01273        -0.006848     -0.004885     -0.005410
     11.26050      1.95335      8.01273        -0.006179     -0.007791     -0.008772
     -0.07571      8.25037      8.01273        -0.004507     -0.007224     -0.008380
      5.52961      8.13839      8.01273        -0.007077     -0.004496     -0.005359
     11.13494      8.02640      8.01273        -0.006188     -0.007676     -0.008738
     -0.20127     14.32342      8.01273        -0.004470     -0.007238     -0.008554
      5.40405     14.21144      8.01273        -0.007035     -0.004583     -0.005334
     11.00937     14.09945      8.01273        -0.006189     -0.007640     -0.008688
      3.22793      5.39529      3.98541        -0.013140     -0.011676      0.089374
      8.83325      5.28330      3.99541        -0.003068      0.006266     -0.002517
     14.43858      5.17132      3.99541        -0.002289      0.004318     -0.007604
      3.10237     11.46834      3.99541        -0.000813      0.005596     -0.005449
      8.70769     11.35635      3.99541        -0.003349      0.006000     -0.002868
     14.31301     11.24437      3.99541        -0.001979      0.004183     -0.007782
      2.97680     17.54139      3.99541        -0.001308      0.006139     -0.005447
      8.58213     17.42940      3.99541        -0.003672      0.006092     -0.002698
     14.18745     17.31742      3.99541        -0.001992      0.004085     -0.007951
      3.22793      5.39529      8.09270        -0.003311     -0.002078      0.006784
      8.83325      5.28330      8.09270        -0.001125      0.001130      0.005379
     14.43858      5.17132      8.09270         0.000527      0.004980      0.004210
      3.10237     11.46834      8.09270        -0.003188     -0.001710      0.006291
      8.70769     11.35635      8.09270        -0.001033      0.001168      0.005193
     14.31301     11.24437      8.09270         0.000516      0.004965      0.004069
      2.97680     17.54139      8.09270        -0.003197     -0.001708      0.006290
      8.58213     17.42940      8.09270        -0.001090      0.001125      0.005239
     14.18745     17.31742      8.09270         0.000492      0.005053      0.004023
      2.25183      0.56578      3.99541         0.000838     -0.003499     -0.009740
      7.85715      0.45380      3.99541         0.004023     -0.006102     -0.002898
     13.46248      0.34181      3.99541         0.001169     -0.005563     -0.005104
      2.12626      6.63883      3.99541         0.003482     -0.004586     -0.033324
      7.73159      6.52685      3.99541         0.003268     -0.006298     -0.002409
     13.33691      6.41486      3.99541         0.000899     -0.005628     -0.005252
      2.00070     12.71188      3.99541         0.001920     -0.004231     -0.007886
      7.60602     12.59990      3.99541         0.003381     -0.005976     -0.002788
     13.21135     12.48792      3.99541         0.000951     -0.005687     -0.005413
      2.25183      0.56578      8.09270        -0.000518     -0.004981      0.003922
      7.85715      0.45380      8.09270         0.001107     -0.001046      0.005390
     13.46248      0.34181      8.09270         0.003203      0.001693      0.006363
      2.12626      6.63883      8.09270        -0.000554     -0.004943      0.003776
      7.73159      6.52685      8.09270         0.001142     -0.001189      0.005273
     13.33691      6.41486      8.09270         0.003203      0.001707      0.006283
      2.00070     12.71188      8.09270        -0.000524     -0.004952      0.004088
      7.60602     12.59990      8.09270         0.001056     -0.001087      0.005191
     13.21135     12.48792      8.09270         0.003155      0.001633      0.006215
      4.92835      5.33932      3.65558         0.024992     -0.000449      0.013621
     10.53367      5.22733      3.65558         0.003454     -0.005388      0.017376
     16.13900      5.11535      3.65558        -0.001000     -0.004260      0.016648
      4.80279     11.41237      3.65558         0.001270     -0.004464      0.014819
     10.40811     11.30038      3.65558         0.002975     -0.005414      0.017436
     16.01343     11.18840      3.65558        -0.000231     -0.004413      0.017179
      4.67722     17.48542      3.65558         0.001856     -0.003738      0.014600
     10.28255     17.37343      3.65558         0.002879     -0.005556      0.017412
     15.88787     17.26145      3.65558        -0.000449     -0.004227      0.016855
      4.92835      5.33932      8.43253        -0.000229     -0.005538     -0.016275
     10.53367      5.22733      8.43253         0.003494     -0.004967     -0.013962
     16.13900      5.11535      8.43253        -0.000626     -0.006521     -0.019041
      4.80279     11.41237      8.43253        -0.000560     -0.005814     -0.016700
     10.40811     11.30038      8.43253         0.003544     -0.004908     -0.013835
     16.01343     11.18840      8.43253        -0.000662     -0.006619     -0.018994
      4.67722     17.48542      8.43253        -0.000480     -0.005775     -0.016676
     10.28255     17.37343      8.43253         0.003512     -0.004966     -0.013863
     15.88787     17.26145      8.43253        -0.000535     -0.006394     -0.018850
      0.55141      0.62175      3.65558         0.000333      0.004028      0.018144
      6.15673      0.50977      3.65558        -0.002842      0.004690      0.017464
     11.76206      0.39778      3.65558        -0.001634      0.004427      0.014917
      0.42585      6.69480      3.65558        -0.000610      0.006138      0.016202
      6.03117      6.58282      3.65558        -0.002746      0.003767      0.015783
     11.63649      6.47083      3.65558        -0.001516      0.004280      0.014763
      0.30028     12.76785      3.65558         0.000579      0.004287      0.017107
      5.90561     12.65587      3.65558        -0.002934      0.005501      0.017493
     11.51093     12.54389      3.65558        -0.001539      0.004247      0.014917
      0.55141      0.62175      8.43253         0.000467      0.006414     -0.018915
      6.15673      0.50977      8.43253        -0.003600      0.005014     -0.013803
     11.76206      0.39778      8.43253         0.000520      0.005788     -0.016759
      0.42585      6.69480      8.43253         0.000591      0.006551     -0.018930
      6.03117      6.58282      8.43253        -0.003729      0.004735     -0.013666
     11.63649      6.47083      8.43253         0.000543      0.005803     -0.016679
      0.30028     12.76785      8.43253         0.000649      0.006596     -0.019012
      5.90561     12.65587      8.43253        -0.003498      0.005049     -0.013852
     11.51093     12.54389      8.43253         0.000499      0.005718     -0.016648
      4.28389      4.56161      5.19347        -0.010704      0.007123     -0.033567
      9.88922      4.44963      5.19347         0.013433      0.002574      0.000781
     15.49454      4.33764      5.19347         0.008458      0.009771     -0.001672
      4.15833     10.63466      5.19347         0.008861      0.003664      0.002795
      9.76365     10.52268      5.19347         0.013308      0.002390      0.000729
     15.36897     10.41069      5.19347         0.008207      0.009935     -0.002082
      4.03276     16.70771      5.19347         0.008911      0.003739      0.003146
      9.63809     16.59573      5.19347         0.013481      0.002366      0.000688
     15.24341     16.48374      5.19347         0.008191      0.009571     -0.001835
      3.82928      4.03481      9.03532        -0.011495     -0.008148     -0.020329
      9.43461      3.92282      9.03532        -0.010031     -0.008753     -0.017714
     15.03993      3.81084      9.03532        -0.009912     -0.007586     -0.022094
      3.70372     10.10786      9.03532        -0.011084     -0.008299     -0.020793
      9.30904      9.99587      9.03532        -0.009853     -0.008900     -0.017757
     14.91437      9.88389      9.03532        -0.009771     -0.007578     -0.022011
      3.57816     16.18091      9.03532        -0.011085     -0.008277     -0.020732
      9.18348     16.06892      9.03532        -0.009843     -0.008806     -0.017725
     14.78880     15.95694      9.03532        -0.009763     -0.007725     -0.022077
      1.65048      1.92626      3.05280         0.019442      0.010119      0.013403
      7.25580      1.81428      3.05280         0.010068      0.006735      0.020184
     12.86112      1.70229      3.05280         0.009640      0.009157      0.020529
      1.52491      7.99931      3.05280         0.010786      0.015291      0.018257
      7.13024      7.88733      3.05280         0.009276      0.007589      0.019170
     12.73556      7.77534      3.05280         0.009654      0.009256      0.020718
      1.39935     14.07236      3.05280         0.014915      0.010572      0.017398
      7.00467     13.96038      3.05280         0.009530      0.007120      0.019018
     12.61000     13.84840      3.05280         0.009818      0.009107      0.020641
      1.19587      1.39946      6.89465        -0.011831     -0.003188     -0.000495
      6.80119      1.28747      6.89465        -0.006512     -0.002701     -0.001095
     12.40652      1.17549      6.89465        -0.011891     -0.000562     -0.000671
      1.07030      7.47251      6.89465        -0.011907     -0.002849     -0.000036
      6.67563      7.36052      6.89465        -0.006584     -0.002732     -0.001086
     12.28095      7.24854      6.89465        -0.011807     -0.000604     -0.000730
      0.94474     13.54556      6.89465        -0.011602     -0.002905     -0.000393
      6.55006     13.43358      6.89465        -0.006554     -0.002710     -0.000891
     12.15539     13.32159      6.89465        -0.011853     -0.000675     -0.000812
      3.82928      4.03481      3.05280        -0.007671     -0.034520     -0.001599
      9.43461      3.92282      3.05280        -0.009650     -0.007472      0.018487
     15.03993      3.81084      3.05280        -0.014507     -0.010519      0.017198
      3.70372     10.10786      3.05280        -0.009581     -0.008798      0.020987
      9.30904      9.99587      3.05280        -0.009644     -0.007197      0.019075
     14.91437      9.88389      3.05280        -0.014834     -0.010856      0.017268
      3.57816     16.18091      3.05280        -0.009711     -0.009203      0.020779
      9.18348     16.06892      3.05280        -0.009520     -0.007172      0.019042
     14.78880     15.95694      3.05280        -0.014871     -0.010333      0.017427
      4.28389      4.56161      6.89465         0.007585      0.005313     -0.004509
      9.88922      4.44963      6.89465         0.006595      0.002640     -0.000888
     15.49454      4.33764      6.89465         0.011633      0.002864     -0.000448
      4.15833     10.63466      6.89465         0.011838      0.000620     -0.000718
      9.76365     10.52268      6.89465         0.006567      0.002771     -0.000958
     15.36897     10.41069      6.89465         0.011618      0.002920     -0.000388
      4.03276     16.70771      6.89465         0.011843      0.000649     -0.000888
      9.63809     16.59573      6.89465         0.006545      0.002684     -0.000897
     15.24341     16.48374      6.89465         0.011713      0.003088     -0.000542
      1.19587      1.39946      5.19347        -0.009253     -0.008510     -0.001176
      6.80119      1.28747      5.19347        -0.014137     -0.002300      0.000856
     12.40652      1.17549      5.19347        -0.008892     -0.003873      0.002946
      1.07030      7.47251      5.19347        -0.004979     -0.014952      0.000779
      6.67563      7.36052      5.19347        -0.013280     -0.003028      0.000912
     12.28095      7.24854      5.19347        -0.008802     -0.003789      0.002903
      0.94474     13.54556      5.19347        -0.008503     -0.009663     -0.001964
      6.55006     13.43358      5.19347        -0.013388     -0.002396      0.000573
     12.15539     13.32159      5.19347        -0.008832     -0.003829      0.002940
      1.65048      1.92626      9.03532         0.009582      0.007693     -0.022213
      7.25580      1.81428      9.03532         0.009834      0.008653     -0.017696
     12.86112      1.70229      9.03532         0.011144      0.008277     -0.020827
      1.52491      7.99931      9.03532         0.009713      0.007708     -0.022031
      7.13024      7.88733      9.03532         0.009911      0.008851     -0.017776
     12.73556      7.77534      9.03532         0.011050      0.008289     -0.020742
      1.39935     14.07236      9.03532         0.009818      0.007574     -0.022011
      7.00467     13.96038      9.03532         0.009807      0.008825     -0.017709
     12.61000     13.84840      9.03532         0.011066      0.008443     -0.020789
      1.34311      3.14706      4.32689        -0.012725      0.016268     -0.000924
      6.94843      3.03507      4.32689        -0.010701      0.017833     -0.008269
     12.55375      2.92309      4.32689        -0.002316      0.024274     -0.005421
      1.21754      9.22011      4.32689        -0.009898      0.014539     -0.005226
      6.82287      9.10812      4.32689        -0.013031      0.019133     -0.006533
     12.42819      8.99614      4.32689        -0.002261      0.024238     -0.005290
      1.09198     15.29316      4.32689        -0.011297      0.015446     -0.004959
      6.69730     15.18117      4.32689        -0.012779      0.019231     -0.006282
     12.30263     15.06919      4.32689        -0.002459      0.024213     -0.005190
      1.34311      3.14706      7.76122        -0.010437      0.020428      0.003567
      6.94843      3.03507      7.76122        -0.009039      0.020137      0.005173
     12.55375      2.92309      7.76122        -0.010937      0.019042      0.007921
      1.21754      9.22011      7.76122        -0.010388      0.020124      0.003423
      6.82287      9.10812      7.76122        -0.008853      0.020074      0.005382
     12.42819      8.99614      7.76122        -0.010920      0.018973      0.007907
      1.09198     15.29316      7.76122        -0.010417      0.020049      0.003307
      6.69730     15.18117      7.76122        -0.008774      0.019980      0.005327
     12.30263     15.06919      7.76122        -0.010936      0.019082      0.008053
      4.13665      2.81401      4.32689         0.004084     -0.021740     -0.001646
      9.74198      2.70203      4.32689         0.013196     -0.019337     -0.006555
     15.34730      2.59004      4.32689         0.010748     -0.015437     -0.004934
      4.01109      8.88706      4.32689         0.002413     -0.024788     -0.005500
      9.61641      8.77508      4.32689         0.012579     -0.019334     -0.006375
     15.22174      8.66309      4.32689         0.011320     -0.015420     -0.004823
      3.88552     14.96011      4.32689         0.002492     -0.024281     -0.005406
      9.49085     14.84813      4.32689         0.012791     -0.019231     -0.006368
     15.09617     14.73614      4.32689         0.011367     -0.015407     -0.004582
      4.13665      2.81401      7.76122         0.010535     -0.019225      0.006841
      9.74198      2.70203      7.76122         0.008781     -0.019998      0.005180
     15.34730      2.59004      7.76122         0.010503     -0.020098      0.003254
      4.01109      8.88706      7.76122         0.010897     -0.018984      0.007995
      9.61641      8.77508      7.76122         0.008828     -0.020086      0.005362
     15.22174      8.66309      7.76122         0.010380     -0.019985      0.003367
      3.88552     14.96011      7.76122         0.010967     -0.019018      0.007980
      9.49085     14.84813      7.76122         0.008760     -0.019942      0.005288
     15.09617     14.73614      7.76122         0.010454     -0.020147      0.003497
      2.73988      2.98053      2.26308        -0.002719     -0.005791     -0.000994
      8.34520      2.86855      2.26308         0.000255      0.000197      0.000176
     13.95053      2.75657      2.26308         0.000021     -0.000076      0.000162
      2.61432      9.05358      2.26308        -0.000339     -0.000311      0.000255
      8.21964      8.94160      2.26308        -0.000026     -0.000009      0.000217
     13.82496      8.82962      2.26308         0.000009     -0.000047      0.000174
      2.48875     15.12664      2.26308        -0.000054      0.000043      0.000168
      8.09408     15.01465      2.26308        -0.000000      0.000002      0.000208
     13.69940     14.90267      2.26308        -0.000018     -0.000079      0.000169
      2.73988      2.98053      9.82504         0.000262      0.000227     -0.000157
      8.34520      2.86855      9.82504         0.000041      0.000017     -0.000231
     13.95053      2.75657      9.82504         0.000008     -0.000013     -0.000185
      2.61432      9.05358      9.82504        -0.000057     -0.000022     -0.000188
      8.21964      8.94160      9.82504         0.000020      0.000015     -0.000233
     13.82496      8.82962      9.82504         0.000002     -0.000013     -0.000187
      2.48875     15.12664      9.82504        -0.000011      0.000027     -0.000181
      8.09408     15.01465      9.82504        -0.000010     -0.000005     -0.000248
     13.69940     14.90267      9.82504         0.000005     -0.000017     -0.000169
 -----------------------------------------------------------------------------------
    total drift:                                0.000779     -0.000379      0.000361


--------------------------------------------------------------------------------------------------------



  FREE ENERGIE OF THE ION-ELECTRON SYSTEM (eV)
  ---------------------------------------------------
  free  energy   TOTEN  =     -1665.83332268 eV

  energy  without entropy=    -1665.68869907  energy(sigma->0) =    -1665.76101087
 


--------------------------------------------------------------------------------------------------------


    POTLOK:  cpu time      1.0607: real time      1.0680


--------------------------------------------------------------------------------------------------------


     LOOP+:  cpu time   7808.2064: real time   7895.0386
 vacuum level on the upper side and lower side of the slab         2.133         2.133
    4ORBIT:  cpu time      0.0000: real time      0.0000



 total charge

# of ion       s       p       d       tot
------------------------------------------
    1        0.723   1.420   0.000   2.142
    2        0.723   1.421   0.000   2.144
    3        0.723   1.421   0.000   2.144
    4        0.723   1.421   0.000   2.144
    5        0.723   1.421   0.000   2.144
    6        0.723   1.421   0.000   2.144
    7        0.723   1.421   0.000   2.144
    8        0.723   1.421   0.000   2.144
    9        0.723   1.421   0.000   2.144
   10        0.723   1.421   0.000   2.144
   11        0.723   1.421   0.000   2.144
   12        0.723   1.421   0.000   2.144
   13        0.723   1.421   0.000   2.144
   14        0.723   1.421   0.000   2.144
   15        0.723   1.421   0.000   2.144
   16        0.723   1.421   0.000   2.144
   17        0.723   1.421   0.000   2.144
   18        0.723   1.421   0.000   2.144
   19        0.723   1.421   0.000   2.144
   20        0.723   1.421   0.000   2.144
   21        0.723   1.421   0.000   2.144
   22        0.723   1.421   0.000   2.144
   23        0.723   1.421   0.000   2.144
   24        0.723   1.421   0.000   2.144
   25        0.723   1.421   0.000   2.144
   26        0.723   1.421   0.000   2.144
   27        0.723   1.421   0.000   2.144
   28        0.723   1.421   0.000   2.144
   29        0.723   1.421   0.000   2.144
   30        0.723   1.421   0.000   2.144
   31        0.723   1.421   0.000   2.144
   32        0.723   1.421   0.000   2.144
   33        0.723   1.421   0.000   2.144
   34        0.723   1.421   0.000   2.144
   35        0.723   1.421   0.000   2.144
   36        0.723   1.421   0.000   2.144
   37        0.708   1.356   0.000   2.064
   38        0.708   1.356   0.000   2.064
   39        0.708   1.356   0.000   2.064
   40        0.708   1.356   0.000   2.064
   41        0.708   1.356   0.000   2.064
   42        0.708   1.356   0.000   2.063
   43        0.708   1.356   0.000   2.064
   44        0.708   1.356   0.000   2.064
   45        0.708   1.356   0.000   2.064
   46        0.708   1.356   0.000   2.064
   47        0.708   1.356   0.000   2.064
   48        0.708   1.356   0.000   2.064
   49        0.708   1.356   0.000   2.064
   50        0.708   1.356   0.000   2.064
   51        0.708   1.356   0.000   2.064
   52        0.708   1.356   0.000   2.064
   53        0.708   1.356   0.000   2.064
   54        0.708   1.356   0.000   2.064
   55        0.708   1.356   0.000   2.064
   56        0.708   1.356   0.000   2.064
   57        0.708   1.356   0.000   2.064
   58        0.708   1.356   0.000   2.064
   59        0.708   1.356   0.000   2.064
   60        0.708   1.356   0.000   2.064
   61        0.708   1.356   0.000   2.064
   62        0.708   1.356   0.000   2.064
   63        0.708   1.356   0.000   2.064
   64        0.708   1.356   0.000   2.064
   65        0.708   1.356   0.000   2.064
   66        0.708   1.356   0.000   2.064
   67        0.708   1.356   0.000   2.064
   68        0.708   1.356   0.000   2.064
   69        0.708   1.356   0.000   2.064
   70        0.708   1.356   0.000   2.064
   71        0.708   1.356   0.000   2.064
   72        0.708   1.356   0.000   2.064
   73        0.714   1.317   0.000   2.032
   74        0.714   1.318   0.000   2.032
   75        0.714   1.318   0.000   2.032
   76        0.714   1.318   0.000   2.032
   77        0.714   1.318   0.000   2.032
   78        0.714   1.318   0.000   2.032
   79        0.714   1.318   0.000   2.032
   80        0.714   1.318   0.000   2.032
   81        0.714   1.318   0.000   2.032
   82        0.714   1.318   0.000   2.032
   83        0.714   1.318   0.000   2.032
   84        0.714   1.318   0.000   2.032
   85        0.714   1.318   0.000   2.032
   86        0.714   1.318   0.000   2.032
   87        0.714   1.318   0.000   2.032
   88        0.714   1.318   0.000   2.032
   89        0.714   1.318   0.000   2.032
   90        0.714   1.318   0.000   2.032
   91        0.714   1.318   0.000   2.032
   92        0.714   1.318   0.000   2.032
   93        0.714   1.318   0.000   2.032
   94        0.714   1.318   0.000   2.032
   95        0.714   1.318   0.000   2.032
   96        0.714   1.318   0.000   2.032
   97        0.714   1.318   0.000   2.032
   98        0.714   1.318   0.000   2.032
   99        0.714   1.318   0.000   2.032
  100        0.714   1.318   0.000   2.032
  101        0.714   1.318   0.000   2.032
  102        0.714   1.318   0.000   2.032
  103        0.714   1.318   0.000   2.032
  104        0.714   1.318   0.000   2.032
  105        0.714   1.318   0.000   2.032
  106        0.714   1.318   0.000   2.032
  107        0.714   1.318   0.000   2.032
  108        0.714   1.318   0.000   2.032
  109        0.708   1.293   0.000   2.000
  110        0.708   1.292   0.000   2.000
  111        0.708   1.292   0.000   2.000
  112        0.708   1.292   0.000   1.999
  113        0.708   1.292   0.000   2.000
  114        0.708   1.292   0.000   2.000
  115        0.708   1.292   0.000   1.999
  116        0.708   1.292   0.000   2.000
  117        0.708   1.292   0.000   2.000
  118        0.708   1.292   0.000   1.999
  119        0.708   1.292   0.000   1.999
  120        0.708   1.292   0.000   2.000
  121        0.708   1.292   0.000   1.999
  122        0.708   1.292   0.000   1.999
  123        0.708   1.292   0.000   2.000
  124        0.708   1.292   0.000   1.999
  125        0.708   1.292   0.000   1.999
  126        0.708   1.292   0.000   2.000
  127        0.708   1.292   0.000   2.000
  128        0.708   1.292   0.000   2.000
  129        0.708   1.292   0.000   1.999
  130        0.708   1.292   0.000   2.000
  131        0.708   1.292   0.000   1.999
  132        0.708   1.292   0.000   1.999
  133        0.708   1.292   0.000   2.000
  134        0.708   1.292   0.000   2.000
  135        0.708   1.292   0.000   1.999
  136        0.708   1.292   0.000   2.000
  137        0.708   1.292   0.000   1.999
  138        0.708   1.292   0.000   1.999
  139        0.708   1.292   0.000   2.000
  140        0.708   1.292   0.000   1.999
  141        0.708   1.292   0.000   1.999
  142        0.708   1.292   0.000   2.000
  143        0.708   1.292   0.000   1.999
  144        0.708   1.292   0.000   1.999
  145        0.688   1.272   0.000   1.961
  146        0.689   1.274   0.000   1.963
  147        0.689   1.274   0.000   1.963
  148        0.689   1.274   0.000   1.963
  149        0.689   1.274   0.000   1.963
  150        0.689   1.274   0.000   1.963
  151        0.689   1.274   0.000   1.963
  152        0.689   1.274   0.000   1.963
  153        0.689   1.274   0.000   1.963
  154        0.694   1.121   0.000   1.815
  155        0.694   1.121   0.000   1.815
  156        0.694   1.121   0.000   1.815
  157        0.694   1.121   0.000   1.815
  158        0.694   1.121   0.000   1.815
  159        0.694   1.121   0.000   1.815
  160        0.694   1.121   0.000   1.815
  161        0.694   1.121   0.000   1.815
  162        0.694   1.121   0.000   1.815
  163        0.694   1.121   0.000   1.815
  164        0.694   1.121   0.000   1.815
  165        0.694   1.121   0.000   1.815
  166        0.694   1.121   0.000   1.815
  167        0.694   1.121   0.000   1.815
  168        0.694   1.121   0.000   1.815
  169        0.694   1.121   0.000   1.815
  170        0.694   1.121   0.000   1.815
  171        0.694   1.121   0.000   1.815
  172        0.689   1.274   0.000   1.963
  173        0.689   1.274   0.000   1.963
  174        0.689   1.274   0.000   1.963
  175        0.689   1.274   0.000   1.963
  176        0.689   1.274   0.000   1.963
  177        0.689   1.274   0.000   1.963
  178        0.689   1.274   0.000   1.963
  179        0.689   1.274   0.000   1.963
  180        0.689   1.274   0.000   1.963
  181        0.694   1.122   0.000   1.817
  182        0.694   1.121   0.000   1.815
  183        0.694   1.121   0.000   1.815
  184        0.694   1.121   0.000   1.815
  185        0.694   1.121   0.000   1.815
  186        0.694   1.121   0.000   1.815
  187        0.694   1.121   0.000   1.815
  188        0.694   1.121   0.000   1.815
  189        0.694   1.121   0.000   1.815
  190        0.689   1.274   0.000   1.963
  191        0.689   1.274   0.000   1.963
  192        0.689   1.274   0.000   1.963
  193        0.689   1.274   0.000   1.963
  194        0.689   1.274   0.000   1.963
  195        0.689   1.274   0.000   1.963
  196        0.689   1.274   0.000   1.963
  197        0.689   1.274   0.000   1.963
  198        0.689   1.274   0.000   1.963
  199        0.689   1.274   0.000   1.963
  200        0.689   1.274   0.000   1.963
  201        0.689   1.274   0.000   1.963
  202        0.689   1.274   0.000   1.963
  203        0.689   1.274   0.000   1.963
  204        0.689   1.274   0.000   1.963
  205        0.689   1.274   0.000   1.963
  206        0.689   1.274   0.000   1.963
  207        0.689   1.274   0.000   1.963
  208        0.694   1.121   0.000   1.815
  209        0.694   1.121   0.000   1.815
  210        0.694   1.121   0.000   1.815
  211        0.694   1.121   0.000   1.815
  212        0.694   1.121   0.000   1.815
  213        0.694   1.121   0.000   1.815
  214        0.694   1.121   0.000   1.815
  215        0.694   1.121   0.000   1.815
  216        0.694   1.121   0.000   1.815
  217        0.720   1.444   0.000   2.164
  218        0.720   1.444   0.000   2.164
  219        0.720   1.444   0.000   2.164
  220        0.720   1.444   0.000   2.164
  221        0.720   1.444   0.000   2.164
  222        0.720   1.444   0.000   2.164
  223        0.720   1.444   0.000   2.164
  224        0.720   1.444   0.000   2.164
  225        0.720   1.444   0.000   2.164
  226        0.720   1.444   0.000   2.164
  227        0.720   1.444   0.000   2.164
  228        0.720   1.444   0.000   2.164
  229        0.720   1.444   0.000   2.164
  230        0.720   1.444   0.000   2.164
  231        0.720   1.444   0.000   2.164
  232        0.720   1.444   0.000   2.164
  233        0.720   1.444   0.000   2.164
  234        0.720   1.444   0.000   2.164
  235        0.720   1.444   0.000   2.164
  236        0.720   1.444   0.000   2.164
  237        0.720   1.444   0.000   2.164
  238        0.720   1.444   0.000   2.164
  239        0.720   1.444   0.000   2.164
  240        0.720   1.444   0.000   2.164
  241        0.720   1.444   0.000   2.164
  242        0.720   1.444   0.000   2.164
  243        0.720   1.444   0.000   2.164
  244        0.720   1.444   0.000   2.164
  245        0.720   1.444   0.000   2.164
  246        0.720   1.444   0.000   2.164
  247        0.720   1.444   0.000   2.164
  248        0.720   1.444   0.000   2.164
  249        0.720   1.444   0.000   2.164
  250        0.720   1.444   0.000   2.164
  251        0.720   1.444   0.000   2.164
  252        0.720   1.444   0.000   2.164
  253        0.461   0.009   0.000   0.470
  254        0.461   0.009   0.000   0.470
  255        0.461   0.009   0.000   0.470
  256        0.461   0.009   0.000   0.470
  257        0.461   0.009   0.000   0.470
  258        0.461   0.009   0.000   0.470
  259        0.461   0.009   0.000   0.470
  260        0.461   0.009   0.000   0.470
  261        0.461   0.009   0.000   0.470
  262        0.461   0.009   0.000   0.470
  263        0.461   0.009   0.000   0.470
  264        0.461   0.009   0.000   0.470
  265        0.461   0.009   0.000   0.470
  266        0.461   0.009   0.000   0.470
  267        0.461   0.009   0.000   0.470
  268        0.461   0.009   0.000   0.470
  269        0.461   0.009   0.000   0.470
  270        0.461   0.009   0.000   0.470
--------------------------------------------------
tot        186.713 332.259   0.000 518.972
 

 total amount of memory used by VASP MPI-rank0   566661. kBytes
=======================================================================

   base                                    :      30000. kBytes
   nonlr-proj                              :      22360. kBytes
   fftplans                                :      54945. kBytes
   grid                                    :      85464. kBytes
   one-center                              :        119. kBytes
   wavefun                                 :     373773. kBytes
 
  
  
 General timing and accounting informations for this job:
 ========================================================
  
                  Total CPU time used (sec):     7870.375
                            User time (sec):     7359.532
                          System time (sec):      510.842
                         Elapsed time (sec):     7958.124
  
                   Maximum memory used (kb):     1202820.
                   Average memory used (kb):          N/A
  
                          Minor page faults:       314333
                          Major page faults:          142
                 Voluntary context switches:         1338
