k-points
0
Monkhorst-pack
19  27  17
0   0   0
