       N       E                     dE             d eps       ncg     rms          rms(c)
DAV:   1     0.606997262576E+04    0.60700E+04   -0.29715E+05  6696   0.119E+03
DAV:   2    -0.101416543549E+04   -0.70841E+04   -0.68677E+04  9600   0.257E+02
DAV:   3    -0.187788487000E+04   -0.86372E+03   -0.85289E+03  7824   0.952E+01
DAV:   4    -0.190384310514E+04   -0.25958E+02   -0.25812E+02  8856   0.173E+01
DAV:   5    -0.190466246058E+04   -0.81936E+00   -0.81820E+00  8712   0.275E+00    0.567E+01
DAV:   6    -0.179489279990E+04    0.10977E+03   -0.11296E+02  7248   0.108E+01    0.318E+01
DAV:   7    -0.175566610043E+04    0.39227E+02   -0.13024E+02  7656   0.109E+01    0.650E+00
DAV:   8    -0.175559381979E+04    0.72281E-01   -0.98743E+00  8184   0.365E+00    0.247E+00
DAV:   9    -0.175542166395E+04    0.17216E+00   -0.99320E-01  8184   0.105E+00    0.101E+00
DAV:  10    -0.175541035033E+04    0.11314E-01   -0.22737E-01  8016   0.600E-01    0.606E-01
DAV:  11    -0.175538580637E+04    0.24544E-01   -0.12616E-01  8280   0.467E-01    0.371E-01
DAV:  12    -0.175536114911E+04    0.24657E-01   -0.95419E-02  7896   0.323E-01    0.216E-01
DAV:  13    -0.175537399265E+04   -0.12844E-01   -0.28865E-02  7944   0.191E-01    0.132E-01
DAV:  14    -0.175538210085E+04   -0.81082E-02   -0.63189E-03  7392   0.112E-01    0.898E-02
DAV:  15    -0.175538788338E+04   -0.57825E-02   -0.26929E-03  7416   0.672E-02    0.647E-02
DAV:  16    -0.175539518543E+04   -0.73021E-02   -0.18110E-03  7680   0.517E-02    0.427E-02
DAV:  17    -0.175539978841E+04   -0.46030E-02   -0.59463E-04  7608   0.337E-02    0.288E-02
DAV:  18    -0.175540544856E+04   -0.56601E-02   -0.39025E-04  7440   0.210E-02    0.169E-02
DAV:  19    -0.175540797291E+04   -0.25243E-02   -0.14082E-04  7680   0.126E-02    0.131E-02
DAV:  20    -0.175540999383E+04   -0.20209E-02   -0.88428E-05  7440   0.959E-03    0.947E-03
DAV:  21    -0.175541165984E+04   -0.16660E-02   -0.73658E-05  7464   0.792E-03    0.575E-03
DAV:  22    -0.175541263496E+04   -0.97512E-03   -0.36899E-05  7944   0.516E-03    0.394E-03
DAV:  23    -0.175541322861E+04   -0.59365E-03   -0.18248E-05  7416   0.315E-03    0.192E-03
DAV:  24    -0.175541343381E+04   -0.20520E-03   -0.38245E-06  6936   0.154E-03    0.114E-03
DAV:  25    -0.175541355860E+04   -0.12479E-03   -0.22717E-06  6528   0.105E-03    0.526E-04
DAV:  26    -0.175541359605E+04   -0.37448E-04   -0.48660E-07  5760   0.546E-04    0.290E-04
DAV:  27    -0.175541360604E+04   -0.99914E-05   -0.83992E-08  5256   0.310E-04    0.204E-04
DAV:  28    -0.175541361423E+04   -0.81854E-05   -0.76525E-08  5016   0.245E-04    0.865E-05
DAV:  29    -0.175541361692E+04   -0.26908E-05   -0.82758E-09  4800   0.134E-04    0.512E-05
DAV:  30    -0.175541361810E+04   -0.11827E-05    0.10982E-08  4680   0.823E-05    0.267E-05
DAV:  31    -0.175541361873E+04   -0.63184E-06    0.15245E-08  4992   0.610E-05
   1 F= -.17855828E+04 E0= -.17854733E+04  d E =-.219078E+00
