    4    4    1    1
  0.2626359E+03  0.5679996E-09  0.6147111E-09  0.3008812E-08  0.5000000E-15
  1.000000000000000E-004
  CAR 
 SCF                                     
     12     90     42
 
  0.2500000E-01  0.2777778E-01  0.1276756E-14  0.1111111E-01
      1         -9.399577   1.000000
      2         -9.399444   1.000000
      3         -8.731734   1.000000
      4         -8.731700   1.000000
      5         -3.621658   0.544017
      6         -3.621342   0.542244
      7         -3.587808   0.356382
      8         -3.576995   0.301159
      9         -3.559782   0.222284
     10         -3.559570   0.221395
     11         -2.956854   0.000000
     12         -2.955548   0.000000
     13         -2.515038   0.000000
     14         -2.514946   0.000000
     15         -2.474671   0.000000
     16         -2.474617   0.000000
     17         -0.140762   0.000000
     18          0.146133   0.000000
     19          0.273767   0.000000
     20          0.683552   0.000000
     21          0.963043   0.000000
     22          1.544233   0.000000
     23          1.825229   0.000000
     24          2.304290   0.000000
     25          2.347109   0.000000
     26          2.689377   0.000000
     27          2.702751   0.000000
     28          3.259804   0.000000
     29          3.517775   0.000000
     30          3.575552   0.000000
     31          3.773656   0.000000
     32          3.813745   0.000000
     33          3.965270   0.000000
     34          4.053671   0.000000
     35          4.146434   0.000000
     36          4.148954   0.000000
     37          4.269604   0.000000
     38          4.298233   0.000000
     39          4.434985   0.000000
     40          4.480225   0.000000
     41          4.649368   0.000000
     42          4.652578   0.000000
 
  0.7500000E-01  0.2777778E-01  0.1276756E-14  0.1111111E-01
      1         -9.391587   1.000000
      2         -9.391456   1.000000
      3         -8.739949   1.000000
      4         -8.739914   1.000000
      5         -3.615973   0.512028
      6         -3.615664   0.510289
      7         -3.579324   0.312725
      8         -3.568682   0.261528
      9         -3.558386   0.216448
     10         -3.558156   0.215496
     11         -2.963367   0.000000
     12         -2.962022   0.000000
     13         -2.533107   0.000000
     14         -2.532939   0.000000
     15         -2.490565   0.000000
     16         -2.490425   0.000000
     17         -0.112642   0.000000
     18          0.173083   0.000000
     19          0.294725   0.000000
     20          0.705268   0.000000
     21          0.991477   0.000000
     22          1.561750   0.000000
     23          1.854408   0.000000
     24          2.319325   0.000000
     25          2.365601   0.000000
     26          2.716934   0.000000
     27          2.726422   0.000000
     28          3.273703   0.000000
     29          3.522916   0.000000
     30          3.533200   0.000000
     31          3.598200   0.000000
     32          3.742570   0.000000
     33          3.789533   0.000000
     34          3.947841   0.000000
     35          4.112213   0.000000
     36          4.117769   0.000000
     37          4.276274   0.000000
     38          4.290497   0.000000
     39          4.430512   0.000000
     40          4.460283   0.000000
     41          4.586491   0.000000
     42          4.605205   0.000000
 
  0.1250000E+00  0.2777778E-01  0.1276756E-14  0.1111111E-01
      1         -9.375776   1.000000
      2         -9.375648   1.000000
      3         -8.756202   1.000000
      4         -8.756166   1.000000
      5         -3.606998   0.461454
      6         -3.606699   0.459777
      7         -3.562585   0.234270
      8         -3.552677   0.193524
      9         -3.552433   0.192581
     10         -3.552262   0.191917
     11         -2.976370   0.000000
     12         -2.974933   0.000000
     13         -2.573004   0.000000
     14         -2.572615   0.000000
     15         -2.515670   0.000000
     16         -2.515487   0.000000
     17         -0.057626   0.000000
     18          0.225841   0.000000
     19          0.336565   0.000000
     20          0.748646   0.000000
     21          1.047352   0.000000
     22          1.596510   0.000000
     23          1.911324   0.000000
     24          2.340175   0.000000
     25          2.396622   0.000000
     26          2.771071   0.000000
     27          2.772964   0.000000
     28          3.172981   0.000000
     29          3.346250   0.000000
     30          3.451566   0.000000
     31          3.563761   0.000000
     32          3.586831   0.000000
     33          3.658173   0.000000
     34          3.928167   0.000000
     35          4.016795   0.000000
     36          4.021786   0.000000
     37          4.188562   0.000000
     38          4.294960   0.000000
     39          4.349015   0.000000
     40          4.420374   0.000000
     41          4.557592   0.000000
     42          4.572296   0.000000
 
  0.1750000E+00  0.2777778E-01  0.1276756E-14  0.1111111E-01
      1         -9.352481   1.000000
      2         -9.352358   1.000000
      3         -8.780136   1.000000
      4         -8.780099   1.000000
      5         -3.598379   0.413460
      6         -3.598072   0.411770
      7         -3.538333   0.142798
      8         -3.538062   0.141935
      9         -3.538042   0.141872
     10         -3.528218   0.112969
     11         -2.995789   0.000000
     12         -2.994198   0.000000
     13         -2.631864   0.000000
     14         -2.631196   0.000000
     15         -2.547426   0.000000
     16         -2.547242   0.000000
     17          0.022335   0.000000
     18          0.302607   0.000000
     19          0.399143   0.000000
     20          0.813605   0.000000
     21          1.128859   0.000000
     22          1.648053   0.000000
     23          1.993457   0.000000
     24          2.340924   0.000000
     25          2.424313   0.000000
     26          2.840825   0.000000
     27          2.849372   0.000000
     28          2.883076   0.000000
     29          3.167233   0.000000
     30          3.293569   0.000000
     31          3.417786   0.000000
     32          3.617033   0.000000
     33          3.702128   0.000000
     34          3.723727   0.000000
     35          3.866707   0.000000
     36          3.988909   0.000000
     37          4.169544   0.000000
     38          4.282603   0.000000
     39          4.314956   0.000000
     40          4.385450   0.000000
     41          4.545869   0.000000
     42          4.595991   0.000000
 
  0.2250000E+00  0.2777778E-01  0.1276756E-14  0.1111111E-01
      1         -9.322207   1.000000
      2         -9.322090   1.000000
      3         -8.811210   1.000000
      4         -8.811168   1.000000
      5         -3.590423   0.370260
      6         -3.590081   0.368435
      7         -3.514907   0.080887
      8         -3.514638   0.080319
      9         -3.506370   0.064273
     10         -3.497164   0.049466
     11         -3.021467   0.000000
     12         -3.019655   0.000000
     13         -2.701171   0.000000
     14         -2.700267   0.000000
     15         -2.586922   0.000000
     16         -2.586731   0.000000
     17          0.125187   0.000000
     18          0.401540   0.000000
     19          0.482266   0.000000
     20          0.900087   0.000000
     21          1.233658   0.000000
     22          1.715892   0.000000
     23          2.097773   0.000000
     24          2.268996   0.000000
     25          2.411634   0.000000
     26          2.610241   0.000000
     27          2.916269   0.000000
     28          2.927880   0.000000
     29          2.947963   0.000000
     30          3.096815   0.000000
     31          3.373609   0.000000
     32          3.515578   0.000000
     33          3.559442   0.000000
     34          3.771248   0.000000
     35          3.834309   0.000000
     36          4.047549   0.000000
     37          4.056535   0.000000
     38          4.165857   0.000000
     39          4.341365   0.000000
     40          4.443105   0.000000
     41          4.571533   0.000000
     42          4.635090   0.000000
 
  0.2750000E+00  0.2777778E-01  0.1276756E-14  0.1111111E-01
      1         -9.285626   1.000000
      2         -9.285514   1.000000
      3         -8.848689   1.000000
      4         -8.848643   1.000000
      5         -3.579891   0.315573
      6         -3.579502   0.313618
      7         -3.486901   0.036311
      8         -3.486639   0.036018
      9         -3.468446   0.019882
     10         -3.459968   0.014774
     11         -3.053121   0.000000
     12         -3.051002   0.000000
     13         -2.771732   0.000000
     14         -2.770690   0.000000
     15         -2.634104   0.000000
     16         -2.633893   0.000000
     17          0.249185   0.000000
     18          0.521146   0.000000
     19          0.585716   0.000000
     20          1.008083   0.000000
     21          1.359125   0.000000
     22          1.799753   0.000000
     23          2.091588   0.000000
     24          2.221380   0.000000
     25          2.299438   0.000000
     26          2.358864   0.000000
     27          2.744350   0.000000
     28          2.898299   0.000000
     29          3.031240   0.000000
     30          3.062759   0.000000
     31          3.202540   0.000000
     32          3.377045   0.000000
     33          3.602766   0.000000
     34          3.784836   0.000000
     35          3.896965   0.000000
     36          3.938944   0.000000
     37          4.089327   0.000000
     38          4.155595   0.000000
     39          4.374608   0.000000
     40          4.491564   0.000000
     41          4.644801   0.000000
     42          4.663745   0.000000
 
  0.3250000E+00  0.2777778E-01  0.1276756E-14  0.1111111E-01
      1         -9.243564   1.000000
      2         -9.243460   1.000000
      3         -8.891655   1.000000
      4         -8.891604   1.000000
      5         -3.564023   0.240555
      6         -3.563580   0.238607
      7         -3.460699   0.015165
      8         -3.460430   0.015021
      9         -3.425344   0.003841
     10         -3.417669   0.002766
     11         -3.090296   0.000000
     12         -3.087774   0.000000
     13         -2.833935   0.000000
     14         -2.832862   0.000000
     15         -2.687432   0.000000
     16         -2.687183   0.000000
     17          0.392992   0.000000
     18          0.660360   0.000000
     19          0.709280   0.000000
     20          1.137652   0.000000
     21          1.502411   0.000000
     22          1.857508   0.000000
     23          1.899864   0.000000
     24          2.094125   0.000000
     25          2.107845   0.000000
     26          2.361560   0.000000
     27          2.623343   0.000000
     28          2.639009   0.000000
     29          3.144060   0.000000
     30          3.158361   0.000000
     31          3.167327   0.000000
     32          3.206118   0.000000
     33          3.692367   0.000000
     34          3.705922   0.000000
     35          3.966489   0.000000
     36          3.973070   0.000000
     37          4.059393   0.000000
     38          4.251932   0.000000
     39          4.414276   0.000000
     40          4.523664   0.000000
     41          4.721604   0.000000
     42          4.734017   0.000000
 
  0.3750000E+00  0.2777778E-01  0.1276756E-14  0.1111111E-01
      1         -9.197003   1.000000
      2         -9.196907   1.000000
      3         -8.939025   1.000000
      4         -8.938968   1.000000
      5         -3.541790   0.154115
      6         -3.541309   0.152504
      7         -3.443692   0.008058
      8         -3.443385   0.007963
      9         -3.378297   0.000433
     10         -3.371467   0.000304
     11         -3.132336   0.000000
     12         -3.129303   0.000000
     13         -2.877746   0.000000
     14         -2.876738   0.000000
     15         -2.744055   0.000000
     16         -2.743744   0.000000
     17          0.555580   0.000000
     18          0.818430   0.000000
     19          0.852773   0.000000
     20          1.288905   0.000000
     21          1.612745   0.000000
     22          1.660215   0.000000
     23          1.858554   0.000000
     24          1.859382   0.000000
     25          2.017346   0.000000
     26          2.368332   0.000000
     27          2.491427   0.000000
     28          2.515760   0.000000
     29          2.934497   0.000000
     30          3.182522   0.000000
     31          3.273783   0.000000
     32          3.314599   0.000000
     33          3.655975   0.000000
     34          3.712462   0.000000
     35          3.943405   0.000000
     36          4.081216   0.000000
     37          4.194517   0.000000
     38          4.351695   0.000000
     39          4.461585   0.000000
     40          4.557398   0.000000
     41          4.632546   0.000000
     42          4.799955   0.000000
 
  0.4250000E+00  0.2777778E-01  0.1276756E-14  0.1111111E-01
      1         -9.147058   1.000000
      2         -9.146970   1.000000
      3         -8.989581   1.000000
      4         -8.989518   1.000000
      5         -3.514080   0.079148
      6         -3.513577   0.078104
      7         -3.442301   0.007635
      8         -3.441923   0.007523
      9         -3.328652   0.000028
     10         -3.322682   0.000019
     11         -3.178357   0.000000
     12         -3.174715   0.000000
     13         -2.894885   0.000000
     14         -2.894024   0.000000
     15         -2.799785   0.000000
     16         -2.799384   0.000000
     17          0.736049   0.000000
     18          0.994718   0.000000
     19          1.016057   0.000000
     20          1.373880   0.000000
     21          1.461959   0.000000
     22          1.622181   0.000000
     23          1.623359   0.000000
     24          1.828309   0.000000
     25          2.111246   0.000000
     26          2.154454   0.000000
     27          2.338667   0.000000
     28          2.680920   0.000000
     29          2.708888   0.000000
     30          3.138631   0.000000
     31          3.400422   0.000000
     32          3.421864   0.000000
     33          3.627644   0.000000
     34          3.642377   0.000000
     35          4.073860   0.000000
     36          4.184069   0.000000
     37          4.346381   0.000000
     38          4.407568   0.000000
     39          4.489103   0.000000
     40          4.532682   0.000000
     41          4.586474   0.000000
     42          4.817780   0.000000
 
  0.4750000E+00  0.2777778E-01  0.1276756E-14  0.1111111E-01
      1         -9.094957   1.000000
      2         -9.094877   1.000000
      3         -9.042012   1.000000
      4         -9.041941   1.000000
      5         -3.484065   0.033231
      6         -3.483568   0.032713
      7         -3.457590   0.013563
      8         -3.457136   0.013341
      9         -3.277832   0.000001
     10         -3.272700   0.000001
     11         -3.227276   0.000000
     12         -3.222928   0.000000
     13         -2.883384   0.000000
     14         -2.882698   0.000000
     15         -2.848802   0.000000
     16         -2.848276   0.000000
     17          0.933441   0.000000
     18          1.146583   0.000000
     19          1.188497   0.000000
     20          1.199000   0.000000
     21          1.398680   0.000000
     22          1.401318   0.000000
     23          1.656870   0.000000
     24          1.873496   0.000000
     25          2.001255   0.000000
     26          2.173153   0.000000
     27          2.314466   0.000000
     28          2.499771   0.000000
     29          2.851549   0.000000
     30          3.014606   0.000000
     31          3.508177   0.000000
     32          3.515849   0.000000
     33          3.569700   0.000000
     34          3.601108   0.000000
     35          4.229363   0.000000
     36          4.276331   0.000000
     37          4.360975   0.000000
     38          4.369609   0.000000
     39          4.520147   0.000000
     40          4.614251   0.000000
     41          4.623429   0.000000
     42          4.696447   0.000000
 
  0.2500000E-01  0.8333333E-01  0.1276756E-14  0.1111111E-01
      1         -9.392678   1.000000
      2         -9.392547   1.000000
      3         -8.740141   1.000000
      4         -8.740106   1.000000
      5         -3.614299   0.502587
      6         -3.613968   0.500722
      7         -3.579740   0.314814
      8         -3.569116   0.263531
      9         -3.547348   0.173519
     10         -3.547137   0.172758
     11         -2.964580   0.000000
     12         -2.963172   0.000000
     13         -2.547152   0.000000
     14         -2.546895   0.000000
     15         -2.484815   0.000000
     16         -2.484775   0.000000
     17         -0.111358   0.000000
     18          0.174356   0.000000
     19          0.295787   0.000000
     20          0.706329   0.000000
     21          0.992869   0.000000
     22          1.562195   0.000000
     23          1.855676   0.000000
     24          2.302867   0.000000
     25          2.359670   0.000000
     26          2.712555   0.000000
     27          2.724279   0.000000
     28          3.012314   0.000000
     29          3.290294   0.000000
     30          3.464945   0.000000
     31          3.581675   0.000000
     32          3.840116   0.000000
     33          3.888223   0.000000
     34          3.993561   0.000000
     35          4.109538   0.000000
     36          4.239225   0.000000
     37          4.305107   0.000000
     38          4.403997   0.000000
     39          4.512943   0.000000
     40          4.558680   0.000000
     41          4.652057   0.000000
     42          4.713401   0.000000
 
  0.7500000E-01  0.8333333E-01  0.1276756E-14  0.1111111E-01
      1         -9.384797   1.000000
      2         -9.384667   1.000000
      3         -8.748055   1.000000
      4         -8.748020   1.000000
      5         -3.626235   0.569572
      6         -3.625914   0.567788
      7         -3.571381   0.274098
      8         -3.560926   0.227135
      9         -3.529229   0.115733
     10         -3.529001   0.115107
     11         -2.970818   0.000000
     12         -2.969377   0.000000
     13         -2.587075   0.000000
     14         -2.586700   0.000000
     15         -2.476059   0.000000
     16         -2.476008   0.000000
     17         -0.083888   0.000000
     18          0.200723   0.000000
     19          0.316692   0.000000
     20          0.727972   0.000000
     21          1.020733   0.000000
     22          1.579484   0.000000
     23          1.884068   0.000000
     24          2.319616   0.000000
     25          2.378775   0.000000
     26          2.739017   0.000000
     27          2.747483   0.000000
     28          3.019281   0.000000
     29          3.296621   0.000000
     30          3.431743   0.000000
     31          3.598069   0.000000
     32          3.611956   0.000000
     33          3.802129   0.000000
     34          3.883628   0.000000
     35          4.079929   0.000000
     36          4.124677   0.000000
     37          4.270658   0.000000
     38          4.353761   0.000000
     39          4.462317   0.000000
     40          4.527664   0.000000
     41          4.604520   0.000000
     42          4.713843   0.000000
 
  0.1250000E+00  0.8333333E-01  0.1276756E-14  0.1111111E-01
      1         -9.369203   1.000000
      2         -9.369076   1.000000
      3         -8.763725   1.000000
      4         -8.763688   1.000000
      5         -3.639928   0.643913
      6         -3.639598   0.642173
      7         -3.554893   0.202241
      8         -3.544769   0.164331
      9         -3.502989   0.058479
     10         -3.502753   0.058090
     11         -2.983288   0.000000
     12         -2.981762   0.000000
     13         -2.644969   0.000000
     14         -2.644422   0.000000
     15         -2.477615   0.000000
     16         -2.477524   0.000000
     17         -0.029969   0.000000
     18          0.252497   0.000000
     19          0.358424   0.000000
     20          0.771217   0.000000
     21          1.075565   0.000000
     22          1.613807   0.000000
     23          1.939549   0.000000
     24          2.344763   0.000000
     25          2.411282   0.000000
     26          2.789927   0.000000
     27          2.793009   0.000000
     28          3.005723   0.000000
     29          3.261661   0.000000
     30          3.287487   0.000000
     31          3.463223   0.000000
     32          3.505858   0.000000
     33          3.678991   0.000000
     34          3.809119   0.000000
     35          3.996846   0.000000
     36          4.078173   0.000000
     37          4.160857   0.000000
     38          4.286220   0.000000
     39          4.292137   0.000000
     40          4.412211   0.000000
     41          4.590190   0.000000
     42          4.768688   0.000000
 
  0.1750000E+00  0.8333333E-01  0.1276756E-14  0.1111111E-01
      1         -9.346238   1.000000
      2         -9.346116   1.000000
      3         -8.786828   1.000000
      4         -8.786789   1.000000
      5         -3.650228   0.696582
      6         -3.649878   0.694851
      7         -3.530731   0.119929
      8         -3.521087   0.094806
      9         -3.473874   0.023885
     10         -3.473633   0.023693
     11         -3.001936   0.000000
     12         -3.000276   0.000000
     13         -2.711889   0.000000
     14         -2.711165   0.000000
     15         -2.492842   0.000000
     16         -2.492696   0.000000
     17          0.048730   0.000000
     18          0.328138   0.000000
     19          0.420840   0.000000
     20          0.836012   0.000000
     21          1.155721   0.000000
     22          1.664741   0.000000
     23          2.019831   0.000000
     24          2.353502   0.000000
     25          2.441759   0.000000
     26          2.836984   0.000000
     27          2.859010   0.000000
     28          2.873598   0.000000
     29          3.138354   0.000000
     30          3.148396   0.000000
     31          3.326665   0.000000
     32          3.394773   0.000000
     33          3.667329   0.000000
     34          3.735702   0.000000
     35          3.866353   0.000000
     36          3.994715   0.000000
     37          4.077140   0.000000
     38          4.158438   0.000000
     39          4.313345   0.000000
     40          4.428122   0.000000
     41          4.466261   0.000000
     42          4.726694   0.000000
 
  0.2250000E+00  0.8333333E-01  0.1276756E-14  0.1111111E-01
      1         -9.316410   1.000000
      2         -9.316294   1.000000
      3         -8.816869   1.000000
      4         -8.816827   1.000000
      5         -3.654499   0.717354
      6         -3.654120   0.715537
      7         -3.499570   0.053045
      8         -3.490535   0.040597
      9         -3.445764   0.008728
     10         -3.445516   0.008645
     11         -3.026642   0.000000
     12         -3.024780   0.000000
     13         -2.780079   0.000000
     14         -2.779220   0.000000
     15         -2.521279   0.000000
     16         -2.521076   0.000000
     17          0.150392   0.000000
     18          0.426014   0.000000
     19          0.503743   0.000000
     20          0.922322   0.000000
     21          1.259040   0.000000
     22          1.731849   0.000000
     23          2.122044   0.000000
     24          2.289816   0.000000
     25          2.432607   0.000000
     26          2.606062   0.000000
     27          2.910737   0.000000
     28          2.934142   0.000000
     29          2.943704   0.000000
     30          3.083401   0.000000
     31          3.236957   0.000000
     32          3.367815   0.000000
     33          3.446905   0.000000
     34          3.800606   0.000000
     35          3.848763   0.000000
     36          3.854437   0.000000
     37          4.043039   0.000000
     38          4.141725   0.000000
     39          4.334482   0.000000
     40          4.407696   0.000000
     41          4.422484   0.000000
     42          4.768239   0.000000
 
  0.2750000E+00  0.8333333E-01  0.1276756E-14  0.1111111E-01
      1         -9.280393   1.000000
      2         -9.280282   1.000000
      3         -8.853169   1.000000
      4         -8.853123   1.000000
      5         -3.650853   0.699665
      6         -3.650439   0.697627
      7         -3.462291   0.016048
      8         -3.453973   0.011884
      9         -3.424027   0.003633
     10         -3.423756   0.003592
     11         -3.057167   0.000000
     12         -3.055018   0.000000
     13         -2.840093   0.000000
     14         -2.839166   0.000000
     15         -2.561452   0.000000
     16         -2.561192   0.000000
     17          0.273396   0.000000
     18          0.544737   0.000000
     19          0.606914   0.000000
     20          1.030162   0.000000
     21          1.383033   0.000000
     22          1.814911   0.000000
     23          2.112989   0.000000
     24          2.244100   0.000000
     25          2.321084   0.000000
     26          2.368389   0.000000
     27          2.749744   0.000000
     28          2.903802   0.000000
     29          3.034942   0.000000
     30          3.040479   0.000000
     31          3.180572   0.000000
     32          3.300405   0.000000
     33          3.403430   0.000000
     34          3.678141   0.000000
     35          3.894567   0.000000
     36          3.905793   0.000000
     37          3.977390   0.000000
     38          4.228871   0.000000
     39          4.317066   0.000000
     40          4.365169   0.000000
     41          4.451853   0.000000
     42          4.715147   0.000000
 
  0.3250000E+00  0.8333333E-01  0.1276756E-14  0.1111111E-01
      1         -9.239017   1.000000
      2         -9.238914   1.000000
      3         -8.894868   1.000000
      4         -8.894817   1.000000
      5         -3.637953   0.633452
      6         -3.637498   0.631027
      7         -3.420019   0.003062
      8         -3.415881   0.002559
      9         -3.415675   0.002536
     10         -3.412373   0.002192
     11         -3.093103   0.000000
     12         -3.090575   0.000000
     13         -2.880980   0.000000
     14         -2.880071   0.000000
     15         -2.611201   0.000000
     16         -2.610887   0.000000
     17          0.416433   0.000000
     18          0.683258   0.000000
     19          0.730133   0.000000
     20          1.159602   0.000000
     21          1.524901   0.000000
     22          1.878540   0.000000
     23          1.914208   0.000000
     24          2.114819   0.000000
     25          2.121960   0.000000
     26          2.383348   0.000000
     27          2.634179   0.000000
     28          2.659796   0.000000
     29          3.084144   0.000000
     30          3.119977   0.000000
     31          3.185584   0.000000
     32          3.250037   0.000000
     33          3.459755   0.000000
     34          3.587276   0.000000
     35          3.924964   0.000000
     36          3.968483   0.000000
     37          4.034561   0.000000
     38          4.183269   0.000000
     39          4.342201   0.000000
     40          4.383558   0.000000
     41          4.511955   0.000000
     42          4.737650   0.000000
 
  0.3750000E+00  0.8333333E-01  0.1276756E-14  0.1111111E-01
      1         -9.193265   1.000000
      2         -9.193170   1.000000
      3         -8.940937   1.000000
      4         -8.940880   1.000000
      5         -3.615193   0.507629
      6         -3.614701   0.504854
      7         -3.427496   0.004203
      8         -3.427094   0.004133
      9         -3.373811   0.000344
     10         -3.367114   0.000242
     11         -3.133841   0.000000
     12         -3.130831   0.000000
     13         -2.893848   0.000000
     14         -2.893033   0.000000
     15         -2.667730   0.000000
     16         -2.667366   0.000000
     17          0.578444   0.000000
     18          0.840787   0.000000
     19          0.873213   0.000000
     20          1.310756   0.000000
     21          1.633807   0.000000
     22          1.681280   0.000000
     23          1.875931   0.000000
     24          1.879003   0.000000
     25          2.031133   0.000000
     26          2.389601   0.000000
     27          2.503950   0.000000
     28          2.536432   0.000000
     29          2.938867   0.000000
     30          3.153061   0.000000
     31          3.279555   0.000000
     32          3.330216   0.000000
     33          3.510802   0.000000
     34          3.584264   0.000000
     35          3.904977   0.000000
     36          4.052441   0.000000
     37          4.119794   0.000000
     38          4.167173   0.000000
     39          4.331095   0.000000
     40          4.510052   0.000000
     41          4.518255   0.000000
     42          4.725242   0.000000
 
  0.4250000E+00  0.8333333E-01  0.1276756E-14  0.1111111E-01
      1         -9.144251   1.000000
      2         -9.144163   1.000000
      3         -8.990205   1.000000
      4         -8.990142   1.000000
      5         -3.582980   0.331263
      6         -3.582462   0.328611
      7         -3.457828   0.013680
      8         -3.457353   0.013447
      9         -3.325194   0.000022
     10         -3.319337   0.000016
     11         -3.178548   0.000000
     12         -3.174952   0.000000
     13         -2.877584   0.000000
     14         -2.876888   0.000000
     15         -2.727579   0.000000
     16         -2.727156   0.000000
     17          0.758469   0.000000
     18          1.016636   0.000000
     19          1.036008   0.000000
     20          1.395235   0.000000
     21          1.483733   0.000000
     22          1.640015   0.000000
     23          1.644123   0.000000
     24          1.847810   0.000000
     25          2.132810   0.000000
     26          2.167719   0.000000
     27          2.352485   0.000000
     28          2.700471   0.000000
     29          2.719971   0.000000
     30          3.147784   0.000000
     31          3.398319   0.000000
     32          3.400567   0.000000
     33          3.532186   0.000000
     34          3.604449   0.000000
     35          3.929895   0.000000
     36          4.134765   0.000000
     37          4.197160   0.000000
     38          4.223836   0.000000
     39          4.292376   0.000000
     40          4.437752   0.000000
     41          4.613383   0.000000
     42          4.680353   0.000000
 
  0.4750000E+00  0.8333333E-01  0.1276756E-14  0.1111111E-01
      1         -9.093197   1.000000
      2         -9.093117   1.000000
      3         -9.041402   1.000000
      4         -9.041331   1.000000
      5         -3.543098   0.158548
      6         -3.542569   0.156744
      7         -3.499274   0.052593
      8         -3.498752   0.051806
      9         -3.275510   0.000001
     10         -3.270470   0.000001
     11         -3.226179   0.000000
     12         -3.221901   0.000000
     13         -2.838880   0.000000
     14         -2.838296   0.000000
     15         -2.786461   0.000000
     16         -2.785969   0.000000
     17          0.955490   0.000000
     18          1.168283   0.000000
     19          1.210023   0.000000
     20          1.218378   0.000000
     21          1.419818   0.000000
     22          1.420015   0.000000
     23          1.678598   0.000000
     24          1.895160   0.000000
     25          2.018888   0.000000
     26          2.188725   0.000000
     27          2.327553   0.000000
     28          2.512502   0.000000
     29          2.870255   0.000000
     30          3.032059   0.000000
     31          3.472472   0.000000
     32          3.510707   0.000000
     33          3.523226   0.000000
     34          3.585703   0.000000
     35          4.017885   0.000000
     36          4.126421   0.000000
     37          4.214180   0.000000
     38          4.304014   0.000000
     39          4.356881   0.000000
     40          4.380932   0.000000
     41          4.481432   0.000000
     42          4.519676   0.000000
 
  0.2500000E-01  0.1388889E+00  0.1276756E-14  0.1111111E-01
      1         -9.379214   1.000000
      2         -9.379086   1.000000
      3         -8.756440   1.000000
      4         -8.756402   1.000000
      5         -3.598690   0.415175
      6         -3.598331   0.413193
      7         -3.563959   0.240274
      8         -3.553713   0.197571
      9         -3.523727   0.101261
     10         -3.523515   0.100732
     11         -2.979726   0.000000
     12         -2.978110   0.000000
     13         -2.603217   0.000000
     14         -2.602726   0.000000
     15         -2.509436   0.000000
     16         -2.509382   0.000000
     17         -0.053795   0.000000
     18          0.229628   0.000000
     19          0.339737   0.000000
     20          0.751837   0.000000
     21          1.051499   0.000000
     22          1.597758   0.000000
     23          1.914701   0.000000
     24          2.269886   0.000000
     25          2.366545   0.000000
     26          2.686585   0.000000
     27          2.761098   0.000000
     28          2.812024   0.000000
     29          3.032744   0.000000
     30          3.186646   0.000000
     31          3.531046   0.000000
     32          3.578687   0.000000
     33          3.806649   0.000000
     34          3.905664   0.000000
     35          4.144715   0.000000
     36          4.240980   0.000000
     37          4.282907   0.000000
     38          4.458442   0.000000
     39          4.554820   0.000000
     40          4.668653   0.000000
     41          4.792722   0.000000
     42          4.853033   0.000000
 
  0.7500000E-01  0.1388889E+00  0.1276756E-14  0.1111111E-01
      1         -9.371546   1.000000
      2         -9.371420   1.000000
      3         -8.763780   1.000000
      4         -8.763741   1.000000
      5         -3.630838   0.594986
      6         -3.630488   0.593063
      7         -3.555850   0.206077
      8         -3.545767   0.167847
      9         -3.487403   0.036880
     10         -3.487178   0.036624
     11         -2.985437   0.000000
     12         -2.983796   0.000000
     13         -2.657926   0.000000
     14         -2.657354   0.000000
     15         -2.480525   0.000000
     16         -2.480476   0.000000
     17         -0.027409   0.000000
     18          0.255023   0.000000
     19          0.360534   0.000000
     20          0.773350   0.000000
     21          1.078336   0.000000
     22          1.614613   0.000000
     23          1.941644   0.000000
     24          2.290007   0.000000
     25          2.386989   0.000000
     26          2.699364   0.000000
     27          2.782964   0.000000
     28          2.832863   0.000000
     29          3.040474   0.000000
     30          3.181409   0.000000
     31          3.506080   0.000000
     32          3.564579   0.000000
     33          3.691950   0.000000
     34          3.767395   0.000000
     35          4.015193   0.000000
     36          4.183303   0.000000
     37          4.236558   0.000000
     38          4.290074   0.000000
     39          4.554827   0.000000
     40          4.619065   0.000000
     41          4.681206   0.000000
     42          4.837252   0.000000
 
  0.1250000E+00  0.1388889E+00  0.1276756E-14  0.1111111E-01
      1         -9.356383   1.000000
      2         -9.356260   1.000000
      3         -8.778334   1.000000
      4         -8.778295   1.000000
      5         -3.664096   0.761371
      6         -3.663728   0.759756
      7         -3.539863   0.147735
      8         -3.530101   0.118156
      9         -3.446527   0.008987
     10         -3.446304   0.008910
     11         -2.996875   0.000000
     12         -2.995174   0.000000
     13         -2.726927   0.000000
     14         -2.726223   0.000000
     15         -2.459945   0.000000
     16         -2.459902   0.000000
     17          0.024646   0.000000
     18          0.305133   0.000000
     19          0.402050   0.000000
     20          0.816361   0.000000
     21          1.131274   0.000000
     22          1.648104   0.000000
     23          1.994462   0.000000
     24          2.324451   0.000000
     25          2.423040   0.000000
     26          2.715375   0.000000
     27          2.825030   0.000000
     28          2.870612   0.000000
     29          3.049762   0.000000
     30          3.135763   0.000000
     31          3.355367   0.000000
     32          3.439395   0.000000
     33          3.591234   0.000000
     34          3.730293   0.000000
     35          3.922708   0.000000
     36          3.976989   0.000000
     37          4.175766   0.000000
     38          4.229212   0.000000
     39          4.299917   0.000000
     40          4.492690   0.000000
     41          4.631441   0.000000
     42          4.875479   0.000000
 
  0.1750000E+00  0.1388889E+00  0.1276756E-14  0.1111111E-01
      1         -9.334070   1.000000
      2         -9.333951   1.000000
      3         -8.799845   1.000000
      4         -8.799805   1.000000
      5         -3.691521   0.864024
      6         -3.691125   0.862795
      7         -3.516454   0.084218
      8         -3.507160   0.065689
      9         -3.410293   0.001997
     10         -3.410064   0.001977
     11         -3.014033   0.000000
     12         -3.012226   0.000000
     13         -2.796647   0.000000
     14         -2.795830   0.000000
     15         -2.454514   0.000000
     16         -2.454441   0.000000
     17          0.101144   0.000000
     18          0.378818   0.000000
     19          0.464139   0.000000
     20          0.880858   0.000000
     21          1.208942   0.000000
     22          1.697874   0.000000
     23          2.071253   0.000000
     24          2.353810   0.000000
     25          2.461026   0.000000
     26          2.700173   0.000000
     27          2.881602   0.000000
     28          2.882077   0.000000
     29          3.031205   0.000000
     30          3.039259   0.000000
     31          3.211289   0.000000
     32          3.241054   0.000000
     33          3.544800   0.000000
     34          3.733093   0.000000
     35          3.760539   0.000000
     36          3.972967   0.000000
     37          3.990070   0.000000
     38          4.048267   0.000000
     39          4.308919   0.000000
     40          4.331669   0.000000
     41          4.681503   0.000000
     42          4.755335   0.000000
 
  0.2250000E+00  0.1388889E+00  0.1276756E-14  0.1111111E-01
      1         -9.305121   1.000000
      2         -9.305008   1.000000
      3         -8.827905   1.000000
      4         -8.827862   1.000000
      5         -3.710275   0.913683
      6         -3.709849   0.912730
      7         -3.486305   0.035645
      8         -3.477601   0.027008
      9         -3.386615   0.000656
     10         -3.386358   0.000648
     11         -3.036859   0.000000
     12         -3.034887   0.000000
     13         -2.855382   0.000000
     14         -2.854514   0.000000
     15         -2.464983   0.000000
     16         -2.464859   0.000000
     17          0.200661   0.000000
     18          0.474794   0.000000
     19          0.546599   0.000000
     20          0.966854   0.000000
     21          1.309474   0.000000
     22          1.763582   0.000000
     23          2.169348   0.000000
     24          2.318697   0.000000
     25          2.463703   0.000000
     26          2.577451   0.000000
     27          2.823084   0.000000
     28          2.881964   0.000000
     29          2.965749   0.000000
     30          3.081730   0.000000
     31          3.104278   0.000000
     32          3.166312   0.000000
     33          3.389092   0.000000
     34          3.651965   0.000000
     35          3.786049   0.000000
     36          3.862253   0.000000
     37          3.911368   0.000000
     38          4.030493   0.000000
     39          4.228535   0.000000
     40          4.308868   0.000000
     41          4.668697   0.000000
     42          4.702163   0.000000
 
  0.2750000E+00  0.1388889E+00  0.1276756E-14  0.1111111E-01
      1         -9.270215   1.000000
      2         -9.270108   1.000000
      3         -8.861938   1.000000
      4         -8.861890   1.000000
      5         -3.718364   0.930322
      6         -3.717906   0.929451
      7         -3.450300   0.010367
      8         -3.442289   0.007631
      9         -3.385046   0.000607
     10         -3.384717   0.000597
     11         -3.065195   0.000000
     12         -3.062979   0.000000
     13         -2.889965   0.000000
     14         -2.889125   0.000000
     15         -2.490462   0.000000
     16         -2.490283   0.000000
     17          0.321810   0.000000
     18          0.591870   0.000000
     19          0.649203   0.000000
     20          1.074400   0.000000
     21          1.430601   0.000000
     22          1.845120   0.000000
     23          2.150940   0.000000
     24          2.287363   0.000000
     25          2.359329   0.000000
     26          2.383964   0.000000
     27          2.754271   0.000000
     28          2.831889   0.000000
     29          2.967753   0.000000
     30          3.018769   0.000000
     31          3.178710   0.000000
     32          3.181929   0.000000
     33          3.241813   0.000000
     34          3.623527   0.000000
     35          3.686542   0.000000
     36          3.842282   0.000000
     37          3.946144   0.000000
     38          4.048108   0.000000
     39          4.243635   0.000000
     40          4.287299   0.000000
     41          4.462060   0.000000
     42          4.701511   0.000000
 
  0.3250000E+00  0.1388889E+00  0.1276756E-14  0.1111111E-01
      1         -9.230190   1.000000
      2         -9.230089   1.000000
      3         -8.901190   1.000000
      4         -8.901137   1.000000
      5         -3.714359   0.922422
      6         -3.713867   0.921406
      7         -3.411181   0.002078
      8         -3.410516   0.002017
      9         -3.409215   0.001903
     10         -3.402200   0.001381
     11         -3.098720   0.000000
     12         -3.096170   0.000000
     13         -2.891884   0.000000
     14         -2.891139   0.000000
     15         -2.529130   0.000000
     16         -2.528886   0.000000
     17          0.463355   0.000000
     18          0.729047   0.000000
     19          0.771723   0.000000
     20          1.203589   0.000000
     21          1.569590   0.000000
     22          1.918386   0.000000
     23          1.942865   0.000000
     24          2.148807   0.000000
     25          2.154120   0.000000
     26          2.426015   0.000000
     27          2.651280   0.000000
     28          2.698995   0.000000
     29          2.932568   0.000000
     30          3.046183   0.000000
     31          3.217934   0.000000
     32          3.239487   0.000000
     33          3.296901   0.000000
     34          3.466175   0.000000
     35          3.726443   0.000000
     36          3.878911   0.000000
     37          4.019263   0.000000
     38          4.079020   0.000000
     39          4.226722   0.000000
     40          4.275707   0.000000
     41          4.314602   0.000000
     42          4.679772   0.000000
 
  0.3750000E+00  0.1388889E+00  0.1276756E-14  0.1111111E-01
      1         -9.186029   1.000000
      2         -9.185937   1.000000
      3         -8.944737   1.000000
      4         -8.944680   1.000000
      5         -3.697472   0.881541
      6         -3.696942   0.880048
      7         -3.458503   0.014017
      8         -3.457983   0.013757
      9         -3.365129   0.000218
     10         -3.358684   0.000154
     11         -3.136918   0.000000
     12         -3.133937   0.000000
     13         -2.864256   0.000000
     14         -2.863622   0.000000
     15         -2.578505   0.000000
     16         -2.578202   0.000000
     17          0.624199   0.000000
     18          0.885488   0.000000
     19          0.913962   0.000000
     20          1.354540   0.000000
     21          1.674862   0.000000
     22          1.722929   0.000000
     23          1.908452   0.000000
     24          1.918818   0.000000
     25          2.058968   0.000000
     26          2.431399   0.000000
     27          2.525218   0.000000
     28          2.576643   0.000000
     29          2.940655   0.000000
     30          3.045946   0.000000
     31          3.274403   0.000000
     32          3.277073   0.000000
     33          3.382843   0.000000
     34          3.466470   0.000000
     35          3.735937   0.000000
     36          3.952619   0.000000
     37          4.089274   0.000000
     38          4.101826   0.000000
     39          4.130905   0.000000
     40          4.187660   0.000000
     41          4.377483   0.000000
     42          4.534790   0.000000
 
  0.4250000E+00  0.1388889E+00  0.1276756E-14  0.1111111E-01
      1         -9.138843   1.000000
      2         -9.138758   1.000000
      3         -8.991503   1.000000
      4         -8.991441   1.000000
      5         -3.667669   0.776745
      6         -3.667109   0.774376
      7         -3.516193   0.083648
      8         -3.515620   0.082410
      9         -3.318536   0.000015
     10         -3.312892   0.000010
     11         -3.179053   0.000000
     12         -3.175534   0.000000
     13         -2.817007   0.000000
     14         -2.816465   0.000000
     15         -2.635624   0.000000
     16         -2.635266   0.000000
     17          0.803282   0.000000
     18          1.060413   0.000000
     19          1.075760   0.000000
     20          1.437400   0.000000
     21          1.527346   0.000000
     22          1.675359   0.000000
     23          1.685152   0.000000
     24          1.885938   0.000000
     25          2.175695   0.000000
     26          2.194653   0.000000
     27          2.377256   0.000000
     28          2.737978   0.000000
     29          2.741964   0.000000
     30          3.140365   0.000000
     31          3.269198   0.000000
     32          3.376013   0.000000
     33          3.439196   0.000000
     34          3.528046   0.000000
     35          3.751993   0.000000
     36          4.017461   0.000000
     37          4.034147   0.000000
     38          4.093700   0.000000
     39          4.101487   0.000000
     40          4.307308   0.000000
     41          4.338308   0.000000
     42          4.390494   0.000000
 
  0.4750000E+00  0.1388889E+00  0.1276756E-14  0.1111111E-01
      1         -9.089841   1.000000
      2         -9.089763   1.000000
      3         -9.040295   1.000000
      4         -9.040225   1.000000
      5         -3.625846   0.567413
      6         -3.625267   0.564191
      7         -3.574094   0.287025
      8         -3.573508   0.284210
      9         -3.271085   0.000001
     10         -3.266218   0.000000
     11         -3.224161   0.000000
     12         -3.220008   0.000000
     13         -2.759159   0.000000
     14         -2.758689   0.000000
     15         -2.697125   0.000000
     16         -2.696713   0.000000
     17          0.999468   0.000000
     18          1.211409   0.000000
     19          1.252940   0.000000
     20          1.256959   0.000000
     21          1.457163   0.000000
     22          1.461853   0.000000
     23          1.722083   0.000000
     24          1.938433   0.000000
     25          2.052733   0.000000
     26          2.217778   0.000000
     27          2.354385   0.000000
     28          2.538661   0.000000
     29          2.905201   0.000000
     30          3.062518   0.000000
     31          3.344487   0.000000
     32          3.429414   0.000000
     33          3.479582   0.000000
     34          3.542460   0.000000
     35          3.807748   0.000000
     36          3.904939   0.000000
     37          4.081669   0.000000
     38          4.138794   0.000000
     39          4.159381   0.000000
     40          4.247305   0.000000
     41          4.248442   0.000000
     42          4.348762   0.000000
 
  0.2500000E-01  0.1944444E+00  0.1276756E-14  0.1111111E-01
      1         -9.359893   1.000000
      2         -9.359772   1.000000
      3         -8.779582   1.000000
      4         -8.779538   1.000000
      5         -3.573886   0.286025
      6         -3.573493   0.284136
      7         -3.541214   0.152190
      8         -3.531514   0.122156
      9         -3.490716   0.040821
     10         -3.490501   0.040555
     11         -3.001637   0.000000
     12         -2.999704   0.000000
     13         -2.677342   0.000000
     14         -2.676616   0.000000
     15         -2.547493   0.000000
     16         -2.547416   0.000000
     17          0.029931   0.000000
     18          0.310094   0.000000
     19          0.405448   0.000000
     20          0.820004   0.000000
     21          1.137043   0.000000
     22          1.650240   0.000000
     23          1.997173   0.000000
     24          2.150895   0.000000
     25          2.317608   0.000000
     26          2.452955   0.000000
     27          2.746680   0.000000
     28          2.863566   0.000000
     29          2.900250   0.000000
     30          2.976296   0.000000
     31          3.251238   0.000000
     32          3.454546   0.000000
     33          3.722140   0.000000
     34          3.969007   0.000000
     35          3.999916   0.000000
     36          4.229988   0.000000
     37          4.275495   0.000000
     38          4.384801   0.000000
     39          4.552600   0.000000
     40          4.836513   0.000000
     41          4.909335   0.000000
     42          4.970774   0.000000
 
  0.7500000E-01  0.1944444E+00  0.1276756E-14  0.1111111E-01
      1         -9.352538   1.000000
      2         -9.352418   1.000000
      3         -8.786127   1.000000
      4         -8.786083   1.000000
      5         -3.625276   0.564237
      6         -3.624890   0.562091
      7         -3.533473   0.127859
      8         -3.523928   0.101766
      9         -3.438801   0.006654
     10         -3.438576   0.006595
     11         -3.006608   0.000000
     12         -3.004663   0.000000
     13         -2.739593   0.000000
     14         -2.738845   0.000000
     15         -2.503240   0.000000
     16         -2.503160   0.000000
     17          0.055098   0.000000
     18          0.334400   0.000000
     19          0.426082   0.000000
     20          0.841358   0.000000
     21          1.162580   0.000000
     22          1.666494   0.000000
     23          2.021949   0.000000
     24          2.173256   0.000000
     25          2.339245   0.000000
     26          2.465555   0.000000
     27          2.760649   0.000000
     28          2.883634   0.000000
     29          2.917128   0.000000
     30          2.988924   0.000000
     31          3.239993   0.000000
     32          3.427588   0.000000
     33          3.719281   0.000000
     34          3.739728   0.000000
     35          3.941407   0.000000
     36          4.128644   0.000000
     37          4.228697   0.000000
     38          4.303788   0.000000
     39          4.476177   0.000000
     40          4.665164   0.000000
     41          4.734034   0.000000
     42          5.009658   0.000000
 
  0.1250000E+00  0.1944444E+00  0.1276756E-14  0.1111111E-01
      1         -9.338006   1.000000
      2         -9.337888   1.000000
      3         -8.799135   1.000000
      4         -8.799091   1.000000
      5         -3.676453   0.812051
      6         -3.676045   0.810490
      7         -3.518225   0.088154
      8         -3.508988   0.069060
      9         -3.389503   0.000755
     10         -3.389283   0.000747
     11         -3.016589   0.000000
     12         -3.014613   0.000000
     13         -2.811480   0.000000
     14         -2.810659   0.000000
     15         -2.462636   0.000000
     16         -2.462589   0.000000
     17          0.104998   0.000000
     18          0.382593   0.000000
     19          0.467270   0.000000
     20          0.884080   0.000000
     21          1.213088   0.000000
     22          1.698829   0.000000
     23          2.070677   0.000000
     24          2.215272   0.000000
     25          2.379529   0.000000
     26          2.487336   0.000000
     27          2.783341   0.000000
     28          2.904983   0.000000
     29          2.951047   0.000000
     30          3.010536   0.000000
     31          3.195972   0.000000
     32          3.336090   0.000000
     33          3.471879   0.000000
     34          3.769475   0.000000
     35          3.833254   0.000000
     36          3.957859   0.000000
     37          4.074911   0.000000
     38          4.298072   0.000000
     39          4.303276   0.000000
     40          4.510932   0.000000
     41          4.525983   0.000000
     42          4.946782   0.000000
 
  0.1750000E+00  0.1944444E+00  0.1276756E-14  0.1111111E-01
      1         -9.316645   1.000000
      2         -9.316531   1.000000
      3         -8.818432   1.000000
      4         -8.818388   1.000000
      5         -3.720404   0.934100
      6         -3.719962   0.933295
      7         -3.495931   0.047708
      8         -3.487140   0.036581
      9         -3.357302   0.000143
     10         -3.357053   0.000141
     11         -3.031643   0.000000
     12         -3.029604   0.000000
     13         -2.871428   0.000000
     14         -2.870572   0.000000
     15         -2.436404   0.000000
     16         -2.436368   0.000000
     17          0.178850   0.000000
     18          0.453933   0.000000
     19          0.528860   0.000000
     20          0.948202   0.000000
     21          1.287478   0.000000
     22          1.746983   0.000000
     23          2.141800   0.000000
     24          2.267881   0.000000
     25          2.429706   0.000000
     26          2.507581   0.000000
     27          2.802802   0.000000
     28          2.840784   0.000000
     29          2.998369   0.000000
     30          3.057497   0.000000
     31          3.101663   0.000000
     32          3.164735   0.000000
     33          3.332323   0.000000
     34          3.716076   0.000000
     35          3.774913   0.000000
     36          3.794438   0.000000
     37          4.010229   0.000000
     38          4.049436   0.000000
     39          4.290114   0.000000
     40          4.293888   0.000000
     41          4.573209   0.000000
     42          4.780360   0.000000
 
  0.2250000E+00  0.1944444E+00  0.1276756E-14  0.1111111E-01
      1         -9.288979   1.000000
      2         -9.288870   1.000000
      3         -8.843725   1.000000
      4         -8.843679   1.000000
      5         -3.754087   0.976338
      6         -3.753610   0.975959
      7         -3.467271   0.019095
      8         -3.459045   0.014294
      9         -3.356571   0.000137
     10         -3.356233   0.000135
     11         -3.051801   0.000000
     12         -3.049650   0.000000
     13         -2.901107   0.000000
     14         -2.900304   0.000000
     15         -2.426972   0.000000
     16         -2.426914   0.000000
     17          0.275656   0.000000
     18          0.547514   0.000000
     19          0.610644   0.000000
     20          1.033789   0.000000
     21          1.384191   0.000000
     22          1.810746   0.000000
     23          2.231268   0.000000
     24          2.295404   0.000000
     25          2.461711   0.000000
     26          2.497231   0.000000
     27          2.685509   0.000000
     28          2.797449   0.000000
     29          2.947822   0.000000
     30          2.980922   0.000000
     31          3.098127   0.000000
     32          3.141210   0.000000
     33          3.302235   0.000000
     34          3.481086   0.000000
     35          3.730040   0.000000
     36          3.783459   0.000000
     37          3.868818   0.000000
     38          4.054280   0.000000
     39          4.118143   0.000000
     40          4.259224   0.000000
     41          4.619958   0.000000
     42          4.669767   0.000000
 
  0.2750000E+00  0.1944444E+00  0.1276756E-14  0.1111111E-01
      1         -9.255695   1.000000
      2         -9.255591   1.000000
      3         -8.874574   1.000000
      4         -8.874525   1.000000
      5         -3.775294   0.988794
      6         -3.774785   0.988580
      7         -3.433145   0.005303
      8         -3.425578   0.003879
      9         -3.392998   0.000895
     10         -3.392534   0.000875
     11         -3.077017   0.000000
     12         -3.074686   0.000000
     13         -2.891572   0.000000
     14         -2.890893   0.000000
     15         -2.434513   0.000000
     16         -2.434410   0.000000
     17          0.394327   0.000000
     18          0.662391   0.000000
     19          0.712381   0.000000
     20          1.140937   0.000000
     21          1.501173   0.000000
     22          1.890184   0.000000
     23          2.183051   0.000000
     24          2.338314   0.000000
     25          2.395089   0.000000
     26          2.405430   0.000000
     27          2.634442   0.000000
     28          2.744827   0.000000
     29          2.871906   0.000000
     30          2.893891   0.000000
     31          3.141721   0.000000
     32          3.179638   0.000000
     33          3.244269   0.000000
     34          3.445877   0.000000
     35          3.594957   0.000000
     36          3.754186   0.000000
     37          3.828199   0.000000
     38          4.043535   0.000000
     39          4.121866   0.000000
     40          4.185427   0.000000
     41          4.518364   0.000000
     42          4.609353   0.000000
 
  0.3250000E+00  0.1944444E+00  0.1276756E-14  0.1111111E-01
      1         -9.217636   1.000000
      2         -9.217539   1.000000
      3         -8.910375   1.000000
      4         -8.910322   1.000000
      5         -3.782413   0.991437
      6         -3.781870   0.991256
      7         -3.455104   0.012388
      8         -3.454537   0.012133
      9         -3.394570   0.000964
     10         -3.387725   0.000692
     11         -3.107100   0.000000
     12         -3.104502   0.000000
     13         -2.851598   0.000000
     14         -2.851032   0.000000
     15         -2.457945   0.000000
     16         -2.457789   0.000000
     17          0.533755   0.000000
     18          0.797660   0.000000
     19          0.833829   0.000000
     20          1.269768   0.000000
     21          1.635686   0.000000
     22          1.969661   0.000000
     23          1.985812   0.000000
     24          2.185292   0.000000
     25          2.205858   0.000000
     26          2.484386   0.000000
     27          2.663667   0.000000
     28          2.716453   0.000000
     29          2.744328   0.000000
     30          2.898573   0.000000
     31          3.044578   0.000000
     32          3.262424   0.000000
     33          3.340590   0.000000
     34          3.406742   0.000000
     35          3.530726   0.000000
     36          3.765209   0.000000
     37          3.809871   0.000000
     38          4.062587   0.000000
     39          4.075834   0.000000
     40          4.173673   0.000000
     41          4.287265   0.000000
     42          4.479178   0.000000
 
  0.3750000E+00  0.1944444E+00  0.1276756E-14  0.1111111E-01
      1         -9.175787   1.000000
      2         -9.175697   1.000000
      3         -8.950347   1.000000
      4         -8.950291   1.000000
      5         -3.774453   0.988439
      6         -3.773882   0.988192
      7         -3.526931   0.109520
      8         -3.526309   0.107879
      9         -3.352825   0.000112
     10         -3.346731   0.000079
     11         -3.141659   0.000000
     12         -3.138701   0.000000
     13         -2.794900   0.000000
     14         -2.794419   0.000000
     15         -2.495357   0.000000
     16         -2.495145   0.000000
     17          0.692826   0.000000
     18          0.952455   0.000000
     19          0.974771   0.000000
     20          1.420402   0.000000
     21          1.732921   0.000000
     22          1.783916   0.000000
     23          1.955605   0.000000
     24          1.975183   0.000000
     25          2.101651   0.000000
     26          2.490815   0.000000
     27          2.546223   0.000000
     28          2.629945   0.000000
     29          2.844198   0.000000
     30          2.911754   0.000000
     31          3.095168   0.000000
     32          3.215003   0.000000
     33          3.392958   0.000000
     34          3.408496   0.000000
     35          3.586214   0.000000
     36          3.823898   0.000000
     37          3.830237   0.000000
     38          3.966593   0.000000
     39          4.035694   0.000000
     40          4.087763   0.000000
     41          4.229785   0.000000
     42          4.361352   0.000000
 
  0.4250000E+00  0.1944444E+00  0.1276756E-14  0.1111111E-01
      1         -9.131249   1.000000
      2         -9.131166   1.000000
      3         -8.993549   1.000000
      4         -8.993488   1.000000
      5         -3.751115   0.973892
      6         -3.750515   0.973374
      7         -3.597661   0.409507
      8         -3.597022   0.406002
      9         -3.309180   0.000008
     10         -3.303834   0.000006
     11         -3.180089   0.000000
     12         -3.176668   0.000000
     13         -2.730861   0.000000
     14         -2.730444   0.000000
     15         -2.544273   0.000000
     16         -2.544007   0.000000
     17          0.870367   0.000000
     18          1.125889   0.000000
     19          1.135027   0.000000
     20          1.498977   0.000000
     21          1.592910   0.000000
     22          1.727506   0.000000
     23          1.745219   0.000000
     24          1.940589   0.000000
     25          2.236320   0.000000
     26          2.239044   0.000000
     27          2.406563   0.000000
     28          2.773050   0.000000
     29          2.785759   0.000000
     30          2.988940   0.000000
     31          3.145861   0.000000
     32          3.258686   0.000000
     33          3.355847   0.000000
     34          3.475832   0.000000
     35          3.572295   0.000000
     36          3.843203   0.000000
     37          3.905508   0.000000
     38          3.935977   0.000000
     39          3.981639   0.000000
     40          4.016714   0.000000
     41          4.193787   0.000000
     42          4.250283   0.000000
 
  0.4750000E+00  0.1944444E+00  0.1276756E-14  0.1111111E-01
      1         -9.085208   1.000000
      2         -9.085132   1.000000
      3         -9.038896   1.000000
      4         -9.038829   1.000000
      5         -3.712840   0.919253
      6         -3.712217   0.917926
      7         -3.660911   0.747191
      8         -3.660273   0.744300
      9         -3.264983   0.000000
     10         -3.260350   0.000000
     11         -3.221549   0.000000
     12         -3.217563   0.000000
     13         -2.665191   0.000000
     14         -2.664829   0.000000
     15         -2.601893   0.000000
     16         -2.601579   0.000000
     17          1.065052   0.000000
     18          1.275272   0.000000
     19          1.314397   0.000000
     20          1.316923   0.000000
     21          1.512319   0.000000
     22          1.524135   0.000000
     23          1.787336   0.000000
     24          2.003087   0.000000
     25          2.099526   0.000000
     26          2.255657   0.000000
     27          2.396558   0.000000
     28          2.579715   0.000000
     29          2.946164   0.000000
     30          3.088654   0.000000
     31          3.138457   0.000000
     32          3.270112   0.000000
     33          3.372168   0.000000
     34          3.466369   0.000000
     35          3.586390   0.000000
     36          3.699225   0.000000
     37          3.943517   0.000000
     38          3.998255   0.000000
     39          4.019175   0.000000
     40          4.127940   0.000000
     41          4.131290   0.000000
     42          4.169511   0.000000
 
  0.2500000E-01  0.2500000E+00  0.1276756E-14  0.1111111E-01
      1         -9.335893   1.000000
      2         -9.335777   1.000000
      3         -8.807927   1.000000
      4         -8.807878   1.000000
      5         -3.539508   0.146578
      6         -3.539082   0.145200
      7         -3.512719   0.076348
      8         -3.503712   0.059682
      9         -3.450324   0.010376
     10         -3.450095   0.010287
     11         -3.029219   0.000000
     12         -3.026849   0.000000
     13         -2.764117   0.000000
     14         -2.763201   0.000000
     15         -2.595420   0.000000
     16         -2.595324   0.000000
     17          0.137710   0.000000
     18          0.413846   0.000000
     19          0.492687   0.000000
     20          0.910761   0.000000
     21          1.246987   0.000000
     22          1.718509   0.000000
     23          1.932643   0.000000
     24          2.098943   0.000000
     25          2.160632   0.000000
     26          2.218236   0.000000
     27          2.644090   0.000000
     28          2.727784   0.000000
     29          2.959885   0.000000
     30          2.989225   0.000000
     31          3.132341   0.000000
     32          3.254529   0.000000
     33          3.640485   0.000000
     34          3.959423   0.000000
     35          4.002285   0.000000
     36          4.145865   0.000000
     37          4.320624   0.000000
     38          4.367977   0.000000
     39          4.623381   0.000000
     40          4.878365   0.000000
     41          4.924673   0.000000
     42          5.019664   0.000000
 
  0.7500000E-01  0.2500000E+00  0.1276756E-14  0.1111111E-01
      1         -9.328938   1.000000
      2         -9.328823   1.000000
      3         -8.813531   1.000000
      4         -8.813481   1.000000
      5         -3.608515   0.469985
      6         -3.608089   0.467586
      7         -3.505456   0.062665
      8         -3.496596   0.048650
      9         -3.387333   0.000679
     10         -3.387098   0.000672
     11         -3.033285   0.000000
     12         -3.030924   0.000000
     13         -2.825725   0.000000
     14         -2.824843   0.000000
     15         -2.541009   0.000000
     16         -2.540887   0.000000
     17          0.161755   0.000000
     18          0.437152   0.000000
     19          0.513100   0.000000
     20          0.931957   0.000000
     21          1.271135   0.000000
     22          1.734047   0.000000
     23          1.953446   0.000000
     24          2.120414   0.000000
     25          2.181550   0.000000
     26          2.236540   0.000000
     27          2.657961   0.000000
     28          2.747604   0.000000
     29          2.979288   0.000000
     30          3.009745   0.000000
     31          3.121057   0.000000
     32          3.246885   0.000000
     33          3.628186   0.000000
     34          3.757195   0.000000
     35          3.955218   0.000000
     36          4.154883   0.000000
     37          4.178379   0.000000
     38          4.335641   0.000000
     39          4.414900   0.000000
     40          4.753541   0.000000
     41          4.755210   0.000000
     42          5.063088   0.000000
 
  0.1250000E+00  0.2500000E+00  0.1276756E-14  0.1111111E-01
      1         -9.315207   1.000000
      2         -9.315095   1.000000
      3         -8.824704   1.000000
      4         -8.824654   1.000000
      5         -3.676114   0.810756
      6         -3.675658   0.809004
      7         -3.491161   0.041376
      8         -3.482591   0.031716
      9         -3.339980   0.000054
     10         -3.339735   0.000053
     11         -3.041496   0.000000
     12         -3.039140   0.000000
     13         -2.887843   0.000000
     14         -2.886962   0.000000
     15         -2.483838   0.000000
     16         -2.483754   0.000000
     17          0.209613   0.000000
     18          0.483530   0.000000
     19          0.553844   0.000000
     20          0.974385   0.000000
     21          1.318986   0.000000
     22          1.765006   0.000000
     23          1.993862   0.000000
     24          2.161349   0.000000
     25          2.221915   0.000000
     26          2.273272   0.000000
     27          2.682267   0.000000
     28          2.783927   0.000000
     29          3.017746   0.000000
     30          3.023657   0.000000
     31          3.099554   0.000000
     32          3.209211   0.000000
     33          3.490683   0.000000
     34          3.593097   0.000000
     35          3.907667   0.000000
     36          3.991342   0.000000
     37          4.079854   0.000000
     38          4.267571   0.000000
     39          4.345970   0.000000
     40          4.422842   0.000000
     41          4.544264   0.000000
     42          4.960834   0.000000
 
  0.1750000E+00  0.2500000E+00  0.1276756E-14  0.1111111E-01
      1         -9.295058   1.000000
      2         -9.294950   1.000000
      3         -8.841362   1.000000
      4         -8.841313   1.000000
      5         -3.735714   0.957606
      6         -3.735226   0.956979
      7         -3.470305   0.021184
      8         -3.462153   0.015969
      9         -3.331565   0.000033
     10         -3.331229   0.000032
     11         -3.053980   0.000000
     12         -3.051612   0.000000
     13         -2.916725   0.000000
     14         -2.915926   0.000000
     15         -2.438573   0.000000
     16         -2.438529   0.000000
     17          0.280833   0.000000
     18          0.552540   0.000000
     19          0.614757   0.000000
     20          1.038114   0.000000
     21          1.389650   0.000000
     22          1.811232   0.000000
     23          2.050380   0.000000
     24          2.216944   0.000000
     25          2.277765   0.000000
     26          2.328721   0.000000
     27          2.709539   0.000000
     28          2.812464   0.000000
     29          2.926124   0.000000
     30          3.072825   0.000000
     31          3.098383   0.000000
     32          3.142153   0.000000
     33          3.263886   0.000000
     34          3.558542   0.000000
     35          3.765407   0.000000
     36          3.815981   0.000000
     37          4.063816   0.000000
     38          4.090409   0.000000
     39          4.255441   0.000000
     40          4.322509   0.000000
     41          4.383505   0.000000
     42          4.794760   0.000000
 
  0.2250000E+00  0.2500000E+00  0.1276756E-14  0.1111111E-01
      1         -9.269022   1.000000
      2         -9.268918   1.000000
      3         -8.863338   1.000000
      4         -8.863289   1.000000
      5         -3.784051   0.991961
      6         -3.783526   0.991796
      7         -3.443574   0.008022
      8         -3.435948   0.005939
      9         -3.372135   0.000315
     10         -3.371657   0.000307
     11         -3.070870   0.000000
     12         -3.068458   0.000000
     13         -2.898018   0.000000
     14         -2.897371   0.000000
     15         -2.409479   0.000000
     16         -2.409448   0.000000
     17          0.374774   0.000000
     18          0.643584   0.000000
     19          0.695617   0.000000
     20          1.123255   0.000000
     21          1.481765   0.000000
     22          1.872691   0.000000
     23          2.111077   0.000000
     24          2.278304   0.000000
     25          2.337820   0.000000
     26          2.402963   0.000000
     27          2.669225   0.000000
     28          2.727818   0.000000
     29          2.878461   0.000000
     30          2.913229   0.000000
     31          3.102136   0.000000
     32          3.147796   0.000000
     33          3.226894   0.000000
     34          3.515722   0.000000
     35          3.560166   0.000000
     36          3.719167   0.000000
     37          3.895928   0.000000
     38          4.098979   0.000000
     39          4.146186   0.000000
     40          4.177307   0.000000
     41          4.396036   0.000000
     42          4.609624   0.000000
 
  0.2750000E+00  0.2500000E+00  0.1276756E-14  0.1111111E-01
      1         -9.237795   1.000000
      2         -9.237697   1.000000
      3         -8.890351   1.000000
      4         -8.890299   1.000000
      5         -3.818685   0.998116
      6         -3.818125   0.998068
      7         -3.444474   0.008306
      8         -3.443877   0.008116
      9         -3.411810   0.002137
     10         -3.404803   0.001557
     11         -3.092244   0.000000
     12         -3.089733   0.000000
     13         -2.846026   0.000000
     14         -2.845510   0.000000
     15         -2.397971   0.000000
     16         -2.397924   0.000000
     17          0.490631   0.000000
     18          0.755956   0.000000
     19          0.796168   0.000000
     20          1.229943   0.000000
     21          1.593340   0.000000
     22          1.949692   0.000000
     23          2.125954   0.000000
     24          2.335901   0.000000
     25          2.359670   0.000000
     26          2.454082   0.000000
     27          2.500153   0.000000
     28          2.721993   0.000000
     29          2.743288   0.000000
     30          2.785607   0.000000
     31          3.094211   0.000000
     32          3.232219   0.000000
     33          3.250980   0.000000
     34          3.317195   0.000000
     35          3.554701   0.000000
     36          3.623105   0.000000
     37          3.831574   0.000000
     38          3.941555   0.000000
     39          4.050921   0.000000
     40          4.182115   0.000000
     41          4.331311   0.000000
     42          4.525839   0.000000
 
  0.3250000E+00  0.2500000E+00  0.1276756E-14  0.1111111E-01
      1         -9.202226   1.000000
      2         -9.202133   1.000000
      3         -8.921964   1.000000
      4         -8.921908   1.000000
      5         -3.837809   0.999231
      6         -3.837221   0.999209
      7         -3.527650   0.111438
      8         -3.526997   0.109695
      9         -3.376163   0.000388
     10         -3.369813   0.000279
     11         -3.118064   0.000000
     12         -3.115375   0.000000
     13         -2.779227   0.000000
     14         -2.778799   0.000000
     15         -2.403955   0.000000
     16         -2.403874   0.000000
     17          0.627454   0.000000
     18          0.888870   0.000000
     19          0.916142   0.000000
     20          1.358323   0.000000
     21          1.721422   0.000000
     22          2.006347   0.000000
     23          2.042814   0.000000
     24          2.229529   0.000000
     25          2.250500   0.000000
     26          2.449442   0.000000
     27          2.599740   0.000000
     28          2.640941   0.000000
     29          2.725042   0.000000
     30          2.742979   0.000000
     31          2.946029   0.000000
     32          3.257748   0.000000
     33          3.311840   0.000000
     34          3.373783   0.000000
     35          3.400939   0.000000
     36          3.633027   0.000000
     37          3.769787   0.000000
     38          3.902450   0.000000
     39          3.916987   0.000000
     40          4.130215   0.000000
     41          4.150918   0.000000
     42          4.375936   0.000000
 
  0.3750000E+00  0.2500000E+00  0.1276756E-14  0.1111111E-01
      1         -9.163294   1.000000
      2         -9.163208   1.000000
      3         -8.957569   1.000000
      4         -8.957511   1.000000
      5         -3.840262   0.999318
      6         -3.839646   0.999297
      7         -3.609606   0.476124
      8         -3.608928   0.472310
      9         -3.337754   0.000047
     10         -3.332090   0.000034
     11         -3.148101   0.000000
     12         -3.145142   0.000000
     13         -2.707896   0.000000
     14         -2.707533   0.000000
     15         -2.426313   0.000000
     16         -2.426185   0.000000
     17          0.784138   0.000000
     18          1.041453   0.000000
     19          1.055297   0.000000
     20          1.508493   0.000000
     21          1.799861   0.000000
     22          1.861560   0.000000
     23          2.015048   0.000000
     24          2.041193   0.000000
     25          2.161122   0.000000
     26          2.542347   0.000000
     27          2.548161   0.000000
     28          2.586115   0.000000
     29          2.739391   0.000000
     30          2.809137   0.000000
     31          2.902101   0.000000
     32          3.181696   0.000000
     33          3.343252   0.000000
     34          3.386361   0.000000
     35          3.408161   0.000000
     36          3.677033   0.000000
     37          3.683023   0.000000
     38          3.839467   0.000000
     39          3.907323   0.000000
     40          3.956732   0.000000
     41          4.043478   0.000000
     42          4.253230   0.000000
 
  0.4250000E+00  0.2500000E+00  0.1276756E-14  0.1111111E-01
      1         -9.122085   1.000000
      2         -9.122005   1.000000
      3         -8.996384   1.000000
      4         -8.996324   1.000000
      5         -3.825537   0.998623
      6         -3.824897   0.998581
      7         -3.683720   0.838483
      8         -3.683038   0.836110
      9         -3.297871   0.000004
     10         -3.292880   0.000003
     11         -3.181902   0.000000
     12         -3.178572   0.000000
     13         -2.637428   0.000000
     14         -2.637116   0.000000
     15         -2.463205   0.000000
     16         -2.463027   0.000000
     17          0.959370   0.000000
     18          1.212693   0.000000
     19          1.213402   0.000000
     20          1.576719   0.000000
     21          1.680511   0.000000
     22          1.795201   0.000000
     23          1.821658   0.000000
     24          2.007780   0.000000
     25          2.294677   0.000000
     26          2.319633   0.000000
     27          2.429409   0.000000
     28          2.724023   0.000000
     29          2.799301   0.000000
     30          2.863264   0.000000
     31          2.996205   0.000000
     32          3.098893   0.000000
     33          3.225280   0.000000
     34          3.423746   0.000000
     35          3.452673   0.000000
     36          3.612432   0.000000
     37          3.727173   0.000000
     38          3.743799   0.000000
     39          3.864868   0.000000
     40          3.944495   0.000000
     41          4.068476   0.000000
     42          4.143701   0.000000
 
  0.4750000E+00  0.2500000E+00  0.1276756E-14  0.1111111E-01
      1         -9.079751   1.000000
      2         -9.079679   1.000000
      3         -9.037467   1.000000
      4         -9.037402   1.000000
      5         -3.793814   0.994540
      6         -3.793155   0.994392
      7         -3.745990   0.969180
      8         -3.745315   0.968510
      9         -3.257801   0.000000
     10         -3.253442   0.000000
     11         -3.218776   0.000000
     12         -3.214977   0.000000
     13         -2.571310   0.000000
     14         -2.571041   0.000000
     15         -2.512365   0.000000
     16         -2.512143   0.000000
     17          1.151521   0.000000
     18          1.358378   0.000000
     19          1.390188   0.000000
     20          1.401308   0.000000
     21          1.584718   0.000000
     22          1.605414   0.000000
     23          1.874200   0.000000
     24          2.088292   0.000000
     25          2.153587   0.000000
     26          2.294645   0.000000
     27          2.456723   0.000000
     28          2.636874   0.000000
     29          2.882750   0.000000
     30          2.976702   0.000000
     31          3.062435   0.000000
     32          3.078643   0.000000
     33          3.198658   0.000000
     34          3.334528   0.000000
     35          3.415671   0.000000
     36          3.503075   0.000000
     37          3.806967   0.000000
     38          3.811154   0.000000
     39          3.866536   0.000000
     40          4.007775   0.000000
     41          4.053709   0.000000
     42          4.054410   0.000000
 
  0.2500000E-01  0.3055556E+00  0.1276756E-14  0.1111111E-01
      1         -9.309038   1.000000
      2         -9.308930   1.000000
      3         -8.839125   1.000000
      4         -8.839071   1.000000
      5         -3.496179   0.048058
      6         -3.495726   0.047421
      7         -3.480342   0.029517
      8         -3.472143   0.022541
      9         -3.404870   0.001562
     10         -3.404613   0.001544
     11         -3.060716   0.000000
     12         -3.057794   0.000000
     13         -2.858015   0.000000
     14         -2.856980   0.000000
     15         -2.648420   0.000000
     16         -2.648312   0.000000
     17          0.267715   0.000000
     18          0.539317   0.000000
     19          0.601167   0.000000
     20          1.024015   0.000000
     21          1.378355   0.000000
     22          1.690695   0.000000
     23          1.797005   0.000000
     24          1.938767   0.000000
     25          1.941882   0.000000
     26          2.249183   0.000000
     27          2.461012   0.000000
     28          2.537892   0.000000
     29          2.988890   0.000000
     30          3.107811   0.000000
     31          3.120257   0.000000
     32          3.138870   0.000000
     33          3.587545   0.000000
     34          3.836019   0.000000
     35          4.034040   0.000000
     36          4.205165   0.000000
     37          4.403972   0.000000
     38          4.434212   0.000000
     39          4.698941   0.000000
     40          4.728155   0.000000
     41          4.884676   0.000000
     42          5.053799   0.000000
 
  0.7500000E-01  0.3055556E+00  0.1276756E-14  0.1111111E-01
      1         -9.302544   1.000000
      2         -9.302437   1.000000
      3         -8.843732   1.000000
      4         -8.843678   1.000000
      5         -3.580780   0.320054
      6         -3.580316   0.317715
      7         -3.473641   0.023700
      8         -3.465577   0.018007
      9         -3.338677   0.000050
     10         -3.338417   0.000049
     11         -3.063794   0.000000
     12         -3.060900   0.000000
     13         -2.908120   0.000000
     14         -2.907164   0.000000
     15         -2.589255   0.000000
     16         -2.589106   0.000000
     17          0.290851   0.000000
     18          0.561809   0.000000
     19          0.621300   0.000000
     20          1.045075   0.000000
     21          1.401139   0.000000
     22          1.711195   0.000000
     23          1.811941   0.000000
     24          1.955262   0.000000
     25          1.961998   0.000000
     26          2.272158   0.000000
     27          2.482399   0.000000
     28          2.553265   0.000000
     29          3.000208   0.000000
     30          3.121463   0.000000
     31          3.123065   0.000000
     32          3.151748   0.000000
     33          3.562521   0.000000
     34          3.726216   0.000000
     35          4.045753   0.000000
     36          4.072538   0.000000
     37          4.272179   0.000000
     38          4.374006   0.000000
     39          4.465199   0.000000
     40          4.661653   0.000000
     41          4.855837   0.000000
     42          5.017814   0.000000
 
  0.1250000E+00  0.3055556E+00  0.1276756E-14  0.1111111E-01
      1         -9.289738   1.000000
      2         -9.289633   1.000000
      3         -8.852957   1.000000
      4         -8.852902   1.000000
      5         -3.663098   0.756978
      6         -3.662592   0.754733
      7         -3.460475   0.015044
      8         -3.452678   0.011328
      9         -3.312174   0.000010
     10         -3.311849   0.000010
     11         -3.070057   0.000000
     12         -3.067213   0.000000
     13         -2.939324   0.000000
     14         -2.938471   0.000000
     15         -2.520130   0.000000
     16         -2.520008   0.000000
     17          0.336998   0.000000
     18          0.606656   0.000000
     19          0.661476   0.000000
     20          1.087244   0.000000
     21          1.446292   0.000000
     22          1.751408   0.000000
     23          1.841677   0.000000
     24          1.987800   0.000000
     25          2.001580   0.000000
     26          2.317683   0.000000
     27          2.524595   0.000000
     28          2.581324   0.000000
     29          3.017139   0.000000
     30          3.088913   0.000000
     31          3.146657   0.000000
     32          3.190768   0.000000
     33          3.497096   0.000000
     34          3.511278   0.000000
     35          3.946580   0.000000
     36          4.015683   0.000000
     37          4.142382   0.000000
     38          4.249991   0.000000
     39          4.338271   0.000000
     40          4.495213   0.000000
     41          4.523415   0.000000
     42          4.846710   0.000000
 
  0.1750000E+00  0.3055556E+00  0.1276756E-14  0.1111111E-01
      1         -9.270985   1.000000
      2         -9.270883   1.000000
      3         -8.866801   1.000000
      4         -8.866747   1.000000
      5         -3.737126   0.959379
      6         -3.736585   0.958707
      7         -3.441315   0.007346
      8         -3.433900   0.005468
      9         -3.347551   0.000083
     10         -3.347077   0.000081
     11         -3.079707   0.000000
     12         -3.076914   0.000000
     13         -2.915793   0.000000
     14         -2.915132   0.000000
     15         -2.459105   0.000000
     16         -2.459030   0.000000
     17          0.405893   0.000000
     18          0.673588   0.000000
     19          0.721523   0.000000
     20          1.150614   0.000000
     21          1.512954   0.000000
     22          1.809303   0.000000
     23          1.886079   0.000000
     24          2.035285   0.000000
     25          2.058901   0.000000
     26          2.384948   0.000000
     27          2.585786   0.000000
     28          2.616123   0.000000
     29          2.970651   0.000000
     30          3.014761   0.000000
     31          3.176964   0.000000
     32          3.246288   0.000000
     33          3.286579   0.000000
     34          3.401692   0.000000
     35          3.789517   0.000000
     36          3.879277   0.000000
     37          4.088043   0.000000
     38          4.164980   0.000000
     39          4.212563   0.000000
     40          4.288225   0.000000
     41          4.349754   0.000000
     42          4.614798   0.000000
 
  0.2250000E+00  0.3055556E+00  0.1276756E-14  0.1111111E-01
      1         -9.246823   1.000000
      2         -9.246725   1.000000
      3         -8.885222   1.000000
      4         -8.885168   1.000000
      5         -3.799324   0.995644
      6         -3.798750   0.995539
      7         -3.424804   0.003755
      8         -3.424162   0.003654
      9         -3.416742   0.002657
     10         -3.409853   0.001958
     11         -3.092981   0.000000
     12         -3.090222   0.000000
     13         -2.852818   0.000000
     14         -2.852316   0.000000
     15         -2.412295   0.000000
     16         -2.412256   0.000000
     17          0.497121   0.000000
     18          0.762205   0.000000
     19          0.801201   0.000000
     20          1.235321   0.000000
     21          1.599715   0.000000
     22          1.879796   0.000000
     23          1.945223   0.000000
     24          2.095540   0.000000
     25          2.129743   0.000000
     26          2.472741   0.000000
     27          2.647039   0.000000
     28          2.659095   0.000000
     29          2.761610   0.000000
     30          2.924755   0.000000
     31          3.076305   0.000000
     32          3.211210   0.000000
     33          3.310226   0.000000
     34          3.365973   0.000000
     35          3.597685   0.000000
     36          3.741177   0.000000
     37          3.894983   0.000000
     38          4.075333   0.000000
     39          4.150240   0.000000
     40          4.206371   0.000000
     41          4.225913   0.000000
     42          4.424749   0.000000
 
  0.2750000E+00  0.3055556E+00  0.1276756E-14  0.1111111E-01
      1         -9.217955   1.000000
      2         -9.217863   1.000000
      3         -8.908091   1.000000
      4         -8.908036   1.000000
      5         -3.847018   0.999512
      6         -3.846414   0.999497
      7         -3.516027   0.083288
      8         -3.515363   0.081858
      9         -3.387919   0.000699
     10         -3.381534   0.000509
     11         -3.110089   0.000000
     12         -3.107320   0.000000
     13         -2.775230   0.000000
     14         -2.774830   0.000000
     15         -2.382371   0.000000
     16         -2.382344   0.000000
     17          0.610080   0.000000
     18          0.871969   0.000000
     19          0.900226   0.000000
     20          1.341521   0.000000
     21          1.704324   0.000000
     22          1.947249   0.000000
     23          2.019498   0.000000
     24          2.165195   0.000000
     25          2.201784   0.000000
     26          2.522262   0.000000
     27          2.580124   0.000000
     28          2.650463   0.000000
     29          2.699863   0.000000
     30          2.762594   0.000000
     31          2.920526   0.000000
     32          3.264726   0.000000
     33          3.326664   0.000000
     34          3.358975   0.000000
     35          3.405790   0.000000
     36          3.601029   0.000000
     37          3.820970   0.000000
     38          3.925134   0.000000
     39          3.952153   0.000000
     40          4.104702   0.000000
     41          4.161663   0.000000
     42          4.370036   0.000000
 
  0.3250000E+00  0.3055556E+00  0.1276756E-14  0.1111111E-01
      1         -9.185232   1.000000
      2         -9.185144   1.000000
      3         -8.935148   1.000000
      4         -8.935090   1.000000
      5         -3.878221   0.999908
      6         -3.877589   0.999904
      7         -3.607222   0.462713
      8         -3.606530   0.458829
      9         -3.355626   0.000130
     10         -3.349836   0.000094
     11         -3.131142   0.000000
     12         -3.128300   0.000000
     13         -2.695213   0.000000
     14         -2.694883   0.000000
     15         -2.370319   0.000000
     16         -2.370282   0.000000
     17          0.743940   0.000000
     18          1.002183   0.000000
     19          1.018299   0.000000
     20          1.469349   0.000000
     21          1.823166   0.000000
     22          1.960486   0.000000
     23          2.107427   0.000000
     24          2.230316   0.000000
     25          2.244727   0.000000
     26          2.296570   0.000000
     27          2.557852   0.000000
     28          2.619321   0.000000
     29          2.693808   0.000000
     30          2.702293   0.000000
     31          2.930321   0.000000
     32          3.078388   0.000000
     33          3.328236   0.000000
     34          3.336685   0.000000
     35          3.408432   0.000000
     36          3.495190   0.000000
     37          3.726701   0.000000
     38          3.803623   0.000000
     39          3.820418   0.000000
     40          3.990735   0.000000
     41          4.017045   0.000000
     42          4.275504   0.000000
 
  0.3750000E+00  0.3055556E+00  0.1276756E-14  0.1111111E-01
      1         -9.149623   1.000000
      2         -9.149541   1.000000
      3         -8.965964   1.000000
      4         -8.965905   1.000000
      5         -3.891600   0.999957
      6         -3.890945   0.999956
      7         -3.691161   0.862909
      8         -3.690457   0.860711
      9         -3.321107   0.000017
     10         -3.315920   0.000013
     11         -3.156090   0.000000
     12         -3.153087   0.000000
     13         -2.618340   0.000000
     14         -2.618068   0.000000
     15         -2.375960   0.000000
     16         -2.375896   0.000000
     17          0.897579   0.000000
     18          1.151953   0.000000
     19          1.155123   0.000000
     20          1.618788   0.000000
     21          1.851187   0.000000
     22          1.950585   0.000000
     23          2.084227   0.000000
     24          2.097475   0.000000
     25          2.240705   0.000000
     26          2.352361   0.000000
     27          2.495481   0.000000
     28          2.564614   0.000000
     29          2.701386   0.000000
     30          2.785664   0.000000
     31          2.833488   0.000000
     32          3.119500   0.000000
     33          3.213605   0.000000
     34          3.217742   0.000000
     35          3.380690   0.000000
     36          3.526153   0.000000
     37          3.539283   0.000000
     38          3.775428   0.000000
     39          3.804056   0.000000
     40          3.877894   0.000000
     41          3.927303   0.000000
     42          4.148094   0.000000
 
  0.4250000E+00  0.3055556E+00  0.1276756E-14  0.1111111E-01
      1         -9.112188   1.000000
      2         -9.112113   1.000000
      3         -8.999933   1.000000
      4         -8.999872   1.000000
      5         -3.886490   0.999942
      6         -3.885819   0.999940
      7         -3.763548   0.982878
      8         -3.762844   0.982451
      9         -3.285584   0.000002
     10         -3.280979   0.000001
     11         -3.184648   0.000000
     12         -3.181387   0.000000
     13         -2.547862   0.000000
     14         -2.547635   0.000000
     15         -2.398280   0.000000
     16         -2.398180   0.000000
     17          1.069452   0.000000
     18          1.310368   0.000000
     19          1.320080   0.000000
     20          1.662434   0.000000
     21          1.790048   0.000000
     22          1.876327   0.000000
     23          1.908134   0.000000
     24          2.081274   0.000000
     25          2.368837   0.000000
     26          2.394396   0.000000
     27          2.431970   0.000000
     28          2.517825   0.000000
     29          2.759376   0.000000
     30          2.760835   0.000000
     31          2.924492   0.000000
     32          3.029875   0.000000
     33          3.071084   0.000000
     34          3.261787   0.000000
     35          3.311076   0.000000
     36          3.386410   0.000000
     37          3.577362   0.000000
     38          3.687705   0.000000
     39          3.771444   0.000000
     40          3.906893   0.000000
     41          3.953083   0.000000
     42          3.981410   0.000000
 
  0.4750000E+00  0.3055556E+00  0.1276756E-14  0.1111111E-01
      1         -9.074035   1.000000
      2         -9.073966   1.000000
      3         -9.036268   1.000000
      4         -9.036204   1.000000
      5         -3.862894   0.999786
      6         -3.862206   0.999778
      7         -3.821471   0.998339
      8         -3.820772   0.998286
      9         -3.250271   0.000000
     10         -3.246195   0.000000
     11         -3.216300   0.000000
     12         -3.212677   0.000000
     13         -2.486238   0.000000
     14         -2.486057   0.000000
     15         -2.435681   0.000000
     16         -2.435539   0.000000
     17          1.257324   0.000000
     18          1.457400   0.000000
     19          1.483665   0.000000
     20          1.504809   0.000000
     21          1.673176   0.000000
     22          1.703116   0.000000
     23          1.981909   0.000000
     24          2.190843   0.000000
     25          2.206993   0.000000
     26          2.324053   0.000000
     27          2.536760   0.000000
     28          2.662275   0.000000
     29          2.703644   0.000000
     30          2.823767   0.000000
     31          2.872783   0.000000
     32          2.995424   0.000000
     33          3.018740   0.000000
     34          3.159400   0.000000
     35          3.324858   0.000000
     36          3.415494   0.000000
     37          3.579443   0.000000
     38          3.662803   0.000000
     39          3.734291   0.000000
     40          3.745335   0.000000
     41          3.967200   0.000000
     42          4.003376   0.000000
 
  0.2500000E-01  0.3611111E+00  0.1276756E-14  0.1111111E-01
      1         -9.282113   1.000000
      2         -9.282013   1.000000
      3         -8.869871   1.000000
      4         -8.869809   1.000000
      5         -3.447004   0.009152
      6         -3.446468   0.008966
      7         -3.446025   0.008816
      8         -3.439672   0.006887
      9         -3.356964   0.000140
     10         -3.356639   0.000138
     11         -3.093314   0.000000
     12         -3.089746   0.000000
     13         -2.953411   0.000000
     14         -2.952320   0.000000
     15         -2.700382   0.000000
     16         -2.700263   0.000000
     17          0.418500   0.000000
     18          0.685364   0.000000
     19          0.730512   0.000000
     20          1.159240   0.000000
     21          1.446207   0.000000
     22          1.527350   0.000000
     23          1.687216   0.000000
     24          1.695631   0.000000
     25          1.912943   0.000000
     26          2.185007   0.000000
     27          2.400753   0.000000
     28          2.403662   0.000000
     29          2.782055   0.000000
     30          3.140281   0.000000
     31          3.208089   0.000000
     32          3.268510   0.000000
     33          3.603940   0.000000
     34          3.676565   0.000000
     35          4.134321   0.000000
     36          4.329515   0.000000
     37          4.452142   0.000000
     38          4.528136   0.000000
     39          4.577172   0.000000
     40          4.749815   0.000000
     41          4.882823   0.000000
     42          5.130089   0.000000
 
  0.7500000E-01  0.3611111E+00  0.1276756E-14  0.1111111E-01
      1         -9.276096   1.000000
      2         -9.275996   1.000000
      3         -8.873534   1.000000
      4         -8.873472   1.000000
      5         -3.543694   0.160595
      6         -3.543194   0.158877
      7         -3.440903   0.007229
      8         -3.433701   0.005424
      9         -3.303091   0.000006
     10         -3.302767   0.000005
     11         -3.095409   0.000000
     12         -3.091893   0.000000
     13         -2.974823   0.000000
     14         -2.973852   0.000000
     15         -2.641854   0.000000
     16         -2.641694   0.000000
     17          0.440952   0.000000
     18          0.707225   0.000000
     19          0.750300   0.000000
     20          1.180207   0.000000
     21          1.466756   0.000000
     22          1.548818   0.000000
     23          1.706996   0.000000
     24          1.713109   0.000000
     25          1.927477   0.000000
     26          2.205827   0.000000
     27          2.419761   0.000000
     28          2.422820   0.000000
     29          2.794207   0.000000
     30          3.149005   0.000000
     31          3.224438   0.000000
     32          3.286571   0.000000
     33          3.581882   0.000000
     34          3.621729   0.000000
     35          4.118229   0.000000
     36          4.146603   0.000000
     37          4.387007   0.000000
     38          4.405764   0.000000
     39          4.508929   0.000000
     40          4.526551   0.000000
     41          4.933438   0.000000
     42          4.962749   0.000000
 
  0.1250000E+00  0.3611111E+00  0.1276756E-14  0.1111111E-01
      1         -9.264246   1.000000
      2         -9.264149   1.000000
      3         -8.880908   1.000000
      4         -8.880847   1.000000
      5         -3.638737   0.637615
      6         -3.638186   0.634689
      7         -3.428951   0.004465
      8         -3.421984   0.003331
      9         -3.320542   0.000017
     10         -3.320091   0.000016
     11         -3.099740   0.000000
     12         -3.096315   0.000000
     13         -2.949749   0.000000
     14         -2.949004   0.000000
     15         -2.566378   0.000000
     16         -2.566236   0.000000
     17          0.485765   0.000000
     18          0.750844   0.000000
     19          0.789779   0.000000
     20          1.222187   0.000000
     21          1.507384   0.000000
     22          1.591218   0.000000
     23          1.746064   0.000000
     24          1.747798   0.000000
     25          1.956773   0.000000
     26          2.247308   0.000000
     27          2.449642   0.000000
     28          2.466497   0.000000
     29          2.817735   0.000000
     30          3.150537   0.000000
     31          3.255978   0.000000
     32          3.317757   0.000000
     33          3.482659   0.000000
     34          3.518041   0.000000
     35          3.915513   0.000000
     36          4.128971   0.000000
     37          4.222662   0.000000
     38          4.292322   0.000000
     39          4.323440   0.000000
     40          4.427323   0.000000
     41          4.597836   0.000000
     42          4.693057   0.000000
 
  0.1750000E+00  0.3611111E+00  0.1276756E-14  0.1111111E-01
      1         -9.246936   1.000000
      2         -9.246841   1.000000
      3         -8.892069   1.000000
      4         -8.892009   1.000000
      5         -3.725629   0.943053
      6         -3.725035   0.942087
      7         -3.411640   0.002121
      8         -3.405028   0.001573
      9         -3.395382   0.001003
     10         -3.394787   0.000975
     11         -3.106568   0.000000
     12         -3.103261   0.000000
     13         -2.876821   0.000000
     14         -2.876274   0.000000
     15         -2.494184   0.000000
     16         -2.494083   0.000000
     17          0.552739   0.000000
     18          0.816014   0.000000
     19          0.848761   0.000000
     20          1.285269   0.000000
     21          1.566953   0.000000
     22          1.653438   0.000000
     23          1.799092   0.000000
     24          1.803259   0.000000
     25          2.001392   0.000000
     26          2.308952   0.000000
     27          2.488077   0.000000
     28          2.530812   0.000000
     29          2.849561   0.000000
     30          3.083800   0.000000
     31          3.296956   0.000000
     32          3.298382   0.000000
     33          3.352948   0.000000
     34          3.395025   0.000000
     35          3.745770   0.000000
     36          3.971614   0.000000
     37          4.138897   0.000000
     38          4.148472   0.000000
     39          4.216550   0.000000
     40          4.297362   0.000000
     41          4.323401   0.000000
     42          4.440631   0.000000
 
  0.2250000E+00  0.3611111E+00  0.1276756E-14  0.1111111E-01
      1         -9.224707   1.000000
      2         -9.224617   1.000000
      3         -8.907081   1.000000
      4         -8.907022   1.000000
      5         -3.800432   0.995840
      6         -3.799806   0.995730
      7         -3.490794   0.040918
      8         -3.490147   0.040120
      9         -3.389533   0.000756
     10         -3.383330   0.000557
     11         -3.116225   0.000000
     12         -3.113034   0.000000
     13         -2.787551   0.000000
     14         -2.787135   0.000000
     15         -2.433136   0.000000
     16         -2.433072   0.000000
     17          0.641541   0.000000
     18          0.902405   0.000000
     19          0.926985   0.000000
     20          1.369578   0.000000
     21          1.643002   0.000000
     22          1.733609   0.000000
     23          1.865844   0.000000
     24          1.876322   0.000000
     25          2.062379   0.000000
     26          2.389117   0.000000
     27          2.525492   0.000000
     28          2.613887   0.000000
     29          2.874699   0.000000
     30          2.887809   0.000000
     31          3.123585   0.000000
     32          3.219397   0.000000
     33          3.363520   0.000000
     34          3.374392   0.000000
     35          3.629196   0.000000
     36          3.806893   0.000000
     37          3.882582   0.000000
     38          3.971972   0.000000
     39          4.098646   0.000000
     40          4.174248   0.000000
     41          4.197937   0.000000
     42          4.325171   0.000000
 
  0.2750000E+00  0.3611111E+00  0.1276756E-14  0.1111111E-01
      1         -9.198267   1.000000
      2         -9.198181   1.000000
      3         -8.925951   1.000000
      4         -8.925893   1.000000
      5         -3.860233   0.999753
      6         -3.859581   0.999745
      7         -3.588629   0.360719
      8         -3.587947   0.357112
      9         -3.363639   0.000201
     10         -3.357913   0.000148
     11         -3.129043   0.000000
     12         -3.125943   0.000000
     13         -2.697193   0.000000
     14         -2.696869   0.000000
     15         -2.387065   0.000000
     16         -2.387030   0.000000
     17          0.751639   0.000000
     18          1.009539   0.000000
     19          1.024131   0.000000
     20          1.475232   0.000000
     21          1.729559   0.000000
     22          1.828665   0.000000
     23          1.945917   0.000000
     24          1.960868   0.000000
     25          2.141105   0.000000
     26          2.479338   0.000000
     27          2.544206   0.000000
     28          2.644658   0.000000
     29          2.715546   0.000000
     30          2.829032   0.000000
     31          2.920001   0.000000
     32          3.132587   0.000000
     33          3.345888   0.000000
     34          3.408523   0.000000
     35          3.440171   0.000000
     36          3.647201   0.000000
     37          3.739174   0.000000
     38          3.804762   0.000000
     39          3.943718   0.000000
     40          3.988299   0.000000
     41          4.047420   0.000000
     42          4.294917   0.000000
 
  0.3250000E+00  0.3611111E+00  0.1276756E-14  0.1111111E-01
      1         -9.168461   1.000000
      2         -9.168380   1.000000
      3         -8.948576   1.000000
      4         -8.948516   1.000000
      5         -3.902869   0.999978
      6         -3.902195   0.999977
      7         -3.680789   0.828131
      8         -3.680086   0.825584
      9         -3.334922   0.000040
     10         -3.329710   0.000029
     11         -3.145279   0.000000
     12         -3.142218   0.000000
     13         -2.611997   0.000000
     14         -2.611739   0.000000
     15         -2.357983   0.000000
     16         -2.357957   0.000000
     17          0.882208   0.000000
     18          1.136724   0.000000
     19          1.139850   0.000000
     20          1.602223   0.000000
     21          1.809129   0.000000
     22          1.933597   0.000000
     23          2.035520   0.000000
     24          2.045934   0.000000
     25          2.237713   0.000000
     26          2.396846   0.000000
     27          2.506668   0.000000
     28          2.556668   0.000000
     29          2.715901   0.000000
     30          2.756802   0.000000
     31          2.831043   0.000000
     32          3.167168   0.000000
     33          3.175033   0.000000
     34          3.224197   0.000000
     35          3.392898   0.000000
     36          3.505516   0.000000
     37          3.565359   0.000000
     38          3.754536   0.000000
     39          3.829318   0.000000
     40          3.862902   0.000000
     41          3.968056   0.000000
     42          4.168571   0.000000
 
  0.3750000E+00  0.3611111E+00  0.1276756E-14  0.1111111E-01
      1         -9.136245   1.000000
      2         -9.136168   1.000000
      3         -8.974698   1.000000
      4         -8.974637   1.000000
      5         -3.926872   0.999995
      6         -3.926184   0.999995
      7         -3.762529   0.982258
      8         -3.761818   0.981813
      9         -3.304510   0.000006
     10         -3.299807   0.000004
     11         -3.165045   0.000000
     12         -3.161944   0.000000
     13         -2.535258   0.000000
     14         -2.535053   0.000000
     15         -2.346703   0.000000
     16         -2.346672   0.000000
     17          1.031964   0.000000
     18          1.273746   0.000000
     19          1.282940   0.000000
     20          1.749360   0.000000
     21          1.831634   0.000000
     22          2.038409   0.000000
     23          2.090507   0.000000
     24          2.114265   0.000000
     25          2.204393   0.000000
     26          2.342113   0.000000
     27          2.420180   0.000000
     28          2.497638   0.000000
     29          2.661585   0.000000
     30          2.792853   0.000000
     31          2.886987   0.000000
     32          2.943455   0.000000
     33          3.075373   0.000000
     34          3.225669   0.000000
     35          3.287636   0.000000
     36          3.357425   0.000000
     37          3.377417   0.000000
     38          3.723215   0.000000
     39          3.789810   0.000000
     40          3.802340   0.000000
     41          3.951177   0.000000
     42          3.994630   0.000000
 
  0.4250000E+00  0.3611111E+00  0.1276756E-14  0.1111111E-01
      1         -9.102646   1.000000
      2         -9.102575   1.000000
      3         -9.003876   1.000000
      4         -9.003814   1.000000
      5         -3.931453   0.999996
      6         -3.930752   0.999996
      7         -3.830565   0.998911
      8         -3.829851   0.998874
      9         -3.273570   0.000001
     10         -3.269343   0.000001
     11         -3.188239   0.000000
     12         -3.184999   0.000000
     13         -2.469228   0.000000
     14         -2.469072   0.000000
     15         -2.353155   0.000000
     16         -2.353103   0.000000
     17          1.198824   0.000000
     18          1.425275   0.000000
     19          1.446583   0.000000
     20          1.733426   0.000000
     21          1.920766   0.000000
     22          1.966798   0.000000
     23          1.986376   0.000000
     24          2.153823   0.000000
     25          2.272577   0.000000
     26          2.366570   0.000000
     27          2.465009   0.000000
     28          2.487533   0.000000
     29          2.672647   0.000000
     30          2.676274   0.000000
     31          2.791537   0.000000
     32          2.968615   0.000000
     33          3.020401   0.000000
     34          3.051066   0.000000
     35          3.185019   0.000000
     36          3.288961   0.000000
     37          3.402654   0.000000
     38          3.660346   0.000000
     39          3.687349   0.000000
     40          3.765452   0.000000
     41          3.788667   0.000000
     42          3.979816   0.000000
 
  0.4750000E+00  0.3611111E+00  0.1276756E-14  0.1111111E-01
      1         -9.068718   1.000000
      2         -9.068651   1.000000
      3         -9.035483   1.000000
      4         -9.035419   1.000000
      5         -3.916479   0.999991
      6         -3.915770   0.999990
      7         -3.882470   0.999927
      8         -3.881755   0.999924
      9         -3.243226   0.000000
     10         -3.239416   0.000000
     11         -3.214503   0.000000
     12         -3.211026   0.000000
     13         -2.415776   0.000000
     14         -2.415659   0.000000
     15         -2.376586   0.000000
     16         -2.376503   0.000000
     17          1.379061   0.000000
     18          1.564319   0.000000
     19          1.593856   0.000000
     20          1.624813   0.000000
     21          1.775706   0.000000
     22          1.811355   0.000000
     23          2.107357   0.000000
     24          2.250900   0.000000
     25          2.290653   0.000000
     26          2.329992   0.000000
     27          2.461990   0.000000
     28          2.619092   0.000000
     29          2.625449   0.000000
     30          2.691104   0.000000
     31          2.725395   0.000000
     32          2.829187   0.000000
     33          2.914324   0.000000
     34          3.004953   0.000000
     35          3.185041   0.000000
     36          3.340649   0.000000
     37          3.498194   0.000000
     38          3.516378   0.000000
     39          3.615425   0.000000
     40          3.620929   0.000000
     41          3.807582   0.000000
     42          3.907325   0.000000
 
  0.2500000E-01  0.4166667E+00  0.1276756E-14  0.1111111E-01
      1         -9.259225   1.000000
      2         -9.259132   1.000000
      3         -8.895596   1.000000
      4         -8.895527   1.000000
      5         -3.417441   0.002739
      6         -3.410950   0.002057
      7         -3.397715   0.001120
      8         -3.397339   0.001100
      9         -3.308606   0.000008
     10         -3.308165   0.000008
     11         -3.122343   0.000000
     12         -3.118105   0.000000
     13         -3.043561   0.000000
     14         -3.042456   0.000000
     15         -2.743486   0.000000
     16         -2.743359   0.000000
     17          0.588847   0.000000
     18          0.851114   0.000000
     19          0.879799   0.000000
     20          1.207080   0.000000
     21          1.318625   0.000000
     22          1.457079   0.000000
     23          1.468799   0.000000
     24          1.690213   0.000000
     25          1.938623   0.000000
     26          2.019919   0.000000
     27          2.253053   0.000000
     28          2.556103   0.000000
     29          2.569665   0.000000
     30          3.065936   0.000000
     31          3.333556   0.000000
     32          3.394149   0.000000
     33          3.613444   0.000000
     34          3.628708   0.000000
     35          4.227853   0.000000
     36          4.401452   0.000000
     37          4.456451   0.000000
     38          4.518751   0.000000
     39          4.721250   0.000000
     40          4.747798   0.000000
     41          4.904501   0.000000
     42          5.044310   0.000000
 
  0.7500000E-01  0.4166667E+00  0.1276756E-14  0.1111111E-01
      1         -9.253624   1.000000
      2         -9.253532   1.000000
      3         -8.898498   1.000000
      4         -8.898429   1.000000
      5         -3.501823   0.056578
      6         -3.501302   0.055745
      7         -3.411906   0.002147
      8         -3.405522   0.001609
      9         -3.294228   0.000003
     10         -3.293789   0.000003
     11         -3.123595   0.000000
     12         -3.119431   0.000000
     13         -3.011405   0.000000
     14         -3.010494   0.000000
     15         -2.690000   0.000000
     16         -2.689851   0.000000
     17          0.610801   0.000000
     18          0.872478   0.000000
     19          0.899168   0.000000
     20          1.228031   0.000000
     21          1.339254   0.000000
     22          1.477497   0.000000
     23          1.487043   0.000000
     24          1.709874   0.000000
     25          1.959501   0.000000
     26          2.034018   0.000000
     27          2.270457   0.000000
     28          2.576925   0.000000
     29          2.582513   0.000000
     30          3.084333   0.000000
     31          3.347898   0.000000
     32          3.406531   0.000000
     33          3.580577   0.000000
     34          3.618356   0.000000
     35          4.214536   0.000000
     36          4.225353   0.000000
     37          4.377491   0.000000
     38          4.427730   0.000000
     39          4.536422   0.000000
     40          4.567522   0.000000
     41          4.799640   0.000000
     42          4.971571   0.000000
 
  0.1250000E+00  0.4166667E+00  0.1276756E-14  0.1111111E-01
      1         -9.242613   1.000000
      2         -9.242523   1.000000
      3         -8.904376   1.000000
      4         -8.904308   1.000000
      5         -3.607193   0.462553
      6         -3.606600   0.459222
      7         -3.401079   0.001311
      8         -3.394903   0.000980
      9         -3.356901   0.000140
     10         -3.356350   0.000136
     11         -3.126265   0.000000
     12         -3.122237   0.000000
     13         -2.926734   0.000000
     14         -2.926070   0.000000
     15         -2.614416   0.000000
     16         -2.614276   0.000000
     17          0.654597   0.000000
     18          0.915092   0.000000
     19          0.937804   0.000000
     20          1.269630   0.000000
     21          1.380575   0.000000
     22          1.518005   0.000000
     23          1.523346   0.000000
     24          1.748499   0.000000
     25          2.001194   0.000000
     26          2.062624   0.000000
     27          2.303370   0.000000
     28          2.608429   0.000000
     29          2.618069   0.000000
     30          3.116655   0.000000
     31          3.374896   0.000000
     32          3.420447   0.000000
     33          3.485289   0.000000
     34          3.578020   0.000000
     35          3.971944   0.000000
     36          4.193785   0.000000
     37          4.253741   0.000000
     38          4.316888   0.000000
     39          4.336955   0.000000
     40          4.345013   0.000000
     41          4.539611   0.000000
     42          4.727606   0.000000
 
  0.1750000E+00  0.4166667E+00  0.1276756E-14  0.1111111E-01
      1         -9.226562   1.000000
      2         -9.226475   1.000000
      3         -8.913359   1.000000
      4         -8.913293   1.000000
      5         -3.704963   0.901243
      6         -3.704318   0.899649
      7         -3.450782   0.010556
      8         -3.450168   0.010315
      9         -3.385384   0.000617
     10         -3.379502   0.000460
     11         -3.130668   0.000000
     12         -3.126822   0.000000
     13         -2.823410   0.000000
     14         -2.822912   0.000000
     15         -2.536953   0.000000
     16         -2.536841   0.000000
     17          0.719996   0.000000
     18          0.978722   0.000000
     19          0.995506   0.000000
     20          1.331177   0.000000
     21          1.442701   0.000000
     22          1.577311   0.000000
     23          1.577906   0.000000
     24          1.804547   0.000000
     25          2.063491   0.000000
     26          2.106703   0.000000
     27          2.347402   0.000000
     28          2.647996   0.000000
     29          2.678401   0.000000
     30          3.145279   0.000000
     31          3.289863   0.000000
     32          3.409846   0.000000
     33          3.434269   0.000000
     34          3.474227   0.000000
     35          3.750817   0.000000
     36          4.047830   0.000000
     37          4.067926   0.000000
     38          4.172266   0.000000
     39          4.190974   0.000000
     40          4.258068   0.000000
     41          4.305933   0.000000
     42          4.383903   0.000000
 
  0.2250000E+00  0.4166667E+00  0.1276756E-14  0.1111111E-01
      1         -9.206021   1.000000
      2         -9.205937   1.000000
      3         -8.925590   1.000000
      4         -8.925526   1.000000
      5         -3.790504   0.993762
      6         -3.789826   0.993591
      7         -3.551627   0.189474
      8         -3.550976   0.186992
      9         -3.365555   0.000223
     10         -3.360036   0.000166
     11         -3.137209   0.000000
     12         -3.133560   0.000000
     13         -2.720085   0.000000
     14         -2.719708   0.000000
     15         -2.466780   0.000000
     16         -2.466697   0.000000
     17          0.806605   0.000000
     18          1.063001   0.000000
     19          1.071990   0.000000
     20          1.411308   0.000000
     21          1.525750   0.000000
     22          1.648260   0.000000
     23          1.655956   0.000000
     24          1.875370   0.000000
     25          2.145757   0.000000
     26          2.167995   0.000000
     27          2.394500   0.000000
     28          2.701683   0.000000
     29          2.755481   0.000000
     30          3.030221   0.000000
     31          3.150035   0.000000
     32          3.302167   0.000000
     33          3.376578   0.000000
     34          3.440018   0.000000
     35          3.575628   0.000000
     36          3.861515   0.000000
     37          3.888558   0.000000
     38          3.968851   0.000000
     39          4.010791   0.000000
     40          4.085547   0.000000
     41          4.148068   0.000000
     42          4.304249   0.000000
 
  0.2750000E+00  0.4166667E+00  0.1276756E-14  0.1111111E-01
      1         -9.181693   1.000000
      2         -9.181613   1.000000
      3         -8.941179   1.000000
      4         -8.941117   1.000000
      5         -3.860652   0.999759
      6         -3.859955   0.999750
      7         -3.649637   0.693655
      8         -3.648964   0.690310
      9         -3.342416   0.000062
     10         -3.337303   0.000046
     11         -3.146312   0.000000
     12         -3.142849   0.000000
     13         -2.623802   0.000000
     14         -2.623520   0.000000
     15         -2.408639   0.000000
     16         -2.408588   0.000000
     17          0.913791   0.000000
     18          1.166899   0.000000
     19          1.167381   0.000000
     20          1.507212   0.000000
     21          1.629747   0.000000
     22          1.735010   0.000000
     23          1.749844   0.000000
     24          1.957060   0.000000
     25          2.245764   0.000000
     26          2.249057   0.000000
     27          2.431585   0.000000
     28          2.763508   0.000000
     29          2.784124   0.000000
     30          2.844503   0.000000
     31          2.998277   0.000000
     32          3.108932   0.000000
     33          3.249874   0.000000
     34          3.426838   0.000000
     35          3.488265   0.000000
     36          3.631392   0.000000
     37          3.713803   0.000000
     38          3.719409   0.000000
     39          3.905786   0.000000
     40          3.926642   0.000000
     41          4.071366   0.000000
     42          4.188603   0.000000
 
  0.3250000E+00  0.4166667E+00  0.1276756E-14  0.1111111E-01
      1         -9.154419   1.000000
      2         -9.154343   1.000000
      3         -8.960143   1.000000
      4         -8.960081   1.000000
      5         -3.913134   0.999988
      6         -3.912421   0.999988
      7         -3.739382   0.962086
      8         -3.738690   0.961272
      9         -3.316962   0.000013
     10         -3.312276   0.000010
     11         -3.158358   0.000000
     12         -3.155039   0.000000
     13         -2.538101   0.000000
     14         -2.537893   0.000000
     15         -2.365372   0.000000
     16         -2.365340   0.000000
     17          1.040514   0.000000
     18          1.279811   0.000000
     19          1.291004   0.000000
     20          1.612171   0.000000
     21          1.754338   0.000000
     22          1.835443   0.000000
     23          1.854436   0.000000
     24          2.044832   0.000000
     25          2.351065   0.000000
     26          2.352379   0.000000
     27          2.438541   0.000000
     28          2.550731   0.000000
     29          2.772514   0.000000
     30          2.794456   0.000000
     31          2.905468   0.000000
     32          3.001005   0.000000
     33          3.084945   0.000000
     34          3.300816   0.000000
     35          3.312187   0.000000
     36          3.402500   0.000000
     37          3.570482   0.000000
     38          3.654943   0.000000
     39          3.803814   0.000000
     40          3.907321   0.000000
     41          3.959623   0.000000
     42          3.995381   0.000000
 
  0.3750000E+00  0.4166667E+00  0.1276756E-14  0.1111111E-01
      1         -9.125134   1.000000
      2         -9.125062   1.000000
      3         -8.982358   1.000000
      4         -8.982297   1.000000
      5         -3.946400   0.999999
      6         -3.945679   0.999999
      7         -3.817094   0.997976
      8         -3.816391   0.997912
      9         -3.290281   0.000002
     10         -3.286007   0.000002
     11         -3.173591   0.000000
     12         -3.170345   0.000000
     13         -2.465223   0.000000
     14         -2.465074   0.000000
     15         -2.338701   0.000000
     16         -2.338677   0.000000
     17          1.184957   0.000000
     18          1.410141   0.000000
     19          1.432474   0.000000
     20          1.707014   0.000000
     21          1.897437   0.000000
     22          1.945758   0.000000
     23          1.955222   0.000000
     24          2.133807   0.000000
     25          2.297443   0.000000
     26          2.388495   0.000000
     27          2.458973   0.000000
     28          2.477347   0.000000
     29          2.664313   0.000000
     30          2.681337   0.000000
     31          2.798741   0.000000
     32          2.975493   0.000000
     33          3.060166   0.000000
     34          3.064349   0.000000
     35          3.137782   0.000000
     36          3.274057   0.000000
     37          3.412771   0.000000
     38          3.676021   0.000000
     39          3.738859   0.000000
     40          3.743139   0.000000
     41          3.760039   0.000000
     42          3.981334   0.000000
 
  0.4250000E+00  0.4166667E+00  0.1276756E-14  0.1111111E-01
      1         -9.094835   1.000000
      2         -9.094766   1.000000
      3         -9.007522   1.000000
      4         -9.007459   1.000000
      5         -3.959591   0.999999
      6         -3.958864   0.999999
      7         -3.879908   0.999916
      8         -3.879193   0.999913
      9         -3.263475   0.000000
     10         -3.259572   0.000000
     11         -3.192057   0.000000
     12         -3.188793   0.000000
     13         -2.406791   0.000000
     14         -2.406689   0.000000
     15         -2.329532   0.000000
     16         -2.329506   0.000000
     17          1.343627   0.000000
     18          1.556849   0.000000
     19          1.589189   0.000000
     20          1.739864   0.000000
     21          2.001265   0.000000
     22          2.014437   0.000000
     23          2.069358   0.000000
     24          2.146058   0.000000
     25          2.216352   0.000000
     26          2.310571   0.000000
     27          2.414403   0.000000
     28          2.592430   0.000000
     29          2.609625   0.000000
     30          2.651455   0.000000
     31          2.712893   0.000000
     32          2.804508   0.000000
     33          2.863291   0.000000
     34          2.942321   0.000000
     35          3.206421   0.000000
     36          3.236269   0.000000
     37          3.314865   0.000000
     38          3.470244   0.000000
     39          3.616779   0.000000
     40          3.679868   0.000000
     41          3.813486   0.000000
     42          3.893932   0.000000
 
  0.4750000E+00  0.4166667E+00  0.1276756E-14  0.1111111E-01
      1         -9.064520   1.000000
      2         -9.064455   1.000000
      3         -9.035137   1.000000
      4         -9.035073   1.000000
      5         -3.952506   0.999999
      6         -3.951780   0.999999
      7         -3.925592   0.999995
      8         -3.924871   0.999995
      9         -3.237592   0.000000
     10         -3.233992   0.000000
     11         -3.213546   0.000000
     12         -3.210165   0.000000
     13         -2.364080   0.000000
     14         -2.364011   0.000000
     15         -2.338093   0.000000
     16         -2.338051   0.000000
     17          1.508660   0.000000
     18          1.658193   0.000000
     19          1.718865   0.000000
     20          1.755370   0.000000
     21          1.887720   0.000000
     22          1.913679   0.000000
     23          2.219422   0.000000
     24          2.237078   0.000000
     25          2.275422   0.000000
     26          2.298359   0.000000
     27          2.403883   0.000000
     28          2.434947   0.000000
     29          2.605756   0.000000
     30          2.622606   0.000000
     31          2.663022   0.000000
     32          2.698385   0.000000
     33          2.882608   0.000000
     34          2.956280   0.000000
     35          3.039804   0.000000
     36          3.157030   0.000000
     37          3.357890   0.000000
     38          3.496182   0.000000
     39          3.545257   0.000000
     40          3.685614   0.000000
     41          3.707370   0.000000
     42          3.769963   0.000000
 
  0.2500000E-01  0.4722222E+00  0.1276756E-14  0.1111111E-01
      1         -9.245625   1.000000
      2         -9.245536   1.000000
      3         -8.910706   1.000000
      4         -8.910631   1.000000
      5         -3.398985   0.001189
      6         -3.393067   0.000897
      7         -3.365578   0.000223
      8         -3.365309   0.000220
      9         -3.264554   0.000000
     10         -3.263996   0.000000
     11         -3.140551   0.000000
     12         -3.135831   0.000000
     13         -3.113577   0.000000
     14         -3.112449   0.000000
     15         -2.768606   0.000000
     16         -2.768474   0.000000
     17          0.777282   0.000000
     18          0.978836   0.000000
     19          1.035604   0.000000
     20          1.055646   0.000000
     21          1.238885   0.000000
     22          1.252239   0.000000
     23          1.505564   0.000000
     24          1.712655   0.000000
     25          1.850090   0.000000
     26          2.050356   0.000000
     27          2.186634   0.000000
     28          2.394697   0.000000
     29          2.715119   0.000000
     30          2.927639   0.000000
     31          3.441914   0.000000
     32          3.466115   0.000000
     33          3.609868   0.000000
     34          3.617836   0.000000
     35          4.288295   0.000000
     36          4.342904   0.000000
     37          4.515954   0.000000
     38          4.630068   0.000000
     39          4.736163   0.000000
     40          4.866392   0.000000
     41          4.894082   0.000000
     42          4.944251   0.000000
 
  0.7500000E-01  0.4722222E+00  0.1276756E-14  0.1111111E-01
      1         -9.240278   1.000000
      2         -9.240190   1.000000
      3         -8.913171   1.000000
      4         -8.913098   1.000000
      5         -3.468008   0.019586
      6         -3.467491   0.019240
      7         -3.393815   0.000930
      8         -3.387992   0.000702
      9         -3.307204   0.000007
     10         -3.306652   0.000007
     11         -3.141262   0.000000
     12         -3.136627   0.000000
     13         -3.019398   0.000000
     14         -3.018553   0.000000
     15         -2.720715   0.000000
     16         -2.720586   0.000000
     17          0.798918   0.000000
     18          0.999553   0.000000
     19          1.056491   0.000000
     20          1.074869   0.000000
     21          1.259694   0.000000
     22          1.270941   0.000000
     23          1.526390   0.000000
     24          1.733527   0.000000
     25          1.866627   0.000000
     26          2.070078   0.000000
     27          2.202146   0.000000
     28          2.406783   0.000000
     29          2.734580   0.000000
     30          2.948795   0.000000
     31          3.452819   0.000000
     32          3.467643   0.000000
     33          3.607322   0.000000
     34          3.612439   0.000000
     35          4.261409   0.000000
     36          4.303440   0.000000
     37          4.332128   0.000000
     38          4.426071   0.000000
     39          4.604278   0.000000
     40          4.673229   0.000000
     41          4.684422   0.000000
     42          4.882314   0.000000
 
  0.1250000E+00  0.4722222E+00  0.1276756E-14  0.1111111E-01
      1         -9.229775   1.000000
      2         -9.229689   1.000000
      3         -8.918192   1.000000
      4         -8.918120   1.000000
      5         -3.580272   0.317491
      6         -3.579644   0.314334
      7         -3.391593   0.000836
      8         -3.390978   0.000811
      9         -3.383622   0.000565
     10         -3.378017   0.000426
     11         -3.142923   0.000000
     12         -3.138456   0.000000
     13         -2.900141   0.000000
     14         -2.899488   0.000000
     15         -2.649089   0.000000
     16         -2.648975   0.000000
     17          0.841967   0.000000
     18          1.040860   0.000000
     19          1.098081   0.000000
     20          1.113235   0.000000
     21          1.301156   0.000000
     22          1.308185   0.000000
     23          1.568079   0.000000
     24          1.775259   0.000000
     25          1.898595   0.000000
     26          2.109053   0.000000
     27          2.233129   0.000000
     28          2.430995   0.000000
     29          2.772851   0.000000
     30          2.989169   0.000000
     31          3.454494   0.000000
     32          3.470973   0.000000
     33          3.560122   0.000000
     34          3.604131   0.000000
     35          4.065363   0.000000
     36          4.176107   0.000000
     37          4.189100   0.000000
     38          4.291898   0.000000
     39          4.352355   0.000000
     40          4.434450   0.000000
     41          4.440452   0.000000
     42          4.617184   0.000000
 
  0.1750000E+00  0.4722222E+00  0.1276756E-14  0.1111111E-01
      1         -9.214489   1.000000
      2         -9.214406   1.000000
      3         -8.925924   1.000000
      4         -8.925854   1.000000
      5         -3.685581   0.844845
      6         -3.684897   0.842525
      7         -3.490101   0.040064
      8         -3.489495   0.039330
      9         -3.369097   0.000269
     10         -3.363720   0.000202
     11         -3.145848   0.000000
     12         -3.141605   0.000000
     13         -2.780943   0.000000
     14         -2.780437   0.000000
     15         -2.572257   0.000000
     16         -2.572161   0.000000
     17          0.905989   0.000000
     18          1.102438   0.000000
     19          1.160010   0.000000
     20          1.170586   0.000000
     21          1.362913   0.000000
     22          1.363637   0.000000
     23          1.630687   0.000000
     24          1.837792   0.000000
     25          1.943874   0.000000
     26          2.166117   0.000000
     27          2.278932   0.000000
     28          2.467933   0.000000
     29          2.828281   0.000000
     30          3.043059   0.000000
     31          3.369213   0.000000
     32          3.454438   0.000000
     33          3.484490   0.000000
     34          3.551486   0.000000
     35          3.834884   0.000000
     36          3.948807   0.000000
     37          4.079709   0.000000
     38          4.097372   0.000000
     39          4.151189   0.000000
     40          4.271662   0.000000
     41          4.284385   0.000000
     42          4.393298   0.000000
 
  0.2250000E+00  0.4722222E+00  0.1276756E-14  0.1111111E-01
      1         -9.194969   1.000000
      2         -9.194889   1.000000
      3         -8.936553   1.000000
      4         -8.936485   1.000000
      5         -3.778372   0.990013
      6         -3.777652   0.989738
      7         -3.590747   0.371988
      8         -3.590115   0.368612
      9         -3.350692   0.000099
     10         -3.345634   0.000074
     11         -3.150480   0.000000
     12         -3.146492   0.000000
     13         -2.669487   0.000000
     14         -2.669107   0.000000
     15         -2.499552   0.000000
     16         -2.499472   0.000000
     17          0.990296   0.000000
     18          1.183650   0.000000
     19          1.241733   0.000000
     20          1.246667   0.000000
     21          1.436727   0.000000
     22          1.444309   0.000000
     23          1.714236   0.000000
     24          1.920901   0.000000
     25          1.999584   0.000000
     26          2.238247   0.000000
     27          2.337413   0.000000
     28          2.519982   0.000000
     29          2.896241   0.000000
     30          3.088936   0.000000
     31          3.175141   0.000000
     32          3.302541   0.000000
     33          3.409914   0.000000
     34          3.471537   0.000000
     35          3.596915   0.000000
     36          3.722496   0.000000
     37          3.940308   0.000000
     38          3.957164   0.000000
     39          3.993574   0.000000
     40          4.144805   0.000000
     41          4.171086   0.000000
     42          4.233915   0.000000
 
  0.2750000E+00  0.4722222E+00  0.1276756E-14  0.1111111E-01
      1         -9.171918   1.000000
      2         -9.171841   1.000000
      3         -8.950242   1.000000
      4         -8.950177   1.000000
      5         -3.855343   0.999682
      6         -3.854606   0.999669
      7         -3.686778   0.848846
      8         -3.686124   0.846667
      9         -3.329316   0.000029
     10         -3.324612   0.000022
     11         -3.157309   0.000000
     12         -3.153571   0.000000
     13         -2.569962   0.000000
     14         -2.569691   0.000000
     15         -2.435887   0.000000
     16         -2.435827   0.000000
     17          1.093850   0.000000
     18          1.283320   0.000000
     19          1.340983   0.000000
     20          1.342451   0.000000
     21          1.526565   0.000000
     22          1.544113   0.000000
     23          1.818567   0.000000
     24          2.023839   0.000000
     25          2.062486   0.000000
     26          2.314742   0.000000
     27          2.407900   0.000000
     28          2.592094   0.000000
     29          2.927709   0.000000
     30          2.953646   0.000000
     31          3.070913   0.000000
     32          3.115859   0.000000
     33          3.217122   0.000000
     34          3.363785   0.000000
     35          3.427494   0.000000
     36          3.484899   0.000000
     37          3.792013   0.000000
     38          3.853525   0.000000
     39          3.875127   0.000000
     40          3.960953   0.000000
     41          4.055085   0.000000
     42          4.065176   0.000000
 
  0.3250000E+00  0.4722222E+00  0.1276756E-14  0.1111111E-01
      1         -9.146168   1.000000
      2         -9.146096   1.000000
      3         -8.967076   1.000000
      4         -8.967014   1.000000
      5         -3.914215   0.999989
      6         -3.913472   0.999989
      7         -3.773661   0.988096
      8         -3.772986   0.987796
      9         -3.305944   0.000007
     10         -3.301605   0.000005
     11         -3.166776   0.000000
     12         -3.163253   0.000000
     13         -2.485184   0.000000
     14         -2.485003   0.000000
     15         -2.384306   0.000000
     16         -2.384261   0.000000
     17          1.214953   0.000000
     18          1.399334   0.000000
     19          1.452200   0.000000
     20          1.460894   0.000000
     21          1.631654   0.000000
     22          1.659904   0.000000
     23          1.942938   0.000000
     24          2.129142   0.000000
     25          2.143864   0.000000
     26          2.366360   0.000000
     27          2.502072   0.000000
     28          2.685032   0.000000
     29          2.691196   0.000000
     30          2.846453   0.000000
     31          2.900499   0.000000
     32          3.013561   0.000000
     33          3.016413   0.000000
     34          3.180822   0.000000
     35          3.288414   0.000000
     36          3.434377   0.000000
     37          3.595195   0.000000
     38          3.632140   0.000000
     39          3.751159   0.000000
     40          3.798439   0.000000
     41          3.964246   0.000000
     42          4.017501   0.000000
 
  0.3750000E+00  0.4722222E+00  0.1276756E-14  0.1111111E-01
      1         -9.118647   1.000000
      2         -9.118578   1.000000
      3         -8.987008   1.000000
      4         -8.986946   1.000000
      5         -3.953460   0.999999
      6         -3.952715   0.999999
      7         -3.847933   0.999534
      8         -3.847240   0.999518
      9         -3.281634   0.000001
     10         -3.277638   0.000001
     11         -3.179210   0.000000
     12         -3.175838   0.000000
     13         -2.417063   0.000000
     14         -2.416951   0.000000
     15         -2.346965   0.000000
     16         -2.346936   0.000000
     17          1.350418   0.000000
     18          1.527009   0.000000
     19          1.576609   0.000000
     20          1.594750   0.000000
     21          1.749338   0.000000
     22          1.786082   0.000000
     23          2.084332   0.000000
     24          2.194783   0.000000
     25          2.265385   0.000000
     26          2.368421   0.000000
     27          2.475988   0.000000
     28          2.619869   0.000000
     29          2.640445   0.000000
     30          2.703694   0.000000
     31          2.738475   0.000000
     32          2.848451   0.000000
     33          2.905088   0.000000
     34          2.987973   0.000000
     35          3.217776   0.000000
     36          3.318093   0.000000
     37          3.479228   0.000000
     38          3.484875   0.000000
     39          3.633169   0.000000
     40          3.687654   0.000000
     41          3.816495   0.000000
     42          3.912825   0.000000
 
  0.4250000E+00  0.4722222E+00  0.1276756E-14  0.1111111E-01
      1         -9.090325   1.000000
      2         -9.090258   1.000000
      3         -9.009812   1.000000
      4         -9.009750   1.000000
      5         -3.972224   1.000000
      6         -3.971483   1.000000
      7         -3.906829   0.999983
      8         -3.906121   0.999982
      9         -3.257444   0.000000
     10         -3.253744   0.000000
     11         -3.194741   0.000000
     12         -3.191435   0.000000
     13         -2.366751   0.000000
     14         -2.366685   0.000000
     15         -2.325511   0.000000
     16         -2.325488   0.000000
     17          1.493158   0.000000
     18          1.647163   0.000000
     19          1.709205   0.000000
     20          1.738922   0.000000
     21          1.874266   0.000000
     22          1.905985   0.000000
     23          2.215307   0.000000
     24          2.241947   0.000000
     25          2.248588   0.000000
     26          2.316653   0.000000
     27          2.397303   0.000000
     28          2.446554   0.000000
     29          2.604172   0.000000
     30          2.642025   0.000000
     31          2.663968   0.000000
     32          2.704532   0.000000
     33          2.872508   0.000000
     34          2.977156   0.000000
     35          3.021265   0.000000
     36          3.168472   0.000000
     37          3.328876   0.000000
     38          3.503025   0.000000
     39          3.541636   0.000000
     40          3.688168   0.000000
     41          3.745501   0.000000
     42          3.774425   0.000000
 
  0.4750000E+00  0.4722222E+00  0.1276756E-14  0.1111111E-01
      1         -9.062166   1.000000
      2         -9.062101   1.000000
      3         -9.035069   1.000000
      4         -9.035006   1.000000
      5         -3.970312   1.000000
      6         -3.969578   1.000000
      7         -3.948164   0.999999
      8         -3.947442   0.999999
      9         -3.234369   0.000000
     10         -3.230894   0.000000
     11         -3.213255   0.000000
     12         -3.209914   0.000000
     13         -2.334780   0.000000
     14         -2.334740   0.000000
     15         -2.321174   0.000000
     16         -2.321149   0.000000
     17          1.624234   0.000000
     18          1.693844   0.000000
     19          1.853612   0.000000
     20          1.878682   0.000000
     21          1.959884   0.000000
     22          1.963738   0.000000
     23          2.110278   0.000000
     24          2.213313   0.000000
     25          2.258999   0.000000
     26          2.270171   0.000000
     27          2.363629   0.000000
     28          2.390414   0.000000
     29          2.583925   0.000000
     30          2.592229   0.000000
     31          2.624211   0.000000
     32          2.674276   0.000000
     33          2.802823   0.000000
     34          2.946597   0.000000
     35          2.990653   0.000000
     36          3.148059   0.000000
     37          3.203727   0.000000
     38          3.371295   0.000000
     39          3.638513   0.000000
     40          3.649694   0.000000
     41          3.668901   0.000000
     42          3.781595   0.000000
