o-B14 bilayer with Hydrogen             
   1.00000000000000     
     5.6799960512011207   -0.0000000000000000    0.0000000000000000
    -0.0000000000000000    6.1471111863193357    0.0000000000000000
     0.0000000000000000    0.0000000000000000   30.0881166459999996
   H             
   4
Direct
     0.2499999999254499    0.2871270147889196    0.0544982691469207
     0.7499999999517613    0.7128729852110803    0.0544982691469207
     0.2499999999254499    0.2871270147889196    0.3472589045646168
     0.7499999999517613    0.7128729852110803    0.3472589045646168
