<?xml version="1.0" encoding="ISO-8859-1"?>
<modeling>
 <generator>
  <i name="program" type="string">vasp </i>
  <i name="version" type="string">6.5.0  </i>
  <i name="subversion" type="string">16Dec24 (build Jan 08 2025 16:17:04) complex                          parallel </i>
  <i name="platform" type="string">LinuxIFC </i>
  <i name="date" type="string">2026 02 12 </i>
  <i name="time" type="string">00:22:30 </i>
 </generator>
 <incar>
  <i type="string" name="SYSTEM">Cohesive</i>
  <i type="int" name="ISTART">     0</i>
  <i type="string" name="PREC">Accurate</i>
  <i type="string" name="ALGO">Normal</i>
  <i type="int" name="ISPIN">     2</i>
  <i type="int" name="ICHARG">     2</i>
  <i type="int" name="NELM">   200</i>
  <i type="int" name="IBRION">    -1</i>
  <i name="EDIFF">      0.00000100</i>
  <i name="EDIFFG">     -0.00100000</i>
  <i type="int" name="NSW">     0</i>
  <i type="int" name="ISIF">     2</i>
  <i name="ENCUT">    600.00000000</i>
  <i name="POTIM">      0.50000000</i>
  <i type="int" name="ISMEAR">     0</i>
  <i name="SIGMA">      0.05000000</i>
  <i type="logical" name="LWAVE"> F  </i>
  <i type="logical" name="LCHARG"> F  </i>
  <i type="string" name="GGA">PE</i>
 </incar>
 <primitive_cell>
  <structure name="primitive_cell" >
   <crystal>
    <varray name="basis" >
     <v>      15.00000000       0.00000000       0.00000000 </v>
     <v>       0.00000000      12.50000000       0.00000000 </v>
     <v>       0.00000000       0.00000000      18.00000000 </v>
    </varray>
    <i name="volume">   3375.00000000 </i>
    <varray name="rec_basis" >
     <v>       0.06666667       0.00000000       0.00000000 </v>
     <v>       0.00000000       0.08000000       0.00000000 </v>
     <v>       0.00000000       0.00000000       0.05555556 </v>
    </varray>
   </crystal>
   <varray name="positions" >
    <v>       0.52123000       0.54500000       0.63796000 </v>
   </varray>
  </structure>
  <varray name="primitive_index" >
   <v type="int" >        1 </v>
  </varray>
 </primitive_cell>
 <kpoints>
  <generation param="Gamma">
   <v type="int" name="divisions">       1        1        1 </v>
   <v name="usershift">      0.00000000       0.00000000       0.00000000 </v>
   <v name="genvec1">      1.00000000       0.00000000       0.00000000 </v>
   <v name="genvec2">      0.00000000       1.00000000       0.00000000 </v>
   <v name="genvec3">      0.00000000       0.00000000       1.00000000 </v>
   <v name="shift">      0.00000000       0.00000000       0.00000000 </v>
  </generation>
  <varray name="kpointlist" >
   <v>       0.00000000       0.00000000       0.00000000 </v>
  </varray>
  <varray name="weights" >
   <v>       1.00000000 </v>
  </varray>
 </kpoints>
 <parameters>
  <separator name="general" >
   <i type="string" name="SYSTEM">Cohesive</i>
   <i type="logical" name="LCOMPAT"> F  </i>
  </separator>
  <separator name="electronic" >
   <i type="string" name="PREC">accura</i>
   <i name="ENMAX">    600.00000000</i>
   <i name="ENAUG">    400.00000000</i>
   <i name="EDIFF">      0.00000100</i>
   <i type="int" name="IALGO">    38</i>
   <i type="int" name="IWAVPR">    10</i>
   <i type="int" name="NBANDS">     8</i>
   <i type="int" name="NBANDSLOW">    -1</i>
   <i type="int" name="NBANDSHIGH">    -1</i>
   <i name="NELECT">      1.00000000</i>
   <i type="int" name="TURBO">     0</i>
   <i type="int" name="IRESTART">     0</i>
   <i type="int" name="NREBOOT">     0</i>
   <i type="int" name="NMIN">     0</i>
   <i name="EREF">      0.00000000</i>
   <separator name="electronic smearing" >
    <i type="int" name="ISMEAR">     0</i>
    <i name="SIGMA">      0.05000000</i>
    <i name="KSPACING">      0.50000000</i>
    <i type="logical" name="KGAMMA"> T  </i>
    <i type="logical" name="KBLOWUP"> T  </i>
   </separator>
   <separator name="electronic projectors" >
    <i type="logical" name="LREAL"> F  </i>
    <v name="ROPT">      0.00000000</v>
    <i type="int" name="LMAXPAW">  -100</i>
    <i type="int" name="LMAXMIX">     2</i>
    <i type="logical" name="NLSPLINE"> F  </i>
   </separator>
   <separator name="electronic startup" >
    <i type="int" name="ISTART">     0</i>
    <i type="int" name="ICHARG">     2</i>
    <i type="int" name="INIWAV">     1</i>
   </separator>
   <separator name="electronic spin" >
    <i type="int" name="ISPIN">     2</i>
    <i type="logical" name="LNONCOLLINEAR"> F  </i>
    <v name="MAGMOM">      1.00000000</v>
    <i name="NUPDOWN">     -1.00000000</i>
    <i type="logical" name="LSORBIT"> F  </i>
    <v name="SAXIS">      0.00000000      0.00000000      1.00000000</v>
    <i type="logical" name="LSPIRAL"> F  </i>
    <v name="QSPIRAL">      0.00000000      0.00000000      0.00000000</v>
    <i type="logical" name="LZEROZ"> F  </i>
   </separator>
   <separator name="electronic exchange-correlation" >
    <i type="logical" name="LASPH"> F  </i>
   </separator>
   <separator name="electronic convergence" >
    <i type="int" name="NELM">   200</i>
    <i type="int" name="NELMDL">    -5</i>
    <i type="int" name="NELMIN">     2</i>
    <i name="ENINI">    600.00000000</i>
    <separator name="electronic convergence detail" >
     <i type="logical" name="LDIAG"> T  </i>
     <i type="logical" name="LSUBROT"> F  </i>
     <i name="WEIMIN">      0.00000000</i>
     <i name="EBREAK">      0.00000003</i>
     <i name="DEPER">      0.30000000</i>
     <i type="int" name="NRMM">     4</i>
     <i name="TIME">      0.40000000</i>
    </separator>
   </separator>
   <separator name="electronic mixer" >
    <i name="AMIX">      0.40000000</i>
    <i name="BMIX">      1.00000000</i>
    <i name="AMIN">      0.10000000</i>
    <i name="AMIX_MAG">      1.60000000</i>
    <i name="BMIX_MAG">      1.00000000</i>
    <separator name="electronic mixer details" >
     <i type="int" name="IMIX">     4</i>
     <i type="logical" name="MIXFIRST"> F  </i>
     <i type="int" name="MAXMIX">   -45</i>
     <i name="WC">    100.00000000</i>
     <i type="int" name="INIMIX">     1</i>
     <i type="int" name="MIXPRE">     1</i>
     <i type="int" name="MREMOVE">     5</i>
    </separator>
   </separator>
   <separator name="electronic dipolcorrection" >
    <i type="logical" name="LDIPOL"> F  </i>
    <i type="logical" name="LMONO"> F  </i>
    <i type="int" name="IDIPOL">     0</i>
    <i name="EPSILON">      1.00000000</i>
    <v name="DIPOL">   -100.00000000   -100.00000000   -100.00000000</v>
    <i name="EFIELD">      0.00000000</i>
    <i type="logical" name="LVACPOTAV"> F  </i>
   </separator>
  </separator>
  <separator name="grids" >
   <i type="int" name="NGX">   120</i>
   <i type="int" name="NGY">   100</i>
   <i type="int" name="NGZ">   144</i>
   <i type="int" name="NGXF">   240</i>
   <i type="int" name="NGYF">   200</i>
   <i type="int" name="NGZF">   288</i>
   <i type="logical" name="ADDGRID"> F  </i>
  </separator>
  <separator name="ionic" >
   <i type="int" name="NSW">     0</i>
   <i type="int" name="IBRION">    -1</i>
   <i type="int" name="MDALGO">     0</i>
   <i type="int" name="ISIF">     2</i>
   <i name="PSTRESS">      0.00000000</i>
   <i name="EDIFFG">     -0.00100000</i>
   <i type="int" name="NFREE">     0</i>
   <i name="POTIM">      0.50000000</i>
   <i name="SMASS">     -3.00000000</i>
   <i name="SCALEE">      1.00000000</i>
  </separator>
  <separator name="ionic md" >
   <i name="TEBEG">      0.00010000</i>
   <i name="TEEND">      0.00010000</i>
   <i type="int" name="NBLOCK">     1</i>
   <i type="int" name="KBLOCK">     1</i>
   <i type="int" name="NPACO">   256</i>
   <i name="APACO">     10.00000000</i>
  </separator>
  <separator name="symmetry" >
   <i type="int" name="ISYM">     2</i>
   <i name="SYMPREC">      0.00001000</i>
  </separator>
  <separator name="dos" >
   <i type="int" name="LORBIT">     0</i>
   <v name="RWIGS">     -1.00000000</v>
   <i type="int" name="NEDOS">   301</i>
   <i name="EMIN">     10.00000000</i>
   <i name="EMAX">    -10.00000000</i>
   <i name="EFERMI">      0.00000000</i>
  </separator>
  <separator name="writing" >
   <i type="int" name="NWRITE">     2</i>
   <i type="logical" name="LWAVE"> F  </i>
   <i type="logical" name="LDOWNSAMPLE"> F  </i>
   <i type="logical" name="LCHARG"> F  </i>
   <i type="logical" name="LPARD"> F  </i>
   <i type="logical" name="LVTOT"> F  </i>
   <i type="logical" name="LVHAR"> F  </i>
   <i type="logical" name="LELF"> F  </i>
   <i type="logical" name="LOPTICS"> F  </i>
   <v name="STM">      0.00000000      0.00000000      0.00000000      0.00000000      0.00000000      0.00000000      0.00000000</v>
  </separator>
  <separator name="performance" >
   <i type="int" name="NPAR">     8</i>
   <i type="int" name="NSIM">     4</i>
   <i type="int" name="NBLK">    -1</i>
   <i type="logical" name="LPLANE"> T  </i>
   <i type="logical" name="LSCALAPACK"> T  </i>
   <i type="logical" name="LSCAAWARE"> F  </i>
   <i type="logical" name="LSCALU"> F  </i>
   <i type="logical" name="LASYNC"> F  </i>
   <i type="logical" name="LORBITALREAL"> F  </i>
  </separator>
  <separator name="miscellaneous" >
   <i type="int" name="IDIOT">     3</i>
   <i type="int" name="PHON_NSTRUCT">    -1</i>
   <i type="logical" name="LMUSIC"> F  </i>
   <v name="POMASS">      1.00000000</v>
   <v name="DARWINR">      0.00000000</v>
   <v name="DARWINV">      1.00000000</v>
   <i type="logical" name="LCORR"> T  </i>
  </separator>
  <i type="logical" name="GGA_COMPAT"> T  </i>
  <i type="logical" name="LBERRY"> F  </i>
  <i type="int" name="ICORELEVEL">     0</i>
  <i type="logical" name="LDAU"> F  </i>
  <i type="int" name="I_CONSTRAINED_M">     0</i>
  <separator name="electronic exchange-correlation" >
   <i type="string" name="GGA    ">PE</i>
   <i type="string" name="XC_C">1</i>
   <i type="int" name="VOSKOWN">     0</i>
   <i type="logical" name="LHFCALC"> F  </i>
   <i type="string" name="PRECFOCK"></i>
   <i type="logical" name="LSYMGRAD"> F  </i>
   <i type="logical" name="LHFONE"> F  </i>
   <i type="logical" name="LRHFCALC"> F  </i>
   <i type="logical" name="LTHOMAS"> F  </i>
   <i type="logical" name="LMODELHF"> F  </i>
   <i type="logical" name="LFOCKACE"> F  </i>
   <i name="ENCUT4O">     -1.00000000</i>
   <i type="int" name="EXXOEP">     0</i>
   <i type="int" name="FOURORBIT">     0</i>
   <i name="AEXX">      0.00000000</i>
   <i name="HFALPHA">      0.00000000</i>
   <i name="MCALPHA">      0.00000000</i>
   <i name="ALDAX">      1.00000000</i>
   <i name="AGGAX">      1.00000000</i>
   <i name="AMGGAX">      1.00000000</i>
   <i name="ALDAC">      1.00000000</i>
   <i name="AGGAC">      1.00000000</i>
   <i name="AMGGAC">      1.00000000</i>
   <i type="int" name="NKREDX">     1</i>
   <i type="int" name="NKREDY">     1</i>
   <i type="int" name="NKREDZ">     1</i>
   <i type="logical" name="SHIFTRED"> F  </i>
   <i type="logical" name="ODDONLY"> F  </i>
   <i type="logical" name="EVENONLY"> F  </i>
   <i type="int" name="LMAXFOCK">     0</i>
   <i type="int" name="NMAXFOCKAE">     0</i>
   <i type="logical" name="LFOCKAEDFT"> F  </i>
   <i name="HFSCREEN">      0.00000000</i>
   <i name="HFSCREENC">      0.00000000</i>
   <i type="int" name="NBANDSGWLOW">     0</i>
  </separator>
  <separator name="vdW DFT" >
   <i type="logical" name="LUSE_VDW"> F  </i>
   <i type="int" name="IVDW_NL">    -1</i>
   <i type="logical" name="LSPIN_VDW"> F  </i>
   <i name="ZAB_VDW">     -0.84910000</i>
   <i name="GAMMA_VDW">      1.39626340</i>
   <i name="ALPHA_VDW">      0.00000000</i>
   <i name="PARAM1">      0.12340000</i>
   <i name="PARAM2">      1.00000000</i>
   <i name="BPARAM">      6.30000000</i>
   <i name="CPARAM">      0.00930000</i>
  </separator>
  <separator name="model GW" >
   <i type="int" name="MODEL_GW">     0</i>
   <i name="MODEL_EPS0">   2025.00000000</i>
   <i name="MODEL_ALPHA">      1.00000000</i>
  </separator>
  <separator name="linear response parameters" >
   <i type="logical" name="LEPSILON"> F  </i>
   <i type="logical" name="LRPA"> F  </i>
   <i type="logical" name="LNABLA"> F  </i>
   <i type="logical" name="LVEL"> F  </i>
   <i name="CSHIFT">      0.10000000</i>
   <i name="OMEGAMAX">     -1.00000000</i>
   <i name="DEG_THRESHOLD">      0.00200000</i>
   <i name="RTIME">     -0.10000000</i>
   <i name="WPLASMAI">      0.00000000</i>
   <v name="DFIELD">      0.00000000      0.00000000      0.00000000</v>
   <v name="WPLASMA">      0.00000000      0.00000000      0.00000000      0.00000000      0.00000000      0.00000000      0.00000000      0.00000000      0.00000000</v>
  </separator>
  <separator name="orbital magnetization" >
   <i type="logical" name="NUCIND"> F  </i>
   <v name="MAGPOS">      0.00000000      0.00000000      0.00000000</v>
   <i type="logical" name="LNICSALL"> T  </i>
   <i type="logical" name="ORBITALMAG"> F  </i>
   <i type="logical" name="LMAGBLOCH"> F  </i>
   <i type="logical" name="LCHIMAG"> F  </i>
   <i type="logical" name="LGAUGE"> T  </i>
   <i type="int" name="MAGATOM">     0</i>
   <v name="MAGDIPOL">      0.00000000      0.00000000      0.00000000</v>
   <v name="AVECCONST">      0.00000000      0.00000000      0.00000000</v>
  </separator>
  <separator name="response functions" >
   <i type="logical" name="LALL_IN_ONE"> F  </i>
   <i type="int" name="IALL_IN_ONE">    -1</i>
   <i type="int" name="NBANDS_WAVE">    -1</i>
   <i type="logical" name="LFINITE_TEMPERATURE"> F  </i>
   <i type="logical" name="LADDER"> F  </i>
   <i type="logical" name="LRPAFORCE"> F  </i>
   <i type="logical" name="LFXC"> F  </i>
   <i type="logical" name="LHARTREE"> T  </i>
   <i type="int" name="IBSE">     2</i>
   <v type="int" name="KPOINT">    -1     0     0     0</v>
   <i type="logical" name="LTCTC"> F  </i>
   <i type="logical" name="LTCTE"> F  </i>
   <i type="logical" name="LTETE"> F  </i>
   <i type="logical" name="LTRIPLET"> F  </i>
   <i type="logical" name="LFXCEPS"> F  </i>
   <i type="logical" name="LFXHEG"> F  </i>
   <i type="int" name="NATURALO">     2</i>
   <i type="logical" name="LHOLEGF"> F  </i>
   <i type="logical" name="L2ORDER"> F  </i>
   <i type="logical" name="LDMP1"> F  </i>
   <i type="logical" name="LMP2LT"> F  </i>
   <i type="logical" name="LSMP2LT"> F  </i>
   <i type="logical" name="LGWLF"> F  </i>
   <i name="ENCUTGW">     -1.60000002</i>
   <i name="ENCUTGWSOFT">     -1.60000002</i>
   <i name="ENCUTLF">     -1.00000000</i>
   <i type="logical" name="ESF_SPLINES"> F  </i>
   <i name="ESF_CONV">      0.01000000</i>
   <i type="int" name="ESF_NINTER">    15</i>
   <i type="int" name="LMAXMP2">    -1</i>
   <i name="SCISSOR">      0.00000000</i>
   <i type="int" name="NOMEGA">     0</i>
   <i type="int" name="NOMEGAR">     0</i>
   <i type="int" name="NBANDSGW">    -1</i>
   <i type="int" name="NBANDSO">    -1</i>
   <i type="int" name="NBANDSV">    -1</i>
   <i type="int" name="NELMGW">     1</i>
   <i type="int" name="NELMHF">     1</i>
   <i type="int" name="DIM">     3</i>
   <i type="int" name="IESPILON">     4</i>
   <i type="int" name="ANTIRES">     0</i>
   <i name="OMEGAMAX">    -30.00000000</i>
   <i name="OMEGAMIN">    -30.00000000</i>
   <i name="OMEGATL">   -200.00000000</i>
   <i type="int" name="OMEGAGRID">     0</i>
   <i name="CSHIFT">     -0.10000000</i>
   <i type="logical" name="LSELFENERGY"> F  </i>
   <i type="logical" name="LSPECTRAL"> F  </i>
   <i type="logical" name="LSPECTRALGW"> F  </i>
   <i type="logical" name="LSINGLES"> F  </i>
   <i type="logical" name="LFERMIGW"> F  </i>
   <i type="logical" name="ODDONLYGW"> F  </i>
   <i type="logical" name="EVENONLYGW"> F  </i>
   <i type="int" name="NKREDLFX">     1</i>
   <i type="int" name="NKREDLFY">     1</i>
   <i type="int" name="NKREDLFZ">     1</i>
   <i type="int" name="MAXMEM">  2800</i>
   <i type="int" name="TELESCOPE">     0</i>
   <i type="int" name="NTAUPAR">    -1</i>
   <i type="int" name="NOMEGAPAR">    -1</i>
   <i name="DAMP_NEWTON">      0.80000001</i>
   <i name="LAMBDA">      1.00000000</i>
  </separator>
  <separator name="External order field" >
   <i name="OFIELD_KAPPA">      0.00000000</i>
   <v name="OFIELD_K">      0.00000000      0.00000000      0.00000000</v>
   <i name="OFIELD_Q6_NEAR">      0.00000000</i>
   <i name="OFIELD_Q6_FAR">      0.00000000</i>
   <i name="OFIELD_A">      0.00000000</i>
  </separator>
  <separator name="optional k-points parameters" >
   <i type="int" name="KPOINTS_OPT_MODE">     1</i>
   <i type="logical" name="LKPOINTS_OPT"> F  </i>
  </separator>
 </parameters>
 <atominfo>
  <atoms>       1 </atoms>
  <types>       1 </types>
  <array name="atoms" >
   <dimension dim="1">ion</dimension>
   <field type="string">element</field>
   <field type="int">atomtype</field>
   <set>
    <rc><c>H </c><c>   1</c></rc>
   </set>
  </array>
  <array name="atomtypes" >
   <dimension dim="1">type</dimension>
   <field type="int">atomspertype</field>
   <field type="string">element</field>
   <field>mass</field>
   <field>valence</field>
   <field type="string">pseudopotential</field>
   <set>
    <rc><c>   1</c><c>H </c><c>      1.00000000</c><c>      1.00000000</c><c>  PAW_PBE H 15Jun2001                   </c></rc>
   </set>
  </array>
 </atominfo>
 <structure name="initialpos" >
  <crystal>
   <varray name="basis" >
    <v>      15.00000000       0.00000000       0.00000000 </v>
    <v>       0.00000000      12.50000000       0.00000000 </v>
    <v>       0.00000000       0.00000000      18.00000000 </v>
   </varray>
   <i name="volume">   3375.00000000 </i>
   <varray name="rec_basis" >
    <v>       0.06666667       0.00000000       0.00000000 </v>
    <v>       0.00000000       0.08000000       0.00000000 </v>
    <v>       0.00000000       0.00000000       0.05555556 </v>
   </varray>
  </crystal>
  <varray name="positions" >
   <v>       0.52123000       0.54500000       0.63796000 </v>
  </varray>
 </structure>
 <calculation>
  <scstep>
   <time name="dav">    0.63    0.64</time>
   <time name="total">    3.25    3.27</time>
   <energy>
    <i name="alphaZ">      0.00072183 </i>
    <i name="ewald">     -1.31433518 </i>
    <i name="hartreedc">     -6.57051431 </i>
    <i name="XCdc">      2.20983309 </i>
    <i name="pawpsdc">      1.79432987 </i>
    <i name="pawaedc">     -1.80270143 </i>
    <i name="eentropy">     -0.00000000 </i>
    <i name="bandstr">     -3.63368488 </i>
    <i name="atom">     12.48798843 </i>
    <i name="e_fr_energy">      3.17163741 </i>
    <i name="e_wo_entrp">      3.17163741 </i>
    <i name="e_0_energy">      3.17163741 </i>
   </energy>
  </scstep>
  <scstep>
   <time name="dav">    0.73    0.74</time>
   <time name="total">    0.73    0.74</time>
   <energy>
    <i name="e_fr_energy">     -0.83412605 </i>
    <i name="e_wo_entrp">     -0.83412605 </i>
    <i name="e_0_energy">     -0.83412605 </i>
   </energy>
  </scstep>
  <scstep>
   <time name="dav">    0.82    0.83</time>
   <time name="total">    0.82    0.83</time>
   <energy>
    <i name="e_fr_energy">     -1.12020931 </i>
    <i name="e_wo_entrp">     -1.12020931 </i>
    <i name="e_0_energy">     -1.12020931 </i>
   </energy>
  </scstep>
  <scstep>
   <time name="dav">    0.83    0.84</time>
   <time name="total">    0.83    0.84</time>
   <energy>
    <i name="e_fr_energy">     -1.12327694 </i>
    <i name="e_wo_entrp">     -1.12327694 </i>
    <i name="e_0_energy">     -1.12327694 </i>
   </energy>
  </scstep>
  <scstep>
   <time name="dav">    0.93    0.94</time>
   <time name="total">    1.48    1.49</time>
   <energy>
    <i name="e_fr_energy">     -1.12327701 </i>
    <i name="e_wo_entrp">     -1.12327701 </i>
    <i name="e_0_energy">     -1.12327701 </i>
   </energy>
  </scstep>
  <scstep>
   <time name="dav">    0.83    0.84</time>
   <time name="total">    4.15    4.17</time>
   <energy>
    <i name="e_fr_energy">      0.03198522 </i>
    <i name="e_wo_entrp">      0.03198522 </i>
    <i name="e_0_energy">      0.03198522 </i>
   </energy>
  </scstep>
  <scstep>
   <time name="dav">    0.83    0.84</time>
   <time name="total">    4.15    4.18</time>
   <energy>
    <i name="e_fr_energy">     -0.67364414 </i>
    <i name="e_wo_entrp">     -0.67364414 </i>
    <i name="e_0_energy">     -0.67364414 </i>
   </energy>
  </scstep>
  <scstep>
   <time name="dav">    0.83    0.84</time>
   <time name="total">    4.17    4.19</time>
   <energy>
    <i name="e_fr_energy">     -1.06338179 </i>
    <i name="e_wo_entrp">     -1.06338179 </i>
    <i name="e_0_energy">     -1.06338179 </i>
   </energy>
  </scstep>
  <scstep>
   <time name="dav">    0.62    0.63</time>
   <time name="total">    3.96    3.98</time>
   <energy>
    <i name="e_fr_energy">     -1.06469288 </i>
    <i name="e_wo_entrp">     -1.06469288 </i>
    <i name="e_0_energy">     -1.06469288 </i>
   </energy>
  </scstep>
  <scstep>
   <time name="dav">    0.63    0.63</time>
   <time name="total">    3.96    3.99</time>
   <energy>
    <i name="e_fr_energy">     -1.09613011 </i>
    <i name="e_wo_entrp">     -1.09613011 </i>
    <i name="e_0_energy">     -1.09613011 </i>
   </energy>
  </scstep>
  <scstep>
   <time name="dav">    0.63    0.63</time>
   <time name="total">    3.96    3.98</time>
   <energy>
    <i name="e_fr_energy">     -1.11429146 </i>
    <i name="e_wo_entrp">     -1.11429146 </i>
    <i name="e_0_energy">     -1.11429146 </i>
   </energy>
  </scstep>
  <scstep>
   <time name="dav">    0.62    0.63</time>
   <time name="total">    3.95    3.98</time>
   <energy>
    <i name="e_fr_energy">     -1.11309704 </i>
    <i name="e_wo_entrp">     -1.11309704 </i>
    <i name="e_0_energy">     -1.11309704 </i>
   </energy>
  </scstep>
  <scstep>
   <time name="dav">    0.63    0.63</time>
   <time name="total">    3.92    3.96</time>
   <energy>
    <i name="e_fr_energy">     -1.11558392 </i>
    <i name="e_wo_entrp">     -1.11558392 </i>
    <i name="e_0_energy">     -1.11558392 </i>
   </energy>
  </scstep>
  <scstep>
   <time name="dav">    0.73    0.74</time>
   <time name="total">    4.03    4.08</time>
   <energy>
    <i name="e_fr_energy">     -1.11589495 </i>
    <i name="e_wo_entrp">     -1.11589495 </i>
    <i name="e_0_energy">     -1.11589495 </i>
   </energy>
  </scstep>
  <scstep>
   <time name="dav">    0.63    0.63</time>
   <time name="total">    3.94    3.97</time>
   <energy>
    <i name="e_fr_energy">     -1.11661403 </i>
    <i name="e_wo_entrp">     -1.11661403 </i>
    <i name="e_0_energy">     -1.11661403 </i>
   </energy>
  </scstep>
  <scstep>
   <time name="dav">    0.83    0.84</time>
   <time name="total">    4.17    4.20</time>
   <energy>
    <i name="e_fr_energy">     -1.11716567 </i>
    <i name="e_wo_entrp">     -1.11716567 </i>
    <i name="e_0_energy">     -1.11716567 </i>
   </energy>
  </scstep>
  <scstep>
   <time name="dav">    0.63    0.63</time>
   <time name="total">    3.94    3.96</time>
   <energy>
    <i name="e_fr_energy">     -1.11721883 </i>
    <i name="e_wo_entrp">     -1.11721883 </i>
    <i name="e_0_energy">     -1.11721883 </i>
   </energy>
  </scstep>
  <scstep>
   <time name="dav">    0.74    0.74</time>
   <time name="total">    4.09    4.11</time>
   <energy>
    <i name="e_fr_energy">     -1.11728243 </i>
    <i name="e_wo_entrp">     -1.11728243 </i>
    <i name="e_0_energy">     -1.11728243 </i>
   </energy>
  </scstep>
  <scstep>
   <time name="dav">    0.73    0.74</time>
   <time name="total">    4.08    4.10</time>
   <energy>
    <i name="e_fr_energy">     -1.11733103 </i>
    <i name="e_wo_entrp">     -1.11733103 </i>
    <i name="e_0_energy">     -1.11733103 </i>
   </energy>
  </scstep>
  <scstep>
   <time name="dav">    0.84    0.85</time>
   <time name="total">    4.17    4.20</time>
   <energy>
    <i name="e_fr_energy">     -1.11738292 </i>
    <i name="e_wo_entrp">     -1.11738292 </i>
    <i name="e_0_energy">     -1.11738292 </i>
   </energy>
  </scstep>
  <scstep>
   <time name="dav">    0.63    0.63</time>
   <time name="total">    3.98    4.00</time>
   <energy>
    <i name="e_fr_energy">     -1.11739457 </i>
    <i name="e_wo_entrp">     -1.11739457 </i>
    <i name="e_0_energy">     -1.11739457 </i>
   </energy>
  </scstep>
  <scstep>
   <time name="dav">    0.73    0.73</time>
   <time name="total">    4.05    4.07</time>
   <energy>
    <i name="e_fr_energy">     -1.11741812 </i>
    <i name="e_wo_entrp">     -1.11741812 </i>
    <i name="e_0_energy">     -1.11741812 </i>
   </energy>
  </scstep>
  <scstep>
   <time name="dav">    0.84    0.84</time>
   <time name="total">    4.16    4.19</time>
   <energy>
    <i name="e_fr_energy">     -1.11741661 </i>
    <i name="e_wo_entrp">     -1.11741661 </i>
    <i name="e_0_energy">     -1.11741661 </i>
   </energy>
  </scstep>
  <scstep>
   <time name="dav">    0.83    0.84</time>
   <time name="total">    4.17    4.20</time>
   <energy>
    <i name="e_fr_energy">     -1.11742136 </i>
    <i name="e_wo_entrp">     -1.11742136 </i>
    <i name="e_0_energy">     -1.11742136 </i>
   </energy>
  </scstep>
  <scstep>
   <time name="dav">    0.73    0.74</time>
   <time name="total">    4.03    4.07</time>
   <energy>
    <i name="e_fr_energy">     -1.11742297 </i>
    <i name="e_wo_entrp">     -1.11742297 </i>
    <i name="e_0_energy">     -1.11742297 </i>
   </energy>
  </scstep>
  <scstep>
   <time name="dav">    0.73    0.74</time>
   <time name="total">    4.11    4.17</time>
   <energy>
    <i name="e_fr_energy">     -1.11742741 </i>
    <i name="e_wo_entrp">     -1.11742741 </i>
    <i name="e_0_energy">     -1.11742741 </i>
   </energy>
  </scstep>
  <scstep>
   <time name="dav">    0.83    0.84</time>
   <time name="total">    3.57    3.61</time>
   <energy>
    <i name="alphaZ">      0.00072183 </i>
    <i name="ewald">     -1.31433518 </i>
    <i name="hartreedc">     -7.02976368 </i>
    <i name="XCdc">      2.33519648 </i>
    <i name="pawpsdc">      2.11581921 </i>
    <i name="pawaedc">     -2.12599054 </i>
    <i name="eentropy">     -0.00000000 </i>
    <i name="bandstr">     -7.58706428 </i>
    <i name="atom">     12.48798843 </i>
    <i name="e_fr_energy">     -1.11742774 </i>
    <i name="e_wo_entrp">     -1.11742774 </i>
    <i name="e_0_energy">     -1.11742774 </i>
   </energy>
  </scstep>
  <structure>
   <crystal>
    <varray name="basis" >
     <v>      15.00000000       0.00000000       0.00000000 </v>
     <v>       0.00000000      12.50000000       0.00000000 </v>
     <v>       0.00000000       0.00000000      18.00000000 </v>
    </varray>
    <i name="volume">   3375.00000000 </i>
    <varray name="rec_basis" >
     <v>       0.06666667       0.00000000       0.00000000 </v>
     <v>       0.00000000       0.08000000       0.00000000 </v>
     <v>       0.00000000       0.00000000       0.05555556 </v>
    </varray>
   </crystal>
   <varray name="positions" >
    <v>       0.52123000       0.54500000       0.63796000 </v>
   </varray>
  </structure>
  <varray name="forces" >
   <v>       0.00000000       0.00000000       0.00000000 </v>
  </varray>
  <varray name="stress" >
   <v>      -0.00126460       0.00000000       0.00000000 </v>
   <v>       0.00000000      -0.00125698       0.00000000 </v>
   <v>       0.00000000       0.00000000      -0.00125961 </v>
  </varray>
  <energy>
   <i name="e_fr_energy">     -1.11742774 </i>
   <i name="e_wo_entrp">     -1.11742774 </i>
   <i name="e_0_energy">     -1.11742774 </i>
  </energy>
  <time name="totalsc">   99.89  100.67</time>
  <eigenvalues>
   <array>
    <dimension dim="1">band</dimension>
    <dimension dim="2">kpoint</dimension>
    <dimension dim="3">spin</dimension>
    <field>eigene</field>
    <field>occ</field>
    <set>
     <set comment="spin 1">
      <set comment="kpoint 1">
       <r>   -7.5871    1.0000 </r>
       <r>   -0.1165    0.0000 </r>
       <r>    0.2784    0.0000 </r>
       <r>    0.3527    0.0000 </r>
       <r>    0.3930    0.0000 </r>
       <r>    0.5537    0.0000 </r>
       <r>    0.5962    0.0000 </r>
       <r>    0.8648    0.0000 </r>
      </set>
     </set>
     <set comment="spin 2">
      <set comment="kpoint 1">
       <r>    0.0160    0.0000 </r>
       <r>    0.4689    0.0000 </r>
       <r>    0.4891    0.0000 </r>
       <r>    0.6732    0.0000 </r>
       <r>    0.6972    0.0000 </r>
       <r>    0.9699    0.0000 </r>
       <r>    0.9825    0.0000 </r>
       <r>    1.1419    0.0000 </r>
      </set>
     </set>
    </set>
   </array>
  </eigenvalues>
  <separator name="orbital magnetization" >
   <v name="MAGDIPOLOUT">      0.00000000      0.00000000      0.00000000</v>
  </separator>
  <dos>
   <i name="efermi">     -7.34092566 </i>
   <total>
    <array>
     <dimension dim="1">gridpoints</dimension>
     <dimension dim="2">spin</dimension>
     <field>energy</field>
     <field>total</field>
     <field>integrated</field>
     <set>
      <set comment="spin 1">
       <r>    -8.0871     0.0000     0.0000 </r>
       <r>    -8.0546     0.0000     0.0000 </r>
       <r>    -8.0222     0.0000     0.0000 </r>
       <r>    -7.9898     0.0000     0.0000 </r>
       <r>    -7.9573     0.0000     0.0000 </r>
       <r>    -7.9249     0.0000     0.0000 </r>
       <r>    -7.8925     0.0000     0.0000 </r>
       <r>    -7.8601     0.0000     0.0000 </r>
       <r>    -7.8276     0.0000     0.0000 </r>
       <r>    -7.7952     0.0000     0.0000 </r>
       <r>    -7.7628     0.0000     0.0000 </r>
       <r>    -7.7303     0.0008     0.0000 </r>
       <r>    -7.6979     0.0257     0.0009 </r>
       <r>    -7.6655     0.3831     0.0133 </r>
       <r>    -7.6330     2.5722     0.0967 </r>
       <r>    -7.6006     7.8334     0.3507 </r>
       <r>    -7.5682    10.8716     0.7033 </r>
       <r>    -7.5358     6.8867     0.9266 </r>
       <r>    -7.5033     1.9869     0.9911 </r>
       <r>    -7.4709     0.2597     0.9995 </r>
       <r>    -7.4385     0.0153     1.0000 </r>
       <r>    -7.4060     0.0004     1.0000 </r>
       <r>    -7.3736     0.0000     1.0000 </r>
       <r>    -7.3412     0.0000     1.0000 </r>
       <r>    -7.3087     0.0000     1.0000 </r>
       <r>    -7.2763     0.0000     1.0000 </r>
       <r>    -7.2439     0.0000     1.0000 </r>
       <r>    -7.2115     0.0000     1.0000 </r>
       <r>    -7.1790     0.0000     1.0000 </r>
       <r>    -7.1466     0.0000     1.0000 </r>
       <r>    -7.1142     0.0000     1.0000 </r>
       <r>    -7.0817     0.0000     1.0000 </r>
       <r>    -7.0493     0.0000     1.0000 </r>
       <r>    -7.0169     0.0000     1.0000 </r>
       <r>    -6.9845     0.0000     1.0000 </r>
       <r>    -6.9520     0.0000     1.0000 </r>
       <r>    -6.9196     0.0000     1.0000 </r>
       <r>    -6.8872     0.0000     1.0000 </r>
       <r>    -6.8547     0.0000     1.0000 </r>
       <r>    -6.8223     0.0000     1.0000 </r>
       <r>    -6.7899     0.0000     1.0000 </r>
       <r>    -6.7574     0.0000     1.0000 </r>
       <r>    -6.7250     0.0000     1.0000 </r>
       <r>    -6.6926     0.0000     1.0000 </r>
       <r>    -6.6602     0.0000     1.0000 </r>
       <r>    -6.6277     0.0000     1.0000 </r>
       <r>    -6.5953     0.0000     1.0000 </r>
       <r>    -6.5629     0.0000     1.0000 </r>
       <r>    -6.5304     0.0000     1.0000 </r>
       <r>    -6.4980     0.0000     1.0000 </r>
       <r>    -6.4656     0.0000     1.0000 </r>
       <r>    -6.4331     0.0000     1.0000 </r>
       <r>    -6.4007     0.0000     1.0000 </r>
       <r>    -6.3683     0.0000     1.0000 </r>
       <r>    -6.3359     0.0000     1.0000 </r>
       <r>    -6.3034     0.0000     1.0000 </r>
       <r>    -6.2710     0.0000     1.0000 </r>
       <r>    -6.2386     0.0000     1.0000 </r>
       <r>    -6.2061     0.0000     1.0000 </r>
       <r>    -6.1737     0.0000     1.0000 </r>
       <r>    -6.1413     0.0000     1.0000 </r>
       <r>    -6.1088     0.0000     1.0000 </r>
       <r>    -6.0764     0.0000     1.0000 </r>
       <r>    -6.0440     0.0000     1.0000 </r>
       <r>    -6.0116     0.0000     1.0000 </r>
       <r>    -5.9791     0.0000     1.0000 </r>
       <r>    -5.9467     0.0000     1.0000 </r>
       <r>    -5.9143     0.0000     1.0000 </r>
       <r>    -5.8818     0.0000     1.0000 </r>
       <r>    -5.8494     0.0000     1.0000 </r>
       <r>    -5.8170     0.0000     1.0000 </r>
       <r>    -5.7845     0.0000     1.0000 </r>
       <r>    -5.7521     0.0000     1.0000 </r>
       <r>    -5.7197     0.0000     1.0000 </r>
       <r>    -5.6873     0.0000     1.0000 </r>
       <r>    -5.6548     0.0000     1.0000 </r>
       <r>    -5.6224     0.0000     1.0000 </r>
       <r>    -5.5900     0.0000     1.0000 </r>
       <r>    -5.5575     0.0000     1.0000 </r>
       <r>    -5.5251     0.0000     1.0000 </r>
       <r>    -5.4927     0.0000     1.0000 </r>
       <r>    -5.4603     0.0000     1.0000 </r>
       <r>    -5.4278     0.0000     1.0000 </r>
       <r>    -5.3954     0.0000     1.0000 </r>
       <r>    -5.3630     0.0000     1.0000 </r>
       <r>    -5.3305     0.0000     1.0000 </r>
       <r>    -5.2981     0.0000     1.0000 </r>
       <r>    -5.2657     0.0000     1.0000 </r>
       <r>    -5.2332     0.0000     1.0000 </r>
       <r>    -5.2008     0.0000     1.0000 </r>
       <r>    -5.1684     0.0000     1.0000 </r>
       <r>    -5.1360     0.0000     1.0000 </r>
       <r>    -5.1035     0.0000     1.0000 </r>
       <r>    -5.0711     0.0000     1.0000 </r>
       <r>    -5.0387     0.0000     1.0000 </r>
       <r>    -5.0062     0.0000     1.0000 </r>
       <r>    -4.9738     0.0000     1.0000 </r>
       <r>    -4.9414     0.0000     1.0000 </r>
       <r>    -4.9089     0.0000     1.0000 </r>
       <r>    -4.8765     0.0000     1.0000 </r>
       <r>    -4.8441     0.0000     1.0000 </r>
       <r>    -4.8117     0.0000     1.0000 </r>
       <r>    -4.7792     0.0000     1.0000 </r>
       <r>    -4.7468     0.0000     1.0000 </r>
       <r>    -4.7144     0.0000     1.0000 </r>
       <r>    -4.6819     0.0000     1.0000 </r>
       <r>    -4.6495     0.0000     1.0000 </r>
       <r>    -4.6171     0.0000     1.0000 </r>
       <r>    -4.5846     0.0000     1.0000 </r>
       <r>    -4.5522     0.0000     1.0000 </r>
       <r>    -4.5198     0.0000     1.0000 </r>
       <r>    -4.4874     0.0000     1.0000 </r>
       <r>    -4.4549     0.0000     1.0000 </r>
       <r>    -4.4225     0.0000     1.0000 </r>
       <r>    -4.3901     0.0000     1.0000 </r>
       <r>    -4.3576     0.0000     1.0000 </r>
       <r>    -4.3252     0.0000     1.0000 </r>
       <r>    -4.2928     0.0000     1.0000 </r>
       <r>    -4.2603     0.0000     1.0000 </r>
       <r>    -4.2279     0.0000     1.0000 </r>
       <r>    -4.1955     0.0000     1.0000 </r>
       <r>    -4.1631     0.0000     1.0000 </r>
       <r>    -4.1306     0.0000     1.0000 </r>
       <r>    -4.0982     0.0000     1.0000 </r>
       <r>    -4.0658     0.0000     1.0000 </r>
       <r>    -4.0333     0.0000     1.0000 </r>
       <r>    -4.0009     0.0000     1.0000 </r>
       <r>    -3.9685     0.0000     1.0000 </r>
       <r>    -3.9361     0.0000     1.0000 </r>
       <r>    -3.9036     0.0000     1.0000 </r>
       <r>    -3.8712     0.0000     1.0000 </r>
       <r>    -3.8388     0.0000     1.0000 </r>
       <r>    -3.8063     0.0000     1.0000 </r>
       <r>    -3.7739     0.0000     1.0000 </r>
       <r>    -3.7415     0.0000     1.0000 </r>
       <r>    -3.7090     0.0000     1.0000 </r>
       <r>    -3.6766     0.0000     1.0000 </r>
       <r>    -3.6442     0.0000     1.0000 </r>
       <r>    -3.6118     0.0000     1.0000 </r>
       <r>    -3.5793     0.0000     1.0000 </r>
       <r>    -3.5469     0.0000     1.0000 </r>
       <r>    -3.5145     0.0000     1.0000 </r>
       <r>    -3.4820     0.0000     1.0000 </r>
       <r>    -3.4496     0.0000     1.0000 </r>
       <r>    -3.4172     0.0000     1.0000 </r>
       <r>    -3.3847     0.0000     1.0000 </r>
       <r>    -3.3523     0.0000     1.0000 </r>
       <r>    -3.3199     0.0000     1.0000 </r>
       <r>    -3.2875     0.0000     1.0000 </r>
       <r>    -3.2550     0.0000     1.0000 </r>
       <r>    -3.2226     0.0000     1.0000 </r>
       <r>    -3.1902     0.0000     1.0000 </r>
       <r>    -3.1577     0.0000     1.0000 </r>
       <r>    -3.1253     0.0000     1.0000 </r>
       <r>    -3.0929     0.0000     1.0000 </r>
       <r>    -3.0604     0.0000     1.0000 </r>
       <r>    -3.0280     0.0000     1.0000 </r>
       <r>    -2.9956     0.0000     1.0000 </r>
       <r>    -2.9632     0.0000     1.0000 </r>
       <r>    -2.9307     0.0000     1.0000 </r>
       <r>    -2.8983     0.0000     1.0000 </r>
       <r>    -2.8659     0.0000     1.0000 </r>
       <r>    -2.8334     0.0000     1.0000 </r>
       <r>    -2.8010     0.0000     1.0000 </r>
       <r>    -2.7686     0.0000     1.0000 </r>
       <r>    -2.7361     0.0000     1.0000 </r>
       <r>    -2.7037     0.0000     1.0000 </r>
       <r>    -2.6713     0.0000     1.0000 </r>
       <r>    -2.6389     0.0000     1.0000 </r>
       <r>    -2.6064     0.0000     1.0000 </r>
       <r>    -2.5740     0.0000     1.0000 </r>
       <r>    -2.5416     0.0000     1.0000 </r>
       <r>    -2.5091     0.0000     1.0000 </r>
       <r>    -2.4767     0.0000     1.0000 </r>
       <r>    -2.4443     0.0000     1.0000 </r>
       <r>    -2.4119     0.0000     1.0000 </r>
       <r>    -2.3794     0.0000     1.0000 </r>
       <r>    -2.3470     0.0000     1.0000 </r>
       <r>    -2.3146     0.0000     1.0000 </r>
       <r>    -2.2821     0.0000     1.0000 </r>
       <r>    -2.2497     0.0000     1.0000 </r>
       <r>    -2.2173     0.0000     1.0000 </r>
       <r>    -2.1848     0.0000     1.0000 </r>
       <r>    -2.1524     0.0000     1.0000 </r>
       <r>    -2.1200     0.0000     1.0000 </r>
       <r>    -2.0876     0.0000     1.0000 </r>
       <r>    -2.0551     0.0000     1.0000 </r>
       <r>    -2.0227     0.0000     1.0000 </r>
       <r>    -1.9903     0.0000     1.0000 </r>
       <r>    -1.9578     0.0000     1.0000 </r>
       <r>    -1.9254     0.0000     1.0000 </r>
       <r>    -1.8930     0.0000     1.0000 </r>
       <r>    -1.8605     0.0000     1.0000 </r>
       <r>    -1.8281     0.0000     1.0000 </r>
       <r>    -1.7957     0.0000     1.0000 </r>
       <r>    -1.7633     0.0000     1.0000 </r>
       <r>    -1.7308     0.0000     1.0000 </r>
       <r>    -1.6984     0.0000     1.0000 </r>
       <r>    -1.6660     0.0000     1.0000 </r>
       <r>    -1.6335     0.0000     1.0000 </r>
       <r>    -1.6011     0.0000     1.0000 </r>
       <r>    -1.5687     0.0000     1.0000 </r>
       <r>    -1.5362     0.0000     1.0000 </r>
       <r>    -1.5038     0.0000     1.0000 </r>
       <r>    -1.4714     0.0000     1.0000 </r>
       <r>    -1.4390     0.0000     1.0000 </r>
       <r>    -1.4065     0.0000     1.0000 </r>
       <r>    -1.3741     0.0000     1.0000 </r>
       <r>    -1.3417     0.0000     1.0000 </r>
       <r>    -1.3092     0.0000     1.0000 </r>
       <r>    -1.2768     0.0000     1.0000 </r>
       <r>    -1.2444     0.0000     1.0000 </r>
       <r>    -1.2119     0.0000     1.0000 </r>
       <r>    -1.1795     0.0000     1.0000 </r>
       <r>    -1.1471     0.0000     1.0000 </r>
       <r>    -1.1147     0.0000     1.0000 </r>
       <r>    -1.0822     0.0000     1.0000 </r>
       <r>    -1.0498     0.0000     1.0000 </r>
       <r>    -1.0174     0.0000     1.0000 </r>
       <r>    -0.9849     0.0000     1.0000 </r>
       <r>    -0.9525     0.0000     1.0000 </r>
       <r>    -0.9201     0.0000     1.0000 </r>
       <r>    -0.8877     0.0000     1.0000 </r>
       <r>    -0.8552     0.0000     1.0000 </r>
       <r>    -0.8228     0.0000     1.0000 </r>
       <r>    -0.7904     0.0000     1.0000 </r>
       <r>    -0.7579     0.0000     1.0000 </r>
       <r>    -0.7255     0.0000     1.0000 </r>
       <r>    -0.6931     0.0000     1.0000 </r>
       <r>    -0.6606     0.0000     1.0000 </r>
       <r>    -0.6282     0.0000     1.0000 </r>
       <r>    -0.5958     0.0000     1.0000 </r>
       <r>    -0.5634     0.0000     1.0000 </r>
       <r>    -0.5309     0.0000     1.0000 </r>
       <r>    -0.4985     0.0000     1.0000 </r>
       <r>    -0.4661     0.0000     1.0000 </r>
       <r>    -0.4336     0.0000     1.0000 </r>
       <r>    -0.4012     0.0000     1.0000 </r>
       <r>    -0.3688     0.0000     1.0000 </r>
       <r>    -0.3363     0.0000     1.0000 </r>
       <r>    -0.3039     0.0000     1.0000 </r>
       <r>    -0.2715     0.0002     1.0000 </r>
       <r>    -0.2391     0.0079     1.0003 </r>
       <r>    -0.2066     0.1581     1.0054 </r>
       <r>    -0.1742     1.4153     1.0513 </r>
       <r>    -0.1418     5.7337     1.2372 </r>
       <r>    -0.1093    10.5710     1.5800 </r>
       <r>    -0.0769     8.8943     1.8685 </r>
       <r>    -0.0445     3.4124     1.9792 </r>
       <r>    -0.0120     0.5945     1.9984 </r>
       <r>     0.0204     0.0467     1.9999 </r>
       <r>     0.0528     0.0016     2.0000 </r>
       <r>     0.0852     0.0000     2.0000 </r>
       <r>     0.1177     0.0001     2.0000 </r>
       <r>     0.1501     0.0043     2.0001 </r>
       <r>     0.1825     0.0991     2.0034 </r>
       <r>     0.2150     1.0216     2.0365 </r>
       <r>     0.2474     4.7919     2.1919 </r>
       <r>     0.2798    10.6310     2.5366 </r>
       <r>     0.3123    13.3176     2.9685 </r>
       <r>     0.3447    15.3324     3.4658 </r>
       <r>     0.3771    18.9024     4.0788 </r>
       <r>     0.4095    16.8659     4.6257 </r>
       <r>     0.4420     8.8232     4.9119 </r>
       <r>     0.4744     2.7717     5.0017 </r>
       <r>     0.5068     2.9519     5.0975 </r>
       <r>     0.5393     9.1747     5.3950 </r>
       <r>     0.5717    16.7693     5.9388 </r>
       <r>     0.6041    17.6783     6.5121 </r>
       <r>     0.6366    10.8448     6.8638 </r>
       <r>     0.6690     3.5741     6.9797 </r>
       <r>     0.7014     0.5796     6.9985 </r>
       <r>     0.7338     0.0470     7.0001 </r>
       <r>     0.7663     0.0805     7.0027 </r>
       <r>     0.7987     0.8682     7.0308 </r>
       <r>     0.8311     4.3118     7.1707 </r>
       <r>     0.8636     9.7334     7.4863 </r>
       <r>     0.8960    10.0234     7.8114 </r>
       <r>     0.9284     4.7094     7.9641 </r>
       <r>     0.9608     1.0061     7.9967 </r>
       <r>     0.9933     0.0971     7.9999 </r>
       <r>     1.0257     0.0042     8.0000 </r>
       <r>     1.0581     0.0001     8.0000 </r>
       <r>     1.0906     0.0000     8.0000 </r>
       <r>     1.1230     0.0000     8.0000 </r>
       <r>     1.1554     0.0000     8.0000 </r>
       <r>     1.1879     0.0000     8.0000 </r>
       <r>     1.2203     0.0000     8.0000 </r>
       <r>     1.2527     0.0000     8.0000 </r>
       <r>     1.2851     0.0000     8.0000 </r>
       <r>     1.3176     0.0000     8.0000 </r>
       <r>     1.3500     0.0000     8.0000 </r>
       <r>     1.3824     0.0000     8.0000 </r>
       <r>     1.4149     0.0000     8.0000 </r>
       <r>     1.4473     0.0000     8.0000 </r>
       <r>     1.4797     0.0000     8.0000 </r>
       <r>     1.5122     0.0000     8.0000 </r>
       <r>     1.5446     0.0000     8.0000 </r>
       <r>     1.5770     0.0000     8.0000 </r>
       <r>     1.6094     0.0000     8.0000 </r>
       <r>     1.6419     0.0000     8.0000 </r>
      </set>
      <set comment="spin 2">
       <r>    -8.0871     0.0000     0.0000 </r>
       <r>    -8.0546     0.0000     0.0000 </r>
       <r>    -8.0222     0.0000     0.0000 </r>
       <r>    -7.9898     0.0000     0.0000 </r>
       <r>    -7.9573     0.0000     0.0000 </r>
       <r>    -7.9249     0.0000     0.0000 </r>
       <r>    -7.8925     0.0000     0.0000 </r>
       <r>    -7.8601     0.0000     0.0000 </r>
       <r>    -7.8276     0.0000     0.0000 </r>
       <r>    -7.7952     0.0000     0.0000 </r>
       <r>    -7.7628     0.0000     0.0000 </r>
       <r>    -7.7303     0.0000     0.0000 </r>
       <r>    -7.6979     0.0000     0.0000 </r>
       <r>    -7.6655     0.0000     0.0000 </r>
       <r>    -7.6330     0.0000     0.0000 </r>
       <r>    -7.6006     0.0000     0.0000 </r>
       <r>    -7.5682     0.0000     0.0000 </r>
       <r>    -7.5358     0.0000     0.0000 </r>
       <r>    -7.5033     0.0000     0.0000 </r>
       <r>    -7.4709     0.0000     0.0000 </r>
       <r>    -7.4385     0.0000     0.0000 </r>
       <r>    -7.4060     0.0000     0.0000 </r>
       <r>    -7.3736     0.0000     0.0000 </r>
       <r>    -7.3412     0.0000     0.0000 </r>
       <r>    -7.3087     0.0000     0.0000 </r>
       <r>    -7.2763     0.0000     0.0000 </r>
       <r>    -7.2439     0.0000     0.0000 </r>
       <r>    -7.2115     0.0000     0.0000 </r>
       <r>    -7.1790     0.0000     0.0000 </r>
       <r>    -7.1466     0.0000     0.0000 </r>
       <r>    -7.1142     0.0000     0.0000 </r>
       <r>    -7.0817     0.0000     0.0000 </r>
       <r>    -7.0493     0.0000     0.0000 </r>
       <r>    -7.0169     0.0000     0.0000 </r>
       <r>    -6.9845     0.0000     0.0000 </r>
       <r>    -6.9520     0.0000     0.0000 </r>
       <r>    -6.9196     0.0000     0.0000 </r>
       <r>    -6.8872     0.0000     0.0000 </r>
       <r>    -6.8547     0.0000     0.0000 </r>
       <r>    -6.8223     0.0000     0.0000 </r>
       <r>    -6.7899     0.0000     0.0000 </r>
       <r>    -6.7574     0.0000     0.0000 </r>
       <r>    -6.7250     0.0000     0.0000 </r>
       <r>    -6.6926     0.0000     0.0000 </r>
       <r>    -6.6602     0.0000     0.0000 </r>
       <r>    -6.6277     0.0000     0.0000 </r>
       <r>    -6.5953     0.0000     0.0000 </r>
       <r>    -6.5629     0.0000     0.0000 </r>
       <r>    -6.5304     0.0000     0.0000 </r>
       <r>    -6.4980     0.0000     0.0000 </r>
       <r>    -6.4656     0.0000     0.0000 </r>
       <r>    -6.4331     0.0000     0.0000 </r>
       <r>    -6.4007     0.0000     0.0000 </r>
       <r>    -6.3683     0.0000     0.0000 </r>
       <r>    -6.3359     0.0000     0.0000 </r>
       <r>    -6.3034     0.0000     0.0000 </r>
       <r>    -6.2710     0.0000     0.0000 </r>
       <r>    -6.2386     0.0000     0.0000 </r>
       <r>    -6.2061     0.0000     0.0000 </r>
       <r>    -6.1737     0.0000     0.0000 </r>
       <r>    -6.1413     0.0000     0.0000 </r>
       <r>    -6.1088     0.0000     0.0000 </r>
       <r>    -6.0764     0.0000     0.0000 </r>
       <r>    -6.0440     0.0000     0.0000 </r>
       <r>    -6.0116     0.0000     0.0000 </r>
       <r>    -5.9791     0.0000     0.0000 </r>
       <r>    -5.9467     0.0000     0.0000 </r>
       <r>    -5.9143     0.0000     0.0000 </r>
       <r>    -5.8818     0.0000     0.0000 </r>
       <r>    -5.8494     0.0000     0.0000 </r>
       <r>    -5.8170     0.0000     0.0000 </r>
       <r>    -5.7845     0.0000     0.0000 </r>
       <r>    -5.7521     0.0000     0.0000 </r>
       <r>    -5.7197     0.0000     0.0000 </r>
       <r>    -5.6873     0.0000     0.0000 </r>
       <r>    -5.6548     0.0000     0.0000 </r>
       <r>    -5.6224     0.0000     0.0000 </r>
       <r>    -5.5900     0.0000     0.0000 </r>
       <r>    -5.5575     0.0000     0.0000 </r>
       <r>    -5.5251     0.0000     0.0000 </r>
       <r>    -5.4927     0.0000     0.0000 </r>
       <r>    -5.4603     0.0000     0.0000 </r>
       <r>    -5.4278     0.0000     0.0000 </r>
       <r>    -5.3954     0.0000     0.0000 </r>
       <r>    -5.3630     0.0000     0.0000 </r>
       <r>    -5.3305     0.0000     0.0000 </r>
       <r>    -5.2981     0.0000     0.0000 </r>
       <r>    -5.2657     0.0000     0.0000 </r>
       <r>    -5.2332     0.0000     0.0000 </r>
       <r>    -5.2008     0.0000     0.0000 </r>
       <r>    -5.1684     0.0000     0.0000 </r>
       <r>    -5.1360     0.0000     0.0000 </r>
       <r>    -5.1035     0.0000     0.0000 </r>
       <r>    -5.0711     0.0000     0.0000 </r>
       <r>    -5.0387     0.0000     0.0000 </r>
       <r>    -5.0062     0.0000     0.0000 </r>
       <r>    -4.9738     0.0000     0.0000 </r>
       <r>    -4.9414     0.0000     0.0000 </r>
       <r>    -4.9089     0.0000     0.0000 </r>
       <r>    -4.8765     0.0000     0.0000 </r>
       <r>    -4.8441     0.0000     0.0000 </r>
       <r>    -4.8117     0.0000     0.0000 </r>
       <r>    -4.7792     0.0000     0.0000 </r>
       <r>    -4.7468     0.0000     0.0000 </r>
       <r>    -4.7144     0.0000     0.0000 </r>
       <r>    -4.6819     0.0000     0.0000 </r>
       <r>    -4.6495     0.0000     0.0000 </r>
       <r>    -4.6171     0.0000     0.0000 </r>
       <r>    -4.5846     0.0000     0.0000 </r>
       <r>    -4.5522     0.0000     0.0000 </r>
       <r>    -4.5198     0.0000     0.0000 </r>
       <r>    -4.4874     0.0000     0.0000 </r>
       <r>    -4.4549     0.0000     0.0000 </r>
       <r>    -4.4225     0.0000     0.0000 </r>
       <r>    -4.3901     0.0000     0.0000 </r>
       <r>    -4.3576     0.0000     0.0000 </r>
       <r>    -4.3252     0.0000     0.0000 </r>
       <r>    -4.2928     0.0000     0.0000 </r>
       <r>    -4.2603     0.0000     0.0000 </r>
       <r>    -4.2279     0.0000     0.0000 </r>
       <r>    -4.1955     0.0000     0.0000 </r>
       <r>    -4.1631     0.0000     0.0000 </r>
       <r>    -4.1306     0.0000     0.0000 </r>
       <r>    -4.0982     0.0000     0.0000 </r>
       <r>    -4.0658     0.0000     0.0000 </r>
       <r>    -4.0333     0.0000     0.0000 </r>
       <r>    -4.0009     0.0000     0.0000 </r>
       <r>    -3.9685     0.0000     0.0000 </r>
       <r>    -3.9361     0.0000     0.0000 </r>
       <r>    -3.9036     0.0000     0.0000 </r>
       <r>    -3.8712     0.0000     0.0000 </r>
       <r>    -3.8388     0.0000     0.0000 </r>
       <r>    -3.8063     0.0000     0.0000 </r>
       <r>    -3.7739     0.0000     0.0000 </r>
       <r>    -3.7415     0.0000     0.0000 </r>
       <r>    -3.7090     0.0000     0.0000 </r>
       <r>    -3.6766     0.0000     0.0000 </r>
       <r>    -3.6442     0.0000     0.0000 </r>
       <r>    -3.6118     0.0000     0.0000 </r>
       <r>    -3.5793     0.0000     0.0000 </r>
       <r>    -3.5469     0.0000     0.0000 </r>
       <r>    -3.5145     0.0000     0.0000 </r>
       <r>    -3.4820     0.0000     0.0000 </r>
       <r>    -3.4496     0.0000     0.0000 </r>
       <r>    -3.4172     0.0000     0.0000 </r>
       <r>    -3.3847     0.0000     0.0000 </r>
       <r>    -3.3523     0.0000     0.0000 </r>
       <r>    -3.3199     0.0000     0.0000 </r>
       <r>    -3.2875     0.0000     0.0000 </r>
       <r>    -3.2550     0.0000     0.0000 </r>
       <r>    -3.2226     0.0000     0.0000 </r>
       <r>    -3.1902     0.0000     0.0000 </r>
       <r>    -3.1577     0.0000     0.0000 </r>
       <r>    -3.1253     0.0000     0.0000 </r>
       <r>    -3.0929     0.0000     0.0000 </r>
       <r>    -3.0604     0.0000     0.0000 </r>
       <r>    -3.0280     0.0000     0.0000 </r>
       <r>    -2.9956     0.0000     0.0000 </r>
       <r>    -2.9632     0.0000     0.0000 </r>
       <r>    -2.9307     0.0000     0.0000 </r>
       <r>    -2.8983     0.0000     0.0000 </r>
       <r>    -2.8659     0.0000     0.0000 </r>
       <r>    -2.8334     0.0000     0.0000 </r>
       <r>    -2.8010     0.0000     0.0000 </r>
       <r>    -2.7686     0.0000     0.0000 </r>
       <r>    -2.7361     0.0000     0.0000 </r>
       <r>    -2.7037     0.0000     0.0000 </r>
       <r>    -2.6713     0.0000     0.0000 </r>
       <r>    -2.6389     0.0000     0.0000 </r>
       <r>    -2.6064     0.0000     0.0000 </r>
       <r>    -2.5740     0.0000     0.0000 </r>
       <r>    -2.5416     0.0000     0.0000 </r>
       <r>    -2.5091     0.0000     0.0000 </r>
       <r>    -2.4767     0.0000     0.0000 </r>
       <r>    -2.4443     0.0000     0.0000 </r>
       <r>    -2.4119     0.0000     0.0000 </r>
       <r>    -2.3794     0.0000     0.0000 </r>
       <r>    -2.3470     0.0000     0.0000 </r>
       <r>    -2.3146     0.0000     0.0000 </r>
       <r>    -2.2821     0.0000     0.0000 </r>
       <r>    -2.2497     0.0000     0.0000 </r>
       <r>    -2.2173     0.0000     0.0000 </r>
       <r>    -2.1848     0.0000     0.0000 </r>
       <r>    -2.1524     0.0000     0.0000 </r>
       <r>    -2.1200     0.0000     0.0000 </r>
       <r>    -2.0876     0.0000     0.0000 </r>
       <r>    -2.0551     0.0000     0.0000 </r>
       <r>    -2.0227     0.0000     0.0000 </r>
       <r>    -1.9903     0.0000     0.0000 </r>
       <r>    -1.9578     0.0000     0.0000 </r>
       <r>    -1.9254     0.0000     0.0000 </r>
       <r>    -1.8930     0.0000     0.0000 </r>
       <r>    -1.8605     0.0000     0.0000 </r>
       <r>    -1.8281     0.0000     0.0000 </r>
       <r>    -1.7957     0.0000     0.0000 </r>
       <r>    -1.7633     0.0000     0.0000 </r>
       <r>    -1.7308     0.0000     0.0000 </r>
       <r>    -1.6984     0.0000     0.0000 </r>
       <r>    -1.6660     0.0000     0.0000 </r>
       <r>    -1.6335     0.0000     0.0000 </r>
       <r>    -1.6011     0.0000     0.0000 </r>
       <r>    -1.5687     0.0000     0.0000 </r>
       <r>    -1.5362     0.0000     0.0000 </r>
       <r>    -1.5038     0.0000     0.0000 </r>
       <r>    -1.4714     0.0000     0.0000 </r>
       <r>    -1.4390     0.0000     0.0000 </r>
       <r>    -1.4065     0.0000     0.0000 </r>
       <r>    -1.3741     0.0000     0.0000 </r>
       <r>    -1.3417     0.0000     0.0000 </r>
       <r>    -1.3092     0.0000     0.0000 </r>
       <r>    -1.2768     0.0000     0.0000 </r>
       <r>    -1.2444     0.0000     0.0000 </r>
       <r>    -1.2119     0.0000     0.0000 </r>
       <r>    -1.1795     0.0000     0.0000 </r>
       <r>    -1.1471     0.0000     0.0000 </r>
       <r>    -1.1147     0.0000     0.0000 </r>
       <r>    -1.0822     0.0000     0.0000 </r>
       <r>    -1.0498     0.0000     0.0000 </r>
       <r>    -1.0174     0.0000     0.0000 </r>
       <r>    -0.9849     0.0000     0.0000 </r>
       <r>    -0.9525     0.0000     0.0000 </r>
       <r>    -0.9201     0.0000     0.0000 </r>
       <r>    -0.8877     0.0000     0.0000 </r>
       <r>    -0.8552     0.0000     0.0000 </r>
       <r>    -0.8228     0.0000     0.0000 </r>
       <r>    -0.7904     0.0000     0.0000 </r>
       <r>    -0.7579     0.0000     0.0000 </r>
       <r>    -0.7255     0.0000     0.0000 </r>
       <r>    -0.6931     0.0000     0.0000 </r>
       <r>    -0.6606     0.0000     0.0000 </r>
       <r>    -0.6282     0.0000     0.0000 </r>
       <r>    -0.5958     0.0000     0.0000 </r>
       <r>    -0.5634     0.0000     0.0000 </r>
       <r>    -0.5309     0.0000     0.0000 </r>
       <r>    -0.4985     0.0000     0.0000 </r>
       <r>    -0.4661     0.0000     0.0000 </r>
       <r>    -0.4336     0.0000     0.0000 </r>
       <r>    -0.4012     0.0000     0.0000 </r>
       <r>    -0.3688     0.0000     0.0000 </r>
       <r>    -0.3363     0.0000     0.0000 </r>
       <r>    -0.3039     0.0000     0.0000 </r>
       <r>    -0.2715     0.0000     0.0000 </r>
       <r>    -0.2391     0.0000     0.0000 </r>
       <r>    -0.2066     0.0000     0.0000 </r>
       <r>    -0.1742     0.0000     0.0000 </r>
       <r>    -0.1418     0.0001     0.0000 </r>
       <r>    -0.1093     0.0059     0.0002 </r>
       <r>    -0.0769     0.1260     0.0043 </r>
       <r>    -0.0445     1.2083     0.0435 </r>
       <r>    -0.0120     5.2411     0.2134 </r>
       <r>     0.0204    10.3420     0.5488 </r>
       <r>     0.0528     9.3122     0.8508 </r>
       <r>     0.0852     3.8243     0.9748 </r>
       <r>     0.1177     0.7135     0.9980 </r>
       <r>     0.1501     0.0601     0.9999 </r>
       <r>     0.1825     0.0023     1.0000 </r>
       <r>     0.2150     0.0000     1.0000 </r>
       <r>     0.2474     0.0000     1.0000 </r>
       <r>     0.2798     0.0000     1.0000 </r>
       <r>     0.3123     0.0002     1.0000 </r>
       <r>     0.3447     0.0074     1.0002 </r>
       <r>     0.3771     0.1621     1.0055 </r>
       <r>     0.4095     1.6483     1.0590 </r>
       <r>     0.4420     7.8933     1.3149 </r>
       <r>     0.4744    18.0862     1.9015 </r>
       <r>     0.5068    20.0270     2.5509 </r>
       <r>     0.5393    10.7331     2.8990 </r>
       <r>     0.5717     2.8274     2.9907 </r>
       <r>     0.6041     1.1799     3.0290 </r>
       <r>     0.6366     5.0597     3.1931 </r>
       <r>     0.6690    14.5427     3.6647 </r>
       <r>     0.7014    20.6560     4.3345 </r>
       <r>     0.7338    14.5551     4.8066 </r>
       <r>     0.7663     5.0497     4.9703 </r>
       <r>     0.7987     0.8461     4.9978 </r>
       <r>     0.8311     0.0684     5.0000 </r>
       <r>     0.8636     0.0531     5.0017 </r>
       <r>     0.8960     0.7324     5.0254 </r>
       <r>     0.9284     4.8633     5.1832 </r>
       <r>     0.9608    14.9671     5.6685 </r>
       <r>     0.9933    21.4740     6.3649 </r>
       <r>     1.0257    14.4072     6.8322 </r>
       <r>     1.0581     4.7555     6.9864 </r>
       <r>     1.0906     2.6375     7.0719 </r>
       <r>     1.1230     6.9299     7.2967 </r>
       <r>     1.1554    10.8730     7.6493 </r>
       <r>     1.1879     7.8334     7.9033 </r>
       <r>     1.2203     2.5722     7.9867 </r>
       <r>     1.2527     0.3831     7.9991 </r>
       <r>     1.2851     0.0257     8.0000 </r>
       <r>     1.3176     0.0008     8.0000 </r>
       <r>     1.3500     0.0000     8.0000 </r>
       <r>     1.3824     0.0000     8.0000 </r>
       <r>     1.4149     0.0000     8.0000 </r>
       <r>     1.4473     0.0000     8.0000 </r>
       <r>     1.4797     0.0000     8.0000 </r>
       <r>     1.5122     0.0000     8.0000 </r>
       <r>     1.5446     0.0000     8.0000 </r>
       <r>     1.5770     0.0000     8.0000 </r>
       <r>     1.6094     0.0000     8.0000 </r>
       <r>     1.6419     0.0000     8.0000 </r>
      </set>
     </set>
    </array>
   </total>
  </dos>
 </calculation>
 <structure name="finalpos" >
  <crystal>
   <varray name="basis" >
    <v>      15.00000000       0.00000000       0.00000000 </v>
    <v>       0.00000000      12.50000000       0.00000000 </v>
    <v>       0.00000000       0.00000000      18.00000000 </v>
   </varray>
   <i name="volume">   3375.00000000 </i>
   <varray name="rec_basis" >
    <v>       0.06666667       0.00000000       0.00000000 </v>
    <v>       0.00000000       0.08000000       0.00000000 </v>
    <v>       0.00000000       0.00000000       0.05555556 </v>
   </varray>
  </crystal>
  <varray name="positions" >
   <v>       0.52123000       0.54500000       0.63796000 </v>
  </varray>
 </structure>
</modeling>
