       N       E                     dE             d eps       ncg     rms          rms(c)
DAV:   1     0.658308557380E+03    0.65831E+03   -0.33232E+04  3150   0.115E+03
DAV:   2    -0.126665768318E+03   -0.78497E+03   -0.76490E+03  4690   0.245E+02
DAV:   3    -0.208969527456E+03   -0.82304E+02   -0.81254E+02  3619   0.870E+01
DAV:   4    -0.211121228637E+03   -0.21517E+01   -0.21420E+01  4312   0.156E+01
DAV:   5    -0.211184403335E+03   -0.63175E-01   -0.63094E-01  4270   0.234E+00    0.195E+01
DAV:   6    -0.198689448069E+03    0.12495E+02   -0.12560E+01  3493   0.105E+01    0.109E+01
DAV:   7    -0.194120949860E+03    0.45685E+01   -0.14100E+01  3878   0.106E+01    0.217E+00
DAV:   8    -0.194092657283E+03    0.28293E-01   -0.10380E+00  4060   0.346E+00    0.948E-01
DAV:   9    -0.194062159467E+03    0.30498E-01   -0.11078E-01  4067   0.108E+00    0.418E-01
DAV:  10    -0.194053102253E+03    0.90572E-02   -0.20005E-02  3927   0.463E-01    0.188E-01
DAV:  11    -0.194048295157E+03    0.48071E-02   -0.92581E-03  4067   0.320E-01    0.111E-01
DAV:  12    -0.194047329323E+03    0.96583E-03   -0.48520E-03  3878   0.212E-01    0.617E-02
DAV:  13    -0.194048564161E+03   -0.12348E-02   -0.20252E-03  3591   0.135E-01    0.343E-02
DAV:  14    -0.194050015761E+03   -0.14516E-02   -0.50260E-04  3941   0.666E-02    0.207E-02
DAV:  15    -0.194051127786E+03   -0.11120E-02   -0.14653E-04  3731   0.329E-02    0.115E-02
DAV:  16    -0.194052050105E+03   -0.92232E-03   -0.63380E-05  3682   0.210E-02    0.695E-03
DAV:  17    -0.194052687201E+03   -0.63710E-03   -0.39491E-05  3766   0.132E-02    0.430E-03
DAV:  18    -0.194053049603E+03   -0.36240E-03   -0.22152E-05  3703   0.101E-02    0.261E-03
DAV:  19    -0.194053218444E+03   -0.16884E-03   -0.68225E-06  3661   0.573E-03    0.116E-03
DAV:  20    -0.194053271066E+03   -0.52621E-04   -0.11545E-06  3514   0.247E-03    0.566E-04
DAV:  21    -0.194053294831E+03   -0.23765E-04   -0.50355E-07  2996   0.142E-03    0.342E-04
DAV:  22    -0.194053303893E+03   -0.90626E-05   -0.19079E-07  2779   0.835E-04    0.108E-04
DAV:  23    -0.194053305316E+03   -0.14232E-05   -0.29117E-08  3003   0.363E-04    0.621E-05
DAV:  24    -0.194053306232E+03   -0.91595E-06   -0.14389E-08  2450   0.247E-04
   1 F= -.19737989E+03 E0= -.19737415E+03  d E =-.197380E+03
       N       E                     dE             d eps       ncg     rms          rms(c)
DAV:   1    -0.191943586516E+03    0.21097E+01   -0.22304E+02  3192   0.520E+01    0.567E+00
DAV:   2    -0.191941127279E+03    0.24592E-02   -0.69580E+00  4123   0.883E+00    0.318E+00
DAV:   3    -0.191797307826E+03    0.14382E+00   -0.41253E-01  3766   0.219E+00    0.108E+00
DAV:   4    -0.191781796283E+03    0.15512E-01   -0.73666E-02  4018   0.835E-01    0.250E-01
DAV:   5    -0.191782224258E+03   -0.42798E-03   -0.71057E-03  4424   0.286E-01    0.121E-01
DAV:   6    -0.191783639414E+03   -0.14152E-02   -0.11220E-03  3500   0.119E-01    0.448E-02
DAV:   7    -0.191784614316E+03   -0.97490E-03   -0.49396E-04  3857   0.646E-02    0.211E-02
DAV:   8    -0.191785357465E+03   -0.74315E-03   -0.17475E-04  4158   0.315E-02    0.110E-02
DAV:   9    -0.191785921308E+03   -0.56384E-03   -0.19141E-04  3773   0.258E-02    0.601E-03
DAV:  10    -0.191786116210E+03   -0.19490E-03   -0.46766E-05  3927   0.135E-02    0.336E-03
DAV:  11    -0.191786192763E+03   -0.76553E-04   -0.14628E-05  3465   0.669E-03    0.218E-03
DAV:  12    -0.191786227960E+03   -0.35197E-04   -0.59778E-06  3493   0.412E-03    0.103E-03
DAV:  13    -0.191786238406E+03   -0.10446E-04   -0.12900E-06  3304   0.185E-03    0.698E-04
DAV:  14    -0.191786246108E+03   -0.77017E-05   -0.28786E-07  2898   0.108E-03    0.356E-04
DAV:  15    -0.191786250929E+03   -0.48214E-05   -0.19093E-07  2758   0.717E-04    0.198E-04
DAV:  16    -0.191786253242E+03   -0.23130E-05   -0.61829E-08  2744   0.445E-04    0.837E-05
DAV:  17    -0.191786253900E+03   -0.65717E-06   -0.12102E-08  2520   0.204E-04
   2 F= -.19521944E+03 E0= -.19521385E+03  d E =0.216045E+01
       N       E                     dE             d eps       ncg     rms          rms(c)
DAV:   1    -0.194917834812E+03   -0.31316E+01   -0.10214E+02  3283   0.347E+01    0.364E+00
DAV:   2    -0.194919417769E+03   -0.15830E-02   -0.25993E+00  4018   0.588E+00    0.223E+00
DAV:   3    -0.194820924051E+03    0.98494E-01   -0.23343E-01  4074   0.179E+00    0.731E-01
DAV:   4    -0.194816612936E+03    0.43111E-02   -0.82743E-02  3969   0.833E-01    0.157E-01
DAV:   5    -0.194815451285E+03    0.11617E-02   -0.41076E-03  3899   0.254E-01    0.888E-02
DAV:   6    -0.194815081062E+03    0.37022E-03   -0.15046E-03  4102   0.132E-01    0.432E-02
DAV:   7    -0.194814992283E+03    0.88779E-04   -0.20057E-04  3934   0.466E-02    0.203E-02
DAV:   8    -0.194815008482E+03   -0.16199E-04   -0.92703E-05  3899   0.301E-02    0.112E-02
DAV:   9    -0.194815131755E+03   -0.12327E-03   -0.68439E-05  3668   0.209E-02    0.582E-03
DAV:  10    -0.194815255386E+03   -0.12363E-03   -0.25211E-05  3738   0.118E-02    0.279E-03
DAV:  11    -0.194815319275E+03   -0.63889E-04   -0.62516E-06  3437   0.641E-03    0.180E-03
DAV:  12    -0.194815367429E+03   -0.48154E-04   -0.32253E-06  3465   0.411E-03    0.826E-04
DAV:  13    -0.194815390577E+03   -0.23148E-04   -0.54907E-07  3059   0.177E-03    0.557E-04
DAV:  14    -0.194815409010E+03   -0.18433E-04   -0.40074E-07  2905   0.118E-03    0.293E-04
DAV:  15    -0.194815418037E+03   -0.90271E-05   -0.17401E-07  2793   0.779E-04    0.165E-04
DAV:  16    -0.194815421645E+03   -0.36079E-05   -0.62530E-08  2807   0.431E-04    0.816E-05
DAV:  17    -0.194815423333E+03   -0.16881E-05   -0.28065E-08  2716   0.302E-04    0.397E-05
DAV:  18    -0.194815423859E+03   -0.52628E-06   -0.73314E-09  2744   0.168E-04
   3 F= -.19816345E+03 E0= -.19815640E+03  d E =-.783562E+00
       N       E                     dE             d eps       ncg     rms          rms(c)
DAV:   1    -0.194817070700E+03   -0.16474E-02   -0.18327E-02  3381   0.469E-01    0.535E-02
DAV:   2    -0.194817072553E+03   -0.18529E-05   -0.51822E-04  3906   0.805E-02    0.326E-02
DAV:   3    -0.194817054972E+03    0.17581E-04   -0.35666E-05  3752   0.234E-02    0.135E-02
DAV:   4    -0.194817052878E+03    0.20935E-05   -0.20247E-05  3934   0.134E-02    0.284E-03
DAV:   5    -0.194817052512E+03    0.36628E-06   -0.15726E-06  3640   0.478E-03
   4 F= -.19816443E+03 E0= -.19815740E+03  d E =-.784536E+00
       N       E                     dE             d eps       ncg     rms          rms(c)
DAV:   1    -0.194930780781E+03   -0.11373E+00   -0.60514E+00  3353   0.904E+00    0.880E-01
DAV:   2    -0.194908444615E+03    0.22336E-01   -0.17869E-01  4116   0.163E+00    0.419E-01
DAV:   3    -0.194905963104E+03    0.24815E-02   -0.34379E-02  4235   0.597E-01    0.169E-01
DAV:   4    -0.194905634218E+03    0.32889E-03   -0.41437E-03  3794   0.240E-01    0.840E-02
DAV:   5    -0.194905637494E+03   -0.32758E-05   -0.63192E-04  3871   0.943E-02    0.168E-02
DAV:   6    -0.194905631714E+03    0.57796E-05   -0.67299E-05  4165   0.308E-02    0.109E-02
DAV:   7    -0.194905633988E+03   -0.22738E-05   -0.12898E-05  3962   0.122E-02    0.346E-03
DAV:   8    -0.194905635635E+03   -0.16470E-05   -0.28988E-06  3794   0.622E-03    0.137E-03
DAV:   9    -0.194905638943E+03   -0.33081E-05   -0.65846E-07  2583   0.274E-03    0.820E-04
DAV:  10    -0.194905640943E+03   -0.19998E-05   -0.14034E-07  2751   0.127E-03    0.402E-04
DAV:  11    -0.194905643826E+03   -0.28829E-05   -0.24847E-07  2373   0.121E-03    0.352E-04
DAV:  12    -0.194905644637E+03   -0.81141E-06   -0.87781E-08  2723   0.736E-04
   5 F= -.19827544E+03 E0= -.19827122E+03  d E =-.111017E+00
       N       E                     dE             d eps       ncg     rms          rms(c)
DAV:   1    -0.194904824187E+03    0.81964E-03   -0.39198E-02  3339   0.732E-01    0.714E-02
DAV:   2    -0.194904661077E+03    0.16311E-03   -0.12534E-03  3857   0.135E-01    0.315E-02
DAV:   3    -0.194904653530E+03    0.75466E-05   -0.19727E-04  4319   0.457E-02    0.146E-02
DAV:   4    -0.194904653243E+03    0.28680E-06   -0.21797E-05  3759   0.168E-02    0.683E-03
DAV:   5    -0.194904654014E+03   -0.77109E-06   -0.34229E-06  3703   0.711E-03
   6 F= -.19827628E+03 E0= -.19827206E+03  d E =-.111850E+00
       N       E                     dE             d eps       ncg     rms          rms(c)
DAV:   1    -0.194956617702E+03   -0.51964E-01   -0.45337E+00  3206   0.814E+00    0.739E-01
DAV:   2    -0.194945706027E+03    0.10912E-01   -0.12180E-01  3976   0.135E+00    0.391E-01
DAV:   3    -0.194943460917E+03    0.22451E-02   -0.19633E-02  4074   0.464E-01    0.147E-01
DAV:   4    -0.194943187065E+03    0.27385E-03   -0.22419E-03  3752   0.188E-01    0.565E-02
DAV:   5    -0.194943201750E+03   -0.14685E-04   -0.38758E-04  3871   0.719E-02    0.149E-02
DAV:   6    -0.194943200679E+03    0.10711E-05   -0.35453E-05  4333   0.224E-02    0.941E-03
DAV:   7    -0.194943205128E+03   -0.44497E-05   -0.81233E-06  3619   0.938E-03    0.210E-03
DAV:   8    -0.194943209451E+03   -0.43228E-05   -0.11464E-06  2730   0.377E-03    0.112E-03
DAV:   9    -0.194943217441E+03   -0.79903E-05   -0.10566E-06  2912   0.255E-03    0.869E-04
DAV:  10    -0.194943221794E+03   -0.43527E-05   -0.23525E-07  2702   0.139E-03    0.453E-04
DAV:  11    -0.194943226405E+03   -0.46105E-05   -0.35545E-07  2576   0.123E-03    0.265E-04
DAV:  12    -0.194943228420E+03   -0.20151E-05   -0.10055E-07  2765   0.671E-04    0.134E-04
DAV:  13    -0.194943229531E+03   -0.11116E-05   -0.30933E-08  2772   0.373E-04    0.820E-05
DAV:  14    -0.194943230636E+03   -0.11050E-05   -0.21414E-08  2674   0.261E-04    0.482E-05
DAV:  15    -0.194943231161E+03   -0.52503E-06   -0.84081E-09  2793   0.167E-04
   7 F= -.19832669E+03 E0= -.19832183E+03  d E =-.504137E-01
       N       E                     dE             d eps       ncg     rms          rms(c)
DAV:   1    -0.194945615169E+03   -0.23845E-02   -0.58951E-02  3332   0.928E-01    0.837E-02
DAV:   2    -0.194945470108E+03    0.14506E-03   -0.15880E-03  3899   0.155E-01    0.446E-02
DAV:   3    -0.194945441180E+03    0.28927E-04   -0.26174E-04  3948   0.534E-02    0.169E-02
DAV:   4    -0.194945438939E+03    0.22410E-05   -0.30062E-05  3724   0.217E-02    0.662E-03
DAV:   5    -0.194945439144E+03   -0.20463E-06   -0.52007E-06  3906   0.833E-03
   8 F= -.19832754E+03 E0= -.19832274E+03  d E =-.512676E-01
       N       E                     dE             d eps       ncg     rms          rms(c)
DAV:   1    -0.194966925538E+03   -0.21487E-01   -0.42497E-01  3157   0.256E+00    0.205E-01
DAV:   2    -0.194966568739E+03    0.35680E-03   -0.61181E-03  4046   0.291E-01    0.118E-01
DAV:   3    -0.194966280943E+03    0.28780E-03   -0.89677E-04  3815   0.101E-01    0.315E-02
DAV:   4    -0.194966261635E+03    0.19309E-04   -0.90698E-05  3941   0.354E-02    0.117E-02
DAV:   5    -0.194966260478E+03    0.11565E-05   -0.13405E-05  3836   0.132E-02    0.400E-03
DAV:   6    -0.194966263520E+03   -0.30416E-05   -0.10539E-06  2786   0.369E-03    0.138E-03
DAV:   7    -0.194966268795E+03   -0.52751E-05   -0.46174E-07  2709   0.216E-03    0.608E-04
DAV:   8    -0.194966273888E+03   -0.50928E-05   -0.38862E-07  2737   0.172E-03    0.408E-04
DAV:   9    -0.194966278812E+03   -0.49242E-05   -0.34589E-07  2590   0.133E-03    0.220E-04
DAV:  10    -0.194966280681E+03   -0.18687E-05   -0.10353E-07  2779   0.717E-04    0.165E-04
DAV:  11    -0.194966282357E+03   -0.16762E-05   -0.91646E-08  2632   0.577E-04    0.787E-05
DAV:  12    -0.194966282885E+03   -0.52860E-06   -0.39221E-08  2912   0.335E-04
   9 F= -.19833695E+03 E0= -.19833212E+03  d E =-.941100E-02
       N       E                     dE             d eps       ncg     rms          rms(c)
DAV:   1    -0.194966458003E+03   -0.17565E-03   -0.96999E-05  3577   0.387E-02    0.309E-03
DAV:   2    -0.194966457649E+03    0.35371E-06   -0.12195E-06  3164   0.435E-03
  10 F= -.19833696E+03 E0= -.19833212E+03  d E =-.941326E-02
       N       E                     dE             d eps       ncg     rms          rms(c)
DAV:   1    -0.194980872538E+03   -0.14415E-01   -0.34263E-01  3164   0.229E+00    0.146E-01
DAV:   2    -0.194980941665E+03   -0.69127E-04   -0.61965E-03  3934   0.300E-01    0.904E-02
DAV:   3    -0.194980808556E+03    0.13311E-03   -0.49421E-04  3948   0.906E-02    0.302E-02
DAV:   4    -0.194980805256E+03    0.32998E-05   -0.10999E-04  3843   0.372E-02    0.910E-03
DAV:   5    -0.194980806283E+03   -0.10271E-05   -0.73771E-06  4333   0.913E-03    0.356E-03
DAV:   6    -0.194980807072E+03   -0.78896E-06   -0.10702E-06  2744   0.376E-03
  11 F= -.19834279E+03 E0= -.19833789E+03  d E =-.582842E-02
       N       E                     dE             d eps       ncg     rms          rms(c)
DAV:   1    -0.194983969950E+03   -0.31637E-02   -0.36870E-02  3178   0.752E-01    0.480E-02
DAV:   2    -0.194983974302E+03   -0.43519E-05   -0.67324E-04  4081   0.987E-02    0.297E-02
DAV:   3    -0.194983958143E+03    0.16159E-04   -0.53293E-05  4004   0.297E-02    0.986E-03
DAV:   4    -0.194983958328E+03   -0.18499E-06   -0.11786E-05  3864   0.122E-02    0.300E-03
DAV:   5    -0.194983958934E+03   -0.60629E-06   -0.66638E-07  2765   0.301E-03
  12 F= -.19834315E+03 E0= -.19833824E+03  d E =-.619399E-02
       N       E                     dE             d eps       ncg     rms          rms(c)
DAV:   1    -0.194990539614E+03   -0.65813E-02   -0.35742E-01  3150   0.231E+00    0.140E-01
DAV:   2    -0.194990665977E+03   -0.12636E-03   -0.73819E-03  4025   0.328E-01    0.859E-02
DAV:   3    -0.194990547262E+03    0.11871E-03   -0.66915E-04  3948   0.106E-01    0.304E-02
DAV:   4    -0.194990548570E+03   -0.13082E-05   -0.15781E-04  3773   0.430E-02    0.114E-02
DAV:   5    -0.194990552018E+03   -0.34484E-05   -0.11611E-05  4613   0.109E-02    0.393E-03
DAV:   6    -0.194990553469E+03   -0.14504E-05   -0.16153E-06  2933   0.457E-03    0.164E-03
DAV:   7    -0.194990555283E+03   -0.18144E-05   -0.42558E-07  2765   0.221E-03    0.544E-04
DAV:   8    -0.194990556162E+03   -0.87918E-06   -0.81864E-08  2695   0.108E-03
  13 F= -.19834844E+03 E0= -.19834342E+03  d E =-.528559E-02
       N       E                     dE             d eps       ncg     rms          rms(c)
DAV:   1    -0.194994191641E+03   -0.36364E-02   -0.47655E-01  3150   0.267E+00    0.161E-01
DAV:   2    -0.194994359437E+03   -0.16780E-03   -0.98219E-03  4018   0.378E-01    0.990E-02
DAV:   3    -0.194994201029E+03    0.15841E-03   -0.88714E-04  3948   0.122E-01    0.350E-02
DAV:   4    -0.194994202229E+03   -0.12003E-05   -0.20891E-04  3780   0.495E-02    0.131E-02
DAV:   5    -0.194994206414E+03   -0.41844E-05   -0.15416E-05  4606   0.126E-02    0.452E-03
DAV:   6    -0.194994208051E+03   -0.16373E-05   -0.22233E-06  3283   0.524E-03    0.188E-03
DAV:   7    -0.194994210117E+03   -0.20662E-05   -0.41819E-07  2786   0.231E-03    0.584E-04
DAV:   8    -0.194994211240E+03   -0.11232E-05   -0.99559E-08  2758   0.115E-03    0.333E-04
DAV:   9    -0.194994213004E+03   -0.17638E-05   -0.95477E-08  2723   0.868E-04    0.188E-04
DAV:  10    -0.194994214334E+03   -0.13297E-05   -0.53967E-08  2786   0.559E-04    0.121E-04
DAV:  11    -0.194994215330E+03   -0.99669E-06   -0.29523E-08  2751   0.376E-04
  14 F= -.19835059E+03 E0= -.19834547E+03  d E =-.744213E-02
       N       E                     dE             d eps       ncg     rms          rms(c)
DAV:   1    -0.194998060388E+03   -0.38461E-02   -0.30624E-01  3150   0.210E+00    0.143E-01
DAV:   2    -0.194997891505E+03    0.16888E-03   -0.73404E-03  4018   0.338E-01    0.802E-02
DAV:   3    -0.194997774216E+03    0.11729E-03   -0.80288E-04  3948   0.109E-01    0.315E-02
DAV:   4    -0.194997773656E+03    0.56037E-06   -0.16303E-04  3738   0.451E-02    0.132E-02
DAV:   5    -0.194997776701E+03   -0.30448E-05   -0.12717E-05  4123   0.126E-02    0.362E-03
DAV:   6    -0.194997777687E+03   -0.98602E-06   -0.30897E-06  3507   0.652E-03
  15 F= -.19835433E+03 E0= -.19834920E+03  d E =-.373771E-02
       N       E                     dE             d eps       ncg     rms          rms(c)
DAV:   1    -0.194998569131E+03   -0.79243E-03   -0.15266E-01  3150   0.148E+00    0.101E-01
DAV:   2    -0.194998482145E+03    0.86986E-04   -0.36646E-03  4046   0.239E-01    0.568E-02
DAV:   3    -0.194998423140E+03    0.59005E-04   -0.40020E-04  3962   0.773E-02    0.222E-02
DAV:   4    -0.194998424401E+03   -0.12602E-05   -0.81548E-05  3752   0.319E-02    0.928E-03
DAV:   5    -0.194998426910E+03   -0.25095E-05   -0.63325E-06  4088   0.894E-03    0.258E-03
DAV:   6    -0.194998428085E+03   -0.11750E-05   -0.14927E-06  2779   0.469E-03    0.121E-03
DAV:   7    -0.194998429091E+03   -0.10057E-05   -0.34468E-07  2779   0.199E-03    0.494E-04
DAV:   8    -0.194998429608E+03   -0.51695E-06   -0.57402E-08  2604   0.935E-04
  16 F= -.19835511E+03 E0= -.19834997E+03  d E =-.451771E-02
       N       E                     dE             d eps       ncg     rms          rms(c)
DAV:   1    -0.195000363010E+03   -0.19339E-02   -0.60105E-02  3150   0.920E-01    0.631E-02
DAV:   2    -0.195000339894E+03    0.23117E-04   -0.13310E-03  4025   0.141E-01    0.360E-02
DAV:   3    -0.195000315852E+03    0.24041E-04   -0.12940E-04  4060   0.455E-02    0.121E-02
DAV:   4    -0.195000317276E+03   -0.14244E-05   -0.29203E-05  3752   0.193E-02    0.464E-03
DAV:   5    -0.195000318666E+03   -0.13893E-05   -0.28778E-06  3920   0.540E-03    0.163E-03
DAV:   6    -0.195000319249E+03   -0.58333E-06   -0.37156E-07  2681   0.221E-03
  17 F= -.19835635E+03 E0= -.19835123E+03  d E =-.123699E-02
       N       E                     dE             d eps       ncg     rms          rms(c)
DAV:   1    -0.195001875597E+03   -0.15569E-02   -0.10749E-01  3150   0.123E+00    0.844E-02
DAV:   2    -0.195001836525E+03    0.39073E-04   -0.23835E-03  4004   0.189E-01    0.482E-02
DAV:   3    -0.195001793217E+03    0.43308E-04   -0.23142E-04  4032   0.608E-02    0.162E-02
DAV:   4    -0.195001794666E+03   -0.14498E-05   -0.52192E-05  3752   0.258E-02    0.620E-03
DAV:   5    -0.195001796624E+03   -0.19575E-05   -0.51762E-06  4088   0.721E-03    0.220E-03
DAV:   6    -0.195001797307E+03   -0.68266E-06   -0.65181E-07  2688   0.291E-03
  18 F= -.19835696E+03 E0= -.19835188E+03  d E =-.184465E-02
       N       E                     dE             d eps       ncg     rms          rms(c)
DAV:   1    -0.195004733710E+03   -0.29371E-02   -0.80276E-02  3164   0.106E+00    0.647E-02
DAV:   2    -0.195004740354E+03   -0.66444E-05   -0.14203E-03  4081   0.146E-01    0.402E-02
DAV:   3    -0.195004716236E+03    0.24118E-04   -0.14398E-04  3948   0.505E-02    0.133E-02
DAV:   4    -0.195004717473E+03   -0.12367E-05   -0.37912E-05  3745   0.221E-02    0.538E-03
DAV:   5    -0.195004718732E+03   -0.12593E-05   -0.27845E-06  3808   0.542E-03    0.187E-03
DAV:   6    -0.195004719636E+03   -0.90368E-06   -0.36580E-07  2751   0.225E-03
  19 F= -.19835813E+03 E0= -.19835304E+03  d E =-.117447E-02
       N       E                     dE             d eps       ncg     rms          rms(c)
DAV:   1    -0.195007337964E+03   -0.26192E-02   -0.11574E-01  3164   0.127E+00    0.777E-02
DAV:   2    -0.195007348102E+03   -0.10138E-04   -0.20480E-03  4081   0.175E-01    0.483E-02
DAV:   3    -0.195007313806E+03    0.34296E-04   -0.20886E-04  3948   0.607E-02    0.159E-02
DAV:   4    -0.195007315149E+03   -0.13434E-05   -0.54857E-05  3752   0.265E-02    0.647E-03
DAV:   5    -0.195007316729E+03   -0.15798E-05   -0.41207E-06  4074   0.652E-03    0.227E-03
DAV:   6    -0.195007317740E+03   -0.10109E-05   -0.47504E-07  2779   0.254E-03    0.953E-04
DAV:   7    -0.195007318773E+03   -0.10333E-05   -0.15838E-07  2793   0.134E-03    0.260E-04
DAV:   8    -0.195007319155E+03   -0.38116E-06   -0.26884E-08  2611   0.609E-04
  20 F= -.19835863E+03 E0= -.19835352E+03  d E =-.167930E-02
       N       E                     dE             d eps       ncg     rms          rms(c)
DAV:   1    -0.195009635774E+03   -0.23170E-02   -0.77175E-02  3164   0.106E+00    0.739E-02
DAV:   2    -0.195009598843E+03    0.36931E-04   -0.15751E-03  4102   0.155E-01    0.415E-02
DAV:   3    -0.195009566049E+03    0.32794E-04   -0.19666E-04  4018   0.535E-02    0.133E-02
DAV:   4    -0.195009566323E+03   -0.27318E-06   -0.34461E-05  3766   0.223E-02    0.563E-03
DAV:   5    -0.195009567457E+03   -0.11348E-05   -0.31308E-06  3640   0.624E-03    0.202E-03
DAV:   6    -0.195009568092E+03   -0.63449E-06   -0.40842E-07  2695   0.262E-03
  21 F= -.19835940E+03 E0= -.19835426E+03  d E =-.767702E-03
       N       E                     dE             d eps       ncg     rms          rms(c)
DAV:   1    -0.195010253146E+03   -0.68569E-03   -0.12780E-02  3206   0.431E-01    0.301E-02
DAV:   2    -0.195010246356E+03    0.67899E-05   -0.26189E-04  4102   0.631E-02    0.169E-02
DAV:   3    -0.195010240632E+03    0.57242E-05   -0.32816E-05  4039   0.218E-02    0.541E-03
DAV:   4    -0.195010241026E+03   -0.39344E-06   -0.57412E-06  3808   0.909E-03
  22 F= -.19835947E+03 E0= -.19835432E+03  d E =-.839228E-03
       N       E                     dE             d eps       ncg     rms          rms(c)
DAV:   1    -0.195011805364E+03   -0.15647E-02   -0.69430E-02  3150   0.102E+00    0.659E-02
DAV:   2    -0.195011797159E+03    0.82051E-05   -0.85437E-04  4123   0.109E-01    0.394E-02
DAV:   3    -0.195011771813E+03    0.25346E-04   -0.91787E-05  4004   0.360E-02    0.878E-03
DAV:   4    -0.195011772722E+03   -0.90902E-06   -0.15808E-05  3850   0.140E-02    0.329E-03
DAV:   5    -0.195011773377E+03   -0.65543E-06   -0.11757E-06  2898   0.383E-03
  23 F= -.19836010E+03 E0= -.19835492E+03  d E =-.625298E-03
       N       E                     dE             d eps       ncg     rms          rms(c)
DAV:   1    -0.195012136819E+03   -0.36410E-03   -0.83225E-03  3248   0.351E-01    0.229E-02
DAV:   2    -0.195012135843E+03    0.97566E-06   -0.10451E-04  4179   0.381E-02    0.137E-02
DAV:   3    -0.195012132922E+03    0.29212E-05   -0.11014E-05  3934   0.125E-02    0.308E-03
DAV:   4    -0.195012133309E+03   -0.38750E-06   -0.18396E-06  3038   0.488E-03
  24 F= -.19836015E+03 E0= -.19835496E+03  d E =-.671978E-03
       N       E                     dE             d eps       ncg     rms          rms(c)
DAV:   1    -0.195013228659E+03   -0.10957E-02   -0.53549E-02  3150   0.896E-01    0.552E-02
DAV:   2    -0.195013231734E+03   -0.30756E-05   -0.59571E-04  4179   0.865E-02    0.337E-02
DAV:   3    -0.195013214800E+03    0.16934E-04   -0.48980E-05  3829   0.261E-02    0.834E-03
DAV:   4    -0.195013215308E+03   -0.50759E-06   -0.92588E-06  3941   0.101E-02
  25 F= -.19836067E+03 E0= -.19835548E+03  d E =-.521933E-03
       N       E                     dE             d eps       ncg     rms          rms(c)
DAV:   1    -0.195013744795E+03   -0.53000E-03   -0.28472E-02  3164   0.654E-01    0.403E-02
DAV:   2    -0.195013747796E+03   -0.30002E-05   -0.31977E-04  4172   0.633E-02    0.246E-02
DAV:   3    -0.195013739023E+03    0.87730E-05   -0.25400E-05  3955   0.188E-02    0.621E-03
DAV:   4    -0.195013739314E+03   -0.29182E-06   -0.47649E-06  3871   0.725E-03
  26 F= -.19836078E+03 E0= -.19835560E+03  d E =-.638058E-03
       N       E                     dE             d eps       ncg     rms          rms(c)
DAV:   1    -0.195013684483E+03    0.54540E-04   -0.60537E-02  3150   0.941E-01    0.651E-02
DAV:   2    -0.195013662826E+03    0.21657E-04   -0.71537E-04  4095   0.960E-02    0.378E-02
DAV:   3    -0.195013643829E+03    0.18998E-04   -0.68915E-05  4137   0.288E-02    0.935E-03
DAV:   4    -0.195013644339E+03   -0.51083E-06   -0.87765E-06  3976   0.101E-02
  27 F= -.19836128E+03 E0= -.19835609E+03  d E =-.494048E-03
       N       E                     dE             d eps       ncg     rms          rms(c)
DAV:   1    -0.195013397337E+03    0.24649E-03   -0.22662E-02  3150   0.576E-01    0.397E-02
DAV:   2    -0.195013390494E+03    0.68436E-05   -0.26812E-04  4109   0.588E-02    0.231E-02
DAV:   3    -0.195013384176E+03    0.63178E-05   -0.25319E-05  4200   0.175E-02    0.578E-03
DAV:   4    -0.195013384543E+03   -0.36703E-06   -0.31060E-06  3472   0.611E-03
  28 F= -.19836138E+03 E0= -.19835619E+03  d E =-.595089E-03
       N       E                     dE             d eps       ncg     rms          rms(c)
DAV:   1    -0.195013157367E+03    0.22681E-03   -0.71686E-02  3150   0.102E+00    0.733E-02
DAV:   2    -0.195013134274E+03    0.23094E-04   -0.10707E-03  4158   0.122E-01    0.414E-02
DAV:   3    -0.195013110665E+03    0.23609E-04   -0.12897E-04  4074   0.398E-02    0.107E-02
DAV:   4    -0.195013110560E+03    0.10472E-06   -0.17250E-05  3990   0.156E-02    0.383E-03
DAV:   5    -0.195013110932E+03   -0.37170E-06   -0.13952E-06  2618   0.445E-03
  29 F= -.19836177E+03 E0= -.19835657E+03  d E =-.390945E-03
       N       E                     dE             d eps       ncg     rms          rms(c)
DAV:   1    -0.195013042598E+03    0.67963E-04   -0.90164E-04  3367   0.114E-01    0.825E-03
DAV:   2    -0.195013042695E+03   -0.97030E-07   -0.14191E-05  4158   0.139E-02    0.469E-03
DAV:   3    -0.195013042647E+03    0.47560E-07   -0.14729E-06  2639   0.450E-03
  30 F= -.19836178E+03 E0= -.19835657E+03  d E =-.396723E-03
       N       E                     dE             d eps       ncg     rms          rms(c)
DAV:   1    -0.195013524020E+03   -0.48133E-03   -0.46323E-02  3150   0.802E-01    0.586E-02
DAV:   2    -0.195013510366E+03    0.13653E-04   -0.54060E-04  4102   0.810E-02    0.347E-02
DAV:   3    -0.195013494502E+03    0.15864E-04   -0.64839E-05  4172   0.269E-02    0.641E-03
DAV:   4    -0.195013494597E+03   -0.94811E-07   -0.75861E-06  3969   0.967E-03
  31 F= -.19836214E+03 E0= -.19835695E+03  d E =-.365208E-03
       N       E                     dE             d eps       ncg     rms          rms(c)
DAV:   1    -0.195013735444E+03   -0.24094E-03   -0.47247E-02  3150   0.810E-01    0.590E-02
DAV:   2    -0.195013722978E+03    0.12466E-04   -0.55335E-04  4172   0.820E-02    0.350E-02
DAV:   3    -0.195013707320E+03    0.15658E-04   -0.64844E-05  4081   0.270E-02    0.653E-03
DAV:   4    -0.195013707410E+03   -0.90005E-07   -0.76255E-06  3962   0.972E-03
  32 F= -.19836227E+03 E0= -.19835708E+03  d E =-.491366E-03
       N       E                     dE             d eps       ncg     rms          rms(c)
DAV:   1    -0.195013725362E+03   -0.18042E-04   -0.24310E-02  3150   0.580E-01    0.434E-02
DAV:   2    -0.195013726445E+03   -0.10833E-05   -0.31336E-04  4144   0.612E-02    0.269E-02
DAV:   3    -0.195013715818E+03    0.10627E-04   -0.26471E-05  3864   0.183E-02    0.527E-03
DAV:   4    -0.195013715677E+03    0.14110E-06   -0.41510E-06  3962   0.621E-03
  33 F= -.19836243E+03 E0= -.19835728E+03  d E =-.165471E-03
       N       E                     dE             d eps       ncg     rms          rms(c)
DAV:   1    -0.195013709239E+03    0.65794E-05   -0.44854E-05  3500   0.248E-02    0.207E-03
DAV:   2    -0.195013709266E+03   -0.27226E-07   -0.70070E-07  2954   0.302E-03
  34 F= -.19836243E+03 E0= -.19835728E+03  d E =-.165660E-03
       N       E                     dE             d eps       ncg     rms          rms(c)
DAV:   1    -0.195013436617E+03    0.27262E-03   -0.11515E-02  3311   0.395E-01    0.293E-02
DAV:   2    -0.195013437829E+03   -0.12127E-05   -0.16942E-04  3899   0.475E-02    0.179E-02
DAV:   3    -0.195013433554E+03    0.42755E-05   -0.17252E-05  3815   0.155E-02    0.320E-03
DAV:   4    -0.195013433825E+03   -0.27078E-06   -0.30076E-06  3367   0.601E-03
  35 F= -.19836259E+03 E0= -.19835744E+03  d E =-.158688E-03
       N       E                     dE             d eps       ncg     rms          rms(c)
DAV:   1    -0.195012485517E+03    0.94804E-03   -0.82517E-02  3150   0.106E+00    0.780E-02
DAV:   2    -0.195012494217E+03   -0.87003E-05   -0.12199E-03  4046   0.128E-01    0.477E-02
DAV:   3    -0.195012460739E+03    0.33478E-04   -0.12260E-04  3724   0.415E-02    0.866E-03
DAV:   4    -0.195012461365E+03   -0.62520E-06   -0.21780E-05  3773   0.161E-02    0.346E-03
DAV:   5    -0.195012461628E+03   -0.26307E-06   -0.13781E-06  2989   0.429E-03
  36 F= -.19836278E+03 E0= -.19835763E+03  d E =-.348817E-03
       N       E                     dE             d eps       ncg     rms          rms(c)
DAV:   1    -0.195012391523E+03    0.69841E-04   -0.21692E-03  3269   0.171E-01    0.126E-02
DAV:   2    -0.195012391651E+03   -0.12758E-06   -0.36635E-05  4067   0.225E-02    0.766E-03
DAV:   3    -0.195012390970E+03    0.68083E-06   -0.38403E-06  3759   0.746E-03
  37 F= -.19836285E+03 E0= -.19835771E+03  d E =-.726493E-04
       N       E                     dE             d eps       ncg     rms          rms(c)
DAV:   1    -0.195012140825E+03    0.25083E-03   -0.19443E-02  3150   0.512E-01    0.381E-02
DAV:   2    -0.195012140497E+03    0.32825E-06   -0.31730E-04  3969   0.664E-02    0.229E-02
DAV:   3    -0.195012133144E+03    0.73529E-05   -0.33953E-05  3759   0.222E-02    0.486E-03
DAV:   4    -0.195012133219E+03   -0.74742E-07   -0.66894E-06  3731   0.950E-03
  38 F= -.19836303E+03 E0= -.19835788E+03  d E =-.245000E-03
       N       E                     dE             d eps       ncg     rms          rms(c)
DAV:   1    -0.195011444927E+03    0.68822E-03   -0.77651E-02  3150   0.102E+00    0.755E-02
DAV:   2    -0.195011443868E+03    0.10585E-05   -0.12644E-03  3983   0.133E-01    0.454E-02
DAV:   3    -0.195011414320E+03    0.29548E-04   -0.13326E-04  3829   0.440E-02    0.980E-03
DAV:   4    -0.195011414119E+03    0.20032E-06   -0.26128E-05  3738   0.188E-02    0.375E-03
DAV:   5    -0.195011414548E+03   -0.42858E-06   -0.21181E-06  3409   0.504E-03
  39 F= -.19836317E+03 E0= -.19835801E+03  d E =-.387321E-03
       N       E                     dE             d eps       ncg     rms          rms(c)
DAV:   1    -0.195011418961E+03   -0.48415E-05   -0.36112E-03  3185   0.221E-01    0.163E-02
DAV:   2    -0.195011418984E+03   -0.23299E-07   -0.60465E-05  4025   0.290E-02    0.101E-02
DAV:   3    -0.195011417447E+03    0.15371E-05   -0.68293E-06  3913   0.101E-02    0.237E-03
DAV:   4    -0.195011417455E+03   -0.81573E-08   -0.14303E-06  2744   0.452E-03
  40 F= -.19836324E+03 E0= -.19835808E+03  d E =-.678811E-04
       N       E                     dE             d eps       ncg     rms          rms(c)
DAV:   1    -0.195011322393E+03    0.95054E-04   -0.32302E-02  3150   0.662E-01    0.485E-02
DAV:   2    -0.195011321176E+03    0.12173E-05   -0.53903E-04  3983   0.868E-02    0.299E-02
DAV:   3    -0.195011307669E+03    0.13507E-04   -0.61666E-05  3871   0.305E-02    0.717E-03
DAV:   4    -0.195011307176E+03    0.49247E-06   -0.13700E-05  3717   0.136E-02    0.271E-03
DAV:   5    -0.195011307300E+03   -0.12340E-06   -0.96684E-07  2492   0.360E-03
  41 F= -.19836332E+03 E0= -.19835815E+03  d E =-.153098E-03
       N       E                     dE             d eps       ncg     rms          rms(c)
DAV:   1    -0.195011425105E+03   -0.11793E-03   -0.74000E-03  3171   0.323E-01    0.230E-02
DAV:   2    -0.195011424361E+03    0.74397E-06   -0.12375E-04  4004   0.421E-02    0.139E-02
DAV:   3    -0.195011422062E+03    0.22991E-05   -0.14693E-05  3836   0.147E-02    0.355E-03
DAV:   4    -0.195011422192E+03   -0.13019E-06   -0.29116E-06  3080   0.647E-03
  42 F= -.19836340E+03 E0= -.19835823E+03  d E =-.820347E-04
       N       E                     dE             d eps       ncg     rms          rms(c)
DAV:   1    -0.195011554509E+03   -0.13245E-03   -0.25639E-02  3150   0.602E-01    0.426E-02
DAV:   2    -0.195011552090E+03    0.24191E-05   -0.42363E-04  4018   0.780E-02    0.257E-02
DAV:   3    -0.195011543738E+03    0.83513E-05   -0.49813E-05  3962   0.272E-02    0.662E-03
DAV:   4    -0.195011543491E+03    0.24768E-06   -0.10310E-05  3703   0.119E-02    0.249E-03
DAV:   5    -0.195011543724E+03   -0.23329E-06   -0.84566E-07  2835   0.323E-03
  43 F= -.19836347E+03 E0= -.19835828E+03  d E =-.142781E-03
       N       E                     dE             d eps       ncg     rms          rms(c)
DAV:   1    -0.195011395342E+03    0.14815E-03   -0.72395E-03  3171   0.329E-01    0.224E-02
DAV:   2    -0.195011392826E+03    0.25161E-05   -0.12739E-04  3955   0.426E-02    0.130E-02
DAV:   3    -0.195011390771E+03    0.20549E-05   -0.13540E-05  3885   0.134E-02    0.416E-03
DAV:   4    -0.195011390803E+03   -0.32172E-07   -0.21639E-06  3017   0.560E-03
  44 F= -.19836353E+03 E0= -.19835833E+03  d E =-.602628E-04
