k-points
0
Monkhorst-pack
2   3   2
0   0   0