phonon_dispersion                       
           1
    11.399516    0.000000    0.000000
     0.000000   12.628267    0.000000
     0.000000    0.000000   24.044058
   B 
    56
Direct configuration=     1
   0.25691115  0.32038198  0.08409683
   0.25691115  0.82038198  0.08409683
   0.75691115  0.32038198  0.08409683
   0.75691115  0.82038198  0.08409683
   0.24308885  0.17961802  0.08409683
   0.24308885  0.67961802  0.08409683
   0.74308885  0.17961802  0.08409683
   0.74308885  0.67961802  0.08409683
   0.49308885  0.32038198  0.08409683
   0.49308885  0.82038198  0.08409683
   0.99308885  0.32038198  0.08409683
   0.99308885  0.82038198  0.08409683
   0.00691115  0.17961802  0.08409683
   0.00691115  0.67961802  0.08409683
   0.50691115  0.17961802  0.08409683
   0.50691115  0.67961802  0.08409683
   0.29804543  0.45061107  0.08409683
   0.29804543  0.95061107  0.08409683
   0.79804543  0.45061107  0.08409683
   0.79804543  0.95061107  0.08409683
   0.20195457  0.04938893  0.08409683
   0.20195457  0.54938893  0.08409683
   0.70195457  0.04938893  0.08409683
   0.70195457  0.54938893  0.08409683
   0.45195457  0.45061107  0.08409683
   0.45195457  0.95061107  0.08409683
   0.95195457  0.45061107  0.08409683
   0.95195457  0.95061107  0.08409683
   0.04804543  0.04938893  0.08409683
   0.04804543  0.54938893  0.08409683
   0.54804543  0.04938893  0.08409683
   0.54804543  0.54938893  0.08409683
   0.37500000  0.36189197  0.12541800
   0.37500000  0.86189197  0.12541800
   0.87500000  0.36189197  0.12541800
   0.87500000  0.86189197  0.12541800
   0.12500000  0.13810803  0.04277567
   0.12500000  0.63810803  0.04277567
   0.62500000  0.13810803  0.04277567
   0.62500000  0.63810803  0.04277567
   0.37500000  0.36189197  0.04277567
   0.37500000  0.86189197  0.04277567
   0.87500000  0.36189197  0.04277567
   0.87500000  0.86189197  0.04277567
   0.12500000  0.13810803  0.12541800
   0.12500000  0.63810803  0.12541800
   0.62500000  0.13810803  0.12541800
   0.62500000  0.63810803  0.12541800
   0.12500000  0.25824383  0.08409683
   0.12500000  0.75824383  0.08409683
   0.62500000  0.25824383  0.08409683
   0.62500000  0.75824383  0.08409683
   0.37500000  0.24175616  0.08409683
   0.37500000  0.74175616  0.08409683
   0.87500000  0.24175616  0.08409683
   0.87500000  0.74175616  0.08409683
Direct configuration=     2
   0.25822699  0.32038198  0.08409683
   0.25691115  0.82038198  0.08409683
   0.75691115  0.32038198  0.08409683
   0.75691115  0.82038198  0.08409683
   0.24308885  0.17961802  0.08409683
   0.24308885  0.67961802  0.08409683
   0.74308885  0.17961802  0.08409683
   0.74308885  0.67961802  0.08409683
   0.49308885  0.32038198  0.08409683
   0.49308885  0.82038198  0.08409683
   0.99308885  0.32038198  0.08409683
   0.99308885  0.82038198  0.08409683
   0.00691115  0.17961802  0.08409683
   0.00691115  0.67961802  0.08409683
   0.50691115  0.17961802  0.08409683
   0.50691115  0.67961802  0.08409683
   0.29804543  0.45061107  0.08409683
   0.29804543  0.95061107  0.08409683
   0.79804543  0.45061107  0.08409683
   0.79804543  0.95061107  0.08409683
   0.20195457  0.04938893  0.08409683
   0.20195457  0.54938893  0.08409683
   0.70195457  0.04938893  0.08409683
   0.70195457  0.54938893  0.08409683
   0.45195457  0.45061107  0.08409683
   0.45195457  0.95061107  0.08409683
   0.95195457  0.45061107  0.08409683
   0.95195457  0.95061107  0.08409683
   0.04804543  0.04938893  0.08409683
   0.04804543  0.54938893  0.08409683
   0.54804543  0.04938893  0.08409683
   0.54804543  0.54938893  0.08409683
   0.37500000  0.36189197  0.12541800
   0.37500000  0.86189197  0.12541800
   0.87500000  0.36189197  0.12541800
   0.87500000  0.86189197  0.12541800
   0.12500000  0.13810803  0.04277567
   0.12500000  0.63810803  0.04277567
   0.62500000  0.13810803  0.04277567
   0.62500000  0.63810803  0.04277567
   0.37500000  0.36189197  0.04277567
   0.37500000  0.86189197  0.04277567
   0.87500000  0.36189197  0.04277567
   0.87500000  0.86189197  0.04277567
   0.12500000  0.13810803  0.12541800
   0.12500000  0.63810803  0.12541800
   0.62500000  0.13810803  0.12541800
   0.62500000  0.63810803  0.12541800
   0.12500000  0.25824383  0.08409683
   0.12500000  0.75824383  0.08409683
   0.62500000  0.25824383  0.08409683
   0.62500000  0.75824383  0.08409683
   0.37500000  0.24175616  0.08409683
   0.37500000  0.74175616  0.08409683
   0.87500000  0.24175616  0.08409683
   0.87500000  0.74175616  0.08409683
Direct configuration=     3
   0.25559530  0.32038198  0.08409683
   0.25691115  0.82038198  0.08409683
   0.75691115  0.32038198  0.08409683
   0.75691115  0.82038198  0.08409683
   0.24308885  0.17961802  0.08409683
   0.24308885  0.67961802  0.08409683
   0.74308885  0.17961802  0.08409683
   0.74308885  0.67961802  0.08409683
   0.49308885  0.32038198  0.08409683
   0.49308885  0.82038198  0.08409683
   0.99308885  0.32038198  0.08409683
   0.99308885  0.82038198  0.08409683
   0.00691115  0.17961802  0.08409683
   0.00691115  0.67961802  0.08409683
   0.50691115  0.17961802  0.08409683
   0.50691115  0.67961802  0.08409683
   0.29804543  0.45061107  0.08409683
   0.29804543  0.95061107  0.08409683
   0.79804543  0.45061107  0.08409683
   0.79804543  0.95061107  0.08409683
   0.20195457  0.04938893  0.08409683
   0.20195457  0.54938893  0.08409683
   0.70195457  0.04938893  0.08409683
   0.70195457  0.54938893  0.08409683
   0.45195457  0.45061107  0.08409683
   0.45195457  0.95061107  0.08409683
   0.95195457  0.45061107  0.08409683
   0.95195457  0.95061107  0.08409683
   0.04804543  0.04938893  0.08409683
   0.04804543  0.54938893  0.08409683
   0.54804543  0.04938893  0.08409683
   0.54804543  0.54938893  0.08409683
   0.37500000  0.36189197  0.12541800
   0.37500000  0.86189197  0.12541800
   0.87500000  0.36189197  0.12541800
   0.87500000  0.86189197  0.12541800
   0.12500000  0.13810803  0.04277567
   0.12500000  0.63810803  0.04277567
   0.62500000  0.13810803  0.04277567
   0.62500000  0.63810803  0.04277567
   0.37500000  0.36189197  0.04277567
   0.37500000  0.86189197  0.04277567
   0.87500000  0.36189197  0.04277567
   0.87500000  0.86189197  0.04277567
   0.12500000  0.13810803  0.12541800
   0.12500000  0.63810803  0.12541800
   0.62500000  0.13810803  0.12541800
   0.62500000  0.63810803  0.12541800
   0.12500000  0.25824383  0.08409683
   0.12500000  0.75824383  0.08409683
   0.62500000  0.25824383  0.08409683
   0.62500000  0.75824383  0.08409683
   0.37500000  0.24175616  0.08409683
   0.37500000  0.74175616  0.08409683
   0.87500000  0.24175616  0.08409683
   0.87500000  0.74175616  0.08409683
Direct configuration=     4
   0.25691115  0.32156980  0.08409683
   0.25691115  0.82038198  0.08409683
   0.75691115  0.32038198  0.08409683
   0.75691115  0.82038198  0.08409683
   0.24308885  0.17961802  0.08409683
   0.24308885  0.67961802  0.08409683
   0.74308885  0.17961802  0.08409683
   0.74308885  0.67961802  0.08409683
   0.49308885  0.32038198  0.08409683
   0.49308885  0.82038198  0.08409683
   0.99308885  0.32038198  0.08409683
   0.99308885  0.82038198  0.08409683
   0.00691115  0.17961802  0.08409683
   0.00691115  0.67961802  0.08409683
   0.50691115  0.17961802  0.08409683
   0.50691115  0.67961802  0.08409683
   0.29804543  0.45061107  0.08409683
   0.29804543  0.95061107  0.08409683
   0.79804543  0.45061107  0.08409683
   0.79804543  0.95061107  0.08409683
   0.20195457  0.04938893  0.08409683
   0.20195457  0.54938893  0.08409683
   0.70195457  0.04938893  0.08409683
   0.70195457  0.54938893  0.08409683
   0.45195457  0.45061107  0.08409683
   0.45195457  0.95061107  0.08409683
   0.95195457  0.45061107  0.08409683
   0.95195457  0.95061107  0.08409683
   0.04804543  0.04938893  0.08409683
   0.04804543  0.54938893  0.08409683
   0.54804543  0.04938893  0.08409683
   0.54804543  0.54938893  0.08409683
   0.37500000  0.36189197  0.12541800
   0.37500000  0.86189197  0.12541800
   0.87500000  0.36189197  0.12541800
   0.87500000  0.86189197  0.12541800
   0.12500000  0.13810803  0.04277567
   0.12500000  0.63810803  0.04277567
   0.62500000  0.13810803  0.04277567
   0.62500000  0.63810803  0.04277567
   0.37500000  0.36189197  0.04277567
   0.37500000  0.86189197  0.04277567
   0.87500000  0.36189197  0.04277567
   0.87500000  0.86189197  0.04277567
   0.12500000  0.13810803  0.12541800
   0.12500000  0.63810803  0.12541800
   0.62500000  0.13810803  0.12541800
   0.62500000  0.63810803  0.12541800
   0.12500000  0.25824383  0.08409683
   0.12500000  0.75824383  0.08409683
   0.62500000  0.25824383  0.08409683
   0.62500000  0.75824383  0.08409683
   0.37500000  0.24175616  0.08409683
   0.37500000  0.74175616  0.08409683
   0.87500000  0.24175616  0.08409683
   0.87500000  0.74175616  0.08409683
Direct configuration=     5
   0.25691115  0.31919417  0.08409683
   0.25691115  0.82038198  0.08409683
   0.75691115  0.32038198  0.08409683
   0.75691115  0.82038198  0.08409683
   0.24308885  0.17961802  0.08409683
   0.24308885  0.67961802  0.08409683
   0.74308885  0.17961802  0.08409683
   0.74308885  0.67961802  0.08409683
   0.49308885  0.32038198  0.08409683
   0.49308885  0.82038198  0.08409683
   0.99308885  0.32038198  0.08409683
   0.99308885  0.82038198  0.08409683
   0.00691115  0.17961802  0.08409683
   0.00691115  0.67961802  0.08409683
   0.50691115  0.17961802  0.08409683
   0.50691115  0.67961802  0.08409683
   0.29804543  0.45061107  0.08409683
   0.29804543  0.95061107  0.08409683
   0.79804543  0.45061107  0.08409683
   0.79804543  0.95061107  0.08409683
   0.20195457  0.04938893  0.08409683
   0.20195457  0.54938893  0.08409683
   0.70195457  0.04938893  0.08409683
   0.70195457  0.54938893  0.08409683
   0.45195457  0.45061107  0.08409683
   0.45195457  0.95061107  0.08409683
   0.95195457  0.45061107  0.08409683
   0.95195457  0.95061107  0.08409683
   0.04804543  0.04938893  0.08409683
   0.04804543  0.54938893  0.08409683
   0.54804543  0.04938893  0.08409683
   0.54804543  0.54938893  0.08409683
   0.37500000  0.36189197  0.12541800
   0.37500000  0.86189197  0.12541800
   0.87500000  0.36189197  0.12541800
   0.87500000  0.86189197  0.12541800
   0.12500000  0.13810803  0.04277567
   0.12500000  0.63810803  0.04277567
   0.62500000  0.13810803  0.04277567
   0.62500000  0.63810803  0.04277567
   0.37500000  0.36189197  0.04277567
   0.37500000  0.86189197  0.04277567
   0.87500000  0.36189197  0.04277567
   0.87500000  0.86189197  0.04277567
   0.12500000  0.13810803  0.12541800
   0.12500000  0.63810803  0.12541800
   0.62500000  0.13810803  0.12541800
   0.62500000  0.63810803  0.12541800
   0.12500000  0.25824383  0.08409683
   0.12500000  0.75824383  0.08409683
   0.62500000  0.25824383  0.08409683
   0.62500000  0.75824383  0.08409683
   0.37500000  0.24175616  0.08409683
   0.37500000  0.74175616  0.08409683
   0.87500000  0.24175616  0.08409683
   0.87500000  0.74175616  0.08409683
Direct configuration=     6
   0.25691115  0.32038198  0.08472069
   0.25691115  0.82038198  0.08409683
   0.75691115  0.32038198  0.08409683
   0.75691115  0.82038198  0.08409683
   0.24308885  0.17961802  0.08409683
   0.24308885  0.67961802  0.08409683
   0.74308885  0.17961802  0.08409683
   0.74308885  0.67961802  0.08409683
   0.49308885  0.32038198  0.08409683
   0.49308885  0.82038198  0.08409683
   0.99308885  0.32038198  0.08409683
   0.99308885  0.82038198  0.08409683
   0.00691115  0.17961802  0.08409683
   0.00691115  0.67961802  0.08409683
   0.50691115  0.17961802  0.08409683
   0.50691115  0.67961802  0.08409683
   0.29804543  0.45061107  0.08409683
   0.29804543  0.95061107  0.08409683
   0.79804543  0.45061107  0.08409683
   0.79804543  0.95061107  0.08409683
   0.20195457  0.04938893  0.08409683
   0.20195457  0.54938893  0.08409683
   0.70195457  0.04938893  0.08409683
   0.70195457  0.54938893  0.08409683
   0.45195457  0.45061107  0.08409683
   0.45195457  0.95061107  0.08409683
   0.95195457  0.45061107  0.08409683
   0.95195457  0.95061107  0.08409683
   0.04804543  0.04938893  0.08409683
   0.04804543  0.54938893  0.08409683
   0.54804543  0.04938893  0.08409683
   0.54804543  0.54938893  0.08409683
   0.37500000  0.36189197  0.12541800
   0.37500000  0.86189197  0.12541800
   0.87500000  0.36189197  0.12541800
   0.87500000  0.86189197  0.12541800
   0.12500000  0.13810803  0.04277567
   0.12500000  0.63810803  0.04277567
   0.62500000  0.13810803  0.04277567
   0.62500000  0.63810803  0.04277567
   0.37500000  0.36189197  0.04277567
   0.37500000  0.86189197  0.04277567
   0.87500000  0.36189197  0.04277567
   0.87500000  0.86189197  0.04277567
   0.12500000  0.13810803  0.12541800
   0.12500000  0.63810803  0.12541800
   0.62500000  0.13810803  0.12541800
   0.62500000  0.63810803  0.12541800
   0.12500000  0.25824383  0.08409683
   0.12500000  0.75824383  0.08409683
   0.62500000  0.25824383  0.08409683
   0.62500000  0.75824383  0.08409683
   0.37500000  0.24175616  0.08409683
   0.37500000  0.74175616  0.08409683
   0.87500000  0.24175616  0.08409683
   0.87500000  0.74175616  0.08409683
Direct configuration=     7
   0.25691115  0.32038198  0.08347298
   0.25691115  0.82038198  0.08409683
   0.75691115  0.32038198  0.08409683
   0.75691115  0.82038198  0.08409683
   0.24308885  0.17961802  0.08409683
   0.24308885  0.67961802  0.08409683
   0.74308885  0.17961802  0.08409683
   0.74308885  0.67961802  0.08409683
   0.49308885  0.32038198  0.08409683
   0.49308885  0.82038198  0.08409683
   0.99308885  0.32038198  0.08409683
   0.99308885  0.82038198  0.08409683
   0.00691115  0.17961802  0.08409683
   0.00691115  0.67961802  0.08409683
   0.50691115  0.17961802  0.08409683
   0.50691115  0.67961802  0.08409683
   0.29804543  0.45061107  0.08409683
   0.29804543  0.95061107  0.08409683
   0.79804543  0.45061107  0.08409683
   0.79804543  0.95061107  0.08409683
   0.20195457  0.04938893  0.08409683
   0.20195457  0.54938893  0.08409683
   0.70195457  0.04938893  0.08409683
   0.70195457  0.54938893  0.08409683
   0.45195457  0.45061107  0.08409683
   0.45195457  0.95061107  0.08409683
   0.95195457  0.45061107  0.08409683
   0.95195457  0.95061107  0.08409683
   0.04804543  0.04938893  0.08409683
   0.04804543  0.54938893  0.08409683
   0.54804543  0.04938893  0.08409683
   0.54804543  0.54938893  0.08409683
   0.37500000  0.36189197  0.12541800
   0.37500000  0.86189197  0.12541800
   0.87500000  0.36189197  0.12541800
   0.87500000  0.86189197  0.12541800
   0.12500000  0.13810803  0.04277567
   0.12500000  0.63810803  0.04277567
   0.62500000  0.13810803  0.04277567
   0.62500000  0.63810803  0.04277567
   0.37500000  0.36189197  0.04277567
   0.37500000  0.86189197  0.04277567
   0.87500000  0.36189197  0.04277567
   0.87500000  0.86189197  0.04277567
   0.12500000  0.13810803  0.12541800
   0.12500000  0.63810803  0.12541800
   0.62500000  0.13810803  0.12541800
   0.62500000  0.63810803  0.12541800
   0.12500000  0.25824383  0.08409683
   0.12500000  0.75824383  0.08409683
   0.62500000  0.25824383  0.08409683
   0.62500000  0.75824383  0.08409683
   0.37500000  0.24175616  0.08409683
   0.37500000  0.74175616  0.08409683
   0.87500000  0.24175616  0.08409683
   0.87500000  0.74175616  0.08409683
Direct configuration=     8
   0.25691115  0.32038198  0.08409683
   0.25691115  0.82038198  0.08409683
   0.75691115  0.32038198  0.08409683
   0.75691115  0.82038198  0.08409683
   0.24308885  0.17961802  0.08409683
   0.24308885  0.67961802  0.08409683
   0.74308885  0.17961802  0.08409683
   0.74308885  0.67961802  0.08409683
   0.49308885  0.32038198  0.08409683
   0.49308885  0.82038198  0.08409683
   0.99308885  0.32038198  0.08409683
   0.99308885  0.82038198  0.08409683
   0.00691115  0.17961802  0.08409683
   0.00691115  0.67961802  0.08409683
   0.50691115  0.17961802  0.08409683
   0.50691115  0.67961802  0.08409683
   0.29936128  0.45061107  0.08409683
   0.29804543  0.95061107  0.08409683
   0.79804543  0.45061107  0.08409683
   0.79804543  0.95061107  0.08409683
   0.20195457  0.04938893  0.08409683
   0.20195457  0.54938893  0.08409683
   0.70195457  0.04938893  0.08409683
   0.70195457  0.54938893  0.08409683
   0.45195457  0.45061107  0.08409683
   0.45195457  0.95061107  0.08409683
   0.95195457  0.45061107  0.08409683
   0.95195457  0.95061107  0.08409683
   0.04804543  0.04938893  0.08409683
   0.04804543  0.54938893  0.08409683
   0.54804543  0.04938893  0.08409683
   0.54804543  0.54938893  0.08409683
   0.37500000  0.36189197  0.12541800
   0.37500000  0.86189197  0.12541800
   0.87500000  0.36189197  0.12541800
   0.87500000  0.86189197  0.12541800
   0.12500000  0.13810803  0.04277567
   0.12500000  0.63810803  0.04277567
   0.62500000  0.13810803  0.04277567
   0.62500000  0.63810803  0.04277567
   0.37500000  0.36189197  0.04277567
   0.37500000  0.86189197  0.04277567
   0.87500000  0.36189197  0.04277567
   0.87500000  0.86189197  0.04277567
   0.12500000  0.13810803  0.12541800
   0.12500000  0.63810803  0.12541800
   0.62500000  0.13810803  0.12541800
   0.62500000  0.63810803  0.12541800
   0.12500000  0.25824383  0.08409683
   0.12500000  0.75824383  0.08409683
   0.62500000  0.25824383  0.08409683
   0.62500000  0.75824383  0.08409683
   0.37500000  0.24175616  0.08409683
   0.37500000  0.74175616  0.08409683
   0.87500000  0.24175616  0.08409683
   0.87500000  0.74175616  0.08409683
Direct configuration=     9
   0.25691115  0.32038198  0.08409683
   0.25691115  0.82038198  0.08409683
   0.75691115  0.32038198  0.08409683
   0.75691115  0.82038198  0.08409683
   0.24308885  0.17961802  0.08409683
   0.24308885  0.67961802  0.08409683
   0.74308885  0.17961802  0.08409683
   0.74308885  0.67961802  0.08409683
   0.49308885  0.32038198  0.08409683
   0.49308885  0.82038198  0.08409683
   0.99308885  0.32038198  0.08409683
   0.99308885  0.82038198  0.08409683
   0.00691115  0.17961802  0.08409683
   0.00691115  0.67961802  0.08409683
   0.50691115  0.17961802  0.08409683
   0.50691115  0.67961802  0.08409683
   0.29672959  0.45061107  0.08409683
   0.29804543  0.95061107  0.08409683
   0.79804543  0.45061107  0.08409683
   0.79804543  0.95061107  0.08409683
   0.20195457  0.04938893  0.08409683
   0.20195457  0.54938893  0.08409683
   0.70195457  0.04938893  0.08409683
   0.70195457  0.54938893  0.08409683
   0.45195457  0.45061107  0.08409683
   0.45195457  0.95061107  0.08409683
   0.95195457  0.45061107  0.08409683
   0.95195457  0.95061107  0.08409683
   0.04804543  0.04938893  0.08409683
   0.04804543  0.54938893  0.08409683
   0.54804543  0.04938893  0.08409683
   0.54804543  0.54938893  0.08409683
   0.37500000  0.36189197  0.12541800
   0.37500000  0.86189197  0.12541800
   0.87500000  0.36189197  0.12541800
   0.87500000  0.86189197  0.12541800
   0.12500000  0.13810803  0.04277567
   0.12500000  0.63810803  0.04277567
   0.62500000  0.13810803  0.04277567
   0.62500000  0.63810803  0.04277567
   0.37500000  0.36189197  0.04277567
   0.37500000  0.86189197  0.04277567
   0.87500000  0.36189197  0.04277567
   0.87500000  0.86189197  0.04277567
   0.12500000  0.13810803  0.12541800
   0.12500000  0.63810803  0.12541800
   0.62500000  0.13810803  0.12541800
   0.62500000  0.63810803  0.12541800
   0.12500000  0.25824383  0.08409683
   0.12500000  0.75824383  0.08409683
   0.62500000  0.25824383  0.08409683
   0.62500000  0.75824383  0.08409683
   0.37500000  0.24175616  0.08409683
   0.37500000  0.74175616  0.08409683
   0.87500000  0.24175616  0.08409683
   0.87500000  0.74175616  0.08409683
Direct configuration=    10
   0.25691115  0.32038198  0.08409683
   0.25691115  0.82038198  0.08409683
   0.75691115  0.32038198  0.08409683
   0.75691115  0.82038198  0.08409683
   0.24308885  0.17961802  0.08409683
   0.24308885  0.67961802  0.08409683
   0.74308885  0.17961802  0.08409683
   0.74308885  0.67961802  0.08409683
   0.49308885  0.32038198  0.08409683
   0.49308885  0.82038198  0.08409683
   0.99308885  0.32038198  0.08409683
   0.99308885  0.82038198  0.08409683
   0.00691115  0.17961802  0.08409683
   0.00691115  0.67961802  0.08409683
   0.50691115  0.17961802  0.08409683
   0.50691115  0.67961802  0.08409683
   0.29804543  0.45179888  0.08409683
   0.29804543  0.95061107  0.08409683
   0.79804543  0.45061107  0.08409683
   0.79804543  0.95061107  0.08409683
   0.20195457  0.04938893  0.08409683
   0.20195457  0.54938893  0.08409683
   0.70195457  0.04938893  0.08409683
   0.70195457  0.54938893  0.08409683
   0.45195457  0.45061107  0.08409683
   0.45195457  0.95061107  0.08409683
   0.95195457  0.45061107  0.08409683
   0.95195457  0.95061107  0.08409683
   0.04804543  0.04938893  0.08409683
   0.04804543  0.54938893  0.08409683
   0.54804543  0.04938893  0.08409683
   0.54804543  0.54938893  0.08409683
   0.37500000  0.36189197  0.12541800
   0.37500000  0.86189197  0.12541800
   0.87500000  0.36189197  0.12541800
   0.87500000  0.86189197  0.12541800
   0.12500000  0.13810803  0.04277567
   0.12500000  0.63810803  0.04277567
   0.62500000  0.13810803  0.04277567
   0.62500000  0.63810803  0.04277567
   0.37500000  0.36189197  0.04277567
   0.37500000  0.86189197  0.04277567
   0.87500000  0.36189197  0.04277567
   0.87500000  0.86189197  0.04277567
   0.12500000  0.13810803  0.12541800
   0.12500000  0.63810803  0.12541800
   0.62500000  0.13810803  0.12541800
   0.62500000  0.63810803  0.12541800
   0.12500000  0.25824383  0.08409683
   0.12500000  0.75824383  0.08409683
   0.62500000  0.25824383  0.08409683
   0.62500000  0.75824383  0.08409683
   0.37500000  0.24175616  0.08409683
   0.37500000  0.74175616  0.08409683
   0.87500000  0.24175616  0.08409683
   0.87500000  0.74175616  0.08409683
Direct configuration=    11
   0.25691115  0.32038198  0.08409683
   0.25691115  0.82038198  0.08409683
   0.75691115  0.32038198  0.08409683
   0.75691115  0.82038198  0.08409683
   0.24308885  0.17961802  0.08409683
   0.24308885  0.67961802  0.08409683
   0.74308885  0.17961802  0.08409683
   0.74308885  0.67961802  0.08409683
   0.49308885  0.32038198  0.08409683
   0.49308885  0.82038198  0.08409683
   0.99308885  0.32038198  0.08409683
   0.99308885  0.82038198  0.08409683
   0.00691115  0.17961802  0.08409683
   0.00691115  0.67961802  0.08409683
   0.50691115  0.17961802  0.08409683
   0.50691115  0.67961802  0.08409683
   0.29804543  0.44942326  0.08409683
   0.29804543  0.95061107  0.08409683
   0.79804543  0.45061107  0.08409683
   0.79804543  0.95061107  0.08409683
   0.20195457  0.04938893  0.08409683
   0.20195457  0.54938893  0.08409683
   0.70195457  0.04938893  0.08409683
   0.70195457  0.54938893  0.08409683
   0.45195457  0.45061107  0.08409683
   0.45195457  0.95061107  0.08409683
   0.95195457  0.45061107  0.08409683
   0.95195457  0.95061107  0.08409683
   0.04804543  0.04938893  0.08409683
   0.04804543  0.54938893  0.08409683
   0.54804543  0.04938893  0.08409683
   0.54804543  0.54938893  0.08409683
   0.37500000  0.36189197  0.12541800
   0.37500000  0.86189197  0.12541800
   0.87500000  0.36189197  0.12541800
   0.87500000  0.86189197  0.12541800
   0.12500000  0.13810803  0.04277567
   0.12500000  0.63810803  0.04277567
   0.62500000  0.13810803  0.04277567
   0.62500000  0.63810803  0.04277567
   0.37500000  0.36189197  0.04277567
   0.37500000  0.86189197  0.04277567
   0.87500000  0.36189197  0.04277567
   0.87500000  0.86189197  0.04277567
   0.12500000  0.13810803  0.12541800
   0.12500000  0.63810803  0.12541800
   0.62500000  0.13810803  0.12541800
   0.62500000  0.63810803  0.12541800
   0.12500000  0.25824383  0.08409683
   0.12500000  0.75824383  0.08409683
   0.62500000  0.25824383  0.08409683
   0.62500000  0.75824383  0.08409683
   0.37500000  0.24175616  0.08409683
   0.37500000  0.74175616  0.08409683
   0.87500000  0.24175616  0.08409683
   0.87500000  0.74175616  0.08409683
Direct configuration=    12
   0.25691115  0.32038198  0.08409683
   0.25691115  0.82038198  0.08409683
   0.75691115  0.32038198  0.08409683
   0.75691115  0.82038198  0.08409683
   0.24308885  0.17961802  0.08409683
   0.24308885  0.67961802  0.08409683
   0.74308885  0.17961802  0.08409683
   0.74308885  0.67961802  0.08409683
   0.49308885  0.32038198  0.08409683
   0.49308885  0.82038198  0.08409683
   0.99308885  0.32038198  0.08409683
   0.99308885  0.82038198  0.08409683
   0.00691115  0.17961802  0.08409683
   0.00691115  0.67961802  0.08409683
   0.50691115  0.17961802  0.08409683
   0.50691115  0.67961802  0.08409683
   0.29804543  0.45061107  0.08472069
   0.29804543  0.95061107  0.08409683
   0.79804543  0.45061107  0.08409683
   0.79804543  0.95061107  0.08409683
   0.20195457  0.04938893  0.08409683
   0.20195457  0.54938893  0.08409683
   0.70195457  0.04938893  0.08409683
   0.70195457  0.54938893  0.08409683
   0.45195457  0.45061107  0.08409683
   0.45195457  0.95061107  0.08409683
   0.95195457  0.45061107  0.08409683
   0.95195457  0.95061107  0.08409683
   0.04804543  0.04938893  0.08409683
   0.04804543  0.54938893  0.08409683
   0.54804543  0.04938893  0.08409683
   0.54804543  0.54938893  0.08409683
   0.37500000  0.36189197  0.12541800
   0.37500000  0.86189197  0.12541800
   0.87500000  0.36189197  0.12541800
   0.87500000  0.86189197  0.12541800
   0.12500000  0.13810803  0.04277567
   0.12500000  0.63810803  0.04277567
   0.62500000  0.13810803  0.04277567
   0.62500000  0.63810803  0.04277567
   0.37500000  0.36189197  0.04277567
   0.37500000  0.86189197  0.04277567
   0.87500000  0.36189197  0.04277567
   0.87500000  0.86189197  0.04277567
   0.12500000  0.13810803  0.12541800
   0.12500000  0.63810803  0.12541800
   0.62500000  0.13810803  0.12541800
   0.62500000  0.63810803  0.12541800
   0.12500000  0.25824383  0.08409683
   0.12500000  0.75824383  0.08409683
   0.62500000  0.25824383  0.08409683
   0.62500000  0.75824383  0.08409683
   0.37500000  0.24175616  0.08409683
   0.37500000  0.74175616  0.08409683
   0.87500000  0.24175616  0.08409683
   0.87500000  0.74175616  0.08409683
Direct configuration=    13
   0.25691115  0.32038198  0.08409683
   0.25691115  0.82038198  0.08409683
   0.75691115  0.32038198  0.08409683
   0.75691115  0.82038198  0.08409683
   0.24308885  0.17961802  0.08409683
   0.24308885  0.67961802  0.08409683
   0.74308885  0.17961802  0.08409683
   0.74308885  0.67961802  0.08409683
   0.49308885  0.32038198  0.08409683
   0.49308885  0.82038198  0.08409683
   0.99308885  0.32038198  0.08409683
   0.99308885  0.82038198  0.08409683
   0.00691115  0.17961802  0.08409683
   0.00691115  0.67961802  0.08409683
   0.50691115  0.17961802  0.08409683
   0.50691115  0.67961802  0.08409683
   0.29804543  0.45061107  0.08347298
   0.29804543  0.95061107  0.08409683
   0.79804543  0.45061107  0.08409683
   0.79804543  0.95061107  0.08409683
   0.20195457  0.04938893  0.08409683
   0.20195457  0.54938893  0.08409683
   0.70195457  0.04938893  0.08409683
   0.70195457  0.54938893  0.08409683
   0.45195457  0.45061107  0.08409683
   0.45195457  0.95061107  0.08409683
   0.95195457  0.45061107  0.08409683
   0.95195457  0.95061107  0.08409683
   0.04804543  0.04938893  0.08409683
   0.04804543  0.54938893  0.08409683
   0.54804543  0.04938893  0.08409683
   0.54804543  0.54938893  0.08409683
   0.37500000  0.36189197  0.12541800
   0.37500000  0.86189197  0.12541800
   0.87500000  0.36189197  0.12541800
   0.87500000  0.86189197  0.12541800
   0.12500000  0.13810803  0.04277567
   0.12500000  0.63810803  0.04277567
   0.62500000  0.13810803  0.04277567
   0.62500000  0.63810803  0.04277567
   0.37500000  0.36189197  0.04277567
   0.37500000  0.86189197  0.04277567
   0.87500000  0.36189197  0.04277567
   0.87500000  0.86189197  0.04277567
   0.12500000  0.13810803  0.12541800
   0.12500000  0.63810803  0.12541800
   0.62500000  0.13810803  0.12541800
   0.62500000  0.63810803  0.12541800
   0.12500000  0.25824383  0.08409683
   0.12500000  0.75824383  0.08409683
   0.62500000  0.25824383  0.08409683
   0.62500000  0.75824383  0.08409683
   0.37500000  0.24175616  0.08409683
   0.37500000  0.74175616  0.08409683
   0.87500000  0.24175616  0.08409683
   0.87500000  0.74175616  0.08409683
Direct configuration=    14
   0.25691115  0.32038198  0.08409683
   0.25691115  0.82038198  0.08409683
   0.75691115  0.32038198  0.08409683
   0.75691115  0.82038198  0.08409683
   0.24308885  0.17961802  0.08409683
   0.24308885  0.67961802  0.08409683
   0.74308885  0.17961802  0.08409683
   0.74308885  0.67961802  0.08409683
   0.49308885  0.32038198  0.08409683
   0.49308885  0.82038198  0.08409683
   0.99308885  0.32038198  0.08409683
   0.99308885  0.82038198  0.08409683
   0.00691115  0.17961802  0.08409683
   0.00691115  0.67961802  0.08409683
   0.50691115  0.17961802  0.08409683
   0.50691115  0.67961802  0.08409683
   0.29804543  0.45061107  0.08409683
   0.29804543  0.95061107  0.08409683
   0.79804543  0.45061107  0.08409683
   0.79804543  0.95061107  0.08409683
   0.20195457  0.04938893  0.08409683
   0.20195457  0.54938893  0.08409683
   0.70195457  0.04938893  0.08409683
   0.70195457  0.54938893  0.08409683
   0.45195457  0.45061107  0.08409683
   0.45195457  0.95061107  0.08409683
   0.95195457  0.45061107  0.08409683
   0.95195457  0.95061107  0.08409683
   0.04804543  0.04938893  0.08409683
   0.04804543  0.54938893  0.08409683
   0.54804543  0.04938893  0.08409683
   0.54804543  0.54938893  0.08409683
   0.37631585  0.36189197  0.12541800
   0.37500000  0.86189197  0.12541800
   0.87500000  0.36189197  0.12541800
   0.87500000  0.86189197  0.12541800
   0.12500000  0.13810803  0.04277567
   0.12500000  0.63810803  0.04277567
   0.62500000  0.13810803  0.04277567
   0.62500000  0.63810803  0.04277567
   0.37500000  0.36189197  0.04277567
   0.37500000  0.86189197  0.04277567
   0.87500000  0.36189197  0.04277567
   0.87500000  0.86189197  0.04277567
   0.12500000  0.13810803  0.12541800
   0.12500000  0.63810803  0.12541800
   0.62500000  0.13810803  0.12541800
   0.62500000  0.63810803  0.12541800
   0.12500000  0.25824383  0.08409683
   0.12500000  0.75824383  0.08409683
   0.62500000  0.25824383  0.08409683
   0.62500000  0.75824383  0.08409683
   0.37500000  0.24175616  0.08409683
   0.37500000  0.74175616  0.08409683
   0.87500000  0.24175616  0.08409683
   0.87500000  0.74175616  0.08409683
Direct configuration=    15
   0.25691115  0.32038198  0.08409683
   0.25691115  0.82038198  0.08409683
   0.75691115  0.32038198  0.08409683
   0.75691115  0.82038198  0.08409683
   0.24308885  0.17961802  0.08409683
   0.24308885  0.67961802  0.08409683
   0.74308885  0.17961802  0.08409683
   0.74308885  0.67961802  0.08409683
   0.49308885  0.32038198  0.08409683
   0.49308885  0.82038198  0.08409683
   0.99308885  0.32038198  0.08409683
   0.99308885  0.82038198  0.08409683
   0.00691115  0.17961802  0.08409683
   0.00691115  0.67961802  0.08409683
   0.50691115  0.17961802  0.08409683
   0.50691115  0.67961802  0.08409683
   0.29804543  0.45061107  0.08409683
   0.29804543  0.95061107  0.08409683
   0.79804543  0.45061107  0.08409683
   0.79804543  0.95061107  0.08409683
   0.20195457  0.04938893  0.08409683
   0.20195457  0.54938893  0.08409683
   0.70195457  0.04938893  0.08409683
   0.70195457  0.54938893  0.08409683
   0.45195457  0.45061107  0.08409683
   0.45195457  0.95061107  0.08409683
   0.95195457  0.45061107  0.08409683
   0.95195457  0.95061107  0.08409683
   0.04804543  0.04938893  0.08409683
   0.04804543  0.54938893  0.08409683
   0.54804543  0.04938893  0.08409683
   0.54804543  0.54938893  0.08409683
   0.37368415  0.36189197  0.12541800
   0.37500000  0.86189197  0.12541800
   0.87500000  0.36189197  0.12541800
   0.87500000  0.86189197  0.12541800
   0.12500000  0.13810803  0.04277567
   0.12500000  0.63810803  0.04277567
   0.62500000  0.13810803  0.04277567
   0.62500000  0.63810803  0.04277567
   0.37500000  0.36189197  0.04277567
   0.37500000  0.86189197  0.04277567
   0.87500000  0.36189197  0.04277567
   0.87500000  0.86189197  0.04277567
   0.12500000  0.13810803  0.12541800
   0.12500000  0.63810803  0.12541800
   0.62500000  0.13810803  0.12541800
   0.62500000  0.63810803  0.12541800
   0.12500000  0.25824383  0.08409683
   0.12500000  0.75824383  0.08409683
   0.62500000  0.25824383  0.08409683
   0.62500000  0.75824383  0.08409683
   0.37500000  0.24175616  0.08409683
   0.37500000  0.74175616  0.08409683
   0.87500000  0.24175616  0.08409683
   0.87500000  0.74175616  0.08409683
Direct configuration=    16
   0.25691115  0.32038198  0.08409683
   0.25691115  0.82038198  0.08409683
   0.75691115  0.32038198  0.08409683
   0.75691115  0.82038198  0.08409683
   0.24308885  0.17961802  0.08409683
   0.24308885  0.67961802  0.08409683
   0.74308885  0.17961802  0.08409683
   0.74308885  0.67961802  0.08409683
   0.49308885  0.32038198  0.08409683
   0.49308885  0.82038198  0.08409683
   0.99308885  0.32038198  0.08409683
   0.99308885  0.82038198  0.08409683
   0.00691115  0.17961802  0.08409683
   0.00691115  0.67961802  0.08409683
   0.50691115  0.17961802  0.08409683
   0.50691115  0.67961802  0.08409683
   0.29804543  0.45061107  0.08409683
   0.29804543  0.95061107  0.08409683
   0.79804543  0.45061107  0.08409683
   0.79804543  0.95061107  0.08409683
   0.20195457  0.04938893  0.08409683
   0.20195457  0.54938893  0.08409683
   0.70195457  0.04938893  0.08409683
   0.70195457  0.54938893  0.08409683
   0.45195457  0.45061107  0.08409683
   0.45195457  0.95061107  0.08409683
   0.95195457  0.45061107  0.08409683
   0.95195457  0.95061107  0.08409683
   0.04804543  0.04938893  0.08409683
   0.04804543  0.54938893  0.08409683
   0.54804543  0.04938893  0.08409683
   0.54804543  0.54938893  0.08409683
   0.37500000  0.36307978  0.12541800
   0.37500000  0.86189197  0.12541800
   0.87500000  0.36189197  0.12541800
   0.87500000  0.86189197  0.12541800
   0.12500000  0.13810803  0.04277567
   0.12500000  0.63810803  0.04277567
   0.62500000  0.13810803  0.04277567
   0.62500000  0.63810803  0.04277567
   0.37500000  0.36189197  0.04277567
   0.37500000  0.86189197  0.04277567
   0.87500000  0.36189197  0.04277567
   0.87500000  0.86189197  0.04277567
   0.12500000  0.13810803  0.12541800
   0.12500000  0.63810803  0.12541800
   0.62500000  0.13810803  0.12541800
   0.62500000  0.63810803  0.12541800
   0.12500000  0.25824383  0.08409683
   0.12500000  0.75824383  0.08409683
   0.62500000  0.25824383  0.08409683
   0.62500000  0.75824383  0.08409683
   0.37500000  0.24175616  0.08409683
   0.37500000  0.74175616  0.08409683
   0.87500000  0.24175616  0.08409683
   0.87500000  0.74175616  0.08409683
Direct configuration=    17
   0.25691115  0.32038198  0.08409683
   0.25691115  0.82038198  0.08409683
   0.75691115  0.32038198  0.08409683
   0.75691115  0.82038198  0.08409683
   0.24308885  0.17961802  0.08409683
   0.24308885  0.67961802  0.08409683
   0.74308885  0.17961802  0.08409683
   0.74308885  0.67961802  0.08409683
   0.49308885  0.32038198  0.08409683
   0.49308885  0.82038198  0.08409683
   0.99308885  0.32038198  0.08409683
   0.99308885  0.82038198  0.08409683
   0.00691115  0.17961802  0.08409683
   0.00691115  0.67961802  0.08409683
   0.50691115  0.17961802  0.08409683
   0.50691115  0.67961802  0.08409683
   0.29804543  0.45061107  0.08409683
   0.29804543  0.95061107  0.08409683
   0.79804543  0.45061107  0.08409683
   0.79804543  0.95061107  0.08409683
   0.20195457  0.04938893  0.08409683
   0.20195457  0.54938893  0.08409683
   0.70195457  0.04938893  0.08409683
   0.70195457  0.54938893  0.08409683
   0.45195457  0.45061107  0.08409683
   0.45195457  0.95061107  0.08409683
   0.95195457  0.45061107  0.08409683
   0.95195457  0.95061107  0.08409683
   0.04804543  0.04938893  0.08409683
   0.04804543  0.54938893  0.08409683
   0.54804543  0.04938893  0.08409683
   0.54804543  0.54938893  0.08409683
   0.37500000  0.36070416  0.12541800
   0.37500000  0.86189197  0.12541800
   0.87500000  0.36189197  0.12541800
   0.87500000  0.86189197  0.12541800
   0.12500000  0.13810803  0.04277567
   0.12500000  0.63810803  0.04277567
   0.62500000  0.13810803  0.04277567
   0.62500000  0.63810803  0.04277567
   0.37500000  0.36189197  0.04277567
   0.37500000  0.86189197  0.04277567
   0.87500000  0.36189197  0.04277567
   0.87500000  0.86189197  0.04277567
   0.12500000  0.13810803  0.12541800
   0.12500000  0.63810803  0.12541800
   0.62500000  0.13810803  0.12541800
   0.62500000  0.63810803  0.12541800
   0.12500000  0.25824383  0.08409683
   0.12500000  0.75824383  0.08409683
   0.62500000  0.25824383  0.08409683
   0.62500000  0.75824383  0.08409683
   0.37500000  0.24175616  0.08409683
   0.37500000  0.74175616  0.08409683
   0.87500000  0.24175616  0.08409683
   0.87500000  0.74175616  0.08409683
Direct configuration=    18
   0.25691115  0.32038198  0.08409683
   0.25691115  0.82038198  0.08409683
   0.75691115  0.32038198  0.08409683
   0.75691115  0.82038198  0.08409683
   0.24308885  0.17961802  0.08409683
   0.24308885  0.67961802  0.08409683
   0.74308885  0.17961802  0.08409683
   0.74308885  0.67961802  0.08409683
   0.49308885  0.32038198  0.08409683
   0.49308885  0.82038198  0.08409683
   0.99308885  0.32038198  0.08409683
   0.99308885  0.82038198  0.08409683
   0.00691115  0.17961802  0.08409683
   0.00691115  0.67961802  0.08409683
   0.50691115  0.17961802  0.08409683
   0.50691115  0.67961802  0.08409683
   0.29804543  0.45061107  0.08409683
   0.29804543  0.95061107  0.08409683
   0.79804543  0.45061107  0.08409683
   0.79804543  0.95061107  0.08409683
   0.20195457  0.04938893  0.08409683
   0.20195457  0.54938893  0.08409683
   0.70195457  0.04938893  0.08409683
   0.70195457  0.54938893  0.08409683
   0.45195457  0.45061107  0.08409683
   0.45195457  0.95061107  0.08409683
   0.95195457  0.45061107  0.08409683
   0.95195457  0.95061107  0.08409683
   0.04804543  0.04938893  0.08409683
   0.04804543  0.54938893  0.08409683
   0.54804543  0.04938893  0.08409683
   0.54804543  0.54938893  0.08409683
   0.37500000  0.36189197  0.12604185
   0.37500000  0.86189197  0.12541800
   0.87500000  0.36189197  0.12541800
   0.87500000  0.86189197  0.12541800
   0.12500000  0.13810803  0.04277567
   0.12500000  0.63810803  0.04277567
   0.62500000  0.13810803  0.04277567
   0.62500000  0.63810803  0.04277567
   0.37500000  0.36189197  0.04277567
   0.37500000  0.86189197  0.04277567
   0.87500000  0.36189197  0.04277567
   0.87500000  0.86189197  0.04277567
   0.12500000  0.13810803  0.12541800
   0.12500000  0.63810803  0.12541800
   0.62500000  0.13810803  0.12541800
   0.62500000  0.63810803  0.12541800
   0.12500000  0.25824383  0.08409683
   0.12500000  0.75824383  0.08409683
   0.62500000  0.25824383  0.08409683
   0.62500000  0.75824383  0.08409683
   0.37500000  0.24175616  0.08409683
   0.37500000  0.74175616  0.08409683
   0.87500000  0.24175616  0.08409683
   0.87500000  0.74175616  0.08409683
Direct configuration=    19
   0.25691115  0.32038198  0.08409683
   0.25691115  0.82038198  0.08409683
   0.75691115  0.32038198  0.08409683
   0.75691115  0.82038198  0.08409683
   0.24308885  0.17961802  0.08409683
   0.24308885  0.67961802  0.08409683
   0.74308885  0.17961802  0.08409683
   0.74308885  0.67961802  0.08409683
   0.49308885  0.32038198  0.08409683
   0.49308885  0.82038198  0.08409683
   0.99308885  0.32038198  0.08409683
   0.99308885  0.82038198  0.08409683
   0.00691115  0.17961802  0.08409683
   0.00691115  0.67961802  0.08409683
   0.50691115  0.17961802  0.08409683
   0.50691115  0.67961802  0.08409683
   0.29804543  0.45061107  0.08409683
   0.29804543  0.95061107  0.08409683
   0.79804543  0.45061107  0.08409683
   0.79804543  0.95061107  0.08409683
   0.20195457  0.04938893  0.08409683
   0.20195457  0.54938893  0.08409683
   0.70195457  0.04938893  0.08409683
   0.70195457  0.54938893  0.08409683
   0.45195457  0.45061107  0.08409683
   0.45195457  0.95061107  0.08409683
   0.95195457  0.45061107  0.08409683
   0.95195457  0.95061107  0.08409683
   0.04804543  0.04938893  0.08409683
   0.04804543  0.54938893  0.08409683
   0.54804543  0.04938893  0.08409683
   0.54804543  0.54938893  0.08409683
   0.37500000  0.36189197  0.12479414
   0.37500000  0.86189197  0.12541800
   0.87500000  0.36189197  0.12541800
   0.87500000  0.86189197  0.12541800
   0.12500000  0.13810803  0.04277567
   0.12500000  0.63810803  0.04277567
   0.62500000  0.13810803  0.04277567
   0.62500000  0.63810803  0.04277567
   0.37500000  0.36189197  0.04277567
   0.37500000  0.86189197  0.04277567
   0.87500000  0.36189197  0.04277567
   0.87500000  0.86189197  0.04277567
   0.12500000  0.13810803  0.12541800
   0.12500000  0.63810803  0.12541800
   0.62500000  0.13810803  0.12541800
   0.62500000  0.63810803  0.12541800
   0.12500000  0.25824383  0.08409683
   0.12500000  0.75824383  0.08409683
   0.62500000  0.25824383  0.08409683
   0.62500000  0.75824383  0.08409683
   0.37500000  0.24175616  0.08409683
   0.37500000  0.74175616  0.08409683
   0.87500000  0.24175616  0.08409683
   0.87500000  0.74175616  0.08409683
Direct configuration=    20
   0.25691115  0.32038198  0.08409683
   0.25691115  0.82038198  0.08409683
   0.75691115  0.32038198  0.08409683
   0.75691115  0.82038198  0.08409683
   0.24308885  0.17961802  0.08409683
   0.24308885  0.67961802  0.08409683
   0.74308885  0.17961802  0.08409683
   0.74308885  0.67961802  0.08409683
   0.49308885  0.32038198  0.08409683
   0.49308885  0.82038198  0.08409683
   0.99308885  0.32038198  0.08409683
   0.99308885  0.82038198  0.08409683
   0.00691115  0.17961802  0.08409683
   0.00691115  0.67961802  0.08409683
   0.50691115  0.17961802  0.08409683
   0.50691115  0.67961802  0.08409683
   0.29804543  0.45061107  0.08409683
   0.29804543  0.95061107  0.08409683
   0.79804543  0.45061107  0.08409683
   0.79804543  0.95061107  0.08409683
   0.20195457  0.04938893  0.08409683
   0.20195457  0.54938893  0.08409683
   0.70195457  0.04938893  0.08409683
   0.70195457  0.54938893  0.08409683
   0.45195457  0.45061107  0.08409683
   0.45195457  0.95061107  0.08409683
   0.95195457  0.45061107  0.08409683
   0.95195457  0.95061107  0.08409683
   0.04804543  0.04938893  0.08409683
   0.04804543  0.54938893  0.08409683
   0.54804543  0.04938893  0.08409683
   0.54804543  0.54938893  0.08409683
   0.37500000  0.36189197  0.12541800
   0.37500000  0.86189197  0.12541800
   0.87500000  0.36189197  0.12541800
   0.87500000  0.86189197  0.12541800
   0.12500000  0.13810803  0.04277567
   0.12500000  0.63810803  0.04277567
   0.62500000  0.13810803  0.04277567
   0.62500000  0.63810803  0.04277567
   0.37500000  0.36189197  0.04277567
   0.37500000  0.86189197  0.04277567
   0.87500000  0.36189197  0.04277567
   0.87500000  0.86189197  0.04277567
   0.12500000  0.13810803  0.12541800
   0.12500000  0.63810803  0.12541800
   0.62500000  0.13810803  0.12541800
   0.62500000  0.63810803  0.12541800
   0.12631585  0.25824383  0.08409683
   0.12500000  0.75824383  0.08409683
   0.62500000  0.25824383  0.08409683
   0.62500000  0.75824383  0.08409683
   0.37500000  0.24175616  0.08409683
   0.37500000  0.74175616  0.08409683
   0.87500000  0.24175616  0.08409683
   0.87500000  0.74175616  0.08409683
Direct configuration=    21
   0.25691115  0.32038198  0.08409683
   0.25691115  0.82038198  0.08409683
   0.75691115  0.32038198  0.08409683
   0.75691115  0.82038198  0.08409683
   0.24308885  0.17961802  0.08409683
   0.24308885  0.67961802  0.08409683
   0.74308885  0.17961802  0.08409683
   0.74308885  0.67961802  0.08409683
   0.49308885  0.32038198  0.08409683
   0.49308885  0.82038198  0.08409683
   0.99308885  0.32038198  0.08409683
   0.99308885  0.82038198  0.08409683
   0.00691115  0.17961802  0.08409683
   0.00691115  0.67961802  0.08409683
   0.50691115  0.17961802  0.08409683
   0.50691115  0.67961802  0.08409683
   0.29804543  0.45061107  0.08409683
   0.29804543  0.95061107  0.08409683
   0.79804543  0.45061107  0.08409683
   0.79804543  0.95061107  0.08409683
   0.20195457  0.04938893  0.08409683
   0.20195457  0.54938893  0.08409683
   0.70195457  0.04938893  0.08409683
   0.70195457  0.54938893  0.08409683
   0.45195457  0.45061107  0.08409683
   0.45195457  0.95061107  0.08409683
   0.95195457  0.45061107  0.08409683
   0.95195457  0.95061107  0.08409683
   0.04804543  0.04938893  0.08409683
   0.04804543  0.54938893  0.08409683
   0.54804543  0.04938893  0.08409683
   0.54804543  0.54938893  0.08409683
   0.37500000  0.36189197  0.12541800
   0.37500000  0.86189197  0.12541800
   0.87500000  0.36189197  0.12541800
   0.87500000  0.86189197  0.12541800
   0.12500000  0.13810803  0.04277567
   0.12500000  0.63810803  0.04277567
   0.62500000  0.13810803  0.04277567
   0.62500000  0.63810803  0.04277567
   0.37500000  0.36189197  0.04277567
   0.37500000  0.86189197  0.04277567
   0.87500000  0.36189197  0.04277567
   0.87500000  0.86189197  0.04277567
   0.12500000  0.13810803  0.12541800
   0.12500000  0.63810803  0.12541800
   0.62500000  0.13810803  0.12541800
   0.62500000  0.63810803  0.12541800
   0.12368415  0.25824383  0.08409683
   0.12500000  0.75824383  0.08409683
   0.62500000  0.25824383  0.08409683
   0.62500000  0.75824383  0.08409683
   0.37500000  0.24175616  0.08409683
   0.37500000  0.74175616  0.08409683
   0.87500000  0.24175616  0.08409683
   0.87500000  0.74175616  0.08409683
Direct configuration=    22
   0.25691115  0.32038198  0.08409683
   0.25691115  0.82038198  0.08409683
   0.75691115  0.32038198  0.08409683
   0.75691115  0.82038198  0.08409683
   0.24308885  0.17961802  0.08409683
   0.24308885  0.67961802  0.08409683
   0.74308885  0.17961802  0.08409683
   0.74308885  0.67961802  0.08409683
   0.49308885  0.32038198  0.08409683
   0.49308885  0.82038198  0.08409683
   0.99308885  0.32038198  0.08409683
   0.99308885  0.82038198  0.08409683
   0.00691115  0.17961802  0.08409683
   0.00691115  0.67961802  0.08409683
   0.50691115  0.17961802  0.08409683
   0.50691115  0.67961802  0.08409683
   0.29804543  0.45061107  0.08409683
   0.29804543  0.95061107  0.08409683
   0.79804543  0.45061107  0.08409683
   0.79804543  0.95061107  0.08409683
   0.20195457  0.04938893  0.08409683
   0.20195457  0.54938893  0.08409683
   0.70195457  0.04938893  0.08409683
   0.70195457  0.54938893  0.08409683
   0.45195457  0.45061107  0.08409683
   0.45195457  0.95061107  0.08409683
   0.95195457  0.45061107  0.08409683
   0.95195457  0.95061107  0.08409683
   0.04804543  0.04938893  0.08409683
   0.04804543  0.54938893  0.08409683
   0.54804543  0.04938893  0.08409683
   0.54804543  0.54938893  0.08409683
   0.37500000  0.36189197  0.12541800
   0.37500000  0.86189197  0.12541800
   0.87500000  0.36189197  0.12541800
   0.87500000  0.86189197  0.12541800
   0.12500000  0.13810803  0.04277567
   0.12500000  0.63810803  0.04277567
   0.62500000  0.13810803  0.04277567
   0.62500000  0.63810803  0.04277567
   0.37500000  0.36189197  0.04277567
   0.37500000  0.86189197  0.04277567
   0.87500000  0.36189197  0.04277567
   0.87500000  0.86189197  0.04277567
   0.12500000  0.13810803  0.12541800
   0.12500000  0.63810803  0.12541800
   0.62500000  0.13810803  0.12541800
   0.62500000  0.63810803  0.12541800
   0.12500000  0.25943164  0.08409683
   0.12500000  0.75824383  0.08409683
   0.62500000  0.25824383  0.08409683
   0.62500000  0.75824383  0.08409683
   0.37500000  0.24175616  0.08409683
   0.37500000  0.74175616  0.08409683
   0.87500000  0.24175616  0.08409683
   0.87500000  0.74175616  0.08409683
Direct configuration=    23
   0.25691115  0.32038198  0.08409683
   0.25691115  0.82038198  0.08409683
   0.75691115  0.32038198  0.08409683
   0.75691115  0.82038198  0.08409683
   0.24308885  0.17961802  0.08409683
   0.24308885  0.67961802  0.08409683
   0.74308885  0.17961802  0.08409683
   0.74308885  0.67961802  0.08409683
   0.49308885  0.32038198  0.08409683
   0.49308885  0.82038198  0.08409683
   0.99308885  0.32038198  0.08409683
   0.99308885  0.82038198  0.08409683
   0.00691115  0.17961802  0.08409683
   0.00691115  0.67961802  0.08409683
   0.50691115  0.17961802  0.08409683
   0.50691115  0.67961802  0.08409683
   0.29804543  0.45061107  0.08409683
   0.29804543  0.95061107  0.08409683
   0.79804543  0.45061107  0.08409683
   0.79804543  0.95061107  0.08409683
   0.20195457  0.04938893  0.08409683
   0.20195457  0.54938893  0.08409683
   0.70195457  0.04938893  0.08409683
   0.70195457  0.54938893  0.08409683
   0.45195457  0.45061107  0.08409683
   0.45195457  0.95061107  0.08409683
   0.95195457  0.45061107  0.08409683
   0.95195457  0.95061107  0.08409683
   0.04804543  0.04938893  0.08409683
   0.04804543  0.54938893  0.08409683
   0.54804543  0.04938893  0.08409683
   0.54804543  0.54938893  0.08409683
   0.37500000  0.36189197  0.12541800
   0.37500000  0.86189197  0.12541800
   0.87500000  0.36189197  0.12541800
   0.87500000  0.86189197  0.12541800
   0.12500000  0.13810803  0.04277567
   0.12500000  0.63810803  0.04277567
   0.62500000  0.13810803  0.04277567
   0.62500000  0.63810803  0.04277567
   0.37500000  0.36189197  0.04277567
   0.37500000  0.86189197  0.04277567
   0.87500000  0.36189197  0.04277567
   0.87500000  0.86189197  0.04277567
   0.12500000  0.13810803  0.12541800
   0.12500000  0.63810803  0.12541800
   0.62500000  0.13810803  0.12541800
   0.62500000  0.63810803  0.12541800
   0.12500000  0.25705602  0.08409683
   0.12500000  0.75824383  0.08409683
   0.62500000  0.25824383  0.08409683
   0.62500000  0.75824383  0.08409683
   0.37500000  0.24175616  0.08409683
   0.37500000  0.74175616  0.08409683
   0.87500000  0.24175616  0.08409683
   0.87500000  0.74175616  0.08409683
Direct configuration=    24
   0.25691115  0.32038198  0.08409683
   0.25691115  0.82038198  0.08409683
   0.75691115  0.32038198  0.08409683
   0.75691115  0.82038198  0.08409683
   0.24308885  0.17961802  0.08409683
   0.24308885  0.67961802  0.08409683
   0.74308885  0.17961802  0.08409683
   0.74308885  0.67961802  0.08409683
   0.49308885  0.32038198  0.08409683
   0.49308885  0.82038198  0.08409683
   0.99308885  0.32038198  0.08409683
   0.99308885  0.82038198  0.08409683
   0.00691115  0.17961802  0.08409683
   0.00691115  0.67961802  0.08409683
   0.50691115  0.17961802  0.08409683
   0.50691115  0.67961802  0.08409683
   0.29804543  0.45061107  0.08409683
   0.29804543  0.95061107  0.08409683
   0.79804543  0.45061107  0.08409683
   0.79804543  0.95061107  0.08409683
   0.20195457  0.04938893  0.08409683
   0.20195457  0.54938893  0.08409683
   0.70195457  0.04938893  0.08409683
   0.70195457  0.54938893  0.08409683
   0.45195457  0.45061107  0.08409683
   0.45195457  0.95061107  0.08409683
   0.95195457  0.45061107  0.08409683
   0.95195457  0.95061107  0.08409683
   0.04804543  0.04938893  0.08409683
   0.04804543  0.54938893  0.08409683
   0.54804543  0.04938893  0.08409683
   0.54804543  0.54938893  0.08409683
   0.37500000  0.36189197  0.12541800
   0.37500000  0.86189197  0.12541800
   0.87500000  0.36189197  0.12541800
   0.87500000  0.86189197  0.12541800
   0.12500000  0.13810803  0.04277567
   0.12500000  0.63810803  0.04277567
   0.62500000  0.13810803  0.04277567
   0.62500000  0.63810803  0.04277567
   0.37500000  0.36189197  0.04277567
   0.37500000  0.86189197  0.04277567
   0.87500000  0.36189197  0.04277567
   0.87500000  0.86189197  0.04277567
   0.12500000  0.13810803  0.12541800
   0.12500000  0.63810803  0.12541800
   0.62500000  0.13810803  0.12541800
   0.62500000  0.63810803  0.12541800
   0.12500000  0.25824383  0.08472069
   0.12500000  0.75824383  0.08409683
   0.62500000  0.25824383  0.08409683
   0.62500000  0.75824383  0.08409683
   0.37500000  0.24175616  0.08409683
   0.37500000  0.74175616  0.08409683
   0.87500000  0.24175616  0.08409683
   0.87500000  0.74175616  0.08409683
Direct configuration=    25
   0.25691115  0.32038198  0.08409683
   0.25691115  0.82038198  0.08409683
   0.75691115  0.32038198  0.08409683
   0.75691115  0.82038198  0.08409683
   0.24308885  0.17961802  0.08409683
   0.24308885  0.67961802  0.08409683
   0.74308885  0.17961802  0.08409683
   0.74308885  0.67961802  0.08409683
   0.49308885  0.32038198  0.08409683
   0.49308885  0.82038198  0.08409683
   0.99308885  0.32038198  0.08409683
   0.99308885  0.82038198  0.08409683
   0.00691115  0.17961802  0.08409683
   0.00691115  0.67961802  0.08409683
   0.50691115  0.17961802  0.08409683
   0.50691115  0.67961802  0.08409683
   0.29804543  0.45061107  0.08409683
   0.29804543  0.95061107  0.08409683
   0.79804543  0.45061107  0.08409683
   0.79804543  0.95061107  0.08409683
   0.20195457  0.04938893  0.08409683
   0.20195457  0.54938893  0.08409683
   0.70195457  0.04938893  0.08409683
   0.70195457  0.54938893  0.08409683
   0.45195457  0.45061107  0.08409683
   0.45195457  0.95061107  0.08409683
   0.95195457  0.45061107  0.08409683
   0.95195457  0.95061107  0.08409683
   0.04804543  0.04938893  0.08409683
   0.04804543  0.54938893  0.08409683
   0.54804543  0.04938893  0.08409683
   0.54804543  0.54938893  0.08409683
   0.37500000  0.36189197  0.12541800
   0.37500000  0.86189197  0.12541800
   0.87500000  0.36189197  0.12541800
   0.87500000  0.86189197  0.12541800
   0.12500000  0.13810803  0.04277567
   0.12500000  0.63810803  0.04277567
   0.62500000  0.13810803  0.04277567
   0.62500000  0.63810803  0.04277567
   0.37500000  0.36189197  0.04277567
   0.37500000  0.86189197  0.04277567
   0.87500000  0.36189197  0.04277567
   0.87500000  0.86189197  0.04277567
   0.12500000  0.13810803  0.12541800
   0.12500000  0.63810803  0.12541800
   0.62500000  0.13810803  0.12541800
   0.62500000  0.63810803  0.12541800
   0.12500000  0.25824383  0.08347298
   0.12500000  0.75824383  0.08409683
   0.62500000  0.25824383  0.08409683
   0.62500000  0.75824383  0.08409683
   0.37500000  0.24175616  0.08409683
   0.37500000  0.74175616  0.08409683
   0.87500000  0.24175616  0.08409683
   0.87500000  0.74175616  0.08409683
