Parameters                              
           1
     5.699758    0.000000    0.000000
     0.000000    6.314134    0.000000
     0.000000    0.000000   26.044058
   B    H 
    14     4
Direct configuration=     1
   0.51382229  0.64076397  0.15443174
   0.48617771  0.35923603  0.15443174
   0.98617771  0.64076397  0.15443174
   0.01382229  0.35923603  0.15443174
   0.59609086  0.90122213  0.15443174
   0.40390914  0.09877786  0.15443174
   0.90390914  0.90122213  0.15443174
   0.09609086  0.09877786  0.15443174
   0.75000000  0.72378395  0.19257973
   0.25000000  0.27621605  0.11628375
   0.75000000  0.72378395  0.11628375
   0.25000000  0.27621605  0.19257973
   0.25000000  0.51648766  0.15443174
   0.75000000  0.48351231  0.15443174
   0.75000000  0.72378395  0.07512533
   0.25000000  0.27621605  0.07512533
   0.75000000  0.72378395  0.23373815
   0.25000000  0.27621605  0.23373815
Parameters                              
           1
     5.693289    0.000000    0.000000
     0.000000    6.261539    0.000000
     0.000000    0.000000   26.044058
   B    H 
    14     4
Direct configuration=     2
   0.51311694  0.63694125  0.15443174
   0.48688306  0.36305875  0.15443174
   0.98688306  0.63694125  0.15443174
   0.01311694  0.36305875  0.15443174
   0.59407065  0.90276697  0.15443174
   0.40592935  0.09723302  0.15443174
   0.90592935  0.90276697  0.15443174
   0.09407065  0.09723302  0.15443174
   0.75000000  0.72685233  0.19093795
   0.25000000  0.27314767  0.11792553
   0.75000000  0.72685233  0.11792553
   0.25000000  0.27314767  0.19093795
   0.25000000  0.51896789  0.15443174
   0.75000000  0.48103208  0.15443174
   0.75000000  0.72181862  0.06730601
   0.25000000  0.27818138  0.06730601
   0.75000000  0.72181862  0.24155747
   0.25000000  0.27818138  0.24155747
Parameters                              
           1
     5.696673    0.000000    0.000000
     0.000000    6.289048    0.000000
     0.000000    0.000000   26.044058
   B    H 
    14     4
Direct configuration=     3
   0.51348629  0.63895750  0.15443174
   0.48651371  0.36104250  0.15443174
   0.98651371  0.63895750  0.15443174
   0.01348629  0.36104250  0.15443174
   0.59512851  0.90195216  0.15443174
   0.40487149  0.09804783  0.15443174
   0.90487149  0.90195216  0.15443174
   0.09512851  0.09804783  0.15443174
   0.75000000  0.72523395  0.19179668
   0.25000000  0.27476605  0.11706680
   0.75000000  0.72523395  0.11706680
   0.25000000  0.27476605  0.19179668
   0.25000000  0.51765972  0.15443174
   0.75000000  0.48234025  0.15443174
   0.75000000  0.72285521  0.07139587
   0.25000000  0.27714479  0.07139587
   0.75000000  0.72285521  0.23746760
   0.25000000  0.27714479  0.23746760
Parameters                              
           1
     5.706799    0.000000    0.000000
     0.000000    6.256582    0.000000
     0.000000    0.000000   26.044058
   B    H 
    14     4
Direct configuration=     4
   0.51304896  0.63731601  0.15443174
   0.48695104  0.36268399  0.15443174
   0.98695104  0.63731601  0.15443174
   0.01304896  0.36268399  0.15443174
   0.59380331  0.90280818  0.15443174
   0.40619669  0.09719181  0.15443174
   0.90619669  0.90280818  0.15443174
   0.09380331  0.09719181  0.15443174
   0.75000000  0.72816444  0.19598326
   0.25000000  0.27183556  0.11288022
   0.75000000  0.72816444  0.11288022
   0.25000000  0.27183556  0.19598326
   0.25000000  0.52049691  0.15443174
   0.75000000  0.47950306  0.15443174
   0.75000000  0.72042097  0.06716590
   0.25000000  0.27957903  0.06716590
   0.75000000  0.72042097  0.24169758
   0.25000000  0.27957903  0.24169758
Parameters                              
           1
     5.719238    0.000000    0.000000
     0.000000    6.216702    0.000000
     0.000000    0.000000   26.044058
   B    H 
    14     4
Direct configuration=     5
   0.51251271  0.63528922  0.15443174
   0.48748729  0.36471078  0.15443174
   0.98748729  0.63528922  0.15443174
   0.01251271  0.36471078  0.15443174
   0.59217840  0.90386513  0.15443174
   0.40782160  0.09613486  0.15443174
   0.90782160  0.90386513  0.15443174
   0.09217840  0.09613486  0.15443174
   0.75000000  0.73178279  0.20112583
   0.25000000  0.26821721  0.10773765
   0.75000000  0.73178279  0.10773765
   0.25000000  0.26821721  0.20112583
   0.25000000  0.52400005  0.15443174
   0.75000000  0.47599992  0.15443174
   0.75000000  0.71741537  0.06197002
   0.25000000  0.28258463  0.06197002
   0.75000000  0.71741537  0.24689346
   0.25000000  0.28258463  0.24689346
Parameters                              
           1
     5.714219    0.000000    0.000000
     0.000000    6.232791    0.000000
     0.000000    0.000000   26.044058
   B    H 
    14     4
Direct configuration=     6
   0.51272858  0.63611217  0.15443174
   0.48727142  0.36388783  0.15443174
   0.98727142  0.63611217  0.15443174
   0.01272858  0.36388783  0.15443174
   0.59283253  0.90343598  0.15443174
   0.40716747  0.09656402  0.15443174
   0.90716747  0.90343598  0.15443174
   0.09283253  0.09656402  0.15443174
   0.75000000  0.73031362  0.19905109
   0.25000000  0.26968638  0.10981239
   0.75000000  0.73031362  0.10981239
   0.25000000  0.26968638  0.19905109
   0.25000000  0.52257766  0.15443174
   0.75000000  0.47742231  0.15443174
   0.75000000  0.71863574  0.06406627
   0.25000000  0.28136426  0.06406627
   0.75000000  0.71863574  0.24479721
   0.25000000  0.28136426  0.24479721
Parameters                              
           1
     5.672901    0.000000    0.000000
    -0.000000    6.163047    0.000000
     0.000000    0.000000   26.044058
   B    H 
    14     4
Direct configuration=     7
   0.52046522  0.63921488  0.15443174
   0.47953478  0.36078512  0.15443174
   0.97953478  0.63921488  0.15443174
   0.02046522  0.36078512  0.15443174
   0.59893842  0.89640703  0.15443174
   0.40106158  0.10359297  0.15443174
   0.90106158  0.89640703  0.15443174
   0.09893842  0.10359297  0.15443174
   0.75000000  0.73317223  0.20213286
   0.25000000  0.26682777  0.10673062
   0.75000000  0.73317223  0.10673062
   0.25000000  0.26682777  0.20213286
   0.25000000  0.51999719  0.15443174
   0.75000000  0.48000278  0.15443174
   0.75000000  0.71674286  0.06129618
   0.25000000  0.28325714  0.06129618
   0.75000000  0.71674286  0.24756730
   0.25000000  0.28325714  0.24756730
Parameters                              
           1
     5.687806    0.000000    0.000000
    -0.000000    6.188208    0.000000
     0.000000    0.000000   26.044058
   B    H 
    14     4
Direct configuration=     8
   0.51765387  0.63808289  0.15443174
   0.48234613  0.36191711  0.15443174
   0.98234613  0.63808289  0.15443174
   0.01765387  0.36191711  0.15443174
   0.59671965  0.89897145  0.15443174
   0.40328035  0.10102855  0.15443174
   0.90328035  0.89897145  0.15443174
   0.09671965  0.10102855  0.15443174
   0.75000000  0.73212931  0.20102110
   0.25000000  0.26787069  0.10784238
   0.75000000  0.73212931  0.10784238
   0.25000000  0.26787069  0.20102110
   0.25000000  0.52093864  0.15443174
   0.75000000  0.47906133  0.15443174
   0.75000000  0.71743345  0.06229550
   0.25000000  0.28256655  0.06229550
   0.75000000  0.71743345  0.24656798
   0.25000000  0.28256655  0.24656798
Parameters                              
           1
     5.671817    0.000000    0.000000
    -0.000000    6.169085    0.000000
     0.000000    0.000000   26.044058
   B    H 
    14     4
Direct configuration=     9
   0.52050888  0.63744525  0.15443174
   0.47949112  0.36255475  0.15443174
   0.97949112  0.63744525  0.15443174
   0.02050888  0.36255475  0.15443174
   0.59758537  0.89902257  0.15443174
   0.40241463  0.10097743  0.15443174
   0.90241463  0.89902257  0.15443174
   0.09758537  0.10097743  0.15443174
   0.75000000  0.73199235  0.20017001
   0.25000000  0.26800765  0.10869347
   0.75000000  0.73199235  0.10869347
   0.25000000  0.26800765  0.20017001
   0.25000000  0.51982093  0.15443174
   0.75000000  0.48017904  0.15443174
   0.75000000  0.71756466  0.06241470
   0.25000000  0.28243534  0.06241470
   0.75000000  0.71756466  0.24644878
   0.25000000  0.28243534  0.24644878
Parameters                              
           1
     5.673355    0.000000    0.000000
    -0.000000    6.170924    0.000000
     0.000000    0.000000   26.044058
   B    H 
    14     4
Direct configuration=    10
   0.52023343  0.63750678  0.15443174
   0.47976657  0.36249322  0.15443174
   0.97976657  0.63750678  0.15443174
   0.02023343  0.36249322  0.15443174
   0.59750184  0.89901763  0.15443174
   0.40249816  0.10098236  0.15443174
   0.90249816  0.89901763  0.15443174
   0.09750184  0.10098236  0.15443174
   0.75000000  0.73200557  0.20025189
   0.25000000  0.26799443  0.10861159
   0.75000000  0.73200557  0.10861159
   0.25000000  0.26799443  0.20025189
   0.25000000  0.51992879  0.15443174
   0.75000000  0.48007118  0.15443174
   0.75000000  0.71755200  0.06240324
   0.25000000  0.28244800  0.06240324
   0.75000000  0.71755200  0.24646024
   0.25000000  0.28244800  0.24646024
Parameters                              
           1
     5.670865    0.000000    0.000000
    -0.000000    6.158997    0.000000
     0.000000    0.000000   26.044058
   B    H 
    14     4
Direct configuration=    11
   0.52165779  0.63720871  0.15443174
   0.47834221  0.36279129  0.15443174
   0.97834221  0.63720871  0.15443174
   0.02165779  0.36279129  0.15443174
   0.59777941  0.89933287  0.15443174
   0.40222059  0.10066712  0.15443174
   0.90222059  0.89933287  0.15443174
   0.09777941  0.10066712  0.15443174
   0.75000000  0.73170312  0.20029667
   0.25000000  0.26829688  0.10856681
   0.75000000  0.73170312  0.10856681
   0.25000000  0.26829688  0.20029667
   0.25000000  0.52040994  0.15443174
   0.75000000  0.47959003  0.15443174
   0.75000000  0.71770598  0.06276714
   0.25000000  0.28229402  0.06276714
   0.75000000  0.71770598  0.24609634
   0.25000000  0.28229402  0.24609634
Parameters                              
           1
     5.670056    0.000000    0.000000
    -0.000000    6.155117    0.000000
     0.000000    0.000000   26.044058
   B    H 
    14     4
Direct configuration=    12
   0.52212125  0.63711158  0.15443174
   0.47787875  0.36288842  0.15443174
   0.97787875  0.63711158  0.15443174
   0.02212125  0.36288842  0.15443174
   0.59786972  0.89943560  0.15443174
   0.40213028  0.10056439  0.15443174
   0.90213028  0.89943560  0.15443174
   0.09786972  0.10056439  0.15443174
   0.75000000  0.73160456  0.20031123
   0.25000000  0.26839544  0.10855225
   0.75000000  0.73160456  0.10855225
   0.25000000  0.26839544  0.20031123
   0.25000000  0.52056674  0.15443174
   0.75000000  0.47943323  0.15443174
   0.75000000  0.71775616  0.06288549
   0.25000000  0.28224384  0.06288549
   0.75000000  0.71775616  0.24597799
   0.25000000  0.28224384  0.24597799
Parameters                              
           1
     5.677945    0.000000    0.000000
    -0.000000    6.150085    0.000000
     0.000000    0.000000   26.044058
   B    H 
    14     4
Direct configuration=    13
   0.52234864  0.63713334  0.15443174
   0.47765136  0.36286666  0.15443174
   0.97765136  0.63713334  0.15443174
   0.02234864  0.36286666  0.15443174
   0.59800315  0.89967948  0.15443174
   0.40199685  0.10032052  0.15443174
   0.90199685  0.89967948  0.15443174
   0.09800315  0.10032052  0.15443174
   0.75000000  0.73142797  0.20020996
   0.25000000  0.26857203  0.10865352
   0.75000000  0.73142797  0.10865352
   0.25000000  0.26857203  0.20020996
   0.25000000  0.52230342  0.15443174
   0.75000000  0.47769655  0.15443174
   0.75000000  0.71783950  0.06306448
   0.25000000  0.28216050  0.06306448
   0.75000000  0.71783950  0.24579900
   0.25000000  0.28216050  0.24579900
Parameters                              
           1
     5.685695    0.000000    0.000000
    -0.000000    6.145141    0.000000
     0.000000    0.000000   26.044058
   B    H 
    14     4
Direct configuration=    14
   0.52257170  0.63715473  0.15443174
   0.47742830  0.36284527  0.15443174
   0.97742830  0.63715473  0.15443174
   0.02257170  0.36284527  0.15443174
   0.59813404  0.89991924  0.15443174
   0.40186596  0.10008076  0.15443174
   0.90186596  0.89991924  0.15443174
   0.09813404  0.10008076  0.15443174
   0.75000000  0.73125436  0.20011048
   0.25000000  0.26874564  0.10875300
   0.75000000  0.73125436  0.10875300
   0.25000000  0.26874564  0.20011048
   0.25000000  0.52401081  0.15443174
   0.75000000  0.47598916  0.15443174
   0.75000000  0.71792143  0.06324031
   0.25000000  0.28207857  0.06324031
   0.75000000  0.71792143  0.24562317
   0.25000000  0.28207857  0.24562317
Parameters                              
           1
     5.689502    0.000000    0.000000
    -0.000000    6.138943    0.000000
     0.000000    0.000000   26.044058
   B    H 
    14     4
Direct configuration=    15
   0.52310032  0.63717350  0.15443174
   0.47689968  0.36282650  0.15443174
   0.97689968  0.63717350  0.15443174
   0.02310032  0.36282650  0.15443174
   0.59843187  0.89977273  0.15443174
   0.40156813  0.10022726  0.15443174
   0.90156813  0.89977273  0.15443174
   0.09843187  0.10022726  0.15443174
   0.75000000  0.73127277  0.19995908
   0.25000000  0.26872723  0.10890439
   0.75000000  0.73127277  0.10890439
   0.25000000  0.26872723  0.19995908
   0.25000000  0.52452073  0.15443174
   0.75000000  0.47547924  0.15443174
   0.75000000  0.71788873  0.06320192
   0.25000000  0.28211127  0.06320192
   0.75000000  0.71788873  0.24566156
   0.25000000  0.28211127  0.24566156
Parameters                              
           1
     5.688061    0.000000    0.000000
    -0.000000    6.141288    0.000000
     0.000000    0.000000   26.044058
   B    H 
    14     4
Direct configuration=    16
   0.52290043  0.63716639  0.15443174
   0.47709957  0.36283361  0.15443174
   0.97709957  0.63716639  0.15443174
   0.02290043  0.36283361  0.15443174
   0.59831925  0.89982822  0.15443174
   0.40168075  0.10017177  0.15443174
   0.90168075  0.89982822  0.15443174
   0.09831925  0.10017177  0.15443174
   0.75000000  0.73126580  0.20001637
   0.25000000  0.26873420  0.10884711
   0.75000000  0.73126580  0.10884711
   0.25000000  0.26873420  0.20001637
   0.25000000  0.52432759  0.15443174
   0.75000000  0.47567238  0.15443174
   0.75000000  0.71790112  0.06321644
   0.25000000  0.28209888  0.06321644
   0.75000000  0.71790112  0.24564703
   0.25000000  0.28209888  0.24564703
Parameters                              
           1
     5.690175    0.000000    0.000000
    -0.000000    6.137830    0.000000
     0.000000    0.000000   26.044058
   B    H 
    14     4
Direct configuration=    17
   0.52317619  0.63704874  0.15443174
   0.47682381  0.36295126  0.15443174
   0.97682381  0.63704874  0.15443174
   0.02317619  0.36295126  0.15443174
   0.59836011  0.89988917  0.15443174
   0.40163989  0.10011082  0.15443174
   0.90163989  0.89988917  0.15443174
   0.09836011  0.10011082  0.15443174
   0.75000000  0.73126517  0.20003972
   0.25000000  0.26873483  0.10882376
   0.75000000  0.73126517  0.10882376
   0.25000000  0.26873483  0.20003972
   0.25000000  0.52443345  0.15443174
   0.75000000  0.47556652  0.15443174
   0.75000000  0.71786222  0.06320308
   0.25000000  0.28213778  0.06320308
   0.75000000  0.71786222  0.24566040
   0.25000000  0.28213778  0.24566040
Parameters                              
           1
     5.691470    0.000000    0.000000
    -0.000000    6.135711    0.000000
     0.000000    0.000000   26.044058
   B    H 
    14     4
Direct configuration=    18
   0.52334507  0.63697662  0.15443174
   0.47665493  0.36302338  0.15443174
   0.97665493  0.63697662  0.15443174
   0.02334507  0.36302338  0.15443174
   0.59838513  0.89992654  0.15443174
   0.40161487  0.10007345  0.15443174
   0.90161487  0.89992654  0.15443174
   0.09838513  0.10007345  0.15443174
   0.75000000  0.73126479  0.20005403
   0.25000000  0.26873521  0.10880945
   0.75000000  0.73126479  0.10880945
   0.25000000  0.26873521  0.20005403
   0.25000000  0.52449834  0.15443174
   0.75000000  0.47550163  0.15443174
   0.75000000  0.71783838  0.06319489
   0.25000000  0.28216162  0.06319489
   0.75000000  0.71783838  0.24566859
   0.25000000  0.28216162  0.24566859
Parameters                              
           1
     5.693493    0.000000    0.000000
    -0.000000    6.134567    0.000000
     0.000000    0.000000   26.044058
   B    H 
    14     4
Direct configuration=    19
   0.52337601  0.63700319  0.15443174
   0.47662399  0.36299681  0.15443174
   0.97662399  0.63700319  0.15443174
   0.02337601  0.36299681  0.15443174
   0.59845641  0.89997813  0.15443174
   0.40154359  0.10002186  0.15443174
   0.90154359  0.89997813  0.15443174
   0.09845641  0.10002186  0.15443174
   0.75000000  0.73127922  0.20008276
   0.25000000  0.26872078  0.10878072
   0.75000000  0.73127922  0.10878072
   0.25000000  0.26872078  0.20008276
   0.25000000  0.52478880  0.15443174
   0.75000000  0.47521117  0.15443174
   0.75000000  0.71778568  0.06317114
   0.25000000  0.28221432  0.06317114
   0.75000000  0.71778568  0.24569234
   0.25000000  0.28221432  0.24569234
Parameters                              
           1
     5.694206    0.000000    0.000000
    -0.000000    6.134163    0.000000
     0.000000    0.000000   26.044058
   B    H 
    14     4
Direct configuration=    20
   0.52338691  0.63701256  0.15443174
   0.47661309  0.36298744  0.15443174
   0.97661309  0.63701256  0.15443174
   0.02338691  0.36298744  0.15443174
   0.59848152  0.89999631  0.15443174
   0.40151848  0.10000368  0.15443174
   0.90151848  0.89999631  0.15443174
   0.09848152  0.10000368  0.15443174
   0.75000000  0.73128431  0.20009288
   0.25000000  0.26871569  0.10877060
   0.75000000  0.73128431  0.10877060
   0.25000000  0.26871569  0.20009288
   0.25000000  0.52489116  0.15443174
   0.75000000  0.47510881  0.15443174
   0.75000000  0.71776711  0.06316278
   0.25000000  0.28223289  0.06316278
   0.75000000  0.71776711  0.24570070
   0.25000000  0.28223289  0.24570070
Parameters                              
           1
     5.694154    0.000000    0.000000
    -0.000000    6.133493    0.000000
     0.000000    0.000000   26.044058
   B    H 
    14     4
Direct configuration=    21
   0.52343099  0.63705144  0.15443174
   0.47656901  0.36294856  0.15443174
   0.97656901  0.63705144  0.15443174
   0.02343099  0.36294856  0.15443174
   0.59853465  0.90001428  0.15443174
   0.40146535  0.09998571  0.15443174
   0.90146535  0.90001428  0.15443174
   0.09853465  0.09998571  0.15443174
   0.75000000  0.73130445  0.20008025
   0.25000000  0.26869555  0.10878323
   0.75000000  0.73130445  0.10878323
   0.25000000  0.26869555  0.20008025
   0.25000000  0.52500849  0.15443174
   0.75000000  0.47499148  0.15443174
   0.75000000  0.71771641  0.06313197
   0.25000000  0.28228359  0.06313197
   0.75000000  0.71771641  0.24573151
   0.25000000  0.28228359  0.24573151
Parameters                              
           1
     5.694175    0.000000    0.000000
    -0.000000    6.133769    0.000000
     0.000000    0.000000   26.044058
   B    H 
    14     4
Direct configuration=    22
   0.52341282  0.63703541  0.15443174
   0.47658718  0.36296459  0.15443174
   0.97658718  0.63703541  0.15443174
   0.02341282  0.36296459  0.15443174
   0.59851274  0.90000687  0.15443174
   0.40148726  0.09999312  0.15443174
   0.90148726  0.90000687  0.15443174
   0.09851274  0.09999312  0.15443174
   0.75000000  0.73129615  0.20008546
   0.25000000  0.26870385  0.10877802
   0.75000000  0.73129615  0.10877802
   0.25000000  0.26870385  0.20008546
   0.25000000  0.52496011  0.15443174
   0.75000000  0.47503986  0.15443174
   0.75000000  0.71773731  0.06314467
   0.25000000  0.28226269  0.06314467
   0.75000000  0.71773731  0.24571881
   0.25000000  0.28226269  0.24571881
