o-B14 large bilayer                     
   1.00000000000000     
    11.4389848710000006    0.0000000000000000    0.0000000000000000
     0.0000000000000000   12.6981916427999995    0.0000000000000000
     0.0000000000000000    0.0000000000000000   28.0881175994999985
  B             
   112
Direct
     0.2549623639588745    0.3224711618934961    0.0755303457230525
     0.2549623639588745    0.8224711618619978    0.0755303457230525
     0.7549623639151690    0.3224711618934961    0.0755303457230525
     0.7549623639151690    0.8224711618619978    0.0755303457230525
     0.2549623639588745    0.3224711618934961    0.2124247616403565
     0.2549623639588745    0.8224711618619978    0.2124247616403565
     0.7549623639151690    0.3224711618934961    0.2124247616403565
     0.7549623639151690    0.8224711618619978    0.2124247616403565
     0.2450376360848310    0.1775288381537550    0.0755303457230525
     0.2450376360848310    0.6775288381222566    0.0755303457230525
     0.7450376360411255    0.1775288381537550    0.0755303457230525
     0.7450376360411255    0.6775288381222566    0.0755303457230525
     0.2450376360848310    0.1775288381537550    0.2124247616403565
     0.2450376360848310    0.6775288381222566    0.2124247616403565
     0.7450376360411255    0.1775288381537550    0.2124247616403565
     0.7450376360411255    0.6775288381222566    0.2124247616403565
     0.4950376361066873    0.3224711618934961    0.0755303457230525
     0.4950376361066873    0.8224711618619978    0.0755303457230525
     0.9950376360629747    0.3224711618934961    0.0755303457230525
     0.9950376360629747    0.8224711618619978    0.0755303457230525
     0.4950376361066873    0.3224711618934961    0.2124247616403565
     0.4950376361066873    0.8224711618619978    0.2124247616403565
     0.9950376360629747    0.3224711618934961    0.2124247616403565
     0.9950376360629747    0.8224711618619978    0.2124247616403565
     0.0049623639370253    0.1775288381537550    0.0755303457230525
     0.0049623639370253    0.6775288381222566    0.0755303457230525
     0.5049623638933127    0.1775288381537550    0.0755303457230525
     0.5049623638933127    0.6775288381222566    0.0755303457230525
     0.0049623639370253    0.1775288381537550    0.2124247616403565
     0.0049623639370253    0.6775288381222566    0.2124247616403565
     0.5049623638933127    0.1775288381537550    0.2124247616403565
     0.5049623638933127    0.6775288381222566    0.2124247616403565
     0.2989786849592235    0.4516184777579468    0.0757887978950151
     0.2989786849592235    0.9516184777264414    0.0757887978950151
     0.7989786849155109    0.4516184777579468    0.0757887978950151
     0.7989786849155109    0.9516184777264414    0.0757887978950151
     0.2989786849592235    0.4516184777579468    0.2121663095039921
     0.2989786849592235    0.9516184777264414    0.2121663095039921
     0.7989786849155109    0.4516184777579468    0.2121663095039921
     0.7989786849155109    0.9516184777264414    0.2121663095039921
     0.2010213150844891    0.0483815185092382    0.0757887978950151
     0.2010213150844891    0.5483815185564893    0.0757887978950151
     0.7010213150407765    0.0483815185092382    0.0757887978950151
     0.7010213150407765    0.5483815185564893    0.0757887978950151
     0.2010213150844891    0.0483815185092382    0.2121663095039921
     0.2010213150844891    0.5483815185564893    0.2121663095039921
     0.7010213150407765    0.0483815185092382    0.2121663095039921
     0.7010213150407765    0.5483815185564893    0.2121663095039921
     0.4510213151063454    0.4516184777579468    0.0757887978950151
     0.4510213151063454    0.9516184777264414    0.0757887978950151
     0.9510213150626328    0.4516184777579468    0.0757887978950151
     0.9510213150626328    0.9516184777264414    0.0757887978950151
     0.4510213151063454    0.4516184777579468    0.2121663095039921
     0.4510213151063454    0.9516184777264414    0.2121663095039921
     0.9510213150626328    0.4516184777579468    0.2121663095039921
     0.9510213150626328    0.9516184777264414    0.2121663095039921
     0.0489786849373672    0.0483815185092382    0.0757887978950151
     0.0489786849373672    0.5483815185564893    0.0757887978950151
     0.5489786848936546    0.0483815185092382    0.0757887978950151
     0.5489786848936546    0.5483815185564893    0.0757887978950151
     0.0489786849373672    0.0483815185092382    0.2121663095039921
     0.0489786849373672    0.5483815185564893    0.2121663095039921
     0.5489786848936546    0.0483815185092382    0.2121663095039921
     0.5489786848936546    0.5483815185564893    0.2121663095039921
     0.3749999999453593    0.3617335021561487    0.1138365850140488
     0.3749999999453593    0.8617335022033998    0.1138365850140488
     0.8749999999890719    0.3617335021561487    0.1138365850140488
     0.8749999999890719    0.8617335022033998    0.1138365850140488
     0.3749999999453593    0.3615676275135797    0.2435137522751560
     0.3749999999453593    0.8615676275608308    0.2435137522751560
     0.8749999999890719    0.3615676275135797    0.2435137522751560
     0.8749999999890719    0.8615676275608308    0.2435137522751560
     0.1249999999235101    0.1384323724549148    0.0444413572599913
     0.1249999999235101    0.6384323725021659    0.0444413572599913
     0.6249999999672156    0.1384323724549148    0.0444413572599913
     0.6249999999672156    0.6384323725021659    0.0444413572599913
     0.1249999999235101    0.1382664978123529    0.1741185245566967
     0.1249999999235101    0.6382664978595969    0.1741185245566967
     0.6249999999672156    0.1382664978123529    0.1741185245566967
     0.6249999999672156    0.6382664978595969    0.1741185245566967
     0.3749999999453593    0.3615676275135797    0.0444413572599913
     0.3749999999453593    0.8615676275608308    0.0444413572599913
     0.8749999999890719    0.3615676275135797    0.0444413572599913
     0.8749999999890719    0.8615676275608308    0.0444413572599913
     0.3749999999453593    0.3617335021561487    0.1741185245566967
     0.3749999999453593    0.8617335022033998    0.1741185245566967
     0.8749999999890719    0.3617335021561487    0.1741185245566967
     0.8749999999890719    0.8617335022033998    0.1741185245566967
     0.1249999999235101    0.1382664978123529    0.1138365850140488
     0.1249999999235101    0.6382664978595969    0.1138365850140488
     0.6249999999672156    0.1382664978123529    0.1138365850140488
     0.6249999999672156    0.6382664978595969    0.1138365850140488
     0.1249999999235101    0.1384323724549148    0.2435137522751560
     0.1249999999235101    0.6384323725021659    0.2435137522751560
     0.6249999999672156    0.1384323724549148    0.2435137522751560
     0.6249999999672156    0.6384323725021659    0.2435137522751560
     0.1249999999235101    0.2583196363129332    0.0734427359787435
     0.1249999999235101    0.7583196362814277    0.0739767696300504
     0.6249999999672156    0.2583196363129332    0.0739767696300504
     0.6249999999672156    0.7583196362814277    0.0739767696300504
     0.1249999999235101    0.2583196363129332    0.2139783377689568
     0.1249999999235101    0.7583196362814277    0.2139783377689568
     0.6249999999672156    0.2583196363129332    0.2139783377689568
     0.6249999999672156    0.7583196362814277    0.2139783377689568
     0.3749999999453593    0.2416803488503092    0.0739767696300504
     0.3749999999453593    0.7416803488975603    0.0739767696300504
     0.8749999999890719    0.2416803488503092    0.0739767696300504
     0.8749999999890719    0.7416803488975603    0.0739767696300504
     0.3749999999453593    0.2416803488503092    0.2139783377689568
     0.3749999999453593    0.7416803488975603    0.2139783377689568
     0.8749999999890719    0.2416803488503092    0.2139783377689568
     0.8749999999890719    0.7416803488975603    0.2139783377689568
 
  0.00000000E+00  0.00000000E+00  0.00000000E+00
  0.00000000E+00  0.00000000E+00  0.00000000E+00
  0.00000000E+00  0.00000000E+00  0.00000000E+00
  0.00000000E+00  0.00000000E+00  0.00000000E+00
  0.00000000E+00  0.00000000E+00  0.00000000E+00
  0.00000000E+00  0.00000000E+00  0.00000000E+00
  0.00000000E+00  0.00000000E+00  0.00000000E+00
  0.00000000E+00  0.00000000E+00  0.00000000E+00
  0.00000000E+00  0.00000000E+00  0.00000000E+00
  0.00000000E+00  0.00000000E+00  0.00000000E+00
  0.00000000E+00  0.00000000E+00  0.00000000E+00
  0.00000000E+00  0.00000000E+00  0.00000000E+00
  0.00000000E+00  0.00000000E+00  0.00000000E+00
  0.00000000E+00  0.00000000E+00  0.00000000E+00
  0.00000000E+00  0.00000000E+00  0.00000000E+00
  0.00000000E+00  0.00000000E+00  0.00000000E+00
  0.00000000E+00  0.00000000E+00  0.00000000E+00
  0.00000000E+00  0.00000000E+00  0.00000000E+00
  0.00000000E+00  0.00000000E+00  0.00000000E+00
  0.00000000E+00  0.00000000E+00  0.00000000E+00
  0.00000000E+00  0.00000000E+00  0.00000000E+00
  0.00000000E+00  0.00000000E+00  0.00000000E+00
  0.00000000E+00  0.00000000E+00  0.00000000E+00
  0.00000000E+00  0.00000000E+00  0.00000000E+00
  0.00000000E+00  0.00000000E+00  0.00000000E+00
  0.00000000E+00  0.00000000E+00  0.00000000E+00
  0.00000000E+00  0.00000000E+00  0.00000000E+00
  0.00000000E+00  0.00000000E+00  0.00000000E+00
  0.00000000E+00  0.00000000E+00  0.00000000E+00
  0.00000000E+00  0.00000000E+00  0.00000000E+00
  0.00000000E+00  0.00000000E+00  0.00000000E+00
  0.00000000E+00  0.00000000E+00  0.00000000E+00
  0.00000000E+00  0.00000000E+00  0.00000000E+00
  0.00000000E+00  0.00000000E+00  0.00000000E+00
  0.00000000E+00  0.00000000E+00  0.00000000E+00
  0.00000000E+00  0.00000000E+00  0.00000000E+00
  0.00000000E+00  0.00000000E+00  0.00000000E+00
  0.00000000E+00  0.00000000E+00  0.00000000E+00
  0.00000000E+00  0.00000000E+00  0.00000000E+00
  0.00000000E+00  0.00000000E+00  0.00000000E+00
  0.00000000E+00  0.00000000E+00  0.00000000E+00
  0.00000000E+00  0.00000000E+00  0.00000000E+00
  0.00000000E+00  0.00000000E+00  0.00000000E+00
  0.00000000E+00  0.00000000E+00  0.00000000E+00
  0.00000000E+00  0.00000000E+00  0.00000000E+00
  0.00000000E+00  0.00000000E+00  0.00000000E+00
  0.00000000E+00  0.00000000E+00  0.00000000E+00
  0.00000000E+00  0.00000000E+00  0.00000000E+00
  0.00000000E+00  0.00000000E+00  0.00000000E+00
  0.00000000E+00  0.00000000E+00  0.00000000E+00
  0.00000000E+00  0.00000000E+00  0.00000000E+00
  0.00000000E+00  0.00000000E+00  0.00000000E+00
  0.00000000E+00  0.00000000E+00  0.00000000E+00
  0.00000000E+00  0.00000000E+00  0.00000000E+00
  0.00000000E+00  0.00000000E+00  0.00000000E+00
  0.00000000E+00  0.00000000E+00  0.00000000E+00
  0.00000000E+00  0.00000000E+00  0.00000000E+00
  0.00000000E+00  0.00000000E+00  0.00000000E+00
  0.00000000E+00  0.00000000E+00  0.00000000E+00
  0.00000000E+00  0.00000000E+00  0.00000000E+00
  0.00000000E+00  0.00000000E+00  0.00000000E+00
  0.00000000E+00  0.00000000E+00  0.00000000E+00
  0.00000000E+00  0.00000000E+00  0.00000000E+00
  0.00000000E+00  0.00000000E+00  0.00000000E+00
  0.00000000E+00  0.00000000E+00  0.00000000E+00
  0.00000000E+00  0.00000000E+00  0.00000000E+00
  0.00000000E+00  0.00000000E+00  0.00000000E+00
  0.00000000E+00  0.00000000E+00  0.00000000E+00
  0.00000000E+00  0.00000000E+00  0.00000000E+00
  0.00000000E+00  0.00000000E+00  0.00000000E+00
  0.00000000E+00  0.00000000E+00  0.00000000E+00
  0.00000000E+00  0.00000000E+00  0.00000000E+00
  0.00000000E+00  0.00000000E+00  0.00000000E+00
  0.00000000E+00  0.00000000E+00  0.00000000E+00
  0.00000000E+00  0.00000000E+00  0.00000000E+00
  0.00000000E+00  0.00000000E+00  0.00000000E+00
  0.00000000E+00  0.00000000E+00  0.00000000E+00
  0.00000000E+00  0.00000000E+00  0.00000000E+00
  0.00000000E+00  0.00000000E+00  0.00000000E+00
  0.00000000E+00  0.00000000E+00  0.00000000E+00
  0.00000000E+00  0.00000000E+00  0.00000000E+00
  0.00000000E+00  0.00000000E+00  0.00000000E+00
  0.00000000E+00  0.00000000E+00  0.00000000E+00
  0.00000000E+00  0.00000000E+00  0.00000000E+00
  0.00000000E+00  0.00000000E+00  0.00000000E+00
  0.00000000E+00  0.00000000E+00  0.00000000E+00
  0.00000000E+00  0.00000000E+00  0.00000000E+00
  0.00000000E+00  0.00000000E+00  0.00000000E+00
  0.00000000E+00  0.00000000E+00  0.00000000E+00
  0.00000000E+00  0.00000000E+00  0.00000000E+00
  0.00000000E+00  0.00000000E+00  0.00000000E+00
  0.00000000E+00  0.00000000E+00  0.00000000E+00
  0.00000000E+00  0.00000000E+00  0.00000000E+00
  0.00000000E+00  0.00000000E+00  0.00000000E+00
  0.00000000E+00  0.00000000E+00  0.00000000E+00
  0.00000000E+00  0.00000000E+00  0.00000000E+00
  0.00000000E+00  0.00000000E+00  0.00000000E+00
  0.00000000E+00  0.00000000E+00  0.00000000E+00
  0.00000000E+00  0.00000000E+00  0.00000000E+00
  0.00000000E+00  0.00000000E+00  0.00000000E+00
  0.00000000E+00  0.00000000E+00  0.00000000E+00
  0.00000000E+00  0.00000000E+00  0.00000000E+00
  0.00000000E+00  0.00000000E+00  0.00000000E+00
  0.00000000E+00  0.00000000E+00  0.00000000E+00
  0.00000000E+00  0.00000000E+00  0.00000000E+00
  0.00000000E+00  0.00000000E+00  0.00000000E+00
  0.00000000E+00  0.00000000E+00  0.00000000E+00
  0.00000000E+00  0.00000000E+00  0.00000000E+00
  0.00000000E+00  0.00000000E+00  0.00000000E+00
  0.00000000E+00  0.00000000E+00  0.00000000E+00
  0.00000000E+00  0.00000000E+00  0.00000000E+00
  0.00000000E+00  0.00000000E+00  0.00000000E+00
