 running  168 mpi-ranks, on    1 nodes
 distrk:  each k-point on  168 cores,    1 groups
 distr:  one band on    7 cores,   24 groups
 vasp.6.5.1 10Mar25 (build Mar 14 2025 17:12:02) complex                        
  
 POSCAR found type information on POSCAR B H 
 POSCAR found :  2 types and     288 ions
 Reading from existing POTCAR
 scaLAPACK will be used
 Reading from existing POTCAR
 LDA part: xc-table for (Slater+PW92), standard interpolation
 POSCAR, INCAR and KPOINTS ok, starting setup
 FFT: planning ... GRIDC
 FFT: planning ... GRID_SOFT
 FFT: planning ... GRID
 WAVECAR not read
 entering main loop
       N       E                     dE             d eps       ncg     rms          rms(c)
DAV:   1     0.608356823909E+04    0.60836E+04   -0.29672E+05  4440   0.119E+03
DAV:   2    -0.100827836979E+04   -0.70918E+04   -0.68716E+04  6384   0.258E+02
DAV:   3    -0.187784298828E+04   -0.86956E+03   -0.85873E+03  5232   0.955E+01
DAV:   4    -0.190381284113E+04   -0.25970E+02   -0.25823E+02  5856   0.173E+01
DAV:   5    -0.190464079537E+04   -0.82795E+00   -0.82673E+00  5856   0.275E+00    0.567E+01
DAV:   6    -0.179488543679E+04    0.10976E+03   -0.11297E+02  4800   0.108E+01    0.317E+01
DAV:   7    -0.175566634724E+04    0.39219E+02   -0.13025E+02  5112   0.109E+01    0.650E+00
DAV:   8    -0.175559330197E+04    0.73045E-01   -0.98751E+00  5472   0.365E+00    0.247E+00
DAV:   9    -0.175542114412E+04    0.17216E+00   -0.99275E-01  5448   0.105E+00    0.101E+00
DAV:  10    -0.175540984031E+04    0.11304E-01   -0.22621E-01  5424   0.601E-01    0.606E-01
DAV:  11    -0.175538527006E+04    0.24570E-01   -0.12498E-01  5520   0.468E-01    0.371E-01
DAV:  12    -0.175536064126E+04    0.24629E-01   -0.94943E-02  5304   0.322E-01    0.216E-01
DAV:  13    -0.175537352768E+04   -0.12886E-01   -0.28997E-02  5280   0.189E-01    0.132E-01
DAV:  14    -0.175538161718E+04   -0.80895E-02   -0.61871E-03  4920   0.109E-01    0.895E-02
DAV:  15    -0.175538738406E+04   -0.57669E-02   -0.26504E-03  4944   0.670E-02    0.647E-02
DAV:  16    -0.175539469864E+04   -0.73146E-02   -0.18060E-03  5088   0.512E-02    0.422E-02
DAV:  17    -0.175539932748E+04   -0.46288E-02   -0.57320E-04  5064   0.326E-02    0.286E-02
DAV:  18    -0.175540492645E+04   -0.55990E-02   -0.37899E-04  4944   0.212E-02    0.169E-02
DAV:  19    -0.175540745324E+04   -0.25268E-02   -0.14049E-04  5088   0.127E-02    0.131E-02
DAV:  20    -0.175540951907E+04   -0.20658E-02   -0.91343E-05  4992   0.954E-03    0.935E-03
DAV:  21    -0.175541113500E+04   -0.16159E-02   -0.71505E-05  4896   0.793E-03    0.578E-03
DAV:  22    -0.175541211043E+04   -0.97543E-03   -0.37694E-05  5256   0.528E-03    0.392E-03
DAV:  23    -0.175541269687E+04   -0.58644E-03   -0.18202E-05  4968   0.313E-03    0.192E-03
DAV:  24    -0.175541289716E+04   -0.20029E-03   -0.36640E-06  4632   0.152E-03    0.115E-03
DAV:  25    -0.175541302261E+04   -0.12546E-03   -0.22796E-06  4344   0.106E-03    0.528E-04
DAV:  26    -0.175541306121E+04   -0.38599E-04   -0.51480E-07  3864   0.531E-04    0.263E-04
DAV:  27    -0.175541307558E+04   -0.14366E-04   -0.14622E-07  3384   0.306E-04    0.122E-04
DAV:  28    -0.175541307992E+04   -0.43413E-05   -0.36099E-08  3360   0.170E-04    0.672E-05
DAV:  29    -0.175541308174E+04   -0.18194E-05    0.29283E-09  3000   0.110E-04    0.342E-05
DAV:  30    -0.175541308260E+04   -0.86382E-06    0.10026E-08  3240   0.805E-05
   1 F= -.17855821E+04 E0= -.17854725E+04  d E =-.219071E+00
