BS                                      
           1
     5.699758    0.000000    0.000000
     0.000000    6.314134    0.000000
     0.000000    0.000000   24.044058
   B 
    14
Direct configuration=     1
   0.51171507  0.64350249  0.08409683
   0.48828493  0.35649751  0.08409683
   0.98828493  0.64350249  0.08409683
   0.01171507  0.35649751  0.08409683
   0.59726807  0.90268091  0.08409683
   0.40273193  0.09731909  0.08409683
   0.90273193  0.90268091  0.08409683
   0.09726807  0.09731909  0.08409683
   0.75000000  0.72362770  0.12469643
   0.25000000  0.27637230  0.04349724
   0.75000000  0.72362770  0.04349724
   0.25000000  0.27637230  0.12469643
   0.25000000  0.51612533  0.08409683
   0.75000000  0.48387464  0.08409683
