   8   8   0   0
  0.4142730E+02  0.5051000E-09  0.5051000E-09  0.1500000E-08  0.5000000E-15
  1.000000000000000E-004
  CAR 
 Cohesive                                
     11.73954639    -19.29872155  301     -2.23596029      1.00000000
    -19.299  0.0000E+00  0.0000E+00  0.0000E+00  0.0000E+00
    -19.195  0.0000E+00  0.0000E+00  0.0000E+00  0.0000E+00
    -19.092  0.0000E+00  0.0000E+00  0.0000E+00  0.0000E+00
    -18.988  0.0000E+00  0.0000E+00  0.0000E+00  0.0000E+00
    -18.885  0.0000E+00  0.0000E+00  0.0000E+00  0.0000E+00
    -18.781  0.0000E+00  0.0000E+00  0.0000E+00  0.0000E+00
    -18.678  0.0000E+00  0.0000E+00  0.0000E+00  0.0000E+00
    -18.574  0.0000E+00  0.0000E+00  0.0000E+00  0.0000E+00
    -18.471  0.0000E+00  0.0000E+00  0.0000E+00  0.0000E+00
    -18.368  0.0000E+00  0.0000E+00  0.0000E+00  0.0000E+00
    -18.264  0.0000E+00  0.0000E+00  0.0000E+00  0.0000E+00
    -18.161  0.2358E-15  0.2358E-15  0.2439E-16  0.2439E-16
    -18.057  0.4478E-07  0.4477E-07  0.4633E-08  0.4632E-08
    -17.954  0.3318E-02  0.3318E-02  0.3433E-03  0.3433E-03
    -17.850  0.3074E+00  0.3074E+00  0.3215E-01  0.3215E-01
    -17.747  0.7858E+00  0.7858E+00  0.1134E+00  0.1134E+00
    -17.643  0.8197E+00  0.8197E+00  0.1982E+00  0.1982E+00
    -17.540  0.8566E+00  0.8566E+00  0.2869E+00  0.2869E+00
    -17.436  0.8850E+00  0.8850E+00  0.3784E+00  0.3784E+00
    -17.333  0.8410E+00  0.8410E+00  0.4654E+00  0.4654E+00
    -17.230  0.9546E+00  0.9546E+00  0.5642E+00  0.5642E+00
    -17.126  0.1212E+01  0.1212E+01  0.6896E+00  0.6896E+00
    -17.023  0.1296E+01  0.1296E+01  0.8237E+00  0.8237E+00
    -16.919  0.8940E+00  0.8940E+00  0.9162E+00  0.9162E+00
    -16.816  0.5630E+00  0.5630E+00  0.9744E+00  0.9744E+00
    -16.712  0.1936E+00  0.1936E+00  0.9945E+00  0.9945E+00
    -16.609  0.6445E-01  0.6445E-01  0.1001E+01  0.1001E+01
    -16.505  0.1757E+00  0.1757E+00  0.1019E+01  0.1019E+01
    -16.402  0.4371E+00  0.4371E+00  0.1065E+01  0.1065E+01
    -16.298  0.7171E+00  0.7171E+00  0.1139E+01  0.1139E+01
    -16.195  0.1407E+01  0.1407E+01  0.1284E+01  0.1284E+01
    -16.091  0.7095E+00  0.7095E+00  0.1358E+01  0.1358E+01
    -15.988  0.8279E+00  0.8279E+00  0.1443E+01  0.1443E+01
    -15.885  0.4522E+00  0.4522E+00  0.1490E+01  0.1490E+01
    -15.781  0.7369E+00  0.7369E+00  0.1566E+01  0.1566E+01
    -15.678  0.3645E+00  0.3645E+00  0.1604E+01  0.1604E+01
    -15.574  0.4334E+00  0.4334E+00  0.1649E+01  0.1649E+01
    -15.471  0.5171E+00  0.5171E+00  0.1702E+01  0.1702E+01
    -15.367  0.2200E+00  0.2200E+00  0.1725E+01  0.1725E+01
    -15.264  0.4628E+00  0.4628E+00  0.1773E+01  0.1773E+01
    -15.160  0.2789E+00  0.2789E+00  0.1802E+01  0.1802E+01
    -15.057  0.1548E+00  0.1548E+00  0.1818E+01  0.1818E+01
    -14.953  0.4493E+00  0.4493E+00  0.1864E+01  0.1864E+01
    -14.850  0.1049E+00  0.1049E+00  0.1875E+01  0.1875E+01
    -14.746  0.1761E+00  0.1761E+00  0.1894E+01  0.1894E+01
    -14.643  0.4193E+00  0.4193E+00  0.1937E+01  0.1937E+01
    -14.540  0.6496E+00  0.6496E+00  0.2004E+01  0.2004E+01
    -14.436  0.8101E+00  0.8101E+00  0.2088E+01  0.2088E+01
    -14.333  0.1093E+01  0.1093E+01  0.2201E+01  0.2201E+01
    -14.229  0.9838E+00  0.9838E+00  0.2303E+01  0.2303E+01
    -14.126  0.9958E+00  0.9958E+00  0.2406E+01  0.2406E+01
    -14.022  0.1720E+01  0.1720E+01  0.2584E+01  0.2584E+01
    -13.919  0.1584E+01  0.1584E+01  0.2748E+01  0.2748E+01
    -13.815  0.1067E+01  0.1067E+01  0.2858E+01  0.2858E+01
    -13.712  0.8776E+00  0.8776E+00  0.2949E+01  0.2949E+01
    -13.608  0.5061E+00  0.5061E+00  0.3001E+01  0.3001E+01
    -13.505  0.2209E-01  0.2209E-01  0.3003E+01  0.3003E+01
    -13.401  0.2473E-02  0.2473E-02  0.3004E+01  0.3004E+01
    -13.298  0.1483E+00  0.1483E+00  0.3019E+01  0.3019E+01
    -13.195  0.4989E-01  0.4989E-01  0.3024E+01  0.3024E+01
    -13.091  0.5698E-01  0.5698E-01  0.3030E+01  0.3030E+01
    -12.988  0.2549E+00  0.2549E+00  0.3056E+01  0.3056E+01
    -12.884  0.9147E-01  0.9147E-01  0.3066E+01  0.3066E+01
    -12.781  0.3250E+00  0.3250E+00  0.3100E+01  0.3100E+01
    -12.677  0.8151E+00  0.8151E+00  0.3184E+01  0.3184E+01
    -12.574  0.1780E+01  0.1780E+01  0.3368E+01  0.3368E+01
    -12.470  0.1071E+01  0.1071E+01  0.3479E+01  0.3479E+01
    -12.367  0.4941E+00  0.4941E+00  0.3530E+01  0.3530E+01
    -12.263  0.1438E+01  0.1438E+01  0.3679E+01  0.3679E+01
    -12.160  0.1482E+00  0.1482E+00  0.3694E+01  0.3694E+01
    -12.056  0.2326E+00  0.2326E+00  0.3718E+01  0.3718E+01
    -11.953  0.1186E+01  0.1186E+01  0.3841E+01  0.3841E+01
    -11.850  0.1344E+00  0.1344E+00  0.3855E+01  0.3855E+01
    -11.746  0.1239E+00  0.1239E+00  0.3868E+01  0.3868E+01
    -11.643  0.5272E+00  0.5272E+00  0.3922E+01  0.3922E+01
    -11.539  0.1908E+01  0.1908E+01  0.4120E+01  0.4120E+01
    -11.436  0.1059E+01  0.1059E+01  0.4229E+01  0.4229E+01
    -11.332  0.1434E+01  0.1434E+01  0.4377E+01  0.4377E+01
    -11.229  0.1065E+01  0.1065E+01  0.4488E+01  0.4488E+01
    -11.125  0.5799E+00  0.5799E+00  0.4548E+01  0.4548E+01
    -11.022  0.1549E+01  0.1549E+01  0.4708E+01  0.4708E+01
    -10.918  0.1270E+01  0.1270E+01  0.4839E+01  0.4839E+01
    -10.815  0.5145E+00  0.5145E+00  0.4893E+01  0.4893E+01
    -10.711  0.1372E+01  0.1372E+01  0.5035E+01  0.5035E+01
    -10.608  0.1176E+01  0.1176E+01  0.5156E+01  0.5156E+01
    -10.505  0.2829E+00  0.2829E+00  0.5185E+01  0.5185E+01
    -10.401  0.1617E+01  0.1617E+01  0.5353E+01  0.5353E+01
    -10.298  0.5493E+00  0.5493E+00  0.5410E+01  0.5410E+01
    -10.194  0.6854E+00  0.6854E+00  0.5480E+01  0.5480E+01
    -10.091  0.9901E+00  0.9901E+00  0.5583E+01  0.5583E+01
     -9.987  0.5259E+00  0.5260E+00  0.5637E+01  0.5637E+01
     -9.884  0.1244E+01  0.1244E+01  0.5766E+01  0.5766E+01
     -9.780  0.6621E+00  0.6621E+00  0.5834E+01  0.5834E+01
     -9.677  0.9313E+00  0.9312E+00  0.5931E+01  0.5931E+01
     -9.573  0.7625E+00  0.7625E+00  0.6010E+01  0.6010E+01
     -9.470  0.3755E+00  0.3755E+00  0.6049E+01  0.6049E+01
     -9.366  0.3981E+00  0.3981E+00  0.6090E+01  0.6090E+01
     -9.263  0.2038E+00  0.2038E+00  0.6111E+01  0.6111E+01
     -9.160  0.6523E+00  0.6523E+00  0.6178E+01  0.6178E+01
     -9.056  0.6423E+00  0.6423E+00  0.6245E+01  0.6245E+01
     -8.953  0.4280E+00  0.4280E+00  0.6289E+01  0.6289E+01
     -8.849  0.6914E+00  0.6914E+00  0.6361E+01  0.6361E+01
     -8.746  0.9453E+00  0.9453E+00  0.6458E+01  0.6458E+01
     -8.642  0.1527E+01  0.1527E+01  0.6616E+01  0.6616E+01
     -8.539  0.1828E+01  0.1828E+01  0.6805E+01  0.6805E+01
     -8.435  0.2535E+01  0.2535E+01  0.7068E+01  0.7068E+01
     -8.332  0.1334E+01  0.1334E+01  0.7206E+01  0.7206E+01
     -8.228  0.6440E+00  0.6440E+00  0.7272E+01  0.7272E+01
     -8.125  0.4091E+00  0.4091E+00  0.7315E+01  0.7315E+01
     -8.021  0.6973E+00  0.6973E+00  0.7387E+01  0.7387E+01
     -7.918  0.3918E+00  0.3919E+00  0.7427E+01  0.7427E+01
     -7.815  0.7556E+00  0.7556E+00  0.7506E+01  0.7506E+01
     -7.711  0.5093E+00  0.5093E+00  0.7558E+01  0.7558E+01
     -7.608  0.6004E+00  0.6004E+00  0.7620E+01  0.7620E+01
     -7.504  0.7935E+00  0.7935E+00  0.7703E+01  0.7702E+01
     -7.401  0.5285E+00  0.5285E+00  0.7757E+01  0.7757E+01
     -7.297  0.1253E+01  0.1253E+01  0.7887E+01  0.7887E+01
     -7.194  0.2573E+00  0.2573E+00  0.7913E+01  0.7913E+01
     -7.090  0.7502E+00  0.7502E+00  0.7991E+01  0.7991E+01
     -6.987  0.5522E+00  0.5522E+00  0.8048E+01  0.8048E+01
     -6.883  0.5433E+00  0.5433E+00  0.8104E+01  0.8104E+01
     -6.780  0.4324E+00  0.4324E+00  0.8149E+01  0.8149E+01
     -6.676  0.7042E+00  0.7042E+00  0.8222E+01  0.8222E+01
     -6.573  0.7196E+00  0.7196E+00  0.8296E+01  0.8296E+01
     -6.470  0.7333E+00  0.7333E+00  0.8372E+01  0.8372E+01
     -6.366  0.2053E+01  0.2053E+01  0.8585E+01  0.8585E+01
     -6.263  0.1730E+01  0.1730E+01  0.8764E+01  0.8764E+01
     -6.159  0.1721E+01  0.1721E+01  0.8942E+01  0.8942E+01
     -6.056  0.1926E+01  0.1926E+01  0.9141E+01  0.9141E+01
     -5.952  0.1403E+01  0.1403E+01  0.9286E+01  0.9286E+01
     -5.849  0.2921E+01  0.2921E+01  0.9588E+01  0.9588E+01
     -5.745  0.2531E+01  0.2531E+01  0.9850E+01  0.9850E+01
     -5.642  0.1115E+01  0.1115E+01  0.9966E+01  0.9966E+01
     -5.538  0.8710E+00  0.8710E+00  0.1006E+02  0.1006E+02
     -5.435  0.7565E+00  0.7565E+00  0.1013E+02  0.1013E+02
     -5.332  0.1205E+01  0.1205E+01  0.1026E+02  0.1026E+02
     -5.228  0.4279E+00  0.4279E+00  0.1030E+02  0.1030E+02
     -5.125  0.4492E+00  0.4492E+00  0.1035E+02  0.1035E+02
     -5.021  0.9227E+00  0.9227E+00  0.1044E+02  0.1044E+02
     -4.918  0.2711E+00  0.2711E+00  0.1047E+02  0.1047E+02
     -4.814  0.8280E+00  0.8280E+00  0.1056E+02  0.1056E+02
     -4.711  0.5083E+00  0.5083E+00  0.1061E+02  0.1061E+02
     -4.607  0.9997E+00  0.9997E+00  0.1071E+02  0.1071E+02
     -4.504  0.7187E+00  0.7187E+00  0.1079E+02  0.1079E+02
     -4.400  0.4362E+00  0.4362E+00  0.1083E+02  0.1083E+02
     -4.297  0.9234E+00  0.9233E+00  0.1093E+02  0.1093E+02
     -4.193  0.9712E+00  0.9712E+00  0.1103E+02  0.1103E+02
     -4.090  0.4125E+00  0.4125E+00  0.1107E+02  0.1107E+02
     -3.987  0.6109E+00  0.6108E+00  0.1114E+02  0.1114E+02
     -3.883  0.9792E+00  0.9792E+00  0.1124E+02  0.1124E+02
     -3.780  0.4412E+00  0.4412E+00  0.1128E+02  0.1128E+02
     -3.676  0.6811E+00  0.6811E+00  0.1135E+02  0.1135E+02
     -3.573  0.4938E+00  0.4937E+00  0.1140E+02  0.1140E+02
     -3.469  0.7026E+00  0.7026E+00  0.1148E+02  0.1148E+02
     -3.366  0.4936E+00  0.4936E+00  0.1153E+02  0.1153E+02
     -3.262  0.1053E+01  0.1053E+01  0.1164E+02  0.1164E+02
     -3.159  0.4236E+00  0.4236E+00  0.1168E+02  0.1168E+02
     -3.055  0.6270E+00  0.6270E+00  0.1175E+02  0.1175E+02
     -2.952  0.3762E+00  0.3762E+00  0.1178E+02  0.1178E+02
     -2.848  0.3897E+00  0.3897E+00  0.1183E+02  0.1183E+02
     -2.745  0.2208E+00  0.2208E+00  0.1185E+02  0.1185E+02
     -2.642  0.2509E+00  0.2509E+00  0.1187E+02  0.1187E+02
     -2.538  0.4794E+00  0.4794E+00  0.1192E+02  0.1192E+02
     -2.435  0.7009E-01  0.7009E-01  0.1193E+02  0.1193E+02
     -2.331  0.3797E-01  0.3796E-01  0.1193E+02  0.1193E+02
     -2.228  0.6843E+00  0.6842E+00  0.1201E+02  0.1201E+02
     -2.124  0.3174E+00  0.3174E+00  0.1204E+02  0.1204E+02
     -2.021  0.3319E+00  0.3319E+00  0.1207E+02  0.1207E+02
     -1.917  0.1082E+01  0.1082E+01  0.1218E+02  0.1218E+02
     -1.814  0.6649E+00  0.6649E+00  0.1225E+02  0.1225E+02
     -1.710  0.6162E+00  0.6162E+00  0.1232E+02  0.1232E+02
     -1.607  0.6754E+00  0.6754E+00  0.1239E+02  0.1239E+02
     -1.503  0.6898E+00  0.6898E+00  0.1246E+02  0.1246E+02
     -1.400  0.8191E+00  0.8191E+00  0.1254E+02  0.1254E+02
     -1.297  0.1100E+01  0.1100E+01  0.1266E+02  0.1266E+02
     -1.193  0.8131E+00  0.8131E+00  0.1274E+02  0.1274E+02
     -1.090  0.5344E-01  0.5344E-01  0.1275E+02  0.1275E+02
     -0.986  0.3480E+00  0.3480E+00  0.1278E+02  0.1278E+02
     -0.883  0.7917E+00  0.7917E+00  0.1286E+02  0.1286E+02
     -0.779  0.1545E+01  0.1545E+01  0.1302E+02  0.1302E+02
     -0.676  0.3152E+00  0.3152E+00  0.1306E+02  0.1306E+02
     -0.572  0.3618E+00  0.3618E+00  0.1309E+02  0.1309E+02
     -0.469  0.4822E+00  0.4822E+00  0.1314E+02  0.1314E+02
     -0.365  0.8645E+00  0.8645E+00  0.1323E+02  0.1323E+02
     -0.262  0.8721E+00  0.8721E+00  0.1332E+02  0.1332E+02
     -0.158  0.9242E+00  0.9242E+00  0.1342E+02  0.1342E+02
     -0.055  0.5427E+00  0.5427E+00  0.1348E+02  0.1348E+02
      0.048  0.8504E+00  0.8504E+00  0.1356E+02  0.1356E+02
      0.152  0.5841E+00  0.5841E+00  0.1362E+02  0.1362E+02
      0.255  0.7290E+00  0.7290E+00  0.1370E+02  0.1370E+02
      0.359  0.1004E+01  0.1004E+01  0.1380E+02  0.1380E+02
      0.462  0.1086E+01  0.1086E+01  0.1392E+02  0.1392E+02
      0.566  0.1312E+01  0.1312E+01  0.1405E+02  0.1405E+02
      0.669  0.7539E+00  0.7540E+00  0.1413E+02  0.1413E+02
      0.773  0.3961E+00  0.3906E+00  0.1417E+02  0.1417E+02
      0.876  0.9481E+00  0.9403E+00  0.1427E+02  0.1427E+02
      0.980  0.3047E+01  0.3045E+01  0.1458E+02  0.1458E+02
      1.083  0.2334E+01  0.2334E+01  0.1483E+02  0.1482E+02
      1.187  0.2032E+01  0.2038E+01  0.1504E+02  0.1503E+02
      1.290  0.1702E+01  0.1692E+01  0.1521E+02  0.1521E+02
      1.393  0.1544E+01  0.1557E+01  0.1537E+02  0.1537E+02
      1.497  0.1123E+01  0.1110E+01  0.1549E+02  0.1549E+02
      1.600  0.2113E+01  0.2118E+01  0.1571E+02  0.1570E+02
      1.704  0.3363E+01  0.3350E+01  0.1605E+02  0.1605E+02
      1.807  0.2626E+01  0.2628E+01  0.1633E+02  0.1632E+02
      1.911  0.2111E+01  0.2102E+01  0.1654E+02  0.1654E+02
      2.014  0.1213E+01  0.1216E+01  0.1667E+02  0.1667E+02
      2.118  0.2254E+01  0.2247E+01  0.1690E+02  0.1690E+02
      2.221  0.1609E+01  0.1617E+01  0.1707E+02  0.1707E+02
      2.325  0.3163E+01  0.3135E+01  0.1740E+02  0.1739E+02
      2.428  0.2636E+01  0.2523E+01  0.1767E+02  0.1765E+02
      2.532  0.3040E+01  0.3018E+01  0.1798E+02  0.1796E+02
      2.635  0.2183E+01  0.2228E+01  0.1821E+02  0.1819E+02
      2.738  0.3260E+01  0.3163E+01  0.1855E+02  0.1852E+02
      2.842  0.2631E+01  0.2706E+01  0.1882E+02  0.1880E+02
      2.945  0.2337E+01  0.2305E+01  0.1906E+02  0.1904E+02
      3.049  0.2748E+01  0.2780E+01  0.1935E+02  0.1933E+02
      3.152  0.3183E+01  0.3089E+01  0.1967E+02  0.1965E+02
      3.256  0.3947E+01  0.4114E+01  0.2008E+02  0.2007E+02
      3.359  0.2505E+01  0.2324E+01  0.2034E+02  0.2031E+02
      3.463  0.2337E+01  0.2417E+01  0.2058E+02  0.2056E+02
      3.566  0.2919E+01  0.3021E+01  0.2089E+02  0.2088E+02
      3.670  0.3148E+01  0.2935E+01  0.2121E+02  0.2118E+02
      3.773  0.2125E+01  0.2230E+01  0.2143E+02  0.2141E+02
      3.877  0.2722E+01  0.2759E+01  0.2171E+02  0.2170E+02
      3.980  0.3520E+01  0.3499E+01  0.2208E+02  0.2206E+02
      4.083  0.3566E+01  0.3494E+01  0.2245E+02  0.2242E+02
      4.187  0.2479E+01  0.2570E+01  0.2270E+02  0.2269E+02
      4.290  0.2960E+01  0.2962E+01  0.2301E+02  0.2299E+02
      4.394  0.3720E+01  0.3503E+01  0.2339E+02  0.2335E+02
      4.497  0.2291E+01  0.2428E+01  0.2363E+02  0.2361E+02
      4.601  0.2951E+01  0.2854E+01  0.2394E+02  0.2390E+02
      4.704  0.2958E+01  0.3037E+01  0.2424E+02  0.2421E+02
      4.808  0.3253E+01  0.3180E+01  0.2458E+02  0.2454E+02
      4.911  0.3646E+01  0.3608E+01  0.2496E+02  0.2492E+02
      5.015  0.3081E+01  0.3061E+01  0.2527E+02  0.2523E+02
      5.118  0.3884E+01  0.3989E+01  0.2568E+02  0.2565E+02
      5.222  0.3502E+01  0.3437E+01  0.2604E+02  0.2600E+02
      5.325  0.4078E+01  0.3993E+01  0.2646E+02  0.2642E+02
      5.428  0.3565E+01  0.3742E+01  0.2683E+02  0.2680E+02
      5.532  0.3067E+01  0.3109E+01  0.2715E+02  0.2712E+02
      5.635  0.1568E+01  0.1446E+01  0.2731E+02  0.2727E+02
      5.739  0.3861E+01  0.3726E+01  0.2771E+02  0.2766E+02
      5.842  0.3042E+01  0.3174E+01  0.2802E+02  0.2799E+02
      5.946  0.3866E+01  0.3723E+01  0.2842E+02  0.2837E+02
      6.049  0.3282E+01  0.3489E+01  0.2876E+02  0.2873E+02
      6.153  0.2392E+01  0.2400E+01  0.2901E+02  0.2898E+02
      6.256  0.2682E+01  0.2632E+01  0.2929E+02  0.2925E+02
      6.360  0.3769E+01  0.3625E+01  0.2968E+02  0.2963E+02
      6.463  0.3204E+01  0.3336E+01  0.3001E+02  0.2997E+02
      6.567  0.3790E+01  0.3704E+01  0.3040E+02  0.3036E+02
      6.670  0.2555E+01  0.2705E+01  0.3067E+02  0.3064E+02
      6.773  0.3665E+01  0.3573E+01  0.3104E+02  0.3101E+02
      6.877  0.2030E+01  0.2027E+01  0.3125E+02  0.3122E+02
      6.980  0.3635E+01  0.3592E+01  0.3163E+02  0.3159E+02
      7.084  0.3459E+01  0.3540E+01  0.3199E+02  0.3195E+02
      7.187  0.3650E+01  0.3549E+01  0.3237E+02  0.3232E+02
      7.291  0.2657E+01  0.2768E+01  0.3264E+02  0.3261E+02
      7.394  0.3210E+01  0.3244E+01  0.3297E+02  0.3294E+02
      7.498  0.2512E+01  0.2549E+01  0.3323E+02  0.3321E+02
      7.601  0.3595E+01  0.3314E+01  0.3361E+02  0.3355E+02
      7.705  0.3206E+01  0.3272E+01  0.3394E+02  0.3389E+02
      7.808  0.3037E+01  0.3132E+01  0.3425E+02  0.3421E+02
      7.911  0.2522E+01  0.2606E+01  0.3451E+02  0.3448E+02
      8.015  0.1445E+01  0.1532E+01  0.3466E+02  0.3464E+02
      8.118  0.1228E+01  0.1134E+01  0.3479E+02  0.3476E+02
      8.222  0.2963E+01  0.2642E+01  0.3510E+02  0.3503E+02
      8.325  0.3659E+01  0.3746E+01  0.3547E+02  0.3542E+02
      8.429  0.2946E+01  0.2999E+01  0.3578E+02  0.3573E+02
      8.532  0.2174E+01  0.2325E+01  0.3600E+02  0.3597E+02
      8.636  0.2050E+01  0.1892E+01  0.3622E+02  0.3617E+02
      8.739  0.2982E+01  0.3070E+01  0.3652E+02  0.3648E+02
      8.843  0.3426E+01  0.3085E+01  0.3688E+02  0.3680E+02
      8.946  0.4085E+01  0.4256E+01  0.3730E+02  0.3724E+02
      9.050  0.3904E+01  0.4016E+01  0.3771E+02  0.3766E+02
      9.153  0.4468E+01  0.4495E+01  0.3817E+02  0.3812E+02
      9.256  0.4536E+01  0.4381E+01  0.3864E+02  0.3858E+02
      9.360  0.4943E+01  0.5197E+01  0.3915E+02  0.3911E+02
      9.463  0.3118E+01  0.2897E+01  0.3947E+02  0.3941E+02
      9.567  0.4918E+01  0.4834E+01  0.3998E+02  0.3991E+02
      9.670  0.3703E+01  0.3955E+01  0.4036E+02  0.4032E+02
      9.774  0.4262E+01  0.4160E+01  0.4080E+02  0.4075E+02
      9.877  0.4366E+01  0.4468E+01  0.4126E+02  0.4122E+02
      9.981  0.2131E+01  0.2429E+01  0.4148E+02  0.4147E+02
     10.084  0.1787E+01  0.1695E+01  0.4166E+02  0.4164E+02
     10.188  0.1783E+01  0.1835E+01  0.4185E+02  0.4183E+02
     10.291  0.1190E+01  0.1192E+01  0.4197E+02  0.4196E+02
     10.395  0.3048E+00  0.4155E+00  0.4200E+02  0.4200E+02
     10.498  0.2597E-02  0.7655E-02  0.4200E+02  0.4200E+02
     10.601  0.1589E-07  0.1753E-06  0.4200E+02  0.4200E+02
     10.705  0.2228E-16  0.1203E-14  0.4200E+02  0.4200E+02
     10.808  0.0000E+00  0.0000E+00  0.4200E+02  0.4200E+02
     10.912  0.0000E+00  0.0000E+00  0.4200E+02  0.4200E+02
     11.015  0.0000E+00  0.0000E+00  0.4200E+02  0.4200E+02
     11.119  0.0000E+00  0.0000E+00  0.4200E+02  0.4200E+02
     11.222  0.0000E+00  0.0000E+00  0.4200E+02  0.4200E+02
     11.326  0.0000E+00  0.0000E+00  0.4200E+02  0.4200E+02
     11.429  0.0000E+00  0.0000E+00  0.4200E+02  0.4200E+02
     11.533  0.0000E+00  0.0000E+00  0.4200E+02  0.4200E+02
     11.636  0.0000E+00  0.0000E+00  0.4200E+02  0.4200E+02
     11.740  0.0000E+00  0.0000E+00  0.4200E+02  0.4200E+02
