 running   42 mpi-ranks, on    1 nodes
 distrk:  each k-point on   42 cores,    1 groups
 distr:  one band on    7 cores,    6 groups
 vasp.6.5.0 16Dec24 (build Jan 08 2025 16:17:04) complex                        
  
 POSCAR found type information on POSCAR B H 
 POSCAR found :  2 types and     270 ions
 Reading from existing POTCAR
 scaLAPACK will be used
 Reading from existing POTCAR
 LDA part: xc-table for (Slater+PW92), standard interpolation
 POSCAR, INCAR and KPOINTS ok, starting setup
 FFT: planning ... GRIDC
 FFT: planning ... GRID_SOFT
 FFT: planning ... GRID
 WAVECAR not read
 entering main loop
       N       E                     dE             d eps       ncg     rms          rms(c)
DAV:   1     0.607473102228E+04    0.60747E+04   -0.29267E+05  6576   0.122E+03
DAV:   2    -0.893110606987E+03   -0.69678E+04   -0.67239E+04  9072   0.263E+02
DAV:   3    -0.176218116214E+04   -0.86907E+03   -0.85626E+03  7200   0.981E+01
DAV:   4    -0.179172952000E+04   -0.29548E+02   -0.29315E+02  8556   0.186E+01
DAV:   5    -0.179273751021E+04   -0.10080E+01   -0.10059E+01  8400   0.301E+00    0.547E+01
DAV:   6    -0.166555523282E+04    0.12718E+03   -0.17790E+02  7308   0.143E+01    0.291E+01
DAV:   7    -0.163529494649E+04    0.30260E+02   -0.11349E+02  7680   0.110E+01    0.883E+00
DAV:   8    -0.163433322844E+04    0.96172E+00   -0.93891E+00  7764   0.379E+00    0.326E+00
DAV:   9    -0.163391456382E+04    0.41866E+00   -0.12459E+00  7668   0.131E+00    0.115E+00
DAV:  10    -0.163386136520E+04    0.53199E-01   -0.17359E-01  8160   0.460E-01    0.649E-01
DAV:  11    -0.163380524756E+04    0.56118E-01   -0.93027E-02  7476   0.299E-01    0.298E-01
DAV:  12    -0.163380235440E+04    0.28932E-02   -0.37572E-02  7668   0.191E-01    0.212E-01
DAV:  13    -0.163382564537E+04   -0.23291E-01   -0.22998E-02  7320   0.135E-01    0.113E-01
DAV:  14    -0.163384309219E+04   -0.17447E-01   -0.45886E-03  7236   0.744E-02    0.650E-02
DAV:  15    -0.163385215311E+04   -0.90609E-02   -0.13664E-03  7488   0.452E-02    0.409E-02
DAV:  16    -0.163386026154E+04   -0.81084E-02   -0.71363E-04  7560   0.296E-02    0.232E-02
DAV:  17    -0.163386584967E+04   -0.55881E-02   -0.35064E-04  7404   0.171E-02    0.153E-02
DAV:  18    -0.163386909375E+04   -0.32441E-02   -0.18176E-04  7668   0.106E-02    0.101E-02
DAV:  19    -0.163387151541E+04   -0.24217E-02   -0.14858E-04  7500   0.837E-03    0.585E-03
DAV:  20    -0.163387253379E+04   -0.10184E-02   -0.40267E-05  7404   0.419E-03    0.631E-02
DAV:  21    -0.166563301267E+04   -0.31760E+02   -0.14221E+01  6168   0.132E-01BRMIX: very serious problems
 the old and the new charge density differ
 old charge density:   774.00339 new  776.79964
    0.101E+00
DAV:  22    -0.215759302277E+04   -0.49196E+03    0.86391E+01  7920   0.224E+00BRMIX: very serious problems
 the old and the new charge density differ
 old charge density:   776.79964 new  774.89239
    0.136E+00
DAV:  23    -0.322564359640E+04   -0.10681E+04   -0.30572E+00  7608   0.366E+00BRMIX: very serious problems
 the old and the new charge density differ
 old charge density:   774.89239 new  777.16716
    0.168E+00
DAV:  24    -0.423413723527E+04   -0.10085E+04   -0.66921E+01  7764   0.460E+00BRMIX: very serious problems
 the old and the new charge density differ
 old charge density:   777.16716 new  782.22798
    0.290E+00
DAV:  25    -0.111984189911E+05   -0.69643E+04    0.75913E+01  8172   0.110E+01BRMIX: very serious problems
 the old and the new charge density differ
 old charge density:   782.22798 new  784.72089
    0.350E+00
DAV:  26    -0.732744323238E+04    0.38710E+04   -0.92605E+02  7956   0.146E+01BRMIX: very serious problems
 the old and the new charge density differ
 old charge density:   784.72089 new  779.50660
    0.622E+00
DAV:  27    -0.120808143315E+05   -0.47534E+04   -0.11117E+03  7632   0.324E+01BRMIX: very serious problems
 the old and the new charge density differ
 old charge density:   779.50660 new  782.95702
    0.823E+00
DAV:  28    -0.530399785675E+05   -0.40959E+05   -0.71706E+02  7452   0.401E+01BRMIX: very serious problems
 the old and the new charge density differ
 old charge density:   782.95702 new  785.55086
    0.128E+01
DAV:  29    -0.474016133807E+05    0.56384E+04   -0.90673E+02  7812   0.609E+01BRMIX: very serious problems
 the old and the new charge density differ
 old charge density:   785.55086 new  790.48872
    0.215E+01
DAV:  30    -0.920386045731E+05   -0.44637E+05    0.76201E+02  7788   0.964E+01BRMIX: very serious problems
 the old and the new charge density differ
 old charge density:   790.48872 new  786.76548
    0.264E+01
DAV:  31    -0.436952409265E+05    0.48343E+05    0.90316E+02  7548   0.952E+01BRMIX: very serious problems
 the old and the new charge density differ
 old charge density:   786.76548 new  789.02791
    0.300E+01
DAV:  32    -0.240231829148E+05    0.19672E+05    0.20500E+03  7344   0.112E+02BRMIX: very serious problems
 the old and the new charge density differ
 old charge density:   789.02791 new  789.96600
    0.299E+01
DAV:  33    -0.206929634312E+05    0.33302E+04    0.24519E+03  7836   0.113E+02BRMIX: very serious problems
 the old and the new charge density differ
 old charge density:   789.96600 new  787.00321
    0.268E+01
DAV:  34    -0.764730828808E+05   -0.55780E+05    0.21172E+03  7656   0.101E+02BRMIX: very serious problems
 the old and the new charge density differ
 old charge density:   787.00321 new  815.77568
    0.366E+01
DAV:  35    -0.126864318737E+05    0.63787E+05    0.73576E+03  7704   0.162E+02BRMIX: very serious problems
 the old and the new charge density differ
 old charge density:   815.77568 new  809.50633
    0.297E+01
DAV:  36    -0.182087485046E+05   -0.55223E+04    0.62543E+03  7464   0.122E+02BRMIX: very serious problems
 the old and the new charge density differ
 old charge density:   809.50633 new  803.74025
    0.280E+01
DAV:  37    -0.490394069013E+05   -0.30831E+05    0.43218E+03  7476   0.115E+02BRMIX: very serious problems
 the old and the new charge density differ
 old charge density:   803.74025 new  820.07147
    0.359E+01
DAV:  38    -0.131117569582E+05    0.35928E+05    0.49045E+03  7728   0.158E+02BRMIX: very serious problems
 the old and the new charge density differ
 old charge density:   820.07147 new  825.67561
    0.363E+01
DAV:  39    -0.210211539977E+05   -0.79094E+04    0.81115E+03  8004   0.146E+02BRMIX: very serious problems
 the old and the new charge density differ
 old charge density:   825.67561 new  819.96253
    0.295E+01
DAV:  40    -0.280985366682E+07   -0.27888E+07   -0.26767E+04  7476   0.122E+02BRMIX: very serious problems
 the old and the new charge density differ
 old charge density:   819.96253 new  826.01943
    0.493E+01
DAV:  41    -0.171426700890E+05    0.27927E+07    0.62226E+03  7368   0.139E+02BRMIX: very serious problems
 the old and the new charge density differ
 old charge density:   826.01943 new  824.63750
    0.323E+01
DAV:  42    -0.297962443592E+05   -0.12654E+05    0.85796E+03  7224   0.119E+02BRMIX: very serious problems
 the old and the new charge density differ
 old charge density:   824.63750 new  814.98340
    0.291E+01
DAV:  43    -0.277335068824E+05    0.20627E+04    0.71695E+03  7572   0.114E+02BRMIX: very serious problems
 the old and the new charge density differ
 old charge density:   814.98340 new  808.44733
    0.286E+01
DAV:  44    -0.240237347567E+05    0.37098E+04    0.60915E+03  7608   0.111E+02BRMIX: very serious problems
 the old and the new charge density differ
 old charge density:   808.44733 new  807.86534
    0.285E+01
DAV:  45    -0.231818612528E+05    0.84187E+03    0.60375E+03  7896   0.114E+02BRMIX: very serious problems
 the old and the new charge density differ
 old charge density:   807.86534 new  809.57355
    0.291E+01
DAV:  46    -0.202576743576E+05    0.29242E+04    0.63808E+03  7596   0.122E+02BRMIX: very serious problems
 the old and the new charge density differ
 old charge density:   809.57355 new  808.39300
    0.284E+01
DAV:  47    -0.350961446843E+05   -0.14838E+05   -0.12347E+05  7548   0.116E+02BRMIX: very serious problems
 the old and the new charge density differ
 old charge density:   808.39300 new  805.53423
    0.453E+01
DAV:  48    -0.223854652347E+05    0.12711E+05    0.25135E+03  7644   0.115E+02BRMIX: very serious problems
 the old and the new charge density differ
 old charge density:   805.53423 new  803.90148
    0.270E+01
DAV:  49    -0.853520782945E+05   -0.62967E+05   -0.61928E+05  7740   0.113E+02BRMIX: very serious problems
 the old and the new charge density differ
 old charge density:   803.90148 new  804.70656
    0.556E+01
DAV:  50    -0.243988054490E+05    0.60953E+05    0.18770E+03  7248   0.119E+02BRMIX: very serious problems
 the old and the new charge density differ
 old charge density:   804.70656 new  802.37846
    0.269E+01
DAV:  51    -0.303472814899E+05   -0.59485E+04    0.51278E+03  7704   0.108E+02BRMIX: very serious problems
 the old and the new charge density differ
 old charge density:   802.37846 new  804.87139
    0.280E+01
DAV:  52    -0.263878474862E+05    0.39594E+04    0.55835E+03  7668   0.119E+02BRMIX: very serious problems
 the old and the new charge density differ
 old charge density:   804.87139 new  802.25664
    0.266E+01
DAV:  53    -0.238858696040E+05    0.25020E+04    0.50999E+03  7620   0.107E+02BRMIX: very serious problems
 the old and the new charge density differ
 old charge density:   802.25664 new  802.70016
    0.273E+01
DAV:  54    -0.272830329185E+05   -0.33972E+04    0.51938E+03  7416   0.111E+02BRMIX: very serious problems
 the old and the new charge density differ
 old charge density:   802.70016 new  805.08159
    0.278E+01
DAV:  55    -0.215968045299E+05    0.56862E+04    0.56354E+03  7608   0.120E+02BRMIX: very serious problems
 the old and the new charge density differ
 old charge density:   805.08159 new  803.27638
    0.269E+01
DAV:  56    -0.287988901420E+06   -0.26639E+06   -0.26529E+06  7560   0.112E+02BRMIX: very serious problems
 the old and the new charge density differ
 old charge density:   803.27638 new  797.73840
    0.630E+01
DAV:  57    -0.120051033982E+08   -0.11717E+08    0.25812E+02  7704   0.106E+02BRMIX: very serious problems
 the old and the new charge density differ
 old charge density:   797.73840 new  806.22230
    0.515E+01
DAV:  58    -0.419456798451E+05    0.11963E+08    0.41742E+03  7392   0.112E+02BRMIX: very serious problems
 the old and the new charge density differ
 old charge density:   806.22230 new  812.35479
    0.387E+01
DAV:  59    -0.358807471218E+05    0.60649E+04    0.57013E+03  7620   0.100E+02BRMIX: very serious problems
 the old and the new charge density differ
 old charge density:   812.35479 new  809.12267
    0.327E+01
DAV:  60    -0.554164945669E+07   -0.55058E+07    0.57784E+03  7308   0.112E+02BRMIX: very serious problems
 the old and the new charge density differ
 old charge density:   809.12267 new  814.39022
    0.367E+01
DAV:  61    -0.182061224151E+05    0.55234E+07    0.60501E+03  7416   0.116E+02BRMIX: very serious problems
 the old and the new charge density differ
 old charge density:   814.39022 new  817.07051
    0.330E+01
DAV:  62    -0.247151192074E+05   -0.65090E+04    0.66758E+03  7764   0.115E+02BRMIX: very serious problems
 the old and the new charge density differ
 old charge density:   817.07051 new  812.71626
    0.300E+01
DAV:  63    -0.180928799120E+05    0.66222E+04    0.65955E+03  7488   0.124E+02BRMIX: very serious problems
 the old and the new charge density differ
 old charge density:   812.71626 new  816.20893
    0.314E+01
DAV:  64    -0.919493641203E+05   -0.73856E+05   -0.72200E+05  7560   0.131E+02BRMIX: very serious problems
 the old and the new charge density differ
 old charge density:   816.20893 new  820.54344
    0.539E+01
DAV:  65    -0.308488858212E+05    0.61100E+05    0.42261E+03  7716   0.141E+02BRMIX: very serious problems
 the old and the new charge density differ
 old charge density:   820.54344 new  816.81299
    0.292E+01
DAV:  66    -0.317355419572E+05   -0.88666E+03    0.76126E+03  8124   0.115E+02BRMIX: very serious problems
 the old and the new charge density differ
 old charge density:   816.81299 new  817.21349
    0.295E+01
DAV:  67    -0.454715279191E+07   -0.45154E+07    0.77448E+03  7668   0.120E+02BRMIX: very serious problems
 the old and the new charge density differ
 old charge density:   817.21349 new  820.48596
    0.380E+01
DAV:  68    -0.247402288710E+05    0.45224E+07    0.71642E+03  7260   0.122E+02BRMIX: very serious problems
 the old and the new charge density differ
 old charge density:   820.48596 new  821.74713
    0.325E+01
DAV:  69    -0.413174855612E+05   -0.16577E+05   -0.17537E+05  7788   0.111E+02BRMIX: very serious problems
 the old and the new charge density differ
 old charge density:   821.74713 new  817.16910
    0.432E+01
DAV:  70    -0.255242576878E+05    0.15793E+05    0.45876E+03  7488   0.130E+02BRMIX: very serious problems
 the old and the new charge density differ
 old charge density:   817.16910 new  815.59393
    0.300E+01
DAV:  71    -0.324226589256E+05   -0.68984E+04    0.73212E+03  7620   0.126E+02BRMIX: very serious problems
 the old and the new charge density differ
 old charge density:   815.59393 new  818.54890
    0.269E+01
DAV:  72    -0.290266311650E+05    0.33960E+04    0.79605E+03  8028   0.128E+02BRMIX: very serious problems
 the old and the new charge density differ
 old charge density:   818.54890 new  817.58300
    0.253E+01
DAV:  73    -0.232129990622E+05    0.58136E+04    0.78007E+03  7884   0.121E+02BRMIX: very serious problems
 the old and the new charge density differ
 old charge density:   817.58300 new  819.95608
    0.248E+01
DAV:  74    -0.449517156218E+06   -0.42630E+06   -0.42797E+06  7884   0.119E+02BRMIX: very serious problems
 the old and the new charge density differ
 old charge density:   819.95608 new  820.26023
    0.660E+01
DAV:  75    -0.199485173066E+05    0.42957E+06    0.35798E+03  7104   0.122E+02BRMIX: very serious problems
 the old and the new charge density differ
 old charge density:   820.26023 new  819.26561
    0.246E+01
DAV:  76    -0.840669615381E+06   -0.82072E+06   -0.81313E+06  8388   0.116E+02BRMIX: very serious problems
 the old and the new charge density differ
 old charge density:   819.26561 new  820.70813
    0.702E+01
DAV:  77    -0.208833089109E+05    0.81979E+06    0.34082E+03  7548   0.120E+02BRMIX: very serious problems
 the old and the new charge density differ
 old charge density:   820.70813 new  818.15055
    0.221E+01
DAV:  78    -0.279256813355E+05   -0.70424E+04    0.80012E+03  8292   0.112E+02BRMIX: very serious problems
 the old and the new charge density differ
 old charge density:   818.15055 new  821.08683
    0.220E+01
DAV:  79    -0.641855284705E+06   -0.61393E+06   -0.61911E+06  7848   0.123E+02BRMIX: very serious problems
 the old and the new charge density differ
 old charge density:   821.08683 new  822.59744
    0.712E+01
DAV:  80    -0.273451364835E+05    0.61451E+06    0.39472E+03  7524   0.119E+02BRMIX: very serious problems
 the old and the new charge density differ
 old charge density:   822.59744 new  821.50444
    0.201E+01
DAV:  81    -0.290601477803E+05   -0.17150E+04    0.85591E+03  8340   0.113E+02BRMIX: very serious problems
 the old and the new charge density differ
 old charge density:   821.50444 new  824.27426
    0.216E+01
DAV:  82    -0.191308585302E+07   -0.18840E+07   -0.18926E+07  7848   0.120E+02BRMIX: very serious problems
 the old and the new charge density differ
 old charge density:   824.27426 new  819.71267
    0.864E+01
DAV:  83    -0.191520218954E+05    0.18939E+07    0.21749E+03  7464   0.119E+02BRMIX: very serious problems
 the old and the new charge density differ
 old charge density:   819.71267 new  816.59955
    0.178E+01
DAV:  84    -0.329189569429E+05   -0.13767E+05    0.77428E+03  8400   0.103E+02BRMIX: very serious problems
 the old and the new charge density differ
 old charge density:   816.59955 new  820.02550
    0.191E+01
DAV:  85    -0.299187772520E+05    0.30002E+04    0.83718E+03  7776   0.114E+02BRMIX: very serious problems
 the old and the new charge density differ
 old charge density:   820.02550 new  821.79919
    0.194E+01
DAV:  86    -0.276361520056E+05    0.22826E+04    0.87028E+03  8352   0.118E+02BRMIX: very serious problems
 the old and the new charge density differ
 old charge density:   821.79919 new  829.29030
    0.200E+01
DAV:  87    -0.215939374301E+05    0.60422E+04    0.10083E+04  7980   0.121E+02BRMIX: very serious problems
 the old and the new charge density differ
 old charge density:   829.29030 new  830.88625
    0.205E+01
DAV:  88    -0.211316234406E+05    0.46231E+03    0.10400E+04  8100   0.124E+02BRMIX: very serious problems
 the old and the new charge density differ
 old charge density:   830.88625 new  822.95960
    0.181E+01
DAV:  89    -0.236509502658E+05   -0.25193E+04    0.89553E+03  7752   0.113E+02    0.190E+01
DAV:  90    -0.255269979258E+05   -0.18760E+04    0.89692E+03  7932   0.115E+02BRMIX: very serious problems
 the old and the new charge density differ
 old charge density:   822.96276 new  826.69645
    0.187E+01
DAV:  91    -0.214576309797E+05    0.40694E+04    0.95727E+03  8412   0.116E+02BRMIX: very serious problems
 the old and the new charge density differ
 old charge density:   826.69645 new  826.58280
    0.173E+01
DAV:  92    -0.242852381768E+05   -0.28276E+04    0.95754E+03  8220   0.111E+02BRMIX: very serious problems
 the old and the new charge density differ
 old charge density:   826.58280 new  825.74811
    0.189E+01
DAV:  93    -0.236784527458E+05    0.60679E+03    0.94528E+03  7932   0.112E+02BRMIX: very serious problems
 the old and the new charge density differ
 old charge density:   825.74811 new  827.18558
    0.184E+01
DAV:  94    -0.232617995080E+05    0.41665E+03    0.97107E+03  7860   0.111E+02BRMIX: very serious problems
 the old and the new charge density differ
 old charge density:   827.18558 new  825.32253
    0.178E+01
DAV:  95    -0.335141367077E+05   -0.10252E+05    0.93854E+03  7956   0.111E+02BRMIX: very serious problems
 the old and the new charge density differ
 old charge density:   825.32253 new  828.49307
    0.183E+01
DAV:  96    -0.250040089746E+05    0.85101E+04    0.98116E+03  8700   0.120E+02BRMIX: very serious problems
 the old and the new charge density differ
 old charge density:   828.49307 new  826.24911
    0.184E+01
DAV:  97    -0.295139331639E+05   -0.45099E+04    0.94286E+03  8340   0.122E+02BRMIX: very serious problems
 the old and the new charge density differ
 old charge density:   826.24911 new  823.36042
    0.159E+01
DAV:  98    -0.140738382223E+08   -0.14044E+08    0.89159E+03  8052   0.109E+02BRMIX: very serious problems
 the old and the new charge density differ
 old charge density:   823.36042 new  816.96179
    0.537E+01
DAV:  99    -0.988092094483E+05    0.13975E+08    0.52113E+03  7332   0.813E+01BRMIX: very serious problems
 the old and the new charge density differ
 old charge density:   816.96179 new  828.83592
    0.244E+01
DAV: 100    -0.346266631507E+05    0.64183E+05    0.88209E+03  7548   0.115E+02BRMIX: very serious problems
 the old and the new charge density differ
 old charge density:   828.83592 new  821.72923
    0.187E+01
DAV: 101    -0.270862630216E+05    0.75404E+04    0.80821E+03  8100   0.125E+02BRMIX: very serious problems
 the old and the new charge density differ
 old charge density:   821.72923 new  821.85118
    0.185E+01
DAV: 102    -0.295698094612E+05   -0.24835E+04    0.84448E+03  7956   0.123E+02BRMIX: very serious problems
 the old and the new charge density differ
 old charge density:   821.85118 new  818.42612
    0.162E+01
DAV: 103    -0.253907755177E+05    0.41790E+04    0.79325E+03  7860   0.111E+02BRMIX: very serious problems
 the old and the new charge density differ
 old charge density:   818.42612 new  825.37929
    0.186E+01
DAV: 104    -0.228874282482E+05    0.25033E+04    0.92695E+03  7812   0.115E+02BRMIX: very serious problems
 the old and the new charge density differ
 old charge density:   825.37929 new  834.17876
    0.213E+01
DAV: 105    -0.240579894280E+05   -0.11706E+04    0.10908E+04  7740   0.131E+02BRMIX: very serious problems
 the old and the new charge density differ
 old charge density:   834.17876 new  832.96656
    0.194E+01
DAV: 106    -0.251272937315E+05   -0.10693E+04    0.10633E+04  8364   0.127E+02BRMIX: very serious problems
 the old and the new charge density differ
 old charge density:   832.96656 new  834.58434
    0.204E+01
DAV: 107    -0.702922996482E+05   -0.45165E+05    0.10946E+04  7992   0.126E+02BRMIX: very serious problems
 the old and the new charge density differ
 old charge density:   834.58434 new  830.26693
    0.191E+01
DAV: 108    -0.272418692399E+05    0.43050E+05    0.10119E+04  8076   0.121E+02BRMIX: very serious problems
 the old and the new charge density differ
 old charge density:   830.26693 new  832.55951
    0.203E+01
DAV: 109    -0.170902445492E+08   -0.17063E+08    0.10234E+04  8364   0.119E+02BRMIX: very serious problems
 the old and the new charge density differ
 old charge density:   832.55951 new  820.06451
    0.606E+01
DAV: 110    -0.178707208391E+08   -0.78048E+06    0.43157E+03  7596   0.696E+01BRMIX: very serious problems
 the old and the new charge density differ
 old charge density:   820.06451 new  832.54339
    0.271E+01
DAV: 111    -0.317679824451E+05    0.17839E+08    0.77972E+03  7620   0.107E+02BRMIX: very serious problems
 the old and the new charge density differ
 old charge density:   832.54339 new  825.81628
    0.284E+01
DAV: 112    -0.707443870846E+05   -0.38976E+05    0.56601E+03  7356   0.107E+02BRMIX: very serious problems
 the old and the new charge density differ
 old charge density:   825.81628 new  817.13276
    0.209E+01
DAV: 113    -0.414348590742E+06   -0.34360E+06   -0.18668E+05  7704   0.122E+02BRMIX: very serious problems
 the old and the new charge density differ
 old charge density:   817.13276 new  800.98060
    0.354E+01
DAV: 114    -0.536336105682E+05    0.36071E+06   -0.16538E+03  7464   0.116E+02BRMIX: very serious problems
 the old and the new charge density differ
 old charge density:   800.98060 new  799.98525
    0.204E+01
DAV: 115    -0.712729064830E+05   -0.17639E+05    0.13884E+03  7668   0.141E+02BRMIX: very serious problems
 the old and the new charge density differ
 old charge density:   799.98525 new  803.64962
    0.308E+01
DAV: 116    -0.112848088507E+07   -0.10572E+07   -0.10861E+07  7812   0.213E+02BRMIX: very serious problems
 the old and the new charge density differ
 old charge density:   803.64962 new  788.20607
    0.627E+01
DAV: 117    -0.749831187319E+07   -0.63698E+07   -0.43794E+03  7464   0.208E+02BRMIX: very serious problems
 the old and the new charge density differ
 old charge density:   788.20607 new  769.09716
    0.500E+01
DAV: 118    -0.127883127433E+06    0.73704E+07   -0.41371E+03  7260   0.181E+02BRMIX: very serious problems
 the old and the new charge density differ
 old charge density:   769.09716 new  791.84327
    0.466E+01
DAV: 119    -0.672988324627E+05    0.60584E+05    0.19846E+03  7296   0.243E+02BRMIX: very serious problems
 the old and the new charge density differ
 old charge density:   791.84327 new  766.21985
    0.406E+01
DAV: 120    -0.202115743736E+06   -0.13482E+06   -0.10794E+05  7380   0.227E+02BRMIX: very serious problems
 the old and the new charge density differ
 old charge density:   766.21985 new  753.95260
    0.416E+01
DAV: 121    -0.320661343730E+05    0.17005E+06   -0.47496E+03  7488   0.206E+02BRMIX: very serious problems
 the old and the new charge density differ
 old charge density:   753.95260 new  754.95853
    0.460E+01
DAV: 122    -0.776579752945E+06   -0.74451E+06   -0.73193E+06  7596   0.218E+02BRMIX: very serious problems
 the old and the new charge density differ
 old charge density:   754.95853 new  752.09159
    0.874E+01
DAV: 123    -0.150711507697E+08   -0.14295E+08   -0.40641E+04  7644   0.228E+02BRMIX: very serious problems
 the old and the new charge density differ
 old charge density:   752.09159 new  735.12825
    0.717E+01
DAV: 124    -0.115049502947E+08    0.35662E+07   -0.10347E+04  7188   0.179E+02BRMIX: very serious problems
 the old and the new charge density differ
 old charge density:   735.12825 new  763.63908
    0.515E+01
DAV: 125    -0.829725483321E+07    0.32077E+07   -0.11700E+05  7176   0.203E+02BRMIX: very serious problems
 the old and the new charge density differ
 old charge density:   763.63908 new  786.98046
    0.836E+01
DAV: 126    -0.634817723792E+06    0.76624E+07   -0.10906E+06  7296   0.221E+02BRMIX: very serious problems
 the old and the new charge density differ
 old charge density:   786.98046 new  777.90303
    0.532E+01
DAV: 127    -0.101570662206E+06    0.53325E+06   -0.11854E+05  7452   0.182E+02BRMIX: very serious problems
 the old and the new charge density differ
 old charge density:   777.90303 new  772.47394
    0.529E+01
DAV: 128    -0.540544941681E+05    0.47516E+05   -0.14310E+03  7428   0.215E+02BRMIX: very serious problems
 the old and the new charge density differ
 old charge density:   772.47394 new  764.22974
    0.506E+01
DAV: 129    -0.540166084468E+05    0.37886E+02   -0.23248E+03  7524   0.225E+02BRMIX: very serious problems
 the old and the new charge density differ
 old charge density:   764.22974 new  754.77294
    0.494E+01
DAV: 130    -0.833892275336E+07   -0.82849E+07   -0.67367E+06  7548   0.221E+02BRMIX: very serious problems
 the old and the new charge density differ
 old charge density:   754.77294 new  753.41397
    0.860E+01
DAV: 131    -0.713953900609E+07    0.11994E+07   -0.33889E+05  8280   0.210E+02BRMIX: very serious problems
 the old and the new charge density differ
 old charge density:   753.41397 new  771.35147
    0.631E+01
DAV: 132    -0.395608367035E+05    0.71000E+07   -0.33787E+03  7200   0.214E+02BRMIX: very serious problems
 the old and the new charge density differ
 old charge density:   771.35147 new  775.40533
    0.547E+01
DAV: 133    -0.507376201291E+06   -0.46782E+06   -0.13264E+06  7716   0.216E+02BRMIX: very serious problems
 the old and the new charge density differ
 old charge density:   775.40533 new  769.69290
    0.520E+01
DAV: 134    -0.653826067157E+06   -0.14645E+06   -0.20304E+06  7452   0.226E+02BRMIX: very serious problems
 the old and the new charge density differ
 old charge density:   769.69290 new  763.19954
    0.519E+01
DAV: 135    -0.205259529049E+07   -0.13988E+07   -0.74957E+06  7668   0.212E+02BRMIX: very serious problems
 the old and the new charge density differ
 old charge density:   763.19954 new  761.08935
    0.514E+01
DAV: 136    -0.411339407883E+07   -0.20608E+07   -0.42723E+03  8364   0.201E+02BRMIX: very serious problems
 the old and the new charge density differ
 old charge density:   761.08935 new  744.77400
    0.528E+01
DAV: 137    -0.581013730731E+07   -0.16967E+07   -0.66974E+03  7260   0.201E+02BRMIX: very serious problems
 the old and the new charge density differ
 old charge density:   744.77400 new  775.02425
    0.553E+01
DAV: 138    -0.508851244568E+05    0.57593E+07   -0.27774E+04  7068   0.232E+02BRMIX: very serious problems
 the old and the new charge density differ
 old charge density:   775.02425 new  770.81220
    0.492E+01
DAV: 139    -0.645270111622E+05   -0.13642E+05   -0.22198E+03  7656   0.222E+02BRMIX: very serious problems
 the old and the new charge density differ
 old charge density:   770.81220 new  773.25054
    0.526E+01
DAV: 140    -0.472375692165E+06   -0.40785E+06   -0.11010E+06  8124   0.264E+02BRMIX: very serious problems
 the old and the new charge density differ
 old charge density:   773.25054 new  749.83160
    0.452E+01
DAV: 141    -0.786753575306E+07   -0.73952E+07   -0.14637E+06  7608   0.216E+02BRMIX: very serious problems
 the old and the new charge density differ
 old charge density:   749.83160 new  741.35869
    0.478E+01
DAV: 142    -0.773888584260E+07    0.12865E+06   -0.89379E+03  7488   0.202E+02BRMIX: very serious problems
 the old and the new charge density differ
 old charge density:   741.35869 new  764.01634
    0.544E+01
DAV: 143    -0.321882996748E+06    0.74170E+07   -0.27419E+06  7236   0.230E+02BRMIX: very serious problems
 the old and the new charge density differ
 old charge density:   764.01634 new  763.24579
    0.916E+01
DAV: 144    -0.606138039286E+06   -0.28426E+06   -0.88145E+05  7800   0.240E+02BRMIX: very serious problems
 the old and the new charge density differ
 old charge density:   763.24579 new  742.45597
    0.524E+01
DAV: 145    -0.161875442079E+07   -0.10126E+07   -0.64866E+06  7284   0.230E+02BRMIX: very serious problems
 the old and the new charge density differ
 old charge density:   742.45597 new  740.16605
    0.539E+01
DAV: 146    -0.183855079139E+06    0.14349E+07   -0.75251E+05  8328   0.264E+02BRMIX: very serious problems
 the old and the new charge density differ
 old charge density:   740.16605 new  729.85659
    0.606E+01
DAV: 147    -0.991162945268E+06   -0.80731E+06   -0.47349E+06  7968   0.299E+02BRMIX: very serious problems
 the old and the new charge density differ
 old charge density:   729.85659 new  717.08505
    0.649E+01
DAV: 148    -0.480035622302E+07   -0.38092E+07   -0.26412E+06  7800   0.330E+02BRMIX: very serious problems
 the old and the new charge density differ
 old charge density:   717.08505 new  706.33219
    0.714E+01
DAV: 149    -0.662983839995E+07   -0.18295E+07   -0.14837E+04  7476   0.324E+02BRMIX: very serious problems
 the old and the new charge density differ
 old charge density:   706.33219 new  710.64850
    0.733E+01
DAV: 150    -0.809367954589E+05    0.65489E+07   -0.78887E+04  7488   0.326E+02
 -----------------------------------------------------------------------------
|                                                                             |
|           W    W    AA    RRRRR   N    N  II  N    N   GGGG   !!!           |
|           W    W   A  A   R    R  NN   N  II  NN   N  G    G  !!!           |
|           W    W  A    A  R    R  N N  N  II  N N  N  G       !!!           |
|           W WW W  AAAAAA  RRRRR   N  N N  II  N  N N  G  GGG   !            |
|           WW  WW  A    A  R   R   N   NN  II  N   NN  G    G                |
|           W    W  A    A  R    R  N    N  II  N    N   GGGG   !!!           |
|                                                                             |
|     The electronic self-consistency was not achieved in the given           |
|     number of steps (NELM). The forces and other quantities evaluated       |
|     might not be reliable so examine the results carefully. If you find     |
|     spurious results, we suggest increasing NELM, if you were close to      |
|     convergence or switching to a different ALGO or adjusting the           |
|     density mixing parameters otherwise.                                    |
|                                                                             |
 -----------------------------------------------------------------------------

BRMIX: very serious problems
 the old and the new charge density differ
 old charge density:   710.64850 new  701.69494
   1 F= -.80968754E+05 E0= -.80966250E+05  d E =-.500923E+01
 -----------------------------------------------------------------------------
|                                                                             |
|           W    W    AA    RRRRR   N    N  II  N    N   GGGG   !!!           |
|           W    W   A  A   R    R  NN   N  II  NN   N  G    G  !!!           |
|           W    W  A    A  R    R  N N  N  II  N N  N  G       !!!           |
|           W WW W  AAAAAA  RRRRR   N  N N  II  N  N N  G  GGG   !            |
|           WW  WW  A    A  R   R   N   NN  II  N   NN  G    G                |
|           W    W  A    A  R    R  N    N  II  N    N   GGGG   !!!           |
|                                                                             |
|     The minimum charge density times volume of the cell along the axis      |
|     of the dipole correction is larger 1E-1, which could mean that your     |
|     workfunction is not accurate as there is no field free region in        |
|     your cell. Please consider either increasing the size of your cell      |
|     along the dipole correction (vacuum dimension) or perhaps               |
|     increasing the precision of your calculation.                           |
|                                                                             |
 -----------------------------------------------------------------------------

