o-B14 monolayer                         
   1.00000000000000     
     5.6997579760202353    0.0000000000000000    0.0000000000000000
     0.0000000000000000    6.3141337783986620    0.0000000000000000
     0.0000000000000000    0.0000000000000000   24.0440583230000016
  B             
  3
Direct
     0.5138222918212776    0.6407639677282333    0.0840968331484078
     0.4861777082313452    0.3592360322556445    0.0840968331484078
     0.7499999999517613    0.4835123149878484    0.0840968331484078
