#VESTA_FORMAT_VERSION 3.5.4


CRYSTAL

TITLE
o-B14 monolayer                         

GROUP
1 1 P 1
SYMOP
0 0 0 1 0 0 0 1 0 0 0 1 1
 -1.0 -1.0 -1.0  0 0 0  0 0 0  0 0 0
TRANM 0
0 0 0 1 0 0 0 1 0 0 0 1 1
LTRANSL
 -1
 0.000000  0.000000  0.000000  0.000000  0.000000  0.000000
LORIENT
 -1   0   0   0   0
 1.000000  0.000000  0.000000  5.699758  0.000000  0.000000
 0.000000  0.000000  1.000000  0.000000  0.000000 35.989034
LMATRIX
 1.000000  0.000000  0.000000  0.000000
 0.000000  1.000000  0.000000  0.000000
 0.000000  0.000000  1.000000  0.000000
 0.000000  0.000000  0.000000  1.000000
 0.000000  0.000000  0.000000
PHASON
 1.000000  0.000000  0.000000
 0.000000  1.000000  0.000000
 0.000000  0.000000  1.000000
CELLP
  5.699758   6.314134  24.044058  90.000000  90.000000  90.000000
  0.000000   0.000000   0.000000   0.000000   0.000000   0.000000
STRUC
  1  B         B1  1.0000   0.403909   0.098778   0.084097    1a       1
                            0.000000   0.000000   0.000000  0.00
  2  B         B2  1.0000   0.096091   0.098778   0.084097    1a       1
                            0.000000   0.000000   0.000000  0.00
  0 0 0 0 0 0 0
THERI 1
  1         B1 -0.000000
  2         B2 -0.000000
  0 0 0
SHAPE
  0       0       0       0   0.000000  0   192   192   192   192
BOUND
0 1 0 1 0 1 
  0   0   0   0  0
QCORIG
        0         0         0
SBOND
  1     B     B    0.00000    1.85846  0  1  1  0  3  0.225 12.000 127 127 127
  0 0 0 0
SITET
  1         B1  0.8100   0 128 255  31 162  15 204  0
  2         B2  0.8100   0 128 255  31 162  15 204  0
  0 0 0 0 0 0
VECTR
 0 0 0 0 0
VECTT
 0 0 0 0 0
SPLAN
  0   0   0   0
LBLAT
 -1
LBLSP
 -1
DLATM
 -1
DLBND
 -1
DLPLY
 -1
PLN2D
  0   0   0   0
ATOMT
  1          B  0.8100  31 162  15  31 162  15 204
  0 0 0 0 0 0
SCENE
 1.000000 -0.000000 -0.000000  0.000000
 0.000000  1.000000 -0.000000  0.000000
 0.000000  0.000000  1.000000  0.000000
 0.000000  0.000000  0.000000  1.000000
  0.137   0.274
  0.000
  2.441
HBOND 0 2

STYLE
DISPF 37753794
MODEL   0  1  0
SURFS   0  1  1
SECTS  32  1
FORMS   0  1
ATOMS   0  0  1
BONDS   3
POLYS   1
VECTS 1.000000
FORMP
  1  1.0   0   0   0
ATOMP
 24  24   0  50  2.0   0
BONDP
  1  16  0.225 12.000 127 127 127
POLYP
 204 1  1.000 180 180 180
ISURF
  0   0   0   0
TEX3P
  1  0.00000E+00  1.00000E+00
SECTP
  1  5.00000E-01  5.00000E-01  0.00000E+00  0.00000E+00  0.00000E+00  0.00000E+00
CONTR
 0.1 -1 1 1 10 -1 2 5
 2 1 2 1
   0   0   0
   0   0   0
   0   0   0
   0   0   0
HKLPP
 192 1  1.000 255   0 255
UCOLP
   1   0  1.000   0   0   0
COMPS 2
LABEL 1    12  1.000 0
PROJT 0  0.962
BKGRC
 255 255 255
DPTHQ 1 -1.0000  2.0000
LIGHT0 1
 1.000000  0.000000  0.000000  0.000000
 0.000000  1.000000  0.000000  0.000000
 0.000000  0.000000  1.000000  0.000000
 0.000000  0.000000  0.000000  1.000000
 0.000000  0.000000 20.000000  0.000000
 0.000000  0.000000 -1.000000
  26  26  26 255
 179 179 179 255
 255 255 255 255
LIGHT1
 1.000000  0.000000  0.000000  0.000000
 0.000000  1.000000  0.000000  0.000000
 0.000000  0.000000  1.000000  0.000000
 0.000000  0.000000  0.000000  1.000000
 0.000000  0.000000 20.000000  0.000000
 0.000000  0.000000 -1.000000
   0   0   0   0
   0   0   0   0
   0   0   0   0
LIGHT2
 1.000000  0.000000  0.000000  0.000000
 0.000000  1.000000  0.000000  0.000000
 0.000000  0.000000  1.000000  0.000000
 0.000000  0.000000  0.000000  1.000000
 0.000000  0.000000 20.000000  0.000000
 0.000000  0.000000 -1.000000
   0   0   0   0
   0   0   0   0
   0   0   0   0
LIGHT3
 1.000000  0.000000  0.000000  0.000000
 0.000000  1.000000  0.000000  0.000000
 0.000000  0.000000  1.000000  0.000000
 0.000000  0.000000  0.000000  1.000000
 0.000000  0.000000 20.000000  0.000000
 0.000000  0.000000 -1.000000
   0   0   0   0
   0   0   0   0
   0   0   0   0
SECCL 12

TEXCL 0

ATOMM
 204 204 204 255
  25.600
BONDM
 255 255 255 255
 128.000
POLYM
 255 255 255 255
 128.000
SURFM
   0   0   0 255
 128.000
FORMM
 255 255 255 255
 128.000
HKLPM
 255 255 255 255
 128.000
