o-B14
1.00000000000000
6.20187119548471000  0.00000000000000000  0.00000000000000000
0.00000000000000000  5.70097069475483000  0.00000000000000000
0.00000000000000000  0.00000000000000000  4.04405809607542000
  B
  14
Direct
0.6379577018  0.5000000000  0.5212898849
0.3620422982  0.5000000000  0.4787101151
0.6379577018  0.5000000000  0.9787101151
0.3620422982  0.5000000000  0.0212898849
0.8998683156  0.5000000000  0.5974496621
0.1001316844  0.5000000000  0.4025503379
0.8998683156  0.5000000000  0.9025503379
0.1001316844  0.5000000000  0.0974496621
0.7295793959  0.7915649322  0.7500000000
0.2704206041  0.2084350678  0.2500000000
0.7295793959  0.2084350678  0.7500000000
0.2704206041  0.7915649322  0.2500000000
0.5239930350  0.5000000000  0.2500000000
0.4760069650  0.5000000000  0.7500000000
