       N       E                     dE             d eps       ncg     rms          rms(c)
DAV:   1    -0.947117063977E+02   -0.94712E+02   -0.37733E+01 30282   0.395E+00    0.126E+01
DAV:   2    -0.877425117485E+02    0.69692E+01   -0.10569E+01 38514   0.384E+00    0.700E+00
DAV:   3    -0.855517224033E+02    0.21908E+01   -0.12605E+01 39396   0.250E+00    0.259E+00
DAV:   4    -0.853825721203E+02    0.16915E+00   -0.10191E+00 37170   0.780E-01    0.127E+00
DAV:   5    -0.853144648175E+02    0.68107E-01   -0.81523E-02 40152   0.257E-01    0.380E-01
DAV:   6    -0.853013325095E+02    0.13132E-01   -0.61806E-03 38682   0.796E-02    0.206E-01
DAV:   7    -0.852899374325E+02    0.11395E-01   -0.93334E-03 38598   0.733E-02    0.142E-01
DAV:   8    -0.852918547196E+02   -0.19173E-02   -0.16923E-03 37380   0.300E-02    0.781E-02
DAV:   9    -0.852934753748E+02   -0.16207E-02   -0.39067E-03 37800   0.339E-02    0.544E-02
DAV:  10    -0.852964434821E+02   -0.29681E-02   -0.65669E-04 36120   0.167E-02    0.238E-02
DAV:  11    -0.852979007647E+02   -0.14573E-02   -0.17409E-04 37128   0.102E-02    0.194E-02
DAV:  12    -0.852996838288E+02   -0.17831E-02   -0.26250E-04 36330   0.794E-03    0.119E-02
DAV:  13    -0.853001106161E+02   -0.42679E-03   -0.37751E-05 37800   0.353E-03    0.380E-03
DAV:  14    -0.853005140610E+02   -0.40344E-03   -0.25208E-05 36330   0.199E-03    0.284E-03
DAV:  15    -0.853006258512E+02   -0.11179E-03   -0.69323E-06 37380   0.109E-03    0.147E-03
DAV:  16    -0.853006543661E+02   -0.28515E-04   -0.82588E-07 36708   0.397E-04    0.931E-04
DAV:  17    -0.853006617769E+02   -0.74109E-05   -0.36244E-07 37548   0.289E-04    0.303E-04
DAV:  18    -0.853006635140E+02   -0.17371E-05   -0.28572E-08 36750   0.944E-05    0.126E-04
DAV:  19    -0.853006641409E+02   -0.62693E-06   -0.83998E-09 36540   0.453E-05
   1 F= -.85300664E+02 E0= -.85300214E+02  d E =-.899514E-03
 imaginary and real dielectric function
