unknown system
           1
    11.359992    0.000000    0.000000
     0.000000   12.294223    0.000000
     0.000000    0.000000   30.088118
B H
112 16
Direct
   0.25088848  0.31501897  0.13254749
   0.26741257  0.81534410  0.13181075
   0.75092365  0.31185506  0.13302778
   0.75605821  0.81079344  0.13680328
   0.26293305  0.32067952  0.27242074
   0.26322578  0.83369927  0.27166512
   0.76988108  0.32860652  0.26506457
   0.75506211  0.83060922  0.27210507
   0.23980487  0.16580669  0.12790786
   0.24353770  0.67274378  0.12967749
   0.73074144  0.17139652  0.13150430
   0.73116655  0.67534110  0.13069422
   0.24550124  0.18327434  0.27556843
   0.24263014  0.68947144  0.26683734
   0.74618846  0.18632397  0.27285459
   0.73119836  0.69056214  0.26528035
   0.48135522  0.31497031  0.13420566
   0.48512601  0.81299398  0.13799444
   0.98508913  0.30907170  0.13469359
   0.99165730  0.81043330  0.13601404
   0.48923613  0.32560222  0.25823356
   0.48954537  0.82503034  0.26820021
   0.99366677  0.31789826  0.27201649
   0.98865965  0.82449207  0.27011478
   0.00827818  0.17671493  0.13865322
   0.00804922  0.67059638  0.13711668
   0.50228060  0.17131389  0.13548743
   0.51418924  0.67415139  0.13020748
   0.01858168  0.18593966  0.26334142
   0.00748186  0.68539013  0.26520228
   0.51571780  0.19308777  0.26960806
   0.51118774  0.68740687  0.26293026
   0.29804006  0.44064621  0.12783856
   0.30773327  0.94488357  0.12846448
   0.79371240  0.44195715  0.13070778
   0.79881436  0.94338655  0.12696694
   0.29865828  0.45087218  0.26769479
   0.30685660  0.96161477  0.27394535
   0.80569006  0.45841526  0.27090693
   0.80434709  0.95670666  0.27553793
   0.19712709  0.03940602  0.13159821
   0.19850724  0.54274840  0.13039480
   0.70353434  0.04691849  0.12963020
   0.69665869  0.54514534  0.13007726
   0.20069160  0.05303394  0.27366031
   0.20920004  0.55732663  0.26885234
   0.71252055  0.05745159  0.27804823
   0.69811989  0.55843412  0.26991456
   0.44220981  0.44350855  0.13352955
   0.45523727  0.94124325  0.13542388
   0.94648165  0.44378807  0.13492372
   0.94486166  0.94805372  0.13616041
   0.44542457  0.45568263  0.26079726
   0.45832470  0.95860607  0.26893856
   0.96128932  0.45377847  0.26767634
   0.96015983  0.95516810  0.26930494
   0.04528916  0.04418037  0.13295277
   0.04272806  0.54313811  0.13497313
   0.55177375  0.04131512  0.13530797
   0.54979447  0.54215517  0.13376137
   0.05432655  0.05656889  0.27063163
   0.05469050  0.56132585  0.26812990
   0.55718885  0.05974327  0.27497785
   0.54385283  0.55691311  0.26074863
   0.36657835  0.36247432  0.17120027
   0.37244505  0.86576261  0.17578597
   0.86720783  0.37089883  0.17439531
   0.87142979  0.86667780  0.17497993
   0.38930297  0.37150607  0.30553718
   0.38361516  0.87029637  0.30957730
   0.87454233  0.36269114  0.30992582
   0.88227984  0.87109322  0.31001604
   0.10914329  0.13421578  0.09581372
   0.12075518  0.63098732  0.09373726
   0.61469459  0.13017093  0.09664258
   0.62075717  0.62768112  0.08970363
   0.14513830  0.13859289  0.23129815
   0.12642184  0.64308461  0.22856237
   0.63395141  0.13328942  0.23182267
   0.63068371  0.63535220  0.22540370
   0.37539752  0.35279472  0.09087112
   0.38201074  0.86666181  0.09401364
   0.86325747  0.34598749  0.09494273
   0.87615277  0.84837608  0.09583054
   0.36526667  0.36535471  0.22529783
   0.37492735  0.87550962  0.23044659
   0.87213646  0.38255915  0.22794528
   0.87231461  0.88287238  0.23172036
   0.13924535  0.13238674  0.17381148
   0.13053386  0.61732273  0.17427266
   0.62831685  0.11948566  0.17566765
   0.62373154  0.62686257  0.17052189
   0.11651090  0.13386947  0.31107111
   0.13090433  0.65049130  0.30587090
   0.62182897  0.15169384  0.31027864
   0.60335281  0.63983211  0.30526163
   0.11618673  0.25625933  0.13145617
   0.12460993  0.75204751  0.12756794
   0.61391099  0.25893541  0.12895980
   0.62165875  0.76096406  0.12893740
   0.13200609  0.27284357  0.27719440
   0.12738072  0.76865352  0.26147952
   0.62984267  0.26831718  0.26400619
   0.62213423  0.76853021  0.27094635
   0.37781819  0.22926000  0.12333820
   0.37764992  0.72995629  0.12552207
   0.86899111  0.23165342  0.13387078
   0.87276231  0.73399897  0.14206820
   0.37823209  0.24061423  0.27320544
   0.38189941  0.74474877  0.26664349
   0.87839654  0.24136904  0.27599830
   0.86944106  0.74863858  0.26256502
   0.09255368  0.13425423  0.05866432
   0.12665281  0.64071155  0.05506890
   0.59216490  0.12353943  0.05653774
   0.61633772  0.62919785  0.05120050
   0.38475917  0.36705424  0.05199280
   0.40224463  0.86321909  0.05532406
   0.87600595  0.32086924  0.05683490
   0.88010372  0.83740839  0.05398639
   0.11423733  0.13216346  0.35109739
   0.11820405  0.66434605  0.34433979
   0.63985792  0.18104246  0.34785873
   0.59512585  0.62340832  0.34516957
   0.41010687  0.37510951  0.34393155
   0.40081560  0.84182241  0.34737527
   0.88578314  0.35544634  0.34699741
   0.87741587  0.86326939  0.34930960
