  270  270    1    1
  0.3412730E+02  0.1681933E-08  0.1822305E-08  0.3008812E-08  0.5000000E-15
  1.000000000000000E-004
  CAR 
 SCF                                     
    774      6    528
 
  0.1250000E+00  0.1276323E-14  0.1276756E-14  0.1666667E+00
      1        -18.595234   1.000000
      2        -18.524061   1.000000
      3        -18.521022   1.000000
      4        -18.414402   1.000000
      5        -18.385132   1.000000
      6        -18.368522   1.000000
      7        -18.348603   1.000000
      8        -18.315473   1.000000
      9        -18.312410   1.000000
     10        -18.306185   1.000000
     11        -18.275608   1.000000
     12        -18.253100   1.000000
     13        -18.207547   1.000000
     14        -18.163244   1.000000
     15        -18.143073   1.000000
     16        -18.100573   1.000000
     17        -18.071659   1.000000
     18        -18.048659   1.000000
     19        -17.801264   1.000000
     20        -17.777087   1.000000
     21        -17.766857   1.000000
     22        -17.690429   1.000000
     23        -17.653838   1.000000
     24        -17.628541   1.000000
     25        -17.620132   1.000000
     26        -17.595585   1.000000
     27        -17.585731   1.000000
     28        -17.511216   1.000000
     29        -17.475091   1.000000
     30        -17.468104   1.000000
     31        -17.460314   1.000000
     32        -17.450250   1.000000
     33        -17.330480   1.000000
     34        -17.294366   1.000000
     35        -17.286769   1.000000
     36        -17.161596   1.000000
     37        -14.470249   1.000000
     38        -14.432634   1.000000
     39        -14.423283   1.000000
     40        -14.399833   1.000000
     41        -14.376087   1.000000
     42        -14.341977   1.000000
     43        -14.322189   1.000000
     44        -14.267300   1.000000
     45        -14.235556   1.000000
     46        -14.230610   1.000000
     47        -14.216896   1.000000
     48        -14.212865   1.000000
     49        -14.178241   1.000000
     50        -14.149250   1.000000
     51        -14.134547   1.000000
     52        -14.130137   1.000000
     53        -14.073444   1.000000
     54        -14.060144   1.000000
     55        -14.029616   1.000000
     56        -13.950236   1.000000
     57        -13.920787   1.000000
     58        -13.919321   1.000000
     59        -13.903786   1.000000
     60        -13.903005   1.000000
     61        -13.900140   1.000000
     62        -13.898818   1.000000
     63        -13.868300   1.000000
     64        -13.752960   1.000000
     65        -13.743638   1.000000
     66        -13.733937   1.000000
     67        -13.726987   1.000000
     68        -13.716364   1.000000
     69        -13.661978   1.000000
     70        -13.654268   1.000000
     71        -13.492868   1.000000
     72        -13.491168   1.000000
     73        -12.348260   1.000000
     74        -12.312906   1.000000
     75        -12.125312   1.000000
     76        -12.097922   1.000000
     77        -11.925147   1.000000
     78        -11.807120   1.000000
     79        -11.796683   1.000000
     80        -11.795573   1.000000
     81        -11.795468   1.000000
     82        -11.755377   1.000000
     83        -11.736084   1.000000
     84        -11.699795   1.000000
     85        -11.658164   1.000000
     86        -11.643829   1.000000
     87        -11.641726   1.000000
     88        -11.640785   1.000000
     89        -11.585288   1.000000
     90        -11.577148   1.000000
     91        -11.568506   1.000000
     92        -11.523307   1.000000
     93        -11.522327   1.000000
     94        -11.517504   1.000000
     95        -11.503612   1.000000
     96        -11.484152   1.000000
     97        -11.421269   1.000000
     98        -11.416769   1.000000
     99        -11.410165   1.000000
    100        -11.389581   1.000000
    101        -11.347288   1.000000
    102        -11.338048   1.000000
    103        -11.293119   1.000000
    104        -11.252391   1.000000
    105        -11.190250   1.000000
    106        -11.096475   1.000000
    107        -11.077698   1.000000
    108        -11.027118   1.000000
    109        -11.015764   1.000000
    110        -10.975900   1.000000
    111        -10.854463   1.000000
    112        -10.833312   1.000000
    113        -10.783818   1.000000
    114        -10.778167   1.000000
    115        -10.776895   1.000000
    116        -10.749347   1.000000
    117        -10.612098   1.000000
    118        -10.610504   1.000000
    119        -10.566632   1.000000
    120        -10.538337   1.000000
    121        -10.481915   1.000000
    122        -10.473917   1.000000
    123        -10.388445   1.000000
    124        -10.371809   1.000000
    125        -10.320600   1.000000
    126        -10.320271   1.000000
    127        -10.314583   1.000000
    128        -10.245058   1.000000
    129        -10.230270   1.000000
    130        -10.200447   1.000000
    131        -10.192613   1.000000
    132        -10.166277   1.000000
    133        -10.147763   1.000000
    134        -10.141504   1.000000
    135        -10.124649   1.000000
    136        -10.096755   1.000000
    137        -10.093871   1.000000
    138        -10.091223   1.000000
    139        -10.089058   1.000000
    140        -10.085113   1.000000
    141        -10.019783   1.000000
    142         -9.937640   1.000000
    143         -9.937176   1.000000
    144         -9.913454   1.000000
    145         -9.910285   1.000000
    146         -9.872708   1.000000
    147         -9.864099   1.000000
    148         -9.860815   1.000000
    149         -9.794159   1.000000
    150         -9.694829   1.000000
    151         -9.617413   1.000000
    152         -9.382042   1.000000
    153         -9.277016   1.000000
    154         -9.222320   1.000000
    155         -9.179915   1.000000
    156         -9.106748   1.000000
    157         -9.092722   1.000000
    158         -9.074956   1.000000
    159         -9.021683   1.000000
    160         -8.976796   1.000000
    161         -8.964504   1.000000
    162         -8.901737   1.000000
    163         -8.885780   1.000000
    164         -8.855893   1.000000
    165         -8.852760   1.000000
    166         -8.848499   1.000000
    167         -8.838363   1.000000
    168         -8.837469   1.000000
    169         -8.829361   1.000000
    170         -8.765328   1.000000
    171         -8.702640   1.000000
    172         -8.696930   1.000000
    173         -8.631616   1.000000
    174         -8.559414   1.000000
    175         -8.492171   1.000000
    176         -8.487467   1.000000
    177         -8.389650   1.000000
    178         -8.372638   1.000000
    179         -8.322484   1.000000
    180         -8.315261   1.000000
    181         -8.290654   1.000000
    182         -8.257874   1.000000
    183         -8.202145   1.000000
    184         -8.189267   1.000000
    185         -8.144461   1.000000
    186         -8.122433   1.000000
    187         -8.121135   1.000000
    188         -8.078954   1.000000
    189         -8.077828   1.000000
    190         -8.063488   1.000000
    191         -8.031782   1.000000
    192         -8.030415   1.000000
    193         -8.006952   1.000000
    194         -7.979572   1.000000
    195         -7.978704   1.000000
    196         -7.932896   1.000000
    197         -7.913584   1.000000
    198         -7.857582   1.000000
    199         -7.810535   1.000000
    200         -7.804161   1.000000
    201         -7.798693   1.000000
    202         -7.783895   1.000000
    203         -7.772237   1.000000
    204         -7.764136   1.000000
    205         -7.717969   1.000000
    206         -7.685853   1.000000
    207         -7.594804   1.000000
    208         -7.585912   1.000000
    209         -7.546249   1.000000
    210         -7.534622   1.000000
    211         -7.472954   1.000000
    212         -7.423856   1.000000
    213         -7.415371   1.000000
    214         -7.309321   1.000000
    215         -7.297772   1.000000
    216         -7.219301   1.000000
    217         -7.179366   1.000000
    218         -7.159019   1.000000
    219         -7.146170   1.000000
    220         -7.132471   1.000000
    221         -7.130944   1.000000
    222         -7.106039   1.000000
    223         -7.090070   1.000000
    224         -7.088881   1.000000
    225         -7.080938   1.000000
    226         -7.076545   1.000000
    227         -7.068135   1.000000
    228         -7.020029   1.000000
    229         -7.014921   1.000000
    230         -6.979737   1.000000
    231         -6.955387   1.000000
    232         -6.914346   1.000000
    233         -6.909996   1.000000
    234         -6.909071   1.000000
    235         -6.864888   1.000000
    236         -6.852809   1.000000
    237         -6.842129   1.000000
    238         -6.833717   1.000000
    239         -6.733125   1.000000
    240         -6.693682   1.000000
    241         -6.682367   1.000000
    242         -6.658441   1.000000
    243         -6.639194   1.000000
    244         -6.629403   1.000000
    245         -6.613421   1.000000
    246         -6.611768   1.000000
    247         -6.573961   1.000000
    248         -6.546406   1.000000
    249         -6.531010   1.000000
    250         -6.528506   1.000000
    251         -6.505361   1.000000
    252         -6.486724   1.000000
    253         -6.475840   1.000000
    254         -6.453965   1.000000
    255         -6.420027   1.000000
    256         -6.327097   1.000000
    257         -6.326679   1.000000
    258         -6.324323   1.000000
    259         -6.316716   1.000000
    260         -6.300657   1.000000
    261         -6.276504   1.000000
    262         -6.249312   1.000000
    263         -6.199867   1.000000
    264         -6.196071   1.000000
    265         -6.178621   1.000000
    266         -6.163127   1.000000
    267         -6.155788   1.000000
    268         -6.151069   1.000000
    269         -6.147186   1.000000
    270         -6.126440   1.000000
    271         -6.123819   1.000000
    272         -6.113687   1.000000
    273         -6.015279   1.000000
    274         -6.012569   1.000000
    275         -5.976587   1.000000
    276         -5.975293   1.000000
    277         -5.963534   1.000000
    278         -5.948232   1.000000
    279         -5.938512   1.000000
    280         -5.900442   1.000000
    281         -5.896704   1.000000
    282         -5.888367   1.000000
    283         -5.865130   1.000000
    284         -5.858161   1.000000
    285         -5.847872   1.000000
    286         -5.839065   1.000000
    287         -5.836032   1.000000
    288         -5.833789   1.000000
    289         -5.825685   1.000000
    290         -5.816620   1.000000
    291         -5.799136   1.000000
    292         -5.784499   1.000000
    293         -5.764736   1.000000
    294         -5.753375   1.000000
    295         -5.715580   1.000000
    296         -5.713391   1.000000
    297         -5.700284   1.000000
    298         -5.698573   1.000000
    299         -5.679783   1.000000
    300         -5.667834   1.000000
    301         -5.580359   1.000000
    302         -5.557334   1.000000
    303         -5.483489   1.000000
    304         -5.480675   1.000000
    305         -5.477130   1.000000
    306         -5.472636   1.000000
    307         -5.450667   1.000000
    308         -5.450207   1.000000
    309         -5.434372   1.000000
    310         -5.378997   1.000000
    311         -5.353879   1.000000
    312         -5.290632   1.000000
    313         -5.278854   1.000000
    314         -5.271965   1.000000
    315         -5.256389   1.000000
    316         -5.214804   1.000000
    317         -5.187664   1.000000
    318         -5.177862   1.000000
    319         -5.101029   1.000000
    320         -5.093461   1.000000
    321         -5.091041   1.000000
    322         -5.074417   1.000000
    323         -5.071680   1.000000
    324         -5.063372   1.000000
    325         -5.051722   1.000000
    326         -5.035014   1.000000
    327         -5.005923   1.000000
    328         -4.993850   1.000000
    329         -4.974506   1.000000
    330         -4.973242   1.000000
    331         -4.954383   1.000000
    332         -4.929314   1.000000
    333         -4.915063   1.000000
    334         -4.913752   1.000000
    335         -4.912298   1.000000
    336         -4.909876   1.000000
    337         -4.896744   1.000000
    338         -4.884714   1.000000
    339         -4.876681   1.000000
    340         -4.851864   1.000000
    341         -4.848198   1.000000
    342         -4.841232   1.000000
    343         -4.804254   1.000000
    344         -4.766881   1.000000
    345         -4.714418   1.000000
    346         -4.686766   1.000000
    347         -4.669531   1.000000
    348         -4.610955   1.000000
    349         -4.604376   1.000000
    350         -4.454064   1.000000
    351         -4.411285   1.000000
    352         -4.399240   1.000000
    353         -4.380034   1.000000
    354         -4.354146   1.000000
    355         -4.345219   1.000000
    356         -4.319447   1.000000
    357         -4.311428   1.000000
    358         -4.273269   1.000000
    359         -4.257651   1.000000
    360         -4.255470   1.000000
    361         -4.244887   1.000000
    362         -4.220679   1.000000
    363         -4.219904   1.000000
    364         -4.217675   1.000000
    365         -4.210771   1.000000
    366         -4.201196   1.000000
    367         -4.194954   1.000000
    368         -4.121864   1.000000
    369         -4.118100   1.000000
    370         -4.091681   1.000000
    371         -4.044112   1.000000
    372         -4.038387   1.000000
    373         -4.029866   1.000000
    374         -4.002487   1.000000
    375         -3.944134   1.000000
    376         -3.928838   1.000000
    377         -3.830620   1.000000
    378         -3.765010   1.000000
    379         -3.743879   1.000000
    380         -3.740452   1.000000
    381         -3.735170   1.000000
    382         -3.728462   1.000000
    383         -3.697624   1.000000
    384         -3.653392   0.999994
    385         -3.527152   0.995042
    386         -3.514099   0.991671
    387         -3.485153   0.976418
    388         -3.450866   0.933184
    389         -3.389793   0.737690
    390         -3.341038   0.478760
    391         -3.280762   0.182549
    392         -3.010129   0.000001
    393         -2.433011   0.000000
    394         -2.323720   0.000000
    395         -2.290892   0.000000
    396         -2.255161   0.000000
    397         -2.246617   0.000000
    398         -2.211189   0.000000
    399         -2.203710   0.000000
    400         -2.167453   0.000000
    401         -2.116410   0.000000
    402         -2.108969   0.000000
    403         -2.050220   0.000000
    404         -1.973811   0.000000
    405         -1.893722   0.000000
    406         -1.661345   0.000000
    407         -1.597522   0.000000
    408         -1.489210   0.000000
    409         -1.482703   0.000000
    410         -1.401848   0.000000
    411         -1.399261   0.000000
    412         -1.274537   0.000000
    413         -1.241802   0.000000
    414         -1.129399   0.000000
    415         -0.895417   0.000000
    416         -0.711148   0.000000
    417         -0.655291   0.000000
    418         -0.637526   0.000000
    419         -0.621016   0.000000
    420         -0.589647   0.000000
    421         -0.456586   0.000000
    422         -0.421714   0.000000
    423         -0.368256   0.000000
    424         -0.362533   0.000000
    425         -0.243828   0.000000
    426         -0.203238   0.000000
    427         -0.182150   0.000000
    428         -0.123101   0.000000
    429         -0.110776   0.000000
    430         -0.045080   0.000000
    431          0.066172   0.000000
    432          0.101229   0.000000
    433          0.158705   0.000000
    434          0.197887   0.000000
    435          0.205782   0.000000
    436          0.206653   0.000000
    437          0.254867   0.000000
    438          0.339906   0.000000
    439          0.414138   0.000000
    440          0.421628   0.000000
    441          0.441325   0.000000
    442          0.448720   0.000000
    443          0.484845   0.000000
    444          0.530276   0.000000
    445          0.554336   0.000000
    446          0.561410   0.000000
    447          0.565489   0.000000
    448          0.567304   0.000000
    449          0.677479   0.000000
    450          0.677841   0.000000
    451          0.709141   0.000000
    452          0.731319   0.000000
    453          0.766938   0.000000
    454          0.819802   0.000000
    455          0.833104   0.000000
    456          0.856555   0.000000
    457          0.861827   0.000000
    458          0.862898   0.000000
    459          0.915265   0.000000
    460          0.926383   0.000000
    461          0.945102   0.000000
    462          0.949364   0.000000
    463          0.951452   0.000000
    464          0.978326   0.000000
    465          1.065420   0.000000
    466          1.100011   0.000000
    467          1.123760   0.000000
    468          1.181032   0.000000
    469          1.210142   0.000000
    470          1.272494   0.000000
    471          1.294867   0.000000
    472          1.324116   0.000000
    473          1.367277   0.000000
    474          1.381164   0.000000
    475          1.404141   0.000000
    476          1.405652   0.000000
    477          1.420984   0.000000
    478          1.429718   0.000000
    479          1.459173   0.000000
    480          1.491949   0.000000
    481          1.492304   0.000000
    482          1.504980   0.000000
    483          1.515822   0.000000
    484          1.548561   0.000000
    485          1.563493   0.000000
    486          1.587007   0.000000
    487          1.588070   0.000000
    488          1.595587   0.000000
    489          1.617890   0.000000
    490          1.620369   0.000000
    491          1.626991   0.000000
    492          1.649970   0.000000
    493          1.660422   0.000000
    494          1.671815   0.000000
    495          1.711860   0.000000
    496          1.728750   0.000000
    497          1.771256   0.000000
    498          1.777097   0.000000
    499          1.786654   0.000000
    500          1.872119   0.000000
    501          1.875300   0.000000
    502          1.893298   0.000000
    503          1.903469   0.000000
    504          1.917089   0.000000
    505          1.945618   0.000000
    506          1.948685   0.000000
    507          2.006215   0.000000
    508          2.079899   0.000000
    509          2.088417   0.000000
    510          2.096500   0.000000
    511          2.118607   0.000000
    512          2.121451   0.000000
    513          2.125213   0.000000
    514          2.149283   0.000000
    515          2.169134   0.000000
    516          2.172410   0.000000
    517          2.179142   0.000000
    518          2.205578   0.000000
    519          2.214331   0.000000
    520          2.238937   0.000000
    521          2.243152   0.000000
    522          2.269179   0.000000
    523          2.303250   0.000000
    524          2.328326   0.000000
    525          2.341322   0.000000
    526          2.355832   0.000000
    527          2.368234   0.000000
    528          2.400338   0.000000
 
  0.3750000E+00  0.1278491E-14  0.1276756E-14  0.1666667E+00
      1        -18.563958   1.000000
      2        -18.502678   1.000000
      3        -18.498314   1.000000
      4        -18.489264   1.000000
      5        -18.445292   1.000000
      6        -18.430452   1.000000
      7        -18.354463   1.000000
      8        -18.294335   1.000000
      9        -18.290356   1.000000
     10        -18.281222   1.000000
     11        -18.238506   1.000000
     12        -18.223521   1.000000
     13        -18.202841   1.000000
     14        -18.188105   1.000000
     15        -18.174114   1.000000
     16        -17.996235   1.000000
     17        -17.983938   1.000000
     18        -17.969194   1.000000
     19        -17.903185   1.000000
     20        -17.887006   1.000000
     21        -17.868730   1.000000
     22        -17.721579   1.000000
     23        -17.705951   1.000000
     24        -17.687096   1.000000
     25        -17.589381   1.000000
     26        -17.557394   1.000000
     27        -17.512582   1.000000
     28        -17.492050   1.000000
     29        -17.490687   1.000000
     30        -17.412543   1.000000
     31        -17.387455   1.000000
     32        -17.381172   1.000000
     33        -17.337694   1.000000
     34        -17.317719   1.000000
     35        -17.316306   1.000000
     36        -17.216564   1.000000
     37        -14.455747   1.000000
     38        -14.402649   1.000000
     39        -14.401257   1.000000
     40        -14.355011   1.000000
     41        -14.347323   1.000000
     42        -14.344095   1.000000
     43        -14.328719   1.000000
     44        -14.292149   1.000000
     45        -14.253874   1.000000
     46        -14.216108   1.000000
     47        -14.214787   1.000000
     48        -14.214103   1.000000
     49        -14.203321   1.000000
     50        -14.168520   1.000000
     51        -14.151370   1.000000
     52        -14.145711   1.000000
     53        -14.145286   1.000000
     54        -14.099817   1.000000
     55        -14.047659   1.000000
     56        -14.034613   1.000000
     57        -14.017457   1.000000
     58        -13.963468   1.000000
     59        -13.900114   1.000000
     60        -13.896342   1.000000
     61        -13.879621   1.000000
     62        -13.779979   1.000000
     63        -13.776529   1.000000
     64        -13.772395   1.000000
     65        -13.730071   1.000000
     66        -13.725409   1.000000
     67        -13.693377   1.000000
     68        -13.685719   1.000000
     69        -13.620093   1.000000
     70        -13.590406   1.000000
     71        -13.529100   1.000000
     72        -13.515794   1.000000
     73        -12.264815   1.000000
     74        -12.185369   1.000000
     75        -12.065642   1.000000
     76        -12.037353   1.000000
     77        -11.998707   1.000000
     78        -11.969900   1.000000
     79        -11.891865   1.000000
     80        -11.840754   1.000000
     81        -11.825882   1.000000
     82        -11.809644   1.000000
     83        -11.777453   1.000000
     84        -11.776024   1.000000
     85        -11.767365   1.000000
     86        -11.755839   1.000000
     87        -11.731222   1.000000
     88        -11.681873   1.000000
     89        -11.595239   1.000000
     90        -11.577337   1.000000
     91        -11.573349   1.000000
     92        -11.513946   1.000000
     93        -11.513013   1.000000
     94        -11.506223   1.000000
     95        -11.492848   1.000000
     96        -11.372629   1.000000
     97        -11.352116   1.000000
     98        -11.337141   1.000000
     99        -11.313890   1.000000
    100        -11.260308   1.000000
    101        -11.222513   1.000000
    102        -11.212113   1.000000
    103        -11.190398   1.000000
    104        -11.187201   1.000000
    105        -11.074312   1.000000
    106        -11.072982   1.000000
    107        -11.052515   1.000000
    108        -11.031134   1.000000
    109        -11.017897   1.000000
    110        -10.980295   1.000000
    111        -10.951782   1.000000
    112        -10.899691   1.000000
    113        -10.895600   1.000000
    114        -10.889588   1.000000
    115        -10.748849   1.000000
    116        -10.746127   1.000000
    117        -10.702033   1.000000
    118        -10.693422   1.000000
    119        -10.679616   1.000000
    120        -10.619146   1.000000
    121        -10.580888   1.000000
    122        -10.527965   1.000000
    123        -10.502534   1.000000
    124        -10.468481   1.000000
    125        -10.460012   1.000000
    126        -10.384366   1.000000
    127        -10.374008   1.000000
    128        -10.335069   1.000000
    129        -10.319016   1.000000
    130        -10.282573   1.000000
    131        -10.269519   1.000000
    132        -10.255928   1.000000
    133        -10.201020   1.000000
    134        -10.195660   1.000000
    135        -10.106737   1.000000
    136        -10.105915   1.000000
    137         -9.987591   1.000000
    138         -9.985275   1.000000
    139         -9.943985   1.000000
    140         -9.908925   1.000000
    141         -9.852855   1.000000
    142         -9.794863   1.000000
    143         -9.728893   1.000000
    144         -9.685795   1.000000
    145         -9.638294   1.000000
    146         -9.624303   1.000000
    147         -9.594833   1.000000
    148         -9.572233   1.000000
    149         -9.480196   1.000000
    150         -9.438117   1.000000
    151         -9.413703   1.000000
    152         -9.378871   1.000000
    153         -9.371380   1.000000
    154         -9.354670   1.000000
    155         -9.348101   1.000000
    156         -9.325594   1.000000
    157         -9.312838   1.000000
    158         -9.281013   1.000000
    159         -9.206762   1.000000
    160         -9.073227   1.000000
    161         -9.023042   1.000000
    162         -8.983296   1.000000
    163         -8.950840   1.000000
    164         -8.930108   1.000000
    165         -8.899242   1.000000
    166         -8.876149   1.000000
    167         -8.841932   1.000000
    168         -8.826552   1.000000
    169         -8.804410   1.000000
    170         -8.774009   1.000000
    171         -8.734108   1.000000
    172         -8.729639   1.000000
    173         -8.662828   1.000000
    174         -8.662748   1.000000
    175         -8.637170   1.000000
    176         -8.607332   1.000000
    177         -8.581443   1.000000
    178         -8.511382   1.000000
    179         -8.493977   1.000000
    180         -8.482065   1.000000
    181         -8.405230   1.000000
    182         -8.270943   1.000000
    183         -8.263643   1.000000
    184         -8.220587   1.000000
    185         -8.176474   1.000000
    186         -8.147011   1.000000
    187         -8.126842   1.000000
    188         -8.126499   1.000000
    189         -8.066524   1.000000
    190         -8.049294   1.000000
    191         -8.044025   1.000000
    192         -8.008273   1.000000
    193         -7.923930   1.000000
    194         -7.915275   1.000000
    195         -7.878440   1.000000
    196         -7.812109   1.000000
    197         -7.810127   1.000000
    198         -7.792743   1.000000
    199         -7.791360   1.000000
    200         -7.782692   1.000000
    201         -7.732772   1.000000
    202         -7.690757   1.000000
    203         -7.605889   1.000000
    204         -7.570686   1.000000
    205         -7.566902   1.000000
    206         -7.551808   1.000000
    207         -7.496352   1.000000
    208         -7.477839   1.000000
    209         -7.474682   1.000000
    210         -7.414918   1.000000
    211         -7.407577   1.000000
    212         -7.329296   1.000000
    213         -7.290857   1.000000
    214         -7.288597   1.000000
    215         -7.266062   1.000000
    216         -7.258954   1.000000
    217         -7.242531   1.000000
    218         -7.230194   1.000000
    219         -7.198464   1.000000
    220         -7.194437   1.000000
    221         -7.157166   1.000000
    222         -7.156407   1.000000
    223         -7.120237   1.000000
    224         -7.087280   1.000000
    225         -7.081019   1.000000
    226         -7.060746   1.000000
    227         -7.032517   1.000000
    228         -7.021046   1.000000
    229         -6.995648   1.000000
    230         -6.970387   1.000000
    231         -6.948595   1.000000
    232         -6.921723   1.000000
    233         -6.916731   1.000000
    234         -6.912888   1.000000
    235         -6.882801   1.000000
    236         -6.846808   1.000000
    237         -6.828402   1.000000
    238         -6.774088   1.000000
    239         -6.753845   1.000000
    240         -6.749809   1.000000
    241         -6.741407   1.000000
    242         -6.714293   1.000000
    243         -6.688317   1.000000
    244         -6.659617   1.000000
    245         -6.626041   1.000000
    246         -6.622428   1.000000
    247         -6.620356   1.000000
    248         -6.610836   1.000000
    249         -6.577879   1.000000
    250         -6.559477   1.000000
    251         -6.516206   1.000000
    252         -6.489691   1.000000
    253         -6.473848   1.000000
    254         -6.454528   1.000000
    255         -6.453100   1.000000
    256         -6.453005   1.000000
    257         -6.438977   1.000000
    258         -6.386295   1.000000
    259         -6.352199   1.000000
    260         -6.342274   1.000000
    261         -6.338690   1.000000
    262         -6.327960   1.000000
    263         -6.308318   1.000000
    264         -6.268741   1.000000
    265         -6.250103   1.000000
    266         -6.223331   1.000000
    267         -6.210911   1.000000
    268         -6.190075   1.000000
    269         -6.175211   1.000000
    270         -6.166510   1.000000
    271         -6.124547   1.000000
    272         -6.101451   1.000000
    273         -6.094309   1.000000
    274         -6.089135   1.000000
    275         -6.038839   1.000000
    276         -5.932404   1.000000
    277         -5.914388   1.000000
    278         -5.884740   1.000000
    279         -5.881056   1.000000
    280         -5.835556   1.000000
    281         -5.831562   1.000000
    282         -5.825798   1.000000
    283         -5.817614   1.000000
    284         -5.793208   1.000000
    285         -5.788470   1.000000
    286         -5.784647   1.000000
    287         -5.768866   1.000000
    288         -5.758232   1.000000
    289         -5.724618   1.000000
    290         -5.697127   1.000000
    291         -5.667012   1.000000
    292         -5.642119   1.000000
    293         -5.638991   1.000000
    294         -5.627543   1.000000
    295         -5.618949   1.000000
    296         -5.617089   1.000000
    297         -5.604912   1.000000
    298         -5.565007   1.000000
    299         -5.562020   1.000000
    300         -5.544162   1.000000
    301         -5.532895   1.000000
    302         -5.530749   1.000000
    303         -5.507101   1.000000
    304         -5.503609   1.000000
    305         -5.492217   1.000000
    306         -5.466677   1.000000
    307         -5.441624   1.000000
    308         -5.418823   1.000000
    309         -5.354666   1.000000
    310         -5.352770   1.000000
    311         -5.304828   1.000000
    312         -5.296553   1.000000
    313         -5.284672   1.000000
    314         -5.271721   1.000000
    315         -5.267254   1.000000
    316         -5.266130   1.000000
    317         -5.242702   1.000000
    318         -5.226091   1.000000
    319         -5.220098   1.000000
    320         -5.208952   1.000000
    321         -5.164555   1.000000
    322         -5.124017   1.000000
    323         -5.118250   1.000000
    324         -5.110443   1.000000
    325         -5.075849   1.000000
    326         -5.043887   1.000000
    327         -5.040853   1.000000
    328         -5.025776   1.000000
    329         -5.013731   1.000000
    330         -4.971521   1.000000
    331         -4.946933   1.000000
    332         -4.933545   1.000000
    333         -4.926004   1.000000
    334         -4.922877   1.000000
    335         -4.906563   1.000000
    336         -4.895764   1.000000
    337         -4.880795   1.000000
    338         -4.833624   1.000000
    339         -4.824226   1.000000
    340         -4.818083   1.000000
    341         -4.800158   1.000000
    342         -4.799583   1.000000
    343         -4.777881   1.000000
    344         -4.749182   1.000000
    345         -4.738265   1.000000
    346         -4.723755   1.000000
    347         -4.711090   1.000000
    348         -4.680280   1.000000
    349         -4.666394   1.000000
    350         -4.586874   1.000000
    351         -4.527064   1.000000
    352         -4.524510   1.000000
    353         -4.510279   1.000000
    354         -4.471455   1.000000
    355         -4.419749   1.000000
    356         -4.417536   1.000000
    357         -4.393934   1.000000
    358         -4.380556   1.000000
    359         -4.334419   1.000000
    360         -4.330465   1.000000
    361         -4.311975   1.000000
    362         -4.294718   1.000000
    363         -4.280487   1.000000
    364         -4.275790   1.000000
    365         -4.227018   1.000000
    366         -4.219825   1.000000
    367         -4.214549   1.000000
    368         -4.185875   1.000000
    369         -4.158413   1.000000
    370         -4.127558   1.000000
    371         -4.123238   1.000000
    372         -4.113924   1.000000
    373         -4.046322   1.000000
    374         -4.018321   1.000000
    375         -3.907775   1.000000
    376         -3.897235   1.000000
    377         -3.839892   1.000000
    378         -3.783619   1.000000
    379         -3.777522   1.000000
    380         -3.774729   1.000000
    381         -3.693025   1.000000
    382         -3.637707   0.999983
    383         -3.554917   0.998518
    384         -3.552189   0.998321
    385         -3.542646   0.997428
    386         -3.397333   0.771219
    387         -3.299809   0.262279
    388         -3.183692   0.011349
    389         -3.113242   0.000529
    390         -2.921548   0.000000
    391         -2.901645   0.000000
    392         -2.733309   0.000000
    393         -2.695281   0.000000
    394         -2.481111   0.000000
    395         -2.401204   0.000000
    396         -2.289622   0.000000
    397         -2.269348   0.000000
    398         -2.256651   0.000000
    399         -2.197705   0.000000
    400         -2.182523   0.000000
    401         -2.146544   0.000000
    402         -2.139331   0.000000
    403         -2.127538   0.000000
    404         -2.090120   0.000000
    405         -2.088305   0.000000
    406         -1.654410   0.000000
    407         -1.586104   0.000000
    408         -1.527880   0.000000
    409         -1.484369   0.000000
    410         -1.363336   0.000000
    411         -1.328002   0.000000
    412         -1.301071   0.000000
    413         -1.267812   0.000000
    414         -1.201389   0.000000
    415         -0.895049   0.000000
    416         -0.855654   0.000000
    417         -0.771171   0.000000
    418         -0.694509   0.000000
    419         -0.668479   0.000000
    420         -0.661868   0.000000
    421         -0.567208   0.000000
    422         -0.507171   0.000000
    423         -0.205465   0.000000
    424         -0.151576   0.000000
    425         -0.105042   0.000000
    426         -0.097701   0.000000
    427         -0.058927   0.000000
    428         -0.046979   0.000000
    429         -0.041215   0.000000
    430         -0.026447   0.000000
    431          0.149836   0.000000
    432          0.162855   0.000000
    433          0.196017   0.000000
    434          0.219705   0.000000
    435          0.308986   0.000000
    436          0.309583   0.000000
    437          0.340501   0.000000
    438          0.341380   0.000000
    439          0.346340   0.000000
    440          0.354688   0.000000
    441          0.357390   0.000000
    442          0.405102   0.000000
    443          0.533239   0.000000
    444          0.539302   0.000000
    445          0.553682   0.000000
    446          0.616745   0.000000
    447          0.638918   0.000000
    448          0.647221   0.000000
    449          0.661705   0.000000
    450          0.678658   0.000000
    451          0.681046   0.000000
    452          0.691723   0.000000
    453          0.714915   0.000000
    454          0.739772   0.000000
    455          0.784629   0.000000
    456          0.819058   0.000000
    457          0.838093   0.000000
    458          0.853071   0.000000
    459          0.889783   0.000000
    460          0.901097   0.000000
    461          0.918763   0.000000
    462          0.972396   0.000000
    463          1.027463   0.000000
    464          1.059237   0.000000
    465          1.065914   0.000000
    466          1.075852   0.000000
    467          1.103341   0.000000
    468          1.138178   0.000000
    469          1.213481   0.000000
    470          1.225181   0.000000
    471          1.239871   0.000000
    472          1.242983   0.000000
    473          1.268520   0.000000
    474          1.321891   0.000000
    475          1.342958   0.000000
    476          1.367496   0.000000
    477          1.371068   0.000000
    478          1.425248   0.000000
    479          1.451341   0.000000
    480          1.466094   0.000000
    481          1.468545   0.000000
    482          1.515716   0.000000
    483          1.523757   0.000000
    484          1.534366   0.000000
    485          1.555343   0.000000
    486          1.565592   0.000000
    487          1.575284   0.000000
    488          1.593562   0.000000
    489          1.605054   0.000000
    490          1.672964   0.000000
    491          1.676649   0.000000
    492          1.687828   0.000000
    493          1.692794   0.000000
    494          1.693008   0.000000
    495          1.699476   0.000000
    496          1.725117   0.000000
    497          1.725656   0.000000
    498          1.791907   0.000000
    499          1.903504   0.000000
    500          1.914196   0.000000
    501          1.918258   0.000000
    502          1.946705   0.000000
    503          1.968596   0.000000
    504          1.968900   0.000000
    505          1.971422   0.000000
    506          2.012188   0.000000
    507          2.016653   0.000000
    508          2.062793   0.000000
    509          2.092177   0.000000
    510          2.099125   0.000000
    511          2.104997   0.000000
    512          2.118001   0.000000
    513          2.119832   0.000000
    514          2.125978   0.000000
    515          2.128838   0.000000
    516          2.156311   0.000000
    517          2.167272   0.000000
    518          2.171291   0.000000
    519          2.210396   0.000000
    520          2.242777   0.000000
    521          2.245094   0.000000
    522          2.268241   0.000000
    523          2.299605   0.000000
    524          2.315421   0.000000
    525          2.333731   0.000000
    526          2.358995   0.000000
    527          2.384053   0.000000
    528          2.400287   0.000000
 
  0.1250000E+00  0.3333333E+00  0.1276756E-14  0.1666667E+00
      1        -18.583853   1.000000
      2        -18.558526   1.000000
      3        -18.497435   1.000000
      4        -18.412456   1.000000
      5        -18.374404   1.000000
      6        -18.373885   1.000000
      7        -18.349241   1.000000
      8        -18.344733   1.000000
      9        -18.295440   1.000000
     10        -18.292576   1.000000
     11        -18.289289   1.000000
     12        -18.246854   1.000000
     13        -18.205889   1.000000
     14        -18.168115   1.000000
     15        -18.139867   1.000000
     16        -18.090818   1.000000
     17        -18.086986   1.000000
     18        -18.043043   1.000000
     19        -17.793746   1.000000
     20        -17.789489   1.000000
     21        -17.762045   1.000000
     22        -17.679435   1.000000
     23        -17.671019   1.000000
     24        -17.622370   1.000000
     25        -17.612658   1.000000
     26        -17.608051   1.000000
     27        -17.580793   1.000000
     28        -17.507487   1.000000
     29        -17.500253   1.000000
     30        -17.492129   1.000000
     31        -17.444181   1.000000
     32        -17.398426   1.000000
     33        -17.353517   1.000000
     34        -17.332428   1.000000
     35        -17.227031   1.000000
     36        -17.183794   1.000000
     37        -14.493179   1.000000
     38        -14.463475   1.000000
     39        -14.365752   1.000000
     40        -14.359435   1.000000
     41        -14.341656   1.000000
     42        -14.332502   1.000000
     43        -14.314727   1.000000
     44        -14.294398   1.000000
     45        -14.293529   1.000000
     46        -14.269714   1.000000
     47        -14.184194   1.000000
     48        -14.169191   1.000000
     49        -14.165035   1.000000
     50        -14.159144   1.000000
     51        -14.132018   1.000000
     52        -14.128026   1.000000
     53        -14.126198   1.000000
     54        -14.095750   1.000000
     55        -14.010009   1.000000
     56        -13.991383   1.000000
     57        -13.956232   1.000000
     58        -13.937898   1.000000
     59        -13.916436   1.000000
     60        -13.879294   1.000000
     61        -13.877458   1.000000
     62        -13.863316   1.000000
     63        -13.825490   1.000000
     64        -13.780261   1.000000
     65        -13.774407   1.000000
     66        -13.728527   1.000000
     67        -13.719214   1.000000
     68        -13.704953   1.000000
     69        -13.676012   1.000000
     70        -13.610745   1.000000
     71        -13.556134   1.000000
     72        -13.391616   1.000000
     73        -12.512784   1.000000
     74        -12.295269   1.000000
     75        -12.086332   1.000000
     76        -11.907873   1.000000
     77        -11.867342   1.000000
     78        -11.853946   1.000000
     79        -11.850197   1.000000
     80        -11.847124   1.000000
     81        -11.818057   1.000000
     82        -11.754194   1.000000
     83        -11.737701   1.000000
     84        -11.730779   1.000000
     85        -11.717589   1.000000
     86        -11.677790   1.000000
     87        -11.615245   1.000000
     88        -11.595369   1.000000
     89        -11.594972   1.000000
     90        -11.589887   1.000000
     91        -11.566866   1.000000
     92        -11.561624   1.000000
     93        -11.552965   1.000000
     94        -11.530033   1.000000
     95        -11.520045   1.000000
     96        -11.508477   1.000000
     97        -11.491872   1.000000
     98        -11.478960   1.000000
     99        -11.434478   1.000000
    100        -11.267709   1.000000
    101        -11.228393   1.000000
    102        -11.216773   1.000000
    103        -11.187465   1.000000
    104        -11.184014   1.000000
    105        -11.129774   1.000000
    106        -11.087951   1.000000
    107        -11.036772   1.000000
    108        -10.991388   1.000000
    109        -10.921802   1.000000
    110        -10.905016   1.000000
    111        -10.882066   1.000000
    112        -10.810742   1.000000
    113        -10.810511   1.000000
    114        -10.799831   1.000000
    115        -10.746145   1.000000
    116        -10.725135   1.000000
    117        -10.695725   1.000000
    118        -10.662556   1.000000
    119        -10.647192   1.000000
    120        -10.641325   1.000000
    121        -10.618819   1.000000
    122        -10.566905   1.000000
    123        -10.541701   1.000000
    124        -10.522057   1.000000
    125        -10.424071   1.000000
    126        -10.410156   1.000000
    127        -10.378347   1.000000
    128        -10.318387   1.000000
    129        -10.292926   1.000000
    130        -10.273086   1.000000
    131        -10.241942   1.000000
    132        -10.211882   1.000000
    133        -10.120184   1.000000
    134        -10.112119   1.000000
    135        -10.077109   1.000000
    136        -10.066930   1.000000
    137        -10.060617   1.000000
    138        -10.058668   1.000000
    139         -9.999147   1.000000
    140         -9.972185   1.000000
    141         -9.915502   1.000000
    142         -9.908131   1.000000
    143         -9.877788   1.000000
    144         -9.866746   1.000000
    145         -9.808983   1.000000
    146         -9.731051   1.000000
    147         -9.715658   1.000000
    148         -9.636909   1.000000
    149         -9.590015   1.000000
    150         -9.573595   1.000000
    151         -9.544686   1.000000
    152         -9.454463   1.000000
    153         -9.440468   1.000000
    154         -9.428267   1.000000
    155         -9.312941   1.000000
    156         -9.242073   1.000000
    157         -9.156879   1.000000
    158         -9.141073   1.000000
    159         -9.118701   1.000000
    160         -9.018990   1.000000
    161         -8.975220   1.000000
    162         -8.951141   1.000000
    163         -8.941219   1.000000
    164         -8.897383   1.000000
    165         -8.884192   1.000000
    166         -8.876065   1.000000
    167         -8.759983   1.000000
    168         -8.759159   1.000000
    169         -8.725526   1.000000
    170         -8.693103   1.000000
    171         -8.686648   1.000000
    172         -8.652399   1.000000
    173         -8.627552   1.000000
    174         -8.525845   1.000000
    175         -8.455279   1.000000
    176         -8.445539   1.000000
    177         -8.434319   1.000000
    178         -8.423482   1.000000
    179         -8.303941   1.000000
    180         -8.283610   1.000000
    181         -8.244545   1.000000
    182         -8.226683   1.000000
    183         -8.210207   1.000000
    184         -8.206683   1.000000
    185         -8.188053   1.000000
    186         -8.169475   1.000000
    187         -8.153556   1.000000
    188         -8.150623   1.000000
    189         -8.109041   1.000000
    190         -8.058512   1.000000
    191         -8.031499   1.000000
    192         -7.991301   1.000000
    193         -7.979421   1.000000
    194         -7.927451   1.000000
    195         -7.911406   1.000000
    196         -7.908563   1.000000
    197         -7.902296   1.000000
    198         -7.864213   1.000000
    199         -7.835095   1.000000
    200         -7.822320   1.000000
    201         -7.793792   1.000000
    202         -7.780710   1.000000
    203         -7.757243   1.000000
    204         -7.707427   1.000000
    205         -7.684393   1.000000
    206         -7.662065   1.000000
    207         -7.575200   1.000000
    208         -7.568054   1.000000
    209         -7.523563   1.000000
    210         -7.473125   1.000000
    211         -7.441841   1.000000
    212         -7.435460   1.000000
    213         -7.394814   1.000000
    214         -7.333172   1.000000
    215         -7.320049   1.000000
    216         -7.256832   1.000000
    217         -7.193533   1.000000
    218         -7.182161   1.000000
    219         -7.176937   1.000000
    220         -7.161208   1.000000
    221         -7.142176   1.000000
    222         -7.141752   1.000000
    223         -7.138486   1.000000
    224         -7.131919   1.000000
    225         -7.119603   1.000000
    226         -7.091096   1.000000
    227         -7.051496   1.000000
    228         -7.031528   1.000000
    229         -7.025182   1.000000
    230         -6.985931   1.000000
    231         -6.922512   1.000000
    232         -6.889021   1.000000
    233         -6.886764   1.000000
    234         -6.881392   1.000000
    235         -6.867131   1.000000
    236         -6.866456   1.000000
    237         -6.836988   1.000000
    238         -6.826042   1.000000
    239         -6.789523   1.000000
    240         -6.779411   1.000000
    241         -6.721080   1.000000
    242         -6.696169   1.000000
    243         -6.668311   1.000000
    244         -6.663426   1.000000
    245         -6.657526   1.000000
    246         -6.650509   1.000000
    247         -6.621190   1.000000
    248         -6.599998   1.000000
    249         -6.503571   1.000000
    250         -6.460079   1.000000
    251         -6.459957   1.000000
    252         -6.438948   1.000000
    253         -6.429910   1.000000
    254         -6.423864   1.000000
    255         -6.410141   1.000000
    256         -6.407640   1.000000
    257         -6.371450   1.000000
    258         -6.321376   1.000000
    259         -6.309533   1.000000
    260         -6.302899   1.000000
    261         -6.299438   1.000000
    262         -6.290776   1.000000
    263         -6.246473   1.000000
    264         -6.194573   1.000000
    265         -6.185635   1.000000
    266         -6.181006   1.000000
    267         -6.180435   1.000000
    268         -6.154891   1.000000
    269         -6.153733   1.000000
    270         -6.149942   1.000000
    271         -6.127497   1.000000
    272         -6.046173   1.000000
    273         -6.041203   1.000000
    274         -6.027688   1.000000
    275         -5.996106   1.000000
    276         -5.978727   1.000000
    277         -5.959269   1.000000
    278         -5.958059   1.000000
    279         -5.942650   1.000000
    280         -5.937372   1.000000
    281         -5.930417   1.000000
    282         -5.886259   1.000000
    283         -5.883844   1.000000
    284         -5.862939   1.000000
    285         -5.837880   1.000000
    286         -5.835055   1.000000
    287         -5.821963   1.000000
    288         -5.812755   1.000000
    289         -5.782812   1.000000
    290         -5.773472   1.000000
    291         -5.764008   1.000000
    292         -5.743373   1.000000
    293         -5.726617   1.000000
    294         -5.695466   1.000000
    295         -5.661203   1.000000
    296         -5.622006   1.000000
    297         -5.619762   1.000000
    298         -5.610663   1.000000
    299         -5.591986   1.000000
    300         -5.570891   1.000000
    301         -5.552931   1.000000
    302         -5.533308   1.000000
    303         -5.473689   1.000000
    304         -5.465230   1.000000
    305         -5.442223   1.000000
    306         -5.440921   1.000000
    307         -5.394252   1.000000
    308         -5.364483   1.000000
    309         -5.310384   1.000000
    310         -5.298341   1.000000
    311         -5.281350   1.000000
    312         -5.279808   1.000000
    313         -5.273427   1.000000
    314         -5.233418   1.000000
    315         -5.219652   1.000000
    316         -5.218102   1.000000
    317         -5.200210   1.000000
    318         -5.177317   1.000000
    319         -5.176493   1.000000
    320         -5.175064   1.000000
    321         -5.155214   1.000000
    322         -5.127841   1.000000
    323         -5.098819   1.000000
    324         -5.097017   1.000000
    325         -5.090531   1.000000
    326         -5.085306   1.000000
    327         -5.018794   1.000000
    328         -4.950758   1.000000
    329         -4.949614   1.000000
    330         -4.944743   1.000000
    331         -4.936061   1.000000
    332         -4.935686   1.000000
    333         -4.933489   1.000000
    334         -4.933349   1.000000
    335         -4.932116   1.000000
    336         -4.931365   1.000000
    337         -4.889555   1.000000
    338         -4.883337   1.000000
    339         -4.846048   1.000000
    340         -4.821092   1.000000
    341         -4.816175   1.000000
    342         -4.800953   1.000000
    343         -4.789308   1.000000
    344         -4.786750   1.000000
    345         -4.779533   1.000000
    346         -4.735520   1.000000
    347         -4.659314   1.000000
    348         -4.629144   1.000000
    349         -4.588354   1.000000
    350         -4.567331   1.000000
    351         -4.543053   1.000000
    352         -4.538222   1.000000
    353         -4.537786   1.000000
    354         -4.535114   1.000000
    355         -4.419740   1.000000
    356         -4.406247   1.000000
    357         -4.383517   1.000000
    358         -4.336296   1.000000
    359         -4.329124   1.000000
    360         -4.308245   1.000000
    361         -4.298285   1.000000
    362         -4.291958   1.000000
    363         -4.245763   1.000000
    364         -4.237561   1.000000
    365         -4.184458   1.000000
    366         -4.171094   1.000000
    367         -4.166776   1.000000
    368         -4.139977   1.000000
    369         -4.130953   1.000000
    370         -4.109537   1.000000
    371         -4.103695   1.000000
    372         -4.028953   1.000000
    373         -3.986966   1.000000
    374         -3.823670   1.000000
    375         -3.810027   1.000000
    376         -3.808795   1.000000
    377         -3.796249   1.000000
    378         -3.792749   1.000000
    379         -3.788859   1.000000
    380         -3.707175   1.000000
    381         -3.687461   0.999999
    382         -3.683713   0.999999
    383         -3.634082   0.999979
    384         -3.552566   0.998349
    385         -3.506054   0.988709
    386         -3.491959   0.981287
    387         -3.473574   0.965702
    388         -3.452751   0.936569
    389         -3.410713   0.824354
    390         -3.246573   0.082385
    391         -3.176513   0.008656
    392         -2.799806   0.000000
    393         -2.748632   0.000000
    394         -2.384875   0.000000
    395         -2.273430   0.000000
    396         -2.267381   0.000000
    397         -2.255131   0.000000
    398         -2.209744   0.000000
    399         -2.198484   0.000000
    400         -2.171767   0.000000
    401         -2.134268   0.000000
    402         -2.108321   0.000000
    403         -2.062743   0.000000
    404         -2.038574   0.000000
    405         -1.723935   0.000000
    406         -1.651239   0.000000
    407         -1.557059   0.000000
    408         -1.541468   0.000000
    409         -1.484653   0.000000
    410         -1.442195   0.000000
    411         -1.354060   0.000000
    412         -1.306136   0.000000
    413         -1.169804   0.000000
    414         -1.153734   0.000000
    415         -0.831458   0.000000
    416         -0.757396   0.000000
    417         -0.694058   0.000000
    418         -0.645638   0.000000
    419         -0.602197   0.000000
    420         -0.581503   0.000000
    421         -0.460707   0.000000
    422         -0.436547   0.000000
    423         -0.384541   0.000000
    424         -0.359706   0.000000
    425         -0.347305   0.000000
    426         -0.316128   0.000000
    427         -0.161708   0.000000
    428         -0.124314   0.000000
    429         -0.081398   0.000000
    430          0.009467   0.000000
    431          0.065776   0.000000
    432          0.066674   0.000000
    433          0.076167   0.000000
    434          0.170292   0.000000
    435          0.303215   0.000000
    436          0.306680   0.000000
    437          0.333505   0.000000
    438          0.400638   0.000000
    439          0.409436   0.000000
    440          0.430584   0.000000
    441          0.482180   0.000000
    442          0.496705   0.000000
    443          0.499332   0.000000
    444          0.507981   0.000000
    445          0.522705   0.000000
    446          0.525774   0.000000
    447          0.567932   0.000000
    448          0.578245   0.000000
    449          0.607617   0.000000
    450          0.626071   0.000000
    451          0.679450   0.000000
    452          0.685116   0.000000
    453          0.748050   0.000000
    454          0.758382   0.000000
    455          0.799174   0.000000
    456          0.818314   0.000000
    457          0.835698   0.000000
    458          0.870495   0.000000
    459          0.892607   0.000000
    460          0.920115   0.000000
    461          0.942405   0.000000
    462          0.996987   0.000000
    463          1.066241   0.000000
    464          1.069297   0.000000
    465          1.084007   0.000000
    466          1.107637   0.000000
    467          1.171604   0.000000
    468          1.213185   0.000000
    469          1.246525   0.000000
    470          1.282286   0.000000
    471          1.330954   0.000000
    472          1.336202   0.000000
    473          1.349827   0.000000
    474          1.385383   0.000000
    475          1.401646   0.000000
    476          1.419345   0.000000
    477          1.431158   0.000000
    478          1.436931   0.000000
    479          1.455095   0.000000
    480          1.458266   0.000000
    481          1.500603   0.000000
    482          1.505791   0.000000
    483          1.509038   0.000000
    484          1.520964   0.000000
    485          1.523790   0.000000
    486          1.529221   0.000000
    487          1.547114   0.000000
    488          1.587067   0.000000
    489          1.589094   0.000000
    490          1.615087   0.000000
    491          1.633128   0.000000
    492          1.663675   0.000000
    493          1.664724   0.000000
    494          1.665776   0.000000
    495          1.678352   0.000000
    496          1.693866   0.000000
    497          1.753475   0.000000
    498          1.797460   0.000000
    499          1.798928   0.000000
    500          1.841706   0.000000
    501          1.845718   0.000000
    502          1.878222   0.000000
    503          1.965103   0.000000
    504          1.985178   0.000000
    505          2.032754   0.000000
    506          2.038169   0.000000
    507          2.043313   0.000000
    508          2.046203   0.000000
    509          2.047176   0.000000
    510          2.054481   0.000000
    511          2.093036   0.000000
    512          2.117801   0.000000
    513          2.130071   0.000000
    514          2.140077   0.000000
    515          2.143432   0.000000
    516          2.158256   0.000000
    517          2.164587   0.000000
    518          2.166890   0.000000
    519          2.207613   0.000000
    520          2.223482   0.000000
    521          2.229592   0.000000
    522          2.281456   0.000000
    523          2.287483   0.000000
    524          2.288997   0.000000
    525          2.320550   0.000000
    526          2.352902   0.000000
    527          2.366846   0.000000
    528          2.449607   0.000000
 
  0.3750000E+00  0.3333333E+00  0.1276756E-14  0.1666667E+00
      1        -18.551062   1.000000
      2        -18.531607   1.000000
      3        -18.497874   1.000000
      4        -18.468371   1.000000
      5        -18.460762   1.000000
      6        -18.419590   1.000000
      7        -18.341758   1.000000
      8        -18.322952   1.000000
      9        -18.289793   1.000000
     10        -18.260840   1.000000
     11        -18.253133   1.000000
     12        -18.213253   1.000000
     13        -18.198661   1.000000
     14        -18.194376   1.000000
     15        -18.172036   1.000000
     16        -17.993608   1.000000
     17        -17.987756   1.000000
     18        -17.968025   1.000000
     19        -17.905901   1.000000
     20        -17.879319   1.000000
     21        -17.873683   1.000000
     22        -17.724612   1.000000
     23        -17.697516   1.000000
     24        -17.692477   1.000000
     25        -17.593533   1.000000
     26        -17.552660   1.000000
     27        -17.542342   1.000000
     28        -17.492796   1.000000
     29        -17.436610   1.000000
     30        -17.416388   1.000000
     31        -17.412279   1.000000
     32        -17.376805   1.000000
     33        -17.366473   1.000000
     34        -17.318406   1.000000
     35        -17.263997   1.000000
     36        -17.240601   1.000000
     37        -14.456222   1.000000
     38        -14.404025   1.000000
     39        -14.397702   1.000000
     40        -14.368359   1.000000
     41        -14.354598   1.000000
     42        -14.351378   1.000000
     43        -14.331816   1.000000
     44        -14.284376   1.000000
     45        -14.258596   1.000000
     46        -14.228757   1.000000
     47        -14.206498   1.000000
     48        -14.202674   1.000000
     49        -14.179188   1.000000
     50        -14.167345   1.000000
     51        -14.153985   1.000000
     52        -14.142638   1.000000
     53        -14.110021   1.000000
     54        -14.104629   1.000000
     55        -14.090276   1.000000
     56        -14.033426   1.000000
     57        -13.993874   1.000000
     58        -13.937853   1.000000
     59        -13.935311   1.000000
     60        -13.876658   1.000000
     61        -13.851406   1.000000
     62        -13.804104   1.000000
     63        -13.800542   1.000000
     64        -13.781400   1.000000
     65        -13.766360   1.000000
     66        -13.698288   1.000000
     67        -13.692191   1.000000
     68        -13.635790   1.000000
     69        -13.619522   1.000000
     70        -13.612768   1.000000
     71        -13.609717   1.000000
     72        -13.465095   1.000000
     73        -12.324461   1.000000
     74        -12.109994   1.000000
     75        -12.085657   1.000000
     76        -12.038743   1.000000
     77        -11.913657   1.000000
     78        -11.869188   1.000000
     79        -11.866594   1.000000
     80        -11.848287   1.000000
     81        -11.823792   1.000000
     82        -11.821242   1.000000
     83        -11.778654   1.000000
     84        -11.764259   1.000000
     85        -11.735836   1.000000
     86        -11.717979   1.000000
     87        -11.693484   1.000000
     88        -11.669843   1.000000
     89        -11.651617   1.000000
     90        -11.645887   1.000000
     91        -11.605787   1.000000
     92        -11.558908   1.000000
     93        -11.504855   1.000000
     94        -11.483567   1.000000
     95        -11.482600   1.000000
     96        -11.475782   1.000000
     97        -11.441132   1.000000
     98        -11.412444   1.000000
     99        -11.394299   1.000000
    100        -11.363073   1.000000
    101        -11.330266   1.000000
    102        -11.203620   1.000000
    103        -11.157948   1.000000
    104        -11.140420   1.000000
    105        -11.123068   1.000000
    106        -11.122133   1.000000
    107        -11.044679   1.000000
    108        -11.028654   1.000000
    109        -10.997350   1.000000
    110        -10.899436   1.000000
    111        -10.894731   1.000000
    112        -10.889045   1.000000
    113        -10.871317   1.000000
    114        -10.736930   1.000000
    115        -10.691442   1.000000
    116        -10.672972   1.000000
    117        -10.666879   1.000000
    118        -10.664980   1.000000
    119        -10.643258   1.000000
    120        -10.626332   1.000000
    121        -10.512572   1.000000
    122        -10.474021   1.000000
    123        -10.439712   1.000000
    124        -10.418209   1.000000
    125        -10.411180   1.000000
    126        -10.381003   1.000000
    127        -10.343992   1.000000
    128        -10.327452   1.000000
    129        -10.314764   1.000000
    130        -10.291751   1.000000
    131        -10.267836   1.000000
    132        -10.231994   1.000000
    133        -10.231449   1.000000
    134        -10.199136   1.000000
    135        -10.165949   1.000000
    136        -10.108289   1.000000
    137        -10.090443   1.000000
    138        -10.055314   1.000000
    139        -10.018566   1.000000
    140        -10.002748   1.000000
    141         -9.982436   1.000000
    142         -9.968211   1.000000
    143         -9.887010   1.000000
    144         -9.753743   1.000000
    145         -9.661638   1.000000
    146         -9.615543   1.000000
    147         -9.603814   1.000000
    148         -9.472285   1.000000
    149         -9.466908   1.000000
    150         -9.444672   1.000000
    151         -9.386628   1.000000
    152         -9.343834   1.000000
    153         -9.332748   1.000000
    154         -9.292449   1.000000
    155         -9.288380   1.000000
    156         -9.261005   1.000000
    157         -9.177204   1.000000
    158         -9.138176   1.000000
    159         -9.119640   1.000000
    160         -9.112832   1.000000
    161         -9.102569   1.000000
    162         -9.068604   1.000000
    163         -8.995309   1.000000
    164         -8.977922   1.000000
    165         -8.973480   1.000000
    166         -8.942245   1.000000
    167         -8.907918   1.000000
    168         -8.859414   1.000000
    169         -8.852328   1.000000
    170         -8.777619   1.000000
    171         -8.743800   1.000000
    172         -8.656762   1.000000
    173         -8.591054   1.000000
    174         -8.564998   1.000000
    175         -8.561337   1.000000
    176         -8.557245   1.000000
    177         -8.539595   1.000000
    178         -8.512839   1.000000
    179         -8.368585   1.000000
    180         -8.362706   1.000000
    181         -8.342638   1.000000
    182         -8.305671   1.000000
    183         -8.234625   1.000000
    184         -8.197966   1.000000
    185         -8.195598   1.000000
    186         -8.179475   1.000000
    187         -8.131331   1.000000
    188         -8.099053   1.000000
    189         -8.068478   1.000000
    190         -8.058853   1.000000
    191         -8.039065   1.000000
    192         -8.029845   1.000000
    193         -7.985315   1.000000
    194         -7.961075   1.000000
    195         -7.959788   1.000000
    196         -7.883902   1.000000
    197         -7.835310   1.000000
    198         -7.805638   1.000000
    199         -7.784696   1.000000
    200         -7.760427   1.000000
    201         -7.727073   1.000000
    202         -7.720018   1.000000
    203         -7.716367   1.000000
    204         -7.625009   1.000000
    205         -7.524415   1.000000
    206         -7.507291   1.000000
    207         -7.502241   1.000000
    208         -7.493084   1.000000
    209         -7.383313   1.000000
    210         -7.374419   1.000000
    211         -7.361688   1.000000
    212         -7.361233   1.000000
    213         -7.339679   1.000000
    214         -7.337166   1.000000
    215         -7.248080   1.000000
    216         -7.239967   1.000000
    217         -7.224098   1.000000
    218         -7.209838   1.000000
    219         -7.205269   1.000000
    220         -7.171519   1.000000
    221         -7.170586   1.000000
    222         -7.166817   1.000000
    223         -7.162657   1.000000
    224         -7.103669   1.000000
    225         -7.082806   1.000000
    226         -7.076577   1.000000
    227         -7.058984   1.000000
    228         -7.041819   1.000000
    229         -7.030748   1.000000
    230         -7.021337   1.000000
    231         -7.007377   1.000000
    232         -6.960883   1.000000
    233         -6.946571   1.000000
    234         -6.897861   1.000000
    235         -6.836731   1.000000
    236         -6.815067   1.000000
    237         -6.812126   1.000000
    238         -6.790338   1.000000
    239         -6.777513   1.000000
    240         -6.770531   1.000000
    241         -6.759560   1.000000
    242         -6.735723   1.000000
    243         -6.730059   1.000000
    244         -6.695239   1.000000
    245         -6.692304   1.000000
    246         -6.691869   1.000000
    247         -6.684675   1.000000
    248         -6.610471   1.000000
    249         -6.586970   1.000000
    250         -6.585446   1.000000
    251         -6.583056   1.000000
    252         -6.493221   1.000000
    253         -6.454689   1.000000
    254         -6.447077   1.000000
    255         -6.443381   1.000000
    256         -6.440678   1.000000
    257         -6.372119   1.000000
    258         -6.370703   1.000000
    259         -6.346546   1.000000
    260         -6.338241   1.000000
    261         -6.288046   1.000000
    262         -6.251190   1.000000
    263         -6.247240   1.000000
    264         -6.247106   1.000000
    265         -6.243764   1.000000
    266         -6.209524   1.000000
    267         -6.178061   1.000000
    268         -6.167784   1.000000
    269         -6.139818   1.000000
    270         -6.100575   1.000000
    271         -6.036373   1.000000
    272         -6.031587   1.000000
    273         -6.023235   1.000000
    274         -6.019397   1.000000
    275         -5.986224   1.000000
    276         -5.973509   1.000000
    277         -5.941632   1.000000
    278         -5.917178   1.000000
    279         -5.913660   1.000000
    280         -5.904539   1.000000
    281         -5.880439   1.000000
    282         -5.791071   1.000000
    283         -5.781400   1.000000
    284         -5.754268   1.000000
    285         -5.739901   1.000000
    286         -5.733952   1.000000
    287         -5.729764   1.000000
    288         -5.717723   1.000000
    289         -5.709663   1.000000
    290         -5.697824   1.000000
    291         -5.691612   1.000000
    292         -5.659946   1.000000
    293         -5.648931   1.000000
    294         -5.633381   1.000000
    295         -5.632045   1.000000
    296         -5.608305   1.000000
    297         -5.597212   1.000000
    298         -5.595306   1.000000
    299         -5.567098   1.000000
    300         -5.544872   1.000000
    301         -5.544310   1.000000
    302         -5.527726   1.000000
    303         -5.484638   1.000000
    304         -5.448712   1.000000
    305         -5.433533   1.000000
    306         -5.428469   1.000000
    307         -5.416698   1.000000
    308         -5.412986   1.000000
    309         -5.391158   1.000000
    310         -5.388729   1.000000
    311         -5.385716   1.000000
    312         -5.370984   1.000000
    313         -5.365891   1.000000
    314         -5.245541   1.000000
    315         -5.242789   1.000000
    316         -5.227949   1.000000
    317         -5.204263   1.000000
    318         -5.191713   1.000000
    319         -5.182646   1.000000
    320         -5.179713   1.000000
    321         -5.161146   1.000000
    322         -5.149914   1.000000
    323         -5.054900   1.000000
    324         -5.051816   1.000000
    325         -5.048893   1.000000
    326         -5.016346   1.000000
    327         -4.994297   1.000000
    328         -4.989208   1.000000
    329         -4.982135   1.000000
    330         -4.966851   1.000000
    331         -4.966064   1.000000
    332         -4.949051   1.000000
    333         -4.942759   1.000000
    334         -4.933994   1.000000
    335         -4.931541   1.000000
    336         -4.930540   1.000000
    337         -4.924738   1.000000
    338         -4.879812   1.000000
    339         -4.835454   1.000000
    340         -4.833889   1.000000
    341         -4.830533   1.000000
    342         -4.817508   1.000000
    343         -4.816910   1.000000
    344         -4.740225   1.000000
    345         -4.709033   1.000000
    346         -4.678283   1.000000
    347         -4.677564   1.000000
    348         -4.652395   1.000000
    349         -4.646836   1.000000
    350         -4.633717   1.000000
    351         -4.621926   1.000000
    352         -4.620186   1.000000
    353         -4.619240   1.000000
    354         -4.607877   1.000000
    355         -4.499085   1.000000
    356         -4.451507   1.000000
    357         -4.373071   1.000000
    358         -4.355622   1.000000
    359         -4.353781   1.000000
    360         -4.336846   1.000000
    361         -4.321530   1.000000
    362         -4.316733   1.000000
    363         -4.305269   1.000000
    364         -4.290334   1.000000
    365         -4.257147   1.000000
    366         -4.255151   1.000000
    367         -4.247546   1.000000
    368         -4.241521   1.000000
    369         -4.186258   1.000000
    370         -4.157506   1.000000
    371         -4.128408   1.000000
    372         -4.056183   1.000000
    373         -4.026296   1.000000
    374         -3.982684   1.000000
    375         -3.928755   1.000000
    376         -3.927800   1.000000
    377         -3.924218   1.000000
    378         -3.877359   1.000000
    379         -3.759180   1.000000
    380         -3.649021   0.999992
    381         -3.627735   0.999968
    382         -3.620564   0.999952
    383         -3.572032   0.999344
    384         -3.561958   0.998933
    385         -3.342195   0.485284
    386         -3.198804   0.019473
    387         -3.186547   0.012607
    388         -3.075245   0.000069
    389         -3.017268   0.000002
    390         -3.016318   0.000002
    391         -2.845136   0.000000
    392         -2.844055   0.000000
    393         -2.788477   0.000000
    394         -2.643672   0.000000
    395         -2.425159   0.000000
    396         -2.284014   0.000000
    397         -2.276440   0.000000
    398         -2.256202   0.000000
    399         -2.203080   0.000000
    400         -2.163559   0.000000
    401         -2.156469   0.000000
    402         -2.118595   0.000000
    403         -2.112090   0.000000
    404         -2.109875   0.000000
    405         -2.060826   0.000000
    406         -1.681727   0.000000
    407         -1.554453   0.000000
    408         -1.534756   0.000000
    409         -1.448882   0.000000
    410         -1.398422   0.000000
    411         -1.366511   0.000000
    412         -1.258985   0.000000
    413         -1.253428   0.000000
    414         -1.199731   0.000000
    415         -0.863583   0.000000
    416         -0.830213   0.000000
    417         -0.793905   0.000000
    418         -0.712470   0.000000
    419         -0.692376   0.000000
    420         -0.651693   0.000000
    421         -0.500907   0.000000
    422         -0.365328   0.000000
    423         -0.279955   0.000000
    424         -0.216655   0.000000
    425         -0.134184   0.000000
    426         -0.132405   0.000000
    427         -0.130289   0.000000
    428         -0.051502   0.000000
    429         -0.039758   0.000000
    430         -0.019404   0.000000
    431          0.042000   0.000000
    432          0.208274   0.000000
    433          0.210734   0.000000
    434          0.233364   0.000000
    435          0.246113   0.000000
    436          0.251600   0.000000
    437          0.334293   0.000000
    438          0.392029   0.000000
    439          0.428908   0.000000
    440          0.454360   0.000000
    441          0.469529   0.000000
    442          0.482470   0.000000
    443          0.484264   0.000000
    444          0.491596   0.000000
    445          0.494226   0.000000
    446          0.581413   0.000000
    447          0.600457   0.000000
    448          0.619149   0.000000
    449          0.632012   0.000000
    450          0.680626   0.000000
    451          0.688752   0.000000
    452          0.691926   0.000000
    453          0.693294   0.000000
    454          0.698417   0.000000
    455          0.723610   0.000000
    456          0.768743   0.000000
    457          0.793794   0.000000
    458          0.831335   0.000000
    459          0.888401   0.000000
    460          0.968099   0.000000
    461          0.994775   0.000000
    462          1.009533   0.000000
    463          1.026819   0.000000
    464          1.065064   0.000000
    465          1.105312   0.000000
    466          1.110256   0.000000
    467          1.158686   0.000000
    468          1.177301   0.000000
    469          1.254709   0.000000
    470          1.261955   0.000000
    471          1.268643   0.000000
    472          1.283047   0.000000
    473          1.317567   0.000000
    474          1.329479   0.000000
    475          1.332917   0.000000
    476          1.361730   0.000000
    477          1.401178   0.000000
    478          1.419654   0.000000
    479          1.433765   0.000000
    480          1.460761   0.000000
    481          1.470905   0.000000
    482          1.525780   0.000000
    483          1.530942   0.000000
    484          1.556177   0.000000
    485          1.563087   0.000000
    486          1.573884   0.000000
    487          1.574859   0.000000
    488          1.603221   0.000000
    489          1.610894   0.000000
    490          1.617211   0.000000
    491          1.633478   0.000000
    492          1.642575   0.000000
    493          1.661868   0.000000
    494          1.679875   0.000000
    495          1.720127   0.000000
    496          1.735153   0.000000
    497          1.765952   0.000000
    498          1.793037   0.000000
    499          1.880503   0.000000
    500          1.884370   0.000000
    501          1.893029   0.000000
    502          1.948828   0.000000
    503          1.951989   0.000000
    504          1.960321   0.000000
    505          1.961732   0.000000
    506          2.006684   0.000000
    507          2.013619   0.000000
    508          2.054702   0.000000
    509          2.080120   0.000000
    510          2.083057   0.000000
    511          2.093496   0.000000
    512          2.096313   0.000000
    513          2.100993   0.000000
    514          2.117821   0.000000
    515          2.133997   0.000000
    516          2.139514   0.000000
    517          2.151970   0.000000
    518          2.153193   0.000000
    519          2.171777   0.000000
    520          2.174316   0.000000
    521          2.177386   0.000000
    522          2.188284   0.000000
    523          2.212437   0.000000
    524          2.228029   0.000000
    525          2.261341   0.000000
    526          2.355501   0.000000
    527          2.412170   0.000000
    528          2.430768   0.000000
 
 -0.3750000E+00  0.3333333E+00  0.1276756E-14  0.1666667E+00
      1        -18.556639   1.000000
      2        -18.522341   1.000000
      3        -18.488679   1.000000
      4        -18.476024   1.000000
      5        -18.472220   1.000000
      6        -18.413275   1.000000
      7        -18.347387   1.000000
      8        -18.313597   1.000000
      9        -18.280507   1.000000
     10        -18.268543   1.000000
     11        -18.264728   1.000000
     12        -18.206906   1.000000
     13        -18.204424   1.000000
     14        -18.183004   1.000000
     15        -18.177599   1.000000
     16        -17.998469   1.000000
     17        -17.977036   1.000000
     18        -17.973858   1.000000
     19        -17.899690   1.000000
     20        -17.892829   1.000000
     21        -17.866386   1.000000
     22        -17.718628   1.000000
     23        -17.711018   1.000000
     24        -17.684974   1.000000
     25        -17.606575   1.000000
     26        -17.533503   1.000000
     27        -17.517714   1.000000
     28        -17.514962   1.000000
     29        -17.460901   1.000000
     30        -17.429192   1.000000
     31        -17.396641   1.000000
     32        -17.357821   1.000000
     33        -17.342602   1.000000
     34        -17.340065   1.000000
     35        -17.287659   1.000000
     36        -17.225402   1.000000
     37        -14.436321   1.000000
     38        -14.421750   1.000000
     39        -14.405256   1.000000
     40        -14.385153   1.000000
     41        -14.381722   1.000000
     42        -14.341021   1.000000
     43        -14.297624   1.000000
     44        -14.282944   1.000000
     45        -14.244097   1.000000
     46        -14.219501   1.000000
     47        -14.217902   1.000000
     48        -14.208275   1.000000
     49        -14.191479   1.000000
     50        -14.180944   1.000000
     51        -14.154983   1.000000
     52        -14.113553   1.000000
     53        -14.103374   1.000000
     54        -14.098342   1.000000
     55        -14.094654   1.000000
     56        -14.044156   1.000000
     57        -14.011510   1.000000
     58        -13.918955   1.000000
     59        -13.902189   1.000000
     60        -13.868694   1.000000
     61        -13.850553   1.000000
     62        -13.836672   1.000000
     63        -13.798894   1.000000
     64        -13.789688   1.000000
     65        -13.776472   1.000000
     66        -13.689104   1.000000
     67        -13.686349   1.000000
     68        -13.643461   1.000000
     69        -13.635815   1.000000
     70        -13.608895   1.000000
     71        -13.599451   1.000000
     72        -13.473562   1.000000
     73        -12.349353   1.000000
     74        -12.129807   1.000000
     75        -12.014490   1.000000
     76        -12.012269   1.000000
     77        -11.946150   1.000000
     78        -11.908574   1.000000
     79        -11.818208   1.000000
     80        -11.811624   1.000000
     81        -11.787758   1.000000
     82        -11.787019   1.000000
     83        -11.779543   1.000000
     84        -11.774089   1.000000
     85        -11.764421   1.000000
     86        -11.738906   1.000000
     87        -11.723986   1.000000
     88        -11.674207   1.000000
     89        -11.655227   1.000000
     90        -11.628706   1.000000
     91        -11.617575   1.000000
     92        -11.595146   1.000000
     93        -11.537008   1.000000
     94        -11.512452   1.000000
     95        -11.473560   1.000000
     96        -11.427537   1.000000
     97        -11.406614   1.000000
     98        -11.353419   1.000000
     99        -11.346667   1.000000
    100        -11.332735   1.000000
    101        -11.250636   1.000000
    102        -11.249427   1.000000
    103        -11.242536   1.000000
    104        -11.222104   1.000000
    105        -11.132593   1.000000
    106        -11.117700   1.000000
    107        -11.059759   1.000000
    108        -11.010020   1.000000
    109        -10.993438   1.000000
    110        -10.967568   1.000000
    111        -10.959768   1.000000
    112        -10.936036   1.000000
    113        -10.874129   1.000000
    114        -10.853307   1.000000
    115        -10.839962   1.000000
    116        -10.696390   1.000000
    117        -10.674209   1.000000
    118        -10.629966   1.000000
    119        -10.574022   1.000000
    120        -10.561422   1.000000
    121        -10.535762   1.000000
    122        -10.526572   1.000000
    123        -10.378417   1.000000
    124        -10.344905   1.000000
    125        -10.341129   1.000000
    126        -10.333832   1.000000
    127        -10.329881   1.000000
    128        -10.323494   1.000000
    129        -10.239124   1.000000
    130        -10.229490   1.000000
    131        -10.225400   1.000000
    132        -10.158507   1.000000
    133        -10.137455   1.000000
    134        -10.101481   1.000000
    135        -10.093608   1.000000
    136        -10.070580   1.000000
    137        -10.057070   1.000000
    138        -10.028042   1.000000
    139        -10.012617   1.000000
    140         -9.990930   1.000000
    141         -9.977160   1.000000
    142         -9.966226   1.000000
    143         -9.938020   1.000000
    144         -9.806478   1.000000
    145         -9.795902   1.000000
    146         -9.792755   1.000000
    147         -9.679662   1.000000
    148         -9.674176   1.000000
    149         -9.535954   1.000000
    150         -9.482205   1.000000
    151         -9.475505   1.000000
    152         -9.358746   1.000000
    153         -9.349542   1.000000
    154         -9.342857   1.000000
    155         -9.336147   1.000000
    156         -9.265727   1.000000
    157         -9.166346   1.000000
    158         -9.081582   1.000000
    159         -9.079522   1.000000
    160         -9.013938   1.000000
    161         -8.996249   1.000000
    162         -8.969133   1.000000
    163         -8.966307   1.000000
    164         -8.941968   1.000000
    165         -8.907505   1.000000
    166         -8.904776   1.000000
    167         -8.881830   1.000000
    168         -8.858811   1.000000
    169         -8.825288   1.000000
    170         -8.774417   1.000000
    171         -8.727918   1.000000
    172         -8.721947   1.000000
    173         -8.720690   1.000000
    174         -8.667927   1.000000
    175         -8.606132   1.000000
    176         -8.590763   1.000000
    177         -8.556976   1.000000
    178         -8.488163   1.000000
    179         -8.339263   1.000000
    180         -8.276327   1.000000
    181         -8.257907   1.000000
    182         -8.246416   1.000000
    183         -8.243975   1.000000
    184         -8.235655   1.000000
    185         -8.231910   1.000000
    186         -8.216924   1.000000
    187         -8.111530   1.000000
    188         -8.075779   1.000000
    189         -8.069382   1.000000
    190         -7.994109   1.000000
    191         -7.991059   1.000000
    192         -7.984345   1.000000
    193         -7.983509   1.000000
    194         -7.964377   1.000000
    195         -7.913175   1.000000
    196         -7.900157   1.000000
    197         -7.857187   1.000000
    198         -7.840471   1.000000
    199         -7.802958   1.000000
    200         -7.733241   1.000000
    201         -7.700365   1.000000
    202         -7.669945   1.000000
    203         -7.652300   1.000000
    204         -7.644027   1.000000
    205         -7.606748   1.000000
    206         -7.590981   1.000000
    207         -7.518658   1.000000
    208         -7.500322   1.000000
    209         -7.464124   1.000000
    210         -7.398034   1.000000
    211         -7.345728   1.000000
    212         -7.342380   1.000000
    213         -7.336565   1.000000
    214         -7.309977   1.000000
    215         -7.277920   1.000000
    216         -7.271002   1.000000
    217         -7.253077   1.000000
    218         -7.243222   1.000000
    219         -7.241944   1.000000
    220         -7.211060   1.000000
    221         -7.172490   1.000000
    222         -7.159944   1.000000
    223         -7.115066   1.000000
    224         -7.108864   1.000000
    225         -7.107672   1.000000
    226         -7.046338   1.000000
    227         -7.038219   1.000000
    228         -7.034168   1.000000
    229         -7.023676   1.000000
    230         -7.010646   1.000000
    231         -6.952558   1.000000
    232         -6.931228   1.000000
    233         -6.925769   1.000000
    234         -6.922689   1.000000
    235         -6.869251   1.000000
    236         -6.857679   1.000000
    237         -6.855355   1.000000
    238         -6.848234   1.000000
    239         -6.807524   1.000000
    240         -6.771304   1.000000
    241         -6.753974   1.000000
    242         -6.710888   1.000000
    243         -6.691675   1.000000
    244         -6.686290   1.000000
    245         -6.660372   1.000000
    246         -6.642194   1.000000
    247         -6.626153   1.000000
    248         -6.599416   1.000000
    249         -6.589157   1.000000
    250         -6.524638   1.000000
    251         -6.498297   1.000000
    252         -6.495914   1.000000
    253         -6.495644   1.000000
    254         -6.485586   1.000000
    255         -6.484438   1.000000
    256         -6.484222   1.000000
    257         -6.440548   1.000000
    258         -6.353911   1.000000
    259         -6.353511   1.000000
    260         -6.297138   1.000000
    261         -6.277510   1.000000
    262         -6.271712   1.000000
    263         -6.265357   1.000000
    264         -6.256852   1.000000
    265         -6.247692   1.000000
    266         -6.244122   1.000000
    267         -6.228711   1.000000
    268         -6.151472   1.000000
    269         -6.129876   1.000000
    270         -6.117247   1.000000
    271         -6.088632   1.000000
    272         -6.070209   1.000000
    273         -6.050594   1.000000
    274         -6.018104   1.000000
    275         -5.992513   1.000000
    276         -5.932981   1.000000
    277         -5.918849   1.000000
    278         -5.902220   1.000000
    279         -5.890481   1.000000
    280         -5.882719   1.000000
    281         -5.801263   1.000000
    282         -5.790952   1.000000
    283         -5.787480   1.000000
    284         -5.746668   1.000000
    285         -5.736426   1.000000
    286         -5.726241   1.000000
    287         -5.720927   1.000000
    288         -5.716563   1.000000
    289         -5.710513   1.000000
    290         -5.706869   1.000000
    291         -5.671050   1.000000
    292         -5.667671   1.000000
    293         -5.647117   1.000000
    294         -5.615530   1.000000
    295         -5.614754   1.000000
    296         -5.608685   1.000000
    297         -5.607787   1.000000
    298         -5.550161   1.000000
    299         -5.541128   1.000000
    300         -5.521605   1.000000
    301         -5.489212   1.000000
    302         -5.487027   1.000000
    303         -5.473005   1.000000
    304         -5.465042   1.000000
    305         -5.453299   1.000000
    306         -5.447227   1.000000
    307         -5.441361   1.000000
    308         -5.439000   1.000000
    309         -5.403009   1.000000
    310         -5.388659   1.000000
    311         -5.371729   1.000000
    312         -5.360283   1.000000
    313         -5.348394   1.000000
    314         -5.269392   1.000000
    315         -5.229197   1.000000
    316         -5.226582   1.000000
    317         -5.222696   1.000000
    318         -5.175275   1.000000
    319         -5.173477   1.000000
    320         -5.115971   1.000000
    321         -5.101798   1.000000
    322         -5.068523   1.000000
    323         -5.062582   1.000000
    324         -5.055843   1.000000
    325         -5.055357   1.000000
    326         -5.035230   1.000000
    327         -5.032938   1.000000
    328         -5.013171   1.000000
    329         -4.975945   1.000000
    330         -4.970938   1.000000
    331         -4.966348   1.000000
    332         -4.960530   1.000000
    333         -4.959431   1.000000
    334         -4.955211   1.000000
    335         -4.944378   1.000000
    336         -4.931582   1.000000
    337         -4.909635   1.000000
    338         -4.899561   1.000000
    339         -4.891763   1.000000
    340         -4.888769   1.000000
    341         -4.883550   1.000000
    342         -4.879168   1.000000
    343         -4.862963   1.000000
    344         -4.833946   1.000000
    345         -4.830006   1.000000
    346         -4.804337   1.000000
    347         -4.752989   1.000000
    348         -4.705236   1.000000
    349         -4.672915   1.000000
    350         -4.631980   1.000000
    351         -4.548032   1.000000
    352         -4.530059   1.000000
    353         -4.523885   1.000000
    354         -4.507228   1.000000
    355         -4.407867   1.000000
    356         -4.388278   1.000000
    357         -4.376922   1.000000
    358         -4.343759   1.000000
    359         -4.335714   1.000000
    360         -4.334108   1.000000
    361         -4.281203   1.000000
    362         -4.280274   1.000000
    363         -4.272334   1.000000
    364         -4.262401   1.000000
    365         -4.254811   1.000000
    366         -4.219664   1.000000
    367         -4.212569   1.000000
    368         -4.194328   1.000000
    369         -4.113655   1.000000
    370         -4.099515   1.000000
    371         -4.088831   1.000000
    372         -4.059569   1.000000
    373         -4.036391   1.000000
    374         -4.022154   1.000000
    375         -4.017373   1.000000
    376         -3.967766   1.000000
    377         -3.961429   1.000000
    378         -3.903305   1.000000
    379         -3.892512   1.000000
    380         -3.800366   1.000000
    381         -3.629809   0.999972
    382         -3.615910   0.999937
    383         -3.505077   0.988293
    384         -3.378946   0.685395
    385         -3.334148   0.440102
    386         -3.325166   0.390609
    387         -3.285747   0.201802
    388         -3.067966   0.000045
    389         -3.017254   0.000002
    390         -2.960191   0.000000
    391         -2.947190   0.000000
    392         -2.762227   0.000000
    393         -2.750983   0.000000
    394         -2.535990   0.000000
    395         -2.432138   0.000000
    396         -2.283802   0.000000
    397         -2.267187   0.000000
    398         -2.261616   0.000000
    399         -2.232267   0.000000
    400         -2.182571   0.000000
    401         -2.179416   0.000000
    402         -2.140348   0.000000
    403         -2.121227   0.000000
    404         -2.104284   0.000000
    405         -2.061440   0.000000
    406         -1.651399   0.000000
    407         -1.599646   0.000000
    408         -1.518348   0.000000
    409         -1.461987   0.000000
    410         -1.375221   0.000000
    411         -1.330030   0.000000
    412         -1.317013   0.000000
    413         -1.272776   0.000000
    414         -1.172551   0.000000
    415         -0.861089   0.000000
    416         -0.769434   0.000000
    417         -0.763837   0.000000
    418         -0.693700   0.000000
    419         -0.646704   0.000000
    420         -0.620690   0.000000
    421         -0.553689   0.000000
    422         -0.506227   0.000000
    423         -0.478788   0.000000
    424         -0.146128   0.000000
    425         -0.129876   0.000000
    426         -0.086917   0.000000
    427         -0.065538   0.000000
    428          0.028793   0.000000
    429          0.038128   0.000000
    430          0.094083   0.000000
    431          0.098354   0.000000
    432          0.130186   0.000000
    433          0.153847   0.000000
    434          0.229022   0.000000
    435          0.243129   0.000000
    436          0.269509   0.000000
    437          0.341953   0.000000
    438          0.345417   0.000000
    439          0.355282   0.000000
    440          0.356882   0.000000
    441          0.403484   0.000000
    442          0.421041   0.000000
    443          0.473561   0.000000
    444          0.487367   0.000000
    445          0.527064   0.000000
    446          0.533902   0.000000
    447          0.601460   0.000000
    448          0.642057   0.000000
    449          0.647933   0.000000
    450          0.670852   0.000000
    451          0.703524   0.000000
    452          0.715384   0.000000
    453          0.748789   0.000000
    454          0.770091   0.000000
    455          0.791114   0.000000
    456          0.792711   0.000000
    457          0.828391   0.000000
    458          0.844642   0.000000
    459          0.910404   0.000000
    460          0.955158   0.000000
    461          0.982707   0.000000
    462          1.026642   0.000000
    463          1.029201   0.000000
    464          1.033399   0.000000
    465          1.060994   0.000000
    466          1.132006   0.000000
    467          1.163500   0.000000
    468          1.214535   0.000000
    469          1.221483   0.000000
    470          1.232839   0.000000
    471          1.262879   0.000000
    472          1.264986   0.000000
    473          1.267679   0.000000
    474          1.277672   0.000000
    475          1.346176   0.000000
    476          1.377030   0.000000
    477          1.404112   0.000000
    478          1.412601   0.000000
    479          1.415193   0.000000
    480          1.467031   0.000000
    481          1.508368   0.000000
    482          1.527634   0.000000
    483          1.533438   0.000000
    484          1.542095   0.000000
    485          1.542801   0.000000
    486          1.544846   0.000000
    487          1.548151   0.000000
    488          1.554386   0.000000
    489          1.625745   0.000000
    490          1.633009   0.000000
    491          1.683326   0.000000
    492          1.704005   0.000000
    493          1.708472   0.000000
    494          1.741108   0.000000
    495          1.753202   0.000000
    496          1.796301   0.000000
    497          1.797803   0.000000
    498          1.798290   0.000000
    499          1.810920   0.000000
    500          1.817854   0.000000
    501          1.834649   0.000000
    502          1.837596   0.000000
    503          1.862826   0.000000
    504          1.888862   0.000000
    505          1.914381   0.000000
    506          1.940698   0.000000
    507          1.992943   0.000000
    508          2.031882   0.000000
    509          2.074675   0.000000
    510          2.075252   0.000000
    511          2.105315   0.000000
    512          2.111480   0.000000
    513          2.137352   0.000000
    514          2.154707   0.000000
    515          2.163603   0.000000
    516          2.174902   0.000000
    517          2.197151   0.000000
    518          2.206124   0.000000
    519          2.213650   0.000000
    520          2.215135   0.000000
    521          2.225096   0.000000
    522          2.231542   0.000000
    523          2.236397   0.000000
    524          2.311686   0.000000
    525          2.327392   0.000000
    526          2.374024   0.000000
    527          2.374979   0.000000
    528          2.411149   0.000000
 
 -0.1250000E+00  0.3333333E+00  0.1276756E-14  0.1666667E+00
      1        -18.585719   1.000000
      2        -18.555423   1.000000
      3        -18.498732   1.000000
      4        -18.399952   1.000000
      5        -18.394956   1.000000
      6        -18.375842   1.000000
      7        -18.346106   1.000000
      8        -18.336318   1.000000
      9        -18.307191   1.000000
     10        -18.290621   1.000000
     11        -18.271638   1.000000
     12        -18.256201   1.000000
     13        -18.193232   1.000000
     14        -18.188996   1.000000
     15        -18.131341   1.000000
     16        -18.101930   1.000000
     17        -18.066509   1.000000
     18        -18.052594   1.000000
     19        -17.799035   1.000000
     20        -17.779617   1.000000
     21        -17.766438   1.000000
     22        -17.694474   1.000000
     23        -17.647033   1.000000
     24        -17.631606   1.000000
     25        -17.617763   1.000000
     26        -17.598528   1.000000
     27        -17.585019   1.000000
     28        -17.515115   1.000000
     29        -17.504356   1.000000
     30        -17.468482   1.000000
     31        -17.453262   1.000000
     32        -17.407161   1.000000
     33        -17.347837   1.000000
     34        -17.329370   1.000000
     35        -17.235521   1.000000
     36        -17.178293   1.000000
     37        -14.477377   1.000000
     38        -14.474689   1.000000
     39        -14.399272   1.000000
     40        -14.379571   1.000000
     41        -14.339090   1.000000
     42        -14.321750   1.000000
     43        -14.297546   1.000000
     44        -14.281172   1.000000
     45        -14.277569   1.000000
     46        -14.249720   1.000000
     47        -14.205968   1.000000
     48        -14.196275   1.000000
     49        -14.180887   1.000000
     50        -14.148684   1.000000
     51        -14.133004   1.000000
     52        -14.130254   1.000000
     53        -14.117840   1.000000
     54        -14.070397   1.000000
     55        -14.011319   1.000000
     56        -13.969102   1.000000
     57        -13.950097   1.000000
     58        -13.947857   1.000000
     59        -13.935604   1.000000
     60        -13.879674   1.000000
     61        -13.875377   1.000000
     62        -13.864968   1.000000
     63        -13.788693   1.000000
     64        -13.777960   1.000000
     65        -13.771870   1.000000
     66        -13.766557   1.000000
     67        -13.720168   1.000000
     68        -13.698651   1.000000
     69        -13.690445   1.000000
     70        -13.615068   1.000000
     71        -13.554370   1.000000
     72        -13.393988   1.000000
     73        -12.523384   1.000000
     74        -12.302435   1.000000
     75        -12.023978   1.000000
     76        -11.924178   1.000000
     77        -11.889068   1.000000
     78        -11.849004   1.000000
     79        -11.828934   1.000000
     80        -11.803184   1.000000
     81        -11.802125   1.000000
     82        -11.780021   1.000000
     83        -11.765726   1.000000
     84        -11.754382   1.000000
     85        -11.706933   1.000000
     86        -11.695753   1.000000
     87        -11.661181   1.000000
     88        -11.638695   1.000000
     89        -11.612257   1.000000
     90        -11.599337   1.000000
     91        -11.575448   1.000000
     92        -11.546507   1.000000
     93        -11.499803   1.000000
     94        -11.496181   1.000000
     95        -11.469566   1.000000
     96        -11.463016   1.000000
     97        -11.440351   1.000000
     98        -11.433947   1.000000
     99        -11.375757   1.000000
    100        -11.342428   1.000000
    101        -11.239955   1.000000
    102        -11.213504   1.000000
    103        -11.161215   1.000000
    104        -11.154047   1.000000
    105        -11.126911   1.000000
    106        -11.117105   1.000000
    107        -11.093451   1.000000
    108        -11.071198   1.000000
    109        -11.027704   1.000000
    110        -11.026821   1.000000
    111        -10.923455   1.000000
    112        -10.913305   1.000000
    113        -10.908714   1.000000
    114        -10.817493   1.000000
    115        -10.815057   1.000000
    116        -10.710458   1.000000
    117        -10.708213   1.000000
    118        -10.675770   1.000000
    119        -10.630320   1.000000
    120        -10.541608   1.000000
    121        -10.482011   1.000000
    122        -10.449920   1.000000
    123        -10.444404   1.000000
    124        -10.412700   1.000000
    125        -10.375595   1.000000
    126        -10.374441   1.000000
    127        -10.299617   1.000000
    128        -10.299154   1.000000
    129        -10.275902   1.000000
    130        -10.238978   1.000000
    131        -10.230732   1.000000
    132        -10.207383   1.000000
    133        -10.198320   1.000000
    134        -10.107871   1.000000
    135        -10.081960   1.000000
    136        -10.066608   1.000000
    137        -10.029204   1.000000
    138        -10.021428   1.000000
    139         -9.984648   1.000000
    140         -9.984192   1.000000
    141         -9.916924   1.000000
    142         -9.906502   1.000000
    143         -9.822384   1.000000
    144         -9.792889   1.000000
    145         -9.792267   1.000000
    146         -9.780395   1.000000
    147         -9.770886   1.000000
    148         -9.749952   1.000000
    149         -9.725529   1.000000
    150         -9.606979   1.000000
    151         -9.601800   1.000000
    152         -9.592634   1.000000
    153         -9.548399   1.000000
    154         -9.353174   1.000000
    155         -9.296289   1.000000
    156         -9.252221   1.000000
    157         -9.180111   1.000000
    158         -9.096146   1.000000
    159         -9.091152   1.000000
    160         -9.082973   1.000000
    161         -9.033577   1.000000
    162         -8.953439   1.000000
    163         -8.951776   1.000000
    164         -8.874820   1.000000
    165         -8.854878   1.000000
    166         -8.843499   1.000000
    167         -8.770147   1.000000
    168         -8.758654   1.000000
    169         -8.718362   1.000000
    170         -8.705530   1.000000
    171         -8.688789   1.000000
    172         -8.510853   1.000000
    173         -8.488663   1.000000
    174         -8.464173   1.000000
    175         -8.459086   1.000000
    176         -8.446210   1.000000
    177         -8.437838   1.000000
    178         -8.409589   1.000000
    179         -8.315994   1.000000
    180         -8.288703   1.000000
    181         -8.239778   1.000000
    182         -8.239101   1.000000
    183         -8.235944   1.000000
    184         -8.223083   1.000000
    185         -8.207264   1.000000
    186         -8.181355   1.000000
    187         -8.158381   1.000000
    188         -8.147563   1.000000
    189         -8.145027   1.000000
    190         -8.073133   1.000000
    191         -8.010178   1.000000
    192         -7.977103   1.000000
    193         -7.962273   1.000000
    194         -7.931526   1.000000
    195         -7.905487   1.000000
    196         -7.905392   1.000000
    197         -7.887680   1.000000
    198         -7.866754   1.000000
    199         -7.847730   1.000000
    200         -7.804289   1.000000
    201         -7.802195   1.000000
    202         -7.784219   1.000000
    203         -7.780448   1.000000
    204         -7.740170   1.000000
    205         -7.719242   1.000000
    206         -7.583558   1.000000
    207         -7.540763   1.000000
    208         -7.522131   1.000000
    209         -7.496029   1.000000
    210         -7.493665   1.000000
    211         -7.400975   1.000000
    212         -7.389537   1.000000
    213         -7.380252   1.000000
    214         -7.346806   1.000000
    215         -7.331182   1.000000
    216         -7.326055   1.000000
    217         -7.316316   1.000000
    218         -7.299308   1.000000
    219         -7.234928   1.000000
    220         -7.125972   1.000000
    221         -7.122307   1.000000
    222         -7.099937   1.000000
    223         -7.099163   1.000000
    224         -7.095046   1.000000
    225         -7.089967   1.000000
    226         -7.086539   1.000000
    227         -7.069095   1.000000
    228         -7.053573   1.000000
    229         -7.025755   1.000000
    230         -7.016841   1.000000
    231         -7.012482   1.000000
    232         -6.976199   1.000000
    233         -6.947557   1.000000
    234         -6.920467   1.000000
    235         -6.884973   1.000000
    236         -6.848178   1.000000
    237         -6.828763   1.000000
    238         -6.740172   1.000000
    239         -6.724275   1.000000
    240         -6.677573   1.000000
    241         -6.672430   1.000000
    242         -6.667433   1.000000
    243         -6.630502   1.000000
    244         -6.630074   1.000000
    245         -6.629441   1.000000
    246         -6.619039   1.000000
    247         -6.607678   1.000000
    248         -6.588726   1.000000
    249         -6.579040   1.000000
    250         -6.576813   1.000000
    251         -6.499247   1.000000
    252         -6.475326   1.000000
    253         -6.465946   1.000000
    254         -6.453978   1.000000
    255         -6.437159   1.000000
    256         -6.364876   1.000000
    257         -6.324473   1.000000
    258         -6.306551   1.000000
    259         -6.304735   1.000000
    260         -6.299013   1.000000
    261         -6.297610   1.000000
    262         -6.286389   1.000000
    263         -6.275307   1.000000
    264         -6.229554   1.000000
    265         -6.228659   1.000000
    266         -6.209656   1.000000
    267         -6.203551   1.000000
    268         -6.189072   1.000000
    269         -6.149591   1.000000
    270         -6.105697   1.000000
    271         -6.057098   1.000000
    272         -6.030474   1.000000
    273         -6.023125   1.000000
    274         -6.019686   1.000000
    275         -6.014199   1.000000
    276         -5.998063   1.000000
    277         -5.974223   1.000000
    278         -5.964583   1.000000
    279         -5.937597   1.000000
    280         -5.925163   1.000000
    281         -5.906402   1.000000
    282         -5.875923   1.000000
    283         -5.867140   1.000000
    284         -5.858100   1.000000
    285         -5.851825   1.000000
    286         -5.838641   1.000000
    287         -5.828600   1.000000
    288         -5.807043   1.000000
    289         -5.786708   1.000000
    290         -5.759739   1.000000
    291         -5.719370   1.000000
    292         -5.687516   1.000000
    293         -5.685512   1.000000
    294         -5.659622   1.000000
    295         -5.651566   1.000000
    296         -5.624355   1.000000
    297         -5.621842   1.000000
    298         -5.610492   1.000000
    299         -5.608341   1.000000
    300         -5.587819   1.000000
    301         -5.540686   1.000000
    302         -5.535322   1.000000
    303         -5.484268   1.000000
    304         -5.423043   1.000000
    305         -5.415817   1.000000
    306         -5.402771   1.000000
    307         -5.390276   1.000000
    308         -5.387631   1.000000
    309         -5.352823   1.000000
    310         -5.349221   1.000000
    311         -5.288141   1.000000
    312         -5.287787   1.000000
    313         -5.266384   1.000000
    314         -5.262827   1.000000
    315         -5.259597   1.000000
    316         -5.249157   1.000000
    317         -5.202953   1.000000
    318         -5.192498   1.000000
    319         -5.182598   1.000000
    320         -5.160734   1.000000
    321         -5.149755   1.000000
    322         -5.094199   1.000000
    323         -5.078248   1.000000
    324         -5.049974   1.000000
    325         -5.017088   1.000000
    326         -5.013682   1.000000
    327         -4.990151   1.000000
    328         -4.978603   1.000000
    329         -4.965884   1.000000
    330         -4.962542   1.000000
    331         -4.945210   1.000000
    332         -4.931864   1.000000
    333         -4.930407   1.000000
    334         -4.925102   1.000000
    335         -4.918664   1.000000
    336         -4.911891   1.000000
    337         -4.911006   1.000000
    338         -4.908354   1.000000
    339         -4.903164   1.000000
    340         -4.887410   1.000000
    341         -4.857790   1.000000
    342         -4.848260   1.000000
    343         -4.839255   1.000000
    344         -4.815231   1.000000
    345         -4.803277   1.000000
    346         -4.744773   1.000000
    347         -4.688104   1.000000
    348         -4.684628   1.000000
    349         -4.657044   1.000000
    350         -4.633261   1.000000
    351         -4.509769   1.000000
    352         -4.507421   1.000000
    353         -4.503639   1.000000
    354         -4.444597   1.000000
    355         -4.399084   1.000000
    356         -4.356548   1.000000
    357         -4.309740   1.000000
    358         -4.297712   1.000000
    359         -4.286105   1.000000
    360         -4.262804   1.000000
    361         -4.255350   1.000000
    362         -4.249956   1.000000
    363         -4.238781   1.000000
    364         -4.236855   1.000000
    365         -4.208330   1.000000
    366         -4.192410   1.000000
    367         -4.180836   1.000000
    368         -4.174042   1.000000
    369         -4.169396   1.000000
    370         -4.137630   1.000000
    371         -4.036515   1.000000
    372         -4.000132   1.000000
    373         -3.966602   1.000000
    374         -3.854271   1.000000
    375         -3.820714   1.000000
    376         -3.817973   1.000000
    377         -3.795131   1.000000
    378         -3.781108   1.000000
    379         -3.758801   1.000000
    380         -3.735475   1.000000
    381         -3.729419   1.000000
    382         -3.692910   1.000000
    383         -3.688271   0.999999
    384         -3.590735   0.999747
    385         -3.545272   0.997709
    386         -3.520096   0.993412
    387         -3.392414   0.749623
    388         -3.387175   0.725482
    389         -3.369224   0.635080
    390         -3.340730   0.477022
    391         -3.245079   0.079221
    392         -2.790801   0.000000
    393         -2.699560   0.000000
    394         -2.295633   0.000000
    395         -2.284261   0.000000
    396         -2.236968   0.000000
    397         -2.235102   0.000000
    398         -2.232951   0.000000
    399         -2.224865   0.000000
    400         -2.189112   0.000000
    401         -2.155988   0.000000
    402         -2.103389   0.000000
    403         -2.068221   0.000000
    404         -2.040497   0.000000
    405         -1.776989   0.000000
    406         -1.610630   0.000000
    407         -1.576500   0.000000
    408         -1.568214   0.000000
    409         -1.478558   0.000000
    410         -1.445251   0.000000
    411         -1.352194   0.000000
    412         -1.293971   0.000000
    413         -1.210657   0.000000
    414         -1.126145   0.000000
    415         -0.752620   0.000000
    416         -0.697811   0.000000
    417         -0.660574   0.000000
    418         -0.644130   0.000000
    419         -0.632367   0.000000
    420         -0.588051   0.000000
    421         -0.547189   0.000000
    422         -0.467174   0.000000
    423         -0.397229   0.000000
    424         -0.396042   0.000000
    425         -0.373020   0.000000
    426         -0.269329   0.000000
    427         -0.226944   0.000000
    428         -0.104429   0.000000
    429         -0.060433   0.000000
    430          0.059846   0.000000
    431          0.081543   0.000000
    432          0.109631   0.000000
    433          0.193039   0.000000
    434          0.255671   0.000000
    435          0.266950   0.000000
    436          0.305179   0.000000
    437          0.325784   0.000000
    438          0.349294   0.000000
    439          0.360257   0.000000
    440          0.388647   0.000000
    441          0.396017   0.000000
    442          0.407787   0.000000
    443          0.469117   0.000000
    444          0.487767   0.000000
    445          0.518637   0.000000
    446          0.563700   0.000000
    447          0.570258   0.000000
    448          0.571832   0.000000
    449          0.660534   0.000000
    450          0.666622   0.000000
    451          0.700101   0.000000
    452          0.733646   0.000000
    453          0.740082   0.000000
    454          0.743954   0.000000
    455          0.801004   0.000000
    456          0.802425   0.000000
    457          0.845714   0.000000
    458          0.859264   0.000000
    459          0.873712   0.000000
    460          0.915573   0.000000
    461          0.934393   0.000000
    462          1.037392   0.000000
    463          1.117455   0.000000
    464          1.130126   0.000000
    465          1.143528   0.000000
    466          1.193064   0.000000
    467          1.196105   0.000000
    468          1.223171   0.000000
    469          1.226720   0.000000
    470          1.229757   0.000000
    471          1.288818   0.000000
    472          1.325451   0.000000
    473          1.345034   0.000000
    474          1.347767   0.000000
    475          1.361234   0.000000
    476          1.379015   0.000000
    477          1.384456   0.000000
    478          1.405409   0.000000
    479          1.421180   0.000000
    480          1.455737   0.000000
    481          1.459909   0.000000
    482          1.484136   0.000000
    483          1.500068   0.000000
    484          1.508784   0.000000
    485          1.537129   0.000000
    486          1.574328   0.000000
    487          1.589520   0.000000
    488          1.590815   0.000000
    489          1.608582   0.000000
    490          1.623853   0.000000
    491          1.628244   0.000000
    492          1.636826   0.000000
    493          1.660600   0.000000
    494          1.666708   0.000000
    495          1.676685   0.000000
    496          1.713928   0.000000
    497          1.770888   0.000000
    498          1.791812   0.000000
    499          1.803901   0.000000
    500          1.823638   0.000000
    501          1.838773   0.000000
    502          1.878352   0.000000
    503          1.928451   0.000000
    504          1.958603   0.000000
    505          1.984228   0.000000
    506          1.992148   0.000000
    507          2.005659   0.000000
    508          2.011400   0.000000
    509          2.076320   0.000000
    510          2.088695   0.000000
    511          2.110633   0.000000
    512          2.122885   0.000000
    513          2.150248   0.000000
    514          2.158714   0.000000
    515          2.159188   0.000000
    516          2.159609   0.000000
    517          2.164266   0.000000
    518          2.178846   0.000000
    519          2.216786   0.000000
    520          2.247576   0.000000
    521          2.270249   0.000000
    522          2.272814   0.000000
    523          2.303005   0.000000
    524          2.350382   0.000000
    525          2.363998   0.000000
    526          2.399538   0.000000
    527          2.422050   0.000000
    528          2.455815   0.000000
