o-B14 monolayer                         
   1.00000000000000     
     5.6997579760202353   -0.0000000000000000    0.0000000000000000
    -0.0000000000000000    6.3141337783986620    0.0000000000000000
     0.0000000000000000    0.0000000000000000   24.0440583230000016
  B             
    14
Direct
     0.5138222918212779    0.6407639677282353    0.0840968331484078
     0.4861777082313448    0.3592360322556423    0.0840968331484078
     0.9861777082576563    0.6407639677282353    0.0840968331484078
     0.0138222917949666    0.3592360322556423    0.0840968331484078
     0.5960908621472780    0.9012221346428405    0.0840968331484078
     0.4039091379053448    0.0987778579239232    0.0840968331484078
     0.9039091379316562    0.9012221346428405    0.0840968331484078
     0.0960908621209666    0.0987778579239232    0.0840968331484078
     0.7499999999517613    0.7237839467800244    0.1254179982884582
     0.2499999999254499    0.2762160532038533    0.0427756705453786
     0.7499999999517613    0.7237839467800244    0.0427756705453786
     0.2499999999254499    0.2762160532038533    0.1254179982884582
     0.2499999999254499    0.5164876553275674    0.0840968331484078
     0.7499999999517613    0.4835123149878473    0.0840968331484078
 
  0.00000000E+00  0.00000000E+00  0.00000000E+00
  0.00000000E+00  0.00000000E+00  0.00000000E+00
  0.00000000E+00  0.00000000E+00  0.00000000E+00
  0.00000000E+00  0.00000000E+00  0.00000000E+00
  0.00000000E+00  0.00000000E+00  0.00000000E+00
  0.00000000E+00  0.00000000E+00  0.00000000E+00
  0.00000000E+00  0.00000000E+00  0.00000000E+00
  0.00000000E+00  0.00000000E+00  0.00000000E+00
  0.00000000E+00  0.00000000E+00  0.00000000E+00
  0.00000000E+00  0.00000000E+00  0.00000000E+00
  0.00000000E+00  0.00000000E+00  0.00000000E+00
  0.00000000E+00  0.00000000E+00  0.00000000E+00
  0.00000000E+00  0.00000000E+00  0.00000000E+00
  0.00000000E+00  0.00000000E+00  0.00000000E+00
