o-B14 monolayer                         
   1.00000000000000     
     5.7009706497000003    0.0000000000000000    0.0000000000000000
     0.0000000000000000    6.2018713951000004    0.0000000000000000
     0.0000000000000000    0.0000000000000000   24.0440583230000016
  B             
    14
Direct
  0.5212898851104200  0.6379576921130621  0.0840968331484078
  0.4787101149422028  0.3620423078708157  0.0840968331484078
  0.9787101149685142  0.6379576921130621  0.0840968331484078
  0.0212898850841086  0.3620423078708157  0.0840968331484078
  0.5974496602923622  0.8998683094927387  0.0840968331484078
  0.4025503397602606  0.1001316830740251  0.0840968331484078
  0.9025503397865720  0.8998683094927387  0.0840968331484078
  0.0974496602660508  0.1001316830740251  0.0840968331484078
  0.7499999999517613  0.7295793891461457  0.1331362096197353
  0.2499999999254499  0.2704206108377321  0.0350574592141015
  0.7499999999517613  0.7295793891461457  0.0350574592141015
  0.2499999999254499  0.2704206108377321  0.1331362096197353
  0.2499999999254499  0.5239930153288199  0.0840968331484078
  0.7499999999517613  0.4760069549865946  0.0840968331484078
