k-points
0
Monkhorst-pack
10  14  9
0   0   0