 running   42 mpi-ranks, on    1 nodes
 distrk:  each k-point on   42 cores,    1 groups
 distr:  one band on    7 cores,    6 groups
 vasp.6.5.0 16Dec24 (build Jan 08 2025 16:17:04) complex                        
  
 POSCAR found type information on POSCAR B H 
 POSCAR found :  2 types and     162 ions
 Reading from existing POTCAR
 scaLAPACK will be used
 Reading from existing POTCAR
 LDA part: xc-table for (Slater+PW92), standard interpolation
 POSCAR, INCAR and KPOINTS ok, starting setup
 FFT: planning ... GRIDC
 FFT: planning ... GRID_SOFT
 FFT: planning ... GRID
 WAVECAR not read
 entering main loop
       N       E                     dE             d eps       ncg     rms          rms(c)
DAV:   1     0.331492700888E+04    0.33149E+04   -0.13792E+05  3744   0.108E+03
DAV:   2    -0.408980221630E+03   -0.37239E+04   -0.36000E+04  5244   0.229E+02
DAV:   3    -0.100411670813E+04   -0.59514E+03   -0.58980E+03  4404   0.986E+01
DAV:   4    -0.102327696517E+04   -0.19160E+02   -0.19030E+02  4416   0.198E+01
DAV:   5    -0.102379720626E+04   -0.52024E+00   -0.51896E+00  4740   0.292E+00    0.423E+01
DAV:   6    -0.963724459293E+03    0.60073E+02   -0.60126E+01  3972   0.106E+01    0.237E+01
DAV:   7    -0.940424912716E+03    0.23300E+02   -0.71131E+01  4188   0.108E+01    0.486E+00
DAV:   8    -0.940180753018E+03    0.24416E+00   -0.55157E+00  4428   0.355E+00    0.229E+00
DAV:   9    -0.939981441191E+03    0.19931E+00   -0.64260E-01  4536   0.173E+00    0.147E+00
DAV:  10    -0.939790991926E+03    0.19045E+00   -0.57832E-01  4512   0.126E+00    0.728E-01
DAV:  11    -0.939762960578E+03    0.28031E-01   -0.97880E-02  4392   0.616E-01    0.498E-01
DAV:  12    -0.939742651386E+03    0.20309E-01   -0.52838E-02  4356   0.437E-01    0.327E-01
DAV:  13    -0.939727234150E+03    0.15417E-01   -0.85832E-02  4272   0.394E-01    0.200E-01
DAV:  14    -0.939734641811E+03   -0.74077E-02   -0.11862E-02  4332   0.195E-01    0.157E-01
DAV:  15    -0.939747174151E+03   -0.12532E-01   -0.58976E-03  3936   0.151E-01    0.105E-01
DAV:  16    -0.939755027389E+03   -0.78532E-02   -0.47405E-03  4092   0.114E-01    0.706E-02
DAV:  17    -0.939759987560E+03   -0.49602E-02   -0.11360E-03  4272   0.564E-02    0.498E-02
DAV:  18    -0.939772725766E+03   -0.12738E-01   -0.11757E-03  3912   0.451E-02    0.296E-02
DAV:  19    -0.939778876966E+03   -0.61512E-02   -0.42482E-04  3996   0.282E-02    0.179E-02
DAV:  20    -0.939783215420E+03   -0.43385E-02   -0.23305E-04  4092   0.178E-02    0.125E-02
DAV:  21    -0.939786029407E+03   -0.28140E-02   -0.14700E-04  4032   0.134E-02    0.772E-03
DAV:  22    -0.939787394869E+03   -0.13655E-02   -0.53253E-05  4008   0.805E-03    0.496E-03
DAV:  23    -0.939788061004E+03   -0.66614E-03   -0.18839E-05  3924   0.525E-03    0.310E-03
DAV:  24    -0.939788391624E+03   -0.33062E-03   -0.75677E-06  3660   0.323E-03    0.179E-03
DAV:  25    -0.939788588924E+03   -0.19730E-03   -0.40858E-06  3456   0.198E-03    0.929E-04
DAV:  26    -0.939788667838E+03   -0.78915E-04   -0.13236E-06  3228   0.112E-03    0.454E-04
DAV:  27    -0.939788696095E+03   -0.28257E-04   -0.31252E-07  2784   0.577E-04    0.235E-04
DAV:  28    -0.939788705322E+03   -0.92264E-05   -0.11744E-07  2880   0.309E-04    0.109E-04
DAV:  29    -0.939788708756E+03   -0.34342E-05   -0.28422E-08  2688   0.186E-04    0.532E-05
DAV:  30    -0.939788709627E+03   -0.87157E-06    0.86140E-10  2700   0.112E-04
   1 F= -.95251714E+03 E0= -.95242200E+03  d E =-.190269E+00
