 vasp.6.5.0 16Dec24 (build Jan 08 2025 16:17:04) complex                        
  
 executed on             LinuxIFC date 2025.05.21  23:03:41
 running   42 mpi-ranks, on    1 nodes
 distrk:  each k-point on   42 cores,    1 groups
 distr:  one band on NCORE=   1 cores,   42 groups


--------------------------------------------------------------------------------------------------------


 INCAR:
   SYSTEM = SCF
   ISTART = 0
   ICHARG = 2
   PREC = Accurate
   ENCUT = 600
   LCHARG = .TRUE.
   LWAVE = .TRUE.
   ALGO = Normal
   NELM = 150
   EDIFF = 1E-6
   EDIFFG = -1E-3
   SIGMA = 0.1
   ISMEAR = 0
   SYMPREC = 1E-6
   IBRION = -1
   NCORE = 8
   GGA = PE
   IVDW = 12
   LDIPOL = .TRUE.
   IDIPOL = 3
   DIPOL = 0.5 0.5 0.200879

 POTCAR:    PAW_PBE B 06Sep2000                   
 -----------------------------------------------------------------------------
|                                                                             |
|           W    W    AA    RRRRR   N    N  II  N    N   GGGG   !!!           |
|           W    W   A  A   R    R  NN   N  II  NN   N  G    G  !!!           |
|           W    W  A    A  R    R  N N  N  II  N N  N  G       !!!           |
|           W WW W  AAAAAA  RRRRR   N  N N  II  N  N N  G  GGG   !            |
|           WW  WW  A    A  R   R   N   NN  II  N   NN  G    G                |
|           W    W  A    A  R    R  N    N  II  N    N   GGGG   !!!           |
|                                                                             |
|     The value NCORE = 8 specified in the INCAR file was overwritten,        |
|     because it was not compatible with the 42 processes available:          |
|     NCORE = 1                                                               |
|     was used instead, please check that this makes sense for your           |
|     machine.                                                                |
|                                                                             |
 -----------------------------------------------------------------------------

 -----------------------------------------------------------------------------
|                                                                             |
|           W    W    AA    RRRRR   N    N  II  N    N   GGGG   !!!           |
|           W    W   A  A   R    R  NN   N  II  NN   N  G    G  !!!           |
|           W    W  A    A  R    R  N N  N  II  N N  N  G       !!!           |
|           W WW W  AAAAAA  RRRRR   N  N N  II  N  N N  G  GGG   !            |
|           WW  WW  A    A  R   R   N   NN  II  N   NN  G    G                |
|           W    W  A    A  R    R  N    N  II  N    N   GGGG   !!!           |
|                                                                             |
|     For optimal performance we recommend to set                             |
|       NCORE = 2 up to number-of-cores-per-socket                            |
|     NCORE specifies how many cores store one orbital (NPAR=cpu/NCORE).      |
|     This setting can greatly improve the performance of VASP for DFT.       |
|     The default, NCORE=1 might be grossly inefficient on modern             |
|     multi-core architectures or massively parallel machines. Do your        |
|     own testing! More info at https://www.vasp.at/wiki/index.php/NCORE      |
|     Unfortunately you need to use the default for GW and RPA                |
|     calculations (for HF NCORE is supported but not extensively tested      |
|     yet).                                                                   |
|                                                                             |
 -----------------------------------------------------------------------------

 POTCAR:    PAW_PBE B 06Sep2000                   
   SHA256 =  a32ced30f5ae56fd4d10b4325ff17eb3e4e38ee0f4288bc219fb012fddfa6e97 B/POTCAR              
   COPYR  = (c) Copyright 06Sep2000 Georg Kresse                                                    
   COPYR  = This file is part of the software VASP. Any use, copying, and all other rights are regul
   COPYR  = If you do not have a valid VASP license, you may not use, copy or distribute this file. 
   VRHFIN =B: s2p1                                                                                  
   LEXCH  = PE                                                                                      
   EATOM  =    71.1703 eV,    5.2309 Ry                                                             
                                                                                                    
   TITEL  = PAW_PBE B 06Sep2000                                                                     
   LULTRA =        F    use ultrasoft PP ?                                                          
   IUNSCR =        1    unscreen: 0-lin 1-nonlin 2-no                                               
   RPACOR =    1.200    partial core radius                                                         
   POMASS =   10.811; ZVAL   =    3.000    mass and valenz                                          
   RCORE  =    1.700    outmost cutoff radius                                                       
   RWIGS  =    1.710; RWIGS  =    0.905    wigner-seitz radius (au A)                               
   ENMAX  =  318.614; ENMIN  =  238.960 eV                                                          
   ICORE  =        2    local potential                                                             
   LCOR   =        T    correct aug charges                                                         
   LPAW   =        T    paw PP                                                                      
   EAUG   =  535.514                                                                                
   DEXC   =    0.000                                                                                
   RMAX   =    1.732    core radius for proj-oper                                                   
   RAUG   =    1.300    factor for augmentation sphere                                              
   RDEP   =    1.757    radius for radial grids                                                     
   RDEPT  =    1.436    core radius for aug-charge                                                  
                                                                                                    
   Atomic configuration                                                                             
    4 entries                                                                                       
     n  l   j            E        occ.                                                              
     1  0  0.50      -180.5896   2.0000                                                             
     2  0  0.50        -9.4431   2.0000                                                             
     2  1  0.50        -3.6068   1.0000                                                             
     3  2  1.50        -4.0817   0.0000                                                             
   Description                                                                                      
     l       E           TYP  RCUT    TYP  RCUT                                                     
     0     -9.4430752     23  1.500                                                                 
     0      0.8675899     23  1.500                                                                 
     1     -3.6067955     23  1.700                                                                 
     1      6.1086146     23  1.700                                                                 
     2     -4.0817478      7  1.700                                                                 
  local pseudopotential read in
  partial core-charges read in
  partial kinetic energy density read in
  atomic valenz-charges read in
  non local Contribution for L=           0  read in
    real space projection operators read in
  non local Contribution for L=           0  read in
    real space projection operators read in
  non local Contribution for L=           1  read in
    real space projection operators read in
  non local Contribution for L=           1  read in
    real space projection operators read in
    PAW grid and wavefunctions read in
 
   number of l-projection  operators is LMAX  =           4
   number of lm-projection operators is LMMAX =           8
 
 -----------------------------------------------------------------------------
|                                                                             |
|               ----> ADVICE to this user running VASP <----                  |
|                                                                             |
|     You have a (more or less) 'large supercell' and for larger cells it     |
|     might be more efficient to use real-space projection operators.         |
|     Therefore, try LREAL= Auto in the INCAR file.                           |
|     Mind: For very accurate calculation, you might also keep the            |
|     reciprocal projection scheme (i.e. LREAL=.FALSE.).                      |
|                                                                             |
 -----------------------------------------------------------------------------

  PAW_PBE B 06Sep2000                   :
 energy of atom  1       EATOM=  -71.1703
 kinetic energy error for atom=    0.0007 (will be added to EATOM!!)
 
 
 POSCAR: o-B14 bilayer with hydrogen termination
  positions in direct lattice
  No initial velocities read in
 IVDW         = 12
 VDW_S6       =    1.0000
 VDW_S8       =    0.7875
 VDW_A1       =    0.4289
 VDW_A2       =    4.4407
 VDW_RADIUS   =   50.2022 A
 VDW_CNRADIUS =   21.1671 A


 exchange-correlation table for PE
   RHO(1)=    0.500       N(1)  =     2000
   RHO(2)=  100.500       N(2)  =     4000
 


--------------------------------------------------------------------------------------------------------


 ion  position               nearest neighbor table
   1  0.523  0.638  0.134-  27 1.64   9 1.67  25 1.69   3 1.71  21 1.84  17 1.86
   2  0.523  0.638  0.268-  28 1.64  10 1.67  26 1.69   4 1.71  18 1.84  22 1.86
   3  0.477  0.362  0.134-  25 1.64  11 1.67  27 1.69   1 1.71  19 1.84  23 1.86
   4  0.477  0.362  0.268-  26 1.64  12 1.67  28 1.69   2 1.71  24 1.84  20 1.86
   5  0.977  0.638  0.134-  27 1.64  13 1.67  25 1.69   7 1.71  21 1.84  17 1.86
   6  0.977  0.638  0.268-  28 1.64  14 1.67  26 1.69   8 1.71  18 1.84  22 1.86
   7  0.023  0.362  0.134-  25 1.64  15 1.67  27 1.69   5 1.71  19 1.84  23 1.86
   8  0.023  0.362  0.268-  26 1.64  16 1.67  28 1.69   6 1.71  24 1.84  20 1.86
   9  0.598  0.900  0.133-  11 1.66   1 1.67  13 1.73  21 1.80  17 1.81
  10  0.598  0.900  0.269-  12 1.66   2 1.67  14 1.73  18 1.80  22 1.81
  11  0.402  0.100  0.133-   9 1.66   3 1.67  15 1.73  19 1.80  23 1.81
  12  0.402  0.100  0.269-  10 1.66   4 1.67  16 1.73  24 1.80  20 1.81
  13  0.902  0.900  0.133-  15 1.66   5 1.67   9 1.73  21 1.80  17 1.81
  14  0.902  0.900  0.269-  16 1.66   6 1.67  10 1.73  18 1.80  22 1.81
  15  0.098  0.100  0.133-  13 1.66   7 1.67  11 1.73  19 1.80  23 1.81
  16  0.098  0.100  0.269-  14 1.66   8 1.67  12 1.73  24 1.80  20 1.81
  17  0.750  0.733  0.174-  22 1.65   9 1.81  13 1.81   1 1.86   5 1.86  27 1.99
  18  0.750  0.729  0.308-  10 1.80  14 1.80   2 1.84   6 1.84  28 1.97
  19  0.250  0.271  0.094-  15 1.80  11 1.80   7 1.84   3 1.84  25 1.97
  20  0.250  0.267  0.228-  23 1.65  16 1.81  12 1.81   8 1.86   4 1.86  26 1.99
  21  0.750  0.729  0.094-   9 1.80  13 1.80   1 1.84   5 1.84  27 1.97
  22  0.750  0.733  0.228-  17 1.65  10 1.81  14 1.81   2 1.86   6 1.86  28 1.99
  23  0.250  0.267  0.174-  20 1.65  15 1.81  11 1.81   7 1.86   3 1.86  25 1.99
  24  0.250  0.271  0.308-  16 1.80  12 1.80   8 1.84   4 1.84  26 1.97
  25  0.250  0.526  0.134-   7 1.64   3 1.64   5 1.69   1 1.69  19 1.97  23 1.99
  26  0.250  0.526  0.268-   8 1.64   4 1.64   6 1.69   2 1.69  24 1.97  20 1.99
  27  0.750  0.474  0.134-   1 1.64   5 1.64   3 1.69   7 1.69  21 1.97  17 1.99
  28  0.750  0.474  0.268-   2 1.64   6 1.64   4 1.69   8 1.69  18 1.97  22 1.99
 
  LATTYP: Found a simple orthorhombic cell.
 ALAT       =     5.6799960512
 B/A-ratio  =     1.0822386373
 C/A-ratio  =     5.2972073175
  
  Lattice vectors:
  
 A1 = (   5.6799960512,   0.0000000000,   0.0000000000)
 A2 = (   0.0000000000,   6.1471111863,   0.0000000000)
 A3 = (   0.0000000000,   0.0000000000,  30.0881166460)


Analysis of symmetry for initial positions (statically):
=====================================================================
 Subroutine PRICEL returns:
 Original cell was already a primitive cell.
 

 Routine SETGRP: Setting up the symmetry group for a 
 simple orthorhombic supercell.


 Subroutine GETGRP returns: Found  8 space group operations
 (whereof  2 operations were pure point group operations)
 out of a pool of  8 trial point group operations.


The static configuration has the point symmetry C_2 .
 The point group associated with its full space group is D_2h.


Analysis of symmetry for dynamics (positions and initial velocities):
=====================================================================
 Subroutine PRICEL returns:
 Original cell was already a primitive cell.
 

 Routine SETGRP: Setting up the symmetry group for a 
 simple orthorhombic supercell.


 Subroutine GETGRP returns: Found  8 space group operations
 (whereof  2 operations were pure point group operations)
 out of a pool of  8 trial point group operations.


The dynamic configuration has the point symmetry C_2 .
 The point group associated with its full space group is D_2h.


 Subroutine INISYM returns: Found  8 space group operations
 (whereof  2 operations are pure point group operations),
 and found     1 'primitive' translations


----------------------------------------------------------------------------------------

                                     Primitive cell                                     

  volume of cell :    1050.5437

  direct lattice vectors                    reciprocal lattice vectors
     5.679996051  0.000000000  0.000000000     0.176056460  0.000000000  0.000000000
     0.000000000  6.147111186  0.000000000     0.000000000  0.162678040  0.000000000
     0.000000000  0.000000000 30.088116646     0.000000000  0.000000000  0.033235713

  length of vectors
     5.679996051  6.147111186 30.088116646     0.176056460  0.162678040  0.033235713

  position of ions in fractional coordinates (direct lattice)
     0.522544594  0.637722951  0.133576343
     0.522544594  0.637722951  0.268180829
     0.477455406  0.362277049  0.133576343
     0.477455406  0.362277049  0.268180829
     0.977455406  0.637722951  0.133576343
     0.977455406  0.637722951  0.268180829
     0.022544594  0.362277049  0.133576343
     0.022544594  0.362277049  0.268180829
     0.598003454  0.900119093  0.132944581
     0.598003454  0.900119093  0.268812591
     0.401996546  0.099880900  0.132944581
     0.401996546  0.099880900  0.268812591
     0.901996546  0.900119093  0.132944581
     0.901996546  0.900119093  0.268812591
     0.098003454  0.099880900  0.132944581
     0.098003454  0.099880900  0.268812591
     0.750000000  0.733356163  0.173537855
     0.750000000  0.728793644  0.307767495
     0.250000000  0.271206356  0.093989678
     0.250000000  0.266643837  0.228219319
     0.750000000  0.728793644  0.093989678
     0.750000000  0.733356163  0.228219319
     0.250000000  0.266643837  0.173537855
     0.250000000  0.271206356  0.307767495
     0.250000000  0.525736376  0.133717215
     0.250000000  0.525736376  0.268039956
     0.750000000  0.474263595  0.133717215
     0.750000000  0.474263595  0.268039956

  ion indices of the primitive-cell ions
   primitive index   ion index
                 1           1
                 2           2
                 3           3
                 4           4
                 5           5
                 6           6
                 7           7
                 8           8
                 9           9
                10          10
                11          11
                12          12
                13          13
                14          14
                15          15
                16          16
                17          17
                18          18
                19          19
                20          20
                21          21
                22          22
                23          23
                24          24
                25          25
                26          26
                27          27
                28          28

----------------------------------------------------------------------------------------

 
 
 KPOINTS: k-points                                

Automatic generation of k-mesh.
 Grid dimensions read from file:
 generate k-points for:   20   18    1

 Generating k-lattice:

  Cartesian coordinates                     Fractional coordinates (reciprocal lattice)
     0.008802823  0.000000000  0.000000000     0.050000000  0.000000000  0.000000000
     0.000000000  0.009037669  0.000000000     0.000000000  0.055555556  0.000000000
     0.000000000  0.000000000  0.033235713     0.000000000  0.000000000  1.000000000

  Length of vectors
     0.008802823  0.009037669  0.033235713

  Shift w.r.t. Gamma in fractional coordinates (k-lattice)
     0.500000000  0.500000000  0.000000000

 
 Subroutine IBZKPT returns following result:
 ===========================================
 
 Found     90 irreducible k-points:
 
 Following reciprocal coordinates:
            Coordinates               Weight
  0.025000  0.027778  0.000000      4.000000
  0.075000  0.027778  0.000000      4.000000
  0.125000  0.027778  0.000000      4.000000
  0.175000  0.027778  0.000000      4.000000
  0.225000  0.027778  0.000000      4.000000
  0.275000  0.027778  0.000000      4.000000
  0.325000  0.027778  0.000000      4.000000
  0.375000  0.027778  0.000000      4.000000
  0.425000  0.027778  0.000000      4.000000
  0.475000  0.027778  0.000000      4.000000
  0.025000  0.083333  0.000000      4.000000
  0.075000  0.083333  0.000000      4.000000
  0.125000  0.083333  0.000000      4.000000
  0.175000  0.083333  0.000000      4.000000
  0.225000  0.083333  0.000000      4.000000
  0.275000  0.083333  0.000000      4.000000
  0.325000  0.083333  0.000000      4.000000
  0.375000  0.083333  0.000000      4.000000
  0.425000  0.083333  0.000000      4.000000
  0.475000  0.083333  0.000000      4.000000
  0.025000  0.138889  0.000000      4.000000
  0.075000  0.138889  0.000000      4.000000
  0.125000  0.138889  0.000000      4.000000
  0.175000  0.138889  0.000000      4.000000
  0.225000  0.138889  0.000000      4.000000
  0.275000  0.138889  0.000000      4.000000
  0.325000  0.138889  0.000000      4.000000
  0.375000  0.138889  0.000000      4.000000
  0.425000  0.138889  0.000000      4.000000
  0.475000  0.138889  0.000000      4.000000
  0.025000  0.194444  0.000000      4.000000
  0.075000  0.194444  0.000000      4.000000
  0.125000  0.194444  0.000000      4.000000
  0.175000  0.194444  0.000000      4.000000
  0.225000  0.194444  0.000000      4.000000
  0.275000  0.194444  0.000000      4.000000
  0.325000  0.194444  0.000000      4.000000
  0.375000  0.194444  0.000000      4.000000
  0.425000  0.194444  0.000000      4.000000
  0.475000  0.194444  0.000000      4.000000
  0.025000  0.250000  0.000000      4.000000
  0.075000  0.250000  0.000000      4.000000
  0.125000  0.250000  0.000000      4.000000
  0.175000  0.250000  0.000000      4.000000
  0.225000  0.250000  0.000000      4.000000
  0.275000  0.250000  0.000000      4.000000
  0.325000  0.250000  0.000000      4.000000
  0.375000  0.250000  0.000000      4.000000
  0.425000  0.250000  0.000000      4.000000
  0.475000  0.250000  0.000000      4.000000
  0.025000  0.305556  0.000000      4.000000
  0.075000  0.305556  0.000000      4.000000
  0.125000  0.305556  0.000000      4.000000
  0.175000  0.305556  0.000000      4.000000
  0.225000  0.305556  0.000000      4.000000
  0.275000  0.305556  0.000000      4.000000
  0.325000  0.305556  0.000000      4.000000
  0.375000  0.305556  0.000000      4.000000
  0.425000  0.305556  0.000000      4.000000
  0.475000  0.305556  0.000000      4.000000
  0.025000  0.361111  0.000000      4.000000
  0.075000  0.361111  0.000000      4.000000
  0.125000  0.361111  0.000000      4.000000
  0.175000  0.361111  0.000000      4.000000
  0.225000  0.361111  0.000000      4.000000
  0.275000  0.361111  0.000000      4.000000
  0.325000  0.361111  0.000000      4.000000
  0.375000  0.361111  0.000000      4.000000
  0.425000  0.361111  0.000000      4.000000
  0.475000  0.361111  0.000000      4.000000
  0.025000  0.416667  0.000000      4.000000
  0.075000  0.416667  0.000000      4.000000
  0.125000  0.416667  0.000000      4.000000
  0.175000  0.416667  0.000000      4.000000
  0.225000  0.416667  0.000000      4.000000
  0.275000  0.416667  0.000000      4.000000
  0.325000  0.416667  0.000000      4.000000
  0.375000  0.416667  0.000000      4.000000
  0.425000  0.416667  0.000000      4.000000
  0.475000  0.416667  0.000000      4.000000
  0.025000  0.472222  0.000000      4.000000
  0.075000  0.472222  0.000000      4.000000
  0.125000  0.472222  0.000000      4.000000
  0.175000  0.472222  0.000000      4.000000
  0.225000  0.472222  0.000000      4.000000
  0.275000  0.472222  0.000000      4.000000
  0.325000  0.472222  0.000000      4.000000
  0.375000  0.472222  0.000000      4.000000
  0.425000  0.472222  0.000000      4.000000
  0.475000  0.472222  0.000000      4.000000
 
 Following cartesian coordinates:
            Coordinates               Weight
  0.004401  0.004519  0.000000      4.000000
  0.013204  0.004519  0.000000      4.000000
  0.022007  0.004519  0.000000      4.000000
  0.030810  0.004519  0.000000      4.000000
  0.039613  0.004519  0.000000      4.000000
  0.048416  0.004519  0.000000      4.000000
  0.057218  0.004519  0.000000      4.000000
  0.066021  0.004519  0.000000      4.000000
  0.074824  0.004519  0.000000      4.000000
  0.083627  0.004519  0.000000      4.000000
  0.004401  0.013557  0.000000      4.000000
  0.013204  0.013557  0.000000      4.000000
  0.022007  0.013557  0.000000      4.000000
  0.030810  0.013557  0.000000      4.000000
  0.039613  0.013557  0.000000      4.000000
  0.048416  0.013557  0.000000      4.000000
  0.057218  0.013557  0.000000      4.000000
  0.066021  0.013557  0.000000      4.000000
  0.074824  0.013557  0.000000      4.000000
  0.083627  0.013557  0.000000      4.000000
  0.004401  0.022594  0.000000      4.000000
  0.013204  0.022594  0.000000      4.000000
  0.022007  0.022594  0.000000      4.000000
  0.030810  0.022594  0.000000      4.000000
  0.039613  0.022594  0.000000      4.000000
  0.048416  0.022594  0.000000      4.000000
  0.057218  0.022594  0.000000      4.000000
  0.066021  0.022594  0.000000      4.000000
  0.074824  0.022594  0.000000      4.000000
  0.083627  0.022594  0.000000      4.000000
  0.004401  0.031632  0.000000      4.000000
  0.013204  0.031632  0.000000      4.000000
  0.022007  0.031632  0.000000      4.000000
  0.030810  0.031632  0.000000      4.000000
  0.039613  0.031632  0.000000      4.000000
  0.048416  0.031632  0.000000      4.000000
  0.057218  0.031632  0.000000      4.000000
  0.066021  0.031632  0.000000      4.000000
  0.074824  0.031632  0.000000      4.000000
  0.083627  0.031632  0.000000      4.000000
  0.004401  0.040670  0.000000      4.000000
  0.013204  0.040670  0.000000      4.000000
  0.022007  0.040670  0.000000      4.000000
  0.030810  0.040670  0.000000      4.000000
  0.039613  0.040670  0.000000      4.000000
  0.048416  0.040670  0.000000      4.000000
  0.057218  0.040670  0.000000      4.000000
  0.066021  0.040670  0.000000      4.000000
  0.074824  0.040670  0.000000      4.000000
  0.083627  0.040670  0.000000      4.000000
  0.004401  0.049707  0.000000      4.000000
  0.013204  0.049707  0.000000      4.000000
  0.022007  0.049707  0.000000      4.000000
  0.030810  0.049707  0.000000      4.000000
  0.039613  0.049707  0.000000      4.000000
  0.048416  0.049707  0.000000      4.000000
  0.057218  0.049707  0.000000      4.000000
  0.066021  0.049707  0.000000      4.000000
  0.074824  0.049707  0.000000      4.000000
  0.083627  0.049707  0.000000      4.000000
  0.004401  0.058745  0.000000      4.000000
  0.013204  0.058745  0.000000      4.000000
  0.022007  0.058745  0.000000      4.000000
  0.030810  0.058745  0.000000      4.000000
  0.039613  0.058745  0.000000      4.000000
  0.048416  0.058745  0.000000      4.000000
  0.057218  0.058745  0.000000      4.000000
  0.066021  0.058745  0.000000      4.000000
  0.074824  0.058745  0.000000      4.000000
  0.083627  0.058745  0.000000      4.000000
  0.004401  0.067783  0.000000      4.000000
  0.013204  0.067783  0.000000      4.000000
  0.022007  0.067783  0.000000      4.000000
  0.030810  0.067783  0.000000      4.000000
  0.039613  0.067783  0.000000      4.000000
  0.048416  0.067783  0.000000      4.000000
  0.057218  0.067783  0.000000      4.000000
  0.066021  0.067783  0.000000      4.000000
  0.074824  0.067783  0.000000      4.000000
  0.083627  0.067783  0.000000      4.000000
  0.004401  0.076820  0.000000      4.000000
  0.013204  0.076820  0.000000      4.000000
  0.022007  0.076820  0.000000      4.000000
  0.030810  0.076820  0.000000      4.000000
  0.039613  0.076820  0.000000      4.000000
  0.048416  0.076820  0.000000      4.000000
  0.057218  0.076820  0.000000      4.000000
  0.066021  0.076820  0.000000      4.000000
  0.074824  0.076820  0.000000      4.000000
  0.083627  0.076820  0.000000      4.000000
 


--------------------------------------------------------------------------------------------------------




 Dimension of arrays:
   k-points           NKPTS =     90   k-points in BZ     NKDIM =     90   number of bands    NBANDS=     84
   number of dos      NEDOS =    301   number of ions     NIONS =     28
   non local maximal  LDIM  =      4   non local SUM 2l+1 LMDIM =      8
   total plane-waves  NPLWV = 576000
   max r-space proj   IRMAX =      1   max aug-charges    IRDMAX=   8749
   dimension x,y,z NGX =    48 NGY =   50 NGZ =  240
   dimension x,y,z NGXF=    96 NGYF=  100 NGZF=  480
   support grid    NGXF=    96 NGYF=  100 NGZF=  480
   ions per type =              28
   NGX,Y,Z   is equivalent  to a cutoff of  14.05, 13.52, 13.26 a.u.
   NGXF,Y,Z  is equivalent  to a cutoff of  28.10, 27.04, 26.52 a.u.

 SYSTEM =  SCF                                     
 POSCAR =  o-B14 bilayer with hydrogen termination             

 Startparameter for this run:
   NWRITE =      2    write-flag & timer
   PREC   = accura    normal or accurate (medium, high low for compatibility)
   ISTART =      0    job   : 0-new  1-cont  2-samecut
   ICHARG =      2    charge: 1-file 2-atom 10-const
   ISPIN  =      1    spin polarized calculation?
   LNONCOLLINEAR =      F non collinear calculations
   LSORBIT =      F    spin-orbit coupling
   INIWAV =      1    electr: 0-lowe 1-rand  2-diag
   LASPH  =      F    aspherical Exc in radial PAW
 Electronic Relaxation 1
   ENCUT  =  600.0 eV  44.10 Ry    6.64 a.u.  11.34 12.28 60.09*2*pi/ulx,y,z
   ENINI  =  600.0     initial cutoff
   ENAUG  =  535.5 eV  augmentation charge cutoff
   NELM   =    150;   NELMIN=  2; NELMDL= -5     # of ELM steps 
   EDIFF  = 0.1E-05   stopping-criterion for ELM
   LREAL  =      F    real-space projection
   NLSPLINE    = F    spline interpolate recip. space projectors
   LCOMPAT=      F    compatible to vasp.4.4
   GGA_COMPAT  = T    GGA compatible to vasp.4.4-vasp.4.6
   LMAXPAW     = -100 max onsite density
   LMAXMIX     =    2 max onsite mixed and CHGCAR
   VOSKOWN=      0    Vosko Wilk Nusair interpolation
   ROPT   =    0.00000
 Ionic relaxation
   EDIFFG = -.1E-02   stopping-criterion for IOM
   NSW    =      0    number of steps for IOM
   NBLOCK =      1;   KBLOCK =      1    inner block; outer block 
   IBRION =     -1    ionic relax: 0-MD 1-quasi-New 2-CG
   NFREE  =      0    steps in history (QN), initial steepest desc. (CG)
   ISIF   =      2    stress and relaxation
   IWAVPR =     10    prediction:  0-non 1-charg 2-wave 3-comb
   ISYM   =      2    0-nonsym 1-usesym 2-fastsym
   LCORR  =      T    Harris-Foulkes like correction to forces

   POTIM  = 0.5000    time-step for ionic-motion
   TEIN   =    0.0    initial temperature
   TEBEG  =    0.0;   TEEND  =   0.0 temperature during run
   SMASS  =  -3.00    Nose mass-parameter (am)
   estimated Nose-frequenzy (Omega)   =  0.10E-29 period in steps = 0.13E+47 mass=  -0.737E-27a.u.
   SCALEE = 1.0000    scale energy and forces
   NPACO  =    256;   APACO  = 10.0  distance and # of slots for P.C.
   PSTRESS=    0.0 pullay stress

  Mass of Ions in am
   POMASS =  10.81
  Ionic Valenz
   ZVAL   =   3.00
  Atomic Wigner-Seitz radii
   RWIGS  =  -1.00
  virtual crystal weights 
   VCA    =   1.00
   NELECT =      84.0000    total number of electrons
   NUPDOWN=      -1.0000    fix difference up-down

 DOS related values:
   EMIN   =  10.00;   EMAX   =-10.00  energy-range for DOS
   EFERMI =   0.00;   METHOD = LEGACY      
   ISMEAR =     0;   SIGMA  =   0.10  broadening in eV -4-tet -1-fermi 0-gaus
   EFERMI_NEDOS =   21; number of points for ismear=-14 and -15

 Electronic relaxation 2 (details)
   IALGO  =     38    algorithm
   LDIAG  =      T    sub-space diagonalisation (order eigenvalues)
   LSUBROT=      F    optimize rotation matrix (better conditioning)
   TURBO    =      0    0=normal 1=particle mesh
   IRESTART =      0    0=no restart 2=restart with 2 vectors
   NREBOOT  =      0    no. of reboots
   NMIN     =      0    reboot dimension
   EREF     =   0.00    reference energy to select bands
   IMIX   =      4    mixing-type and parameters
     AMIX     =   0.40;   BMIX     =  1.00
     AMIX_MAG =   1.60;   BMIX_MAG =  1.00
     AMIN     =   0.10
     WC   =   100.;   INIMIX=   1;  MIXPRE=   1;  MAXMIX= -45

 Intra band minimization:
   WEIMIN = 0.0000     energy-eigenvalue tresh-hold
   EBREAK =  0.30E-08  absolut break condition
   DEPER  =   0.30     relativ break condition  

   TIME   =   0.40     timestep for ELM

  volume/ion in A,a.u.               =      37.52       253.19
  Fermi-wavevector in a.u.,A,eV,Ry     =   0.705283  1.332791  6.767860  0.497424
  Thomas-Fermi vector in A             =   1.790752
 
 Write flags
   LWAVE        =      T    write WAVECAR
   LDOWNSAMPLE  =      F    k-point downsampling of WAVECAR
   LCHARG       =      T    write CHGCAR
   LVTOT        =      F    write LOCPOT, total local potential
   LVHAR        =      F    write LOCPOT, Hartree potential only
   WRT_POTENTIAL= false  ! write potential to hdf5 file
   LELF         =      F    write electronic localiz. function (ELF)
   LORBIT       =      0    0 simple, 1 ext, 2 COOP (PROOUT), +10 PAW based schemes


 Python interface
   PLUGINS active      =      F    recompile with -DPLUGINS to activate
 
 Dipole corrections
   LMONO      =      F    monopole corrections only (constant potential shift)
   LDIPOL     =      T    correct potential (dipole corrections)
   IDIPOL     =      3    1-x, 2-y, 3-z, 4-all directions 
   EPSILON    =  1.0000000 bulk dielectric constant
   LVACPOTAV  =      F  vacuum potentials using an averaging scheme for the charge density
   VACPOTFLAT =  0.1000000 required flatness to determine vacuum potential
 
Coulomb truncation method
  LTRUNCATE          =      F  Coulomb kernel truncation to be used
  IDIMENSIONALITY    =      3  Dimensionality of cutoff (0 molecules / 2 surfaces)
  ISURFACE           =     -1  Direction of surface normal
  LCOARSEN           =      F  Coarsen the charge grid before padding, preferred

 
 Exchange correlation treatment:
   GGA     = PE    functional components
   XC_C    = 1    coefficients multiplying the functional components
   LIBXC   =     F    Libxc                    
   VOSKOWN =     0    Vosko Wilk Nusair interpolation
   LHFCALC =     F    Hartree Fock is set to
   LHFONE  =     F    Hartree Fock one center treatment
   AEXX    =    0.0000 exact exchange contribution

 Parameters of functionals:
   PE:
     No parameter
 
 Van der Waals corrections
   IVDW    =    12    specifies the selected vdW correction

 Linear response parameters
   LEPSILON=     F    determine dielectric tensor
   LRPA    =     F    only Hartree local field effects (RPA)
   LNABLA  =     F    use nabla operator in PAW spheres
   LVEL    =     F    velocity operator in full k-point grid
   CSHIFT  =0.1000    complex shift for real part using Kramers Kronig
   OMEGAMAX=  -1.0    maximum frequency
   DEG_THRESHOLD= 0.2000000E-02 threshold for treating states as degnerate
   RTIME   =   -0.100 relaxation time in fs
  (WPLASMAI=    0.000 imaginary part of plasma frequency in eV, 0.658/RTIME)
   DFIELD  = 0.0000000 0.0000000 0.0000000 field for delta impulse in time
 
  Optional k-point grid parameters
   LKPOINTS_OPT  =     F    use optional k-point grid
   KPOINTS_OPT_MODE=     1    mode for optional k-point grid
 
 Orbital magnetization related:
   ORBITALMAG=     F  switch on orbital magnetization
   LCHIMAG   =     F  perturbation theory with respect to B field
   DQ        =  0.001000  dq finite difference perturbation B field
   LLRAUG    =     F  two centre corrections for induced B field
   LBONE     =     F  B-component reconstruction in AE one-centre
   LVGVCALC  =     T  calculate vGv susceptibility
   LVGVAPPL  =     F  apply vGv susceptibility instead of pGv for G=0

 Random number generation:
   RANDOM_GENERATOR = DEFAULT
   PCG_SEED         = not used


--------------------------------------------------------------------------------------------------------


 Static calculation
 charge density and potential will be updated during run
 non-spin polarized calculation
 Variant of blocked Davidson
 Davidson routine will perform the subspace rotation
 perform sub-space diagonalisation
    after iterative eigenvector-optimisation
 modified Broyden-mixing scheme, WC =      100.0
 initial mixing is a Kerker type mixing with AMIX =  0.4000 and BMIX =      1.0000
 Hartree-type preconditioning will be used
 using additional bands           42
 reciprocal scheme for non local part
 use partial core corrections
 calculate Harris-corrections to forces 
   (improved forces if not selfconsistent)
 use gradient corrections 
 use of overlap-Matrix (Vanderbilt PP)
 Gauss-broadening in eV      SIGMA  =   0.10


--------------------------------------------------------------------------------------------------------


  energy-cutoff  :      600.00
  volume of cell :     1050.54
      direct lattice vectors                 reciprocal lattice vectors
     5.679996051  0.000000000  0.000000000     0.176056460  0.000000000  0.000000000
     0.000000000  6.147111186  0.000000000     0.000000000  0.162678040  0.000000000
     0.000000000  0.000000000 30.088116646     0.000000000  0.000000000  0.033235713

  length of vectors
     5.679996051  6.147111186 30.088116646     0.176056460  0.162678040  0.033235713


 
 k-points in units of 2pi/SCALE and weight: k-points                                
   0.00440141  0.00451883  0.00000000       0.011
   0.01320423  0.00451883  0.00000000       0.011
   0.02200706  0.00451883  0.00000000       0.011
   0.03080988  0.00451883  0.00000000       0.011
   0.03961270  0.00451883  0.00000000       0.011
   0.04841553  0.00451883  0.00000000       0.011
   0.05721835  0.00451883  0.00000000       0.011
   0.06602117  0.00451883  0.00000000       0.011
   0.07482400  0.00451883  0.00000000       0.011
   0.08362682  0.00451883  0.00000000       0.011
   0.00440141  0.01355650  0.00000000       0.011
   0.01320423  0.01355650  0.00000000       0.011
   0.02200706  0.01355650  0.00000000       0.011
   0.03080988  0.01355650  0.00000000       0.011
   0.03961270  0.01355650  0.00000000       0.011
   0.04841553  0.01355650  0.00000000       0.011
   0.05721835  0.01355650  0.00000000       0.011
   0.06602117  0.01355650  0.00000000       0.011
   0.07482400  0.01355650  0.00000000       0.011
   0.08362682  0.01355650  0.00000000       0.011
   0.00440141  0.02259417  0.00000000       0.011
   0.01320423  0.02259417  0.00000000       0.011
   0.02200706  0.02259417  0.00000000       0.011
   0.03080988  0.02259417  0.00000000       0.011
   0.03961270  0.02259417  0.00000000       0.011
   0.04841553  0.02259417  0.00000000       0.011
   0.05721835  0.02259417  0.00000000       0.011
   0.06602117  0.02259417  0.00000000       0.011
   0.07482400  0.02259417  0.00000000       0.011
   0.08362682  0.02259417  0.00000000       0.011
   0.00440141  0.03163184  0.00000000       0.011
   0.01320423  0.03163184  0.00000000       0.011
   0.02200706  0.03163184  0.00000000       0.011
   0.03080988  0.03163184  0.00000000       0.011
   0.03961270  0.03163184  0.00000000       0.011
   0.04841553  0.03163184  0.00000000       0.011
   0.05721835  0.03163184  0.00000000       0.011
   0.06602117  0.03163184  0.00000000       0.011
   0.07482400  0.03163184  0.00000000       0.011
   0.08362682  0.03163184  0.00000000       0.011
   0.00440141  0.04066951  0.00000000       0.011
   0.01320423  0.04066951  0.00000000       0.011
   0.02200706  0.04066951  0.00000000       0.011
   0.03080988  0.04066951  0.00000000       0.011
   0.03961270  0.04066951  0.00000000       0.011
   0.04841553  0.04066951  0.00000000       0.011
   0.05721835  0.04066951  0.00000000       0.011
   0.06602117  0.04066951  0.00000000       0.011
   0.07482400  0.04066951  0.00000000       0.011
   0.08362682  0.04066951  0.00000000       0.011
   0.00440141  0.04970718  0.00000000       0.011
   0.01320423  0.04970718  0.00000000       0.011
   0.02200706  0.04970718  0.00000000       0.011
   0.03080988  0.04970718  0.00000000       0.011
   0.03961270  0.04970718  0.00000000       0.011
   0.04841553  0.04970718  0.00000000       0.011
   0.05721835  0.04970718  0.00000000       0.011
   0.06602117  0.04970718  0.00000000       0.011
   0.07482400  0.04970718  0.00000000       0.011
   0.08362682  0.04970718  0.00000000       0.011
   0.00440141  0.05874485  0.00000000       0.011
   0.01320423  0.05874485  0.00000000       0.011
   0.02200706  0.05874485  0.00000000       0.011
   0.03080988  0.05874485  0.00000000       0.011
   0.03961270  0.05874485  0.00000000       0.011
   0.04841553  0.05874485  0.00000000       0.011
   0.05721835  0.05874485  0.00000000       0.011
   0.06602117  0.05874485  0.00000000       0.011
   0.07482400  0.05874485  0.00000000       0.011
   0.08362682  0.05874485  0.00000000       0.011
   0.00440141  0.06778252  0.00000000       0.011
   0.01320423  0.06778252  0.00000000       0.011
   0.02200706  0.06778252  0.00000000       0.011
   0.03080988  0.06778252  0.00000000       0.011
   0.03961270  0.06778252  0.00000000       0.011
   0.04841553  0.06778252  0.00000000       0.011
   0.05721835  0.06778252  0.00000000       0.011
   0.06602117  0.06778252  0.00000000       0.011
   0.07482400  0.06778252  0.00000000       0.011
   0.08362682  0.06778252  0.00000000       0.011
   0.00440141  0.07682019  0.00000000       0.011
   0.01320423  0.07682019  0.00000000       0.011
   0.02200706  0.07682019  0.00000000       0.011
   0.03080988  0.07682019  0.00000000       0.011
   0.03961270  0.07682019  0.00000000       0.011
   0.04841553  0.07682019  0.00000000       0.011
   0.05721835  0.07682019  0.00000000       0.011
   0.06602117  0.07682019  0.00000000       0.011
   0.07482400  0.07682019  0.00000000       0.011
   0.08362682  0.07682019  0.00000000       0.011
 
 k-points in reciprocal lattice and weights: k-points                                
   0.02500000  0.02777778  0.00000000       0.011
   0.07500000  0.02777778  0.00000000       0.011
   0.12500000  0.02777778  0.00000000       0.011
   0.17500000  0.02777778  0.00000000       0.011
   0.22500000  0.02777778  0.00000000       0.011
   0.27500000  0.02777778  0.00000000       0.011
   0.32500000  0.02777778  0.00000000       0.011
   0.37500000  0.02777778  0.00000000       0.011
   0.42500000  0.02777778  0.00000000       0.011
   0.47500000  0.02777778  0.00000000       0.011
   0.02500000  0.08333333  0.00000000       0.011
   0.07500000  0.08333333  0.00000000       0.011
   0.12500000  0.08333333  0.00000000       0.011
   0.17500000  0.08333333  0.00000000       0.011
   0.22500000  0.08333333  0.00000000       0.011
   0.27500000  0.08333333  0.00000000       0.011
   0.32500000  0.08333333  0.00000000       0.011
   0.37500000  0.08333333  0.00000000       0.011
   0.42500000  0.08333333  0.00000000       0.011
   0.47500000  0.08333333  0.00000000       0.011
   0.02500000  0.13888889  0.00000000       0.011
   0.07500000  0.13888889  0.00000000       0.011
   0.12500000  0.13888889  0.00000000       0.011
   0.17500000  0.13888889  0.00000000       0.011
   0.22500000  0.13888889  0.00000000       0.011
   0.27500000  0.13888889  0.00000000       0.011
   0.32500000  0.13888889  0.00000000       0.011
   0.37500000  0.13888889  0.00000000       0.011
   0.42500000  0.13888889  0.00000000       0.011
   0.47500000  0.13888889  0.00000000       0.011
   0.02500000  0.19444444  0.00000000       0.011
   0.07500000  0.19444444  0.00000000       0.011
   0.12500000  0.19444444  0.00000000       0.011
   0.17500000  0.19444444  0.00000000       0.011
   0.22500000  0.19444444  0.00000000       0.011
   0.27500000  0.19444444  0.00000000       0.011
   0.32500000  0.19444444  0.00000000       0.011
   0.37500000  0.19444444  0.00000000       0.011
   0.42500000  0.19444444  0.00000000       0.011
   0.47500000  0.19444444  0.00000000       0.011
   0.02500000  0.25000000  0.00000000       0.011
   0.07500000  0.25000000  0.00000000       0.011
   0.12500000  0.25000000  0.00000000       0.011
   0.17500000  0.25000000  0.00000000       0.011
   0.22500000  0.25000000  0.00000000       0.011
   0.27500000  0.25000000  0.00000000       0.011
   0.32500000  0.25000000  0.00000000       0.011
   0.37500000  0.25000000  0.00000000       0.011
   0.42500000  0.25000000  0.00000000       0.011
   0.47500000  0.25000000  0.00000000       0.011
   0.02500000  0.30555556  0.00000000       0.011
   0.07500000  0.30555556  0.00000000       0.011
   0.12500000  0.30555556  0.00000000       0.011
   0.17500000  0.30555556  0.00000000       0.011
   0.22500000  0.30555556  0.00000000       0.011
   0.27500000  0.30555556  0.00000000       0.011
   0.32500000  0.30555556  0.00000000       0.011
   0.37500000  0.30555556  0.00000000       0.011
   0.42500000  0.30555556  0.00000000       0.011
   0.47500000  0.30555556  0.00000000       0.011
   0.02500000  0.36111111  0.00000000       0.011
   0.07500000  0.36111111  0.00000000       0.011
   0.12500000  0.36111111  0.00000000       0.011
   0.17500000  0.36111111  0.00000000       0.011
   0.22500000  0.36111111  0.00000000       0.011
   0.27500000  0.36111111  0.00000000       0.011
   0.32500000  0.36111111  0.00000000       0.011
   0.37500000  0.36111111  0.00000000       0.011
   0.42500000  0.36111111  0.00000000       0.011
   0.47500000  0.36111111  0.00000000       0.011
   0.02500000  0.41666667  0.00000000       0.011
   0.07500000  0.41666667  0.00000000       0.011
   0.12500000  0.41666667  0.00000000       0.011
   0.17500000  0.41666667  0.00000000       0.011
   0.22500000  0.41666667  0.00000000       0.011
   0.27500000  0.41666667  0.00000000       0.011
   0.32500000  0.41666667  0.00000000       0.011
   0.37500000  0.41666667  0.00000000       0.011
   0.42500000  0.41666667  0.00000000       0.011
   0.47500000  0.41666667  0.00000000       0.011
   0.02500000  0.47222222  0.00000000       0.011
   0.07500000  0.47222222  0.00000000       0.011
   0.12500000  0.47222222  0.00000000       0.011
   0.17500000  0.47222222  0.00000000       0.011
   0.22500000  0.47222222  0.00000000       0.011
   0.27500000  0.47222222  0.00000000       0.011
   0.32500000  0.47222222  0.00000000       0.011
   0.37500000  0.47222222  0.00000000       0.011
   0.42500000  0.47222222  0.00000000       0.011
   0.47500000  0.47222222  0.00000000       0.011
 
 position of ions in fractional coordinates (direct lattice) 
   0.52254459  0.63772295  0.13357634
   0.52254459  0.63772295  0.26818083
   0.47745541  0.36227705  0.13357634
   0.47745541  0.36227705  0.26818083
   0.97745541  0.63772295  0.13357634
   0.97745541  0.63772295  0.26818083
   0.02254459  0.36227705  0.13357634
   0.02254459  0.36227705  0.26818083
   0.59800345  0.90011909  0.13294458
   0.59800345  0.90011909  0.26881259
   0.40199655  0.09988090  0.13294458
   0.40199655  0.09988090  0.26881259
   0.90199655  0.90011909  0.13294458
   0.90199655  0.90011909  0.26881259
   0.09800345  0.09988090  0.13294458
   0.09800345  0.09988090  0.26881259
   0.75000000  0.73335616  0.17353786
   0.75000000  0.72879364  0.30776750
   0.25000000  0.27120636  0.09398968
   0.25000000  0.26664384  0.22821932
   0.75000000  0.72879364  0.09398968
   0.75000000  0.73335616  0.22821932
   0.25000000  0.26664384  0.17353786
   0.25000000  0.27120636  0.30776750
   0.25000000  0.52573638  0.13371722
   0.25000000  0.52573638  0.26803996
   0.75000000  0.47426359  0.13371722
   0.75000000  0.47426359  0.26803996
 
 position of ions in cartesian coordinates  (Angst):
   2.96805123  3.92015388  4.01906059
   2.96805123  3.92015388  8.06905606
   2.71194482  2.22695730  4.01906059
   2.71194482  2.22695730  8.06905606
   5.55194285  3.92015388  4.01906059
   5.55194285  3.92015388  8.06905606
   0.12805320  2.22695730  4.01906059
   0.12805320  2.22695730  8.06905606
   3.39665726  5.53313214  4.00005206
   3.39665726  5.53313214  8.08806459
   2.28333879  0.61397900  4.00005206
   2.28333879  0.61397900  8.08806459
   5.12333682  5.53313214  4.00005206
   5.12333682  5.53313214  8.08806459
   0.55665923  0.61397900  4.00005206
   0.55665923  0.61397900  8.08806459
   4.25999704  4.50802188  5.22142723
   4.25999704  4.47997556  9.26014430
   1.41999901  1.66713563  2.82797241
   1.41999901  1.63908931  6.86668948
   4.25999704  4.47997556  2.82797241
   4.25999704  4.50802188  6.86668948
   1.41999901  1.63908931  5.22142723
   1.41999901  1.66713563  9.26014430
   1.41999901  3.23175996  4.02329917
   1.41999901  3.23175996  8.06481747
   4.25999704  2.91535105  4.02329917
   4.25999704  2.91535105  8.06481747
 


--------------------------------------------------------------------------------------------------------


 k-point     1 :   0.0250 0.0278 0.0000  plane waves:   35096
 k-point     2 :   0.0750 0.0278 0.0000  plane waves:   35100
 k-point     3 :   0.1250 0.0278 0.0000  plane waves:   35115
 k-point     4 :   0.1750 0.0278 0.0000  plane waves:   35101
 k-point     5 :   0.2250 0.0278 0.0000  plane waves:   35089
 k-point     6 :   0.2750 0.0278 0.0000  plane waves:   35057
 k-point     7 :   0.3250 0.0278 0.0000  plane waves:   35021
 k-point     8 :   0.3750 0.0278 0.0000  plane waves:   35022
 k-point     9 :   0.4250 0.0278 0.0000  plane waves:   35044
 k-point    10 :   0.4750 0.0278 0.0000  plane waves:   35047
 k-point    11 :   0.0250 0.0833 0.0000  plane waves:   35084
 k-point    12 :   0.0750 0.0833 0.0000  plane waves:   35087
 k-point    13 :   0.1250 0.0833 0.0000  plane waves:   35082
 k-point    14 :   0.1750 0.0833 0.0000  plane waves:   35093
 k-point    15 :   0.2250 0.0833 0.0000  plane waves:   35067
 k-point    16 :   0.2750 0.0833 0.0000  plane waves:   35058
 k-point    17 :   0.3250 0.0833 0.0000  plane waves:   35036
 k-point    18 :   0.3750 0.0833 0.0000  plane waves:   35055
 k-point    19 :   0.4250 0.0833 0.0000  plane waves:   35068
 k-point    20 :   0.4750 0.0833 0.0000  plane waves:   35070
 k-point    21 :   0.0250 0.1389 0.0000  plane waves:   35087
 k-point    22 :   0.0750 0.1389 0.0000  plane waves:   35071
 k-point    23 :   0.1250 0.1389 0.0000  plane waves:   35091
 k-point    24 :   0.1750 0.1389 0.0000  plane waves:   35067
 k-point    25 :   0.2250 0.1389 0.0000  plane waves:   35049
 k-point    26 :   0.2750 0.1389 0.0000  plane waves:   35071
 k-point    27 :   0.3250 0.1389 0.0000  plane waves:   35048
 k-point    28 :   0.3750 0.1389 0.0000  plane waves:   35039
 k-point    29 :   0.4250 0.1389 0.0000  plane waves:   35053
 k-point    30 :   0.4750 0.1389 0.0000  plane waves:   35055
 k-point    31 :   0.0250 0.1944 0.0000  plane waves:   35094
 k-point    32 :   0.0750 0.1944 0.0000  plane waves:   35082
 k-point    33 :   0.1250 0.1944 0.0000  plane waves:   35090
 k-point    34 :   0.1750 0.1944 0.0000  plane waves:   35068
 k-point    35 :   0.2250 0.1944 0.0000  plane waves:   35048
 k-point    36 :   0.2750 0.1944 0.0000  plane waves:   35057
 k-point    37 :   0.3250 0.1944 0.0000  plane waves:   35046
 k-point    38 :   0.3750 0.1944 0.0000  plane waves:   35035
 k-point    39 :   0.4250 0.1944 0.0000  plane waves:   35020
 k-point    40 :   0.4750 0.1944 0.0000  plane waves:   35019
 k-point    41 :   0.0250 0.2500 0.0000  plane waves:   35080
 k-point    42 :   0.0750 0.2500 0.0000  plane waves:   35095
 k-point    43 :   0.1250 0.2500 0.0000  plane waves:   35094
 k-point    44 :   0.1750 0.2500 0.0000  plane waves:   35076
 k-point    45 :   0.2250 0.2500 0.0000  plane waves:   35074
 k-point    46 :   0.2750 0.2500 0.0000  plane waves:   35043
 k-point    47 :   0.3250 0.2500 0.0000  plane waves:   35034
 k-point    48 :   0.3750 0.2500 0.0000  plane waves:   35028
 k-point    49 :   0.4250 0.2500 0.0000  plane waves:   35007
 k-point    50 :   0.4750 0.2500 0.0000  plane waves:   34998
 k-point    51 :   0.0250 0.3056 0.0000  plane waves:   35075
 k-point    52 :   0.0750 0.3056 0.0000  plane waves:   35085
 k-point    53 :   0.1250 0.3056 0.0000  plane waves:   35072
 k-point    54 :   0.1750 0.3056 0.0000  plane waves:   35071
 k-point    55 :   0.2250 0.3056 0.0000  plane waves:   35080
 k-point    56 :   0.2750 0.3056 0.0000  plane waves:   35043
 k-point    57 :   0.3250 0.3056 0.0000  plane waves:   35030
 k-point    58 :   0.3750 0.3056 0.0000  plane waves:   35025
 k-point    59 :   0.4250 0.3056 0.0000  plane waves:   35016
 k-point    60 :   0.4750 0.3056 0.0000  plane waves:   35004
 k-point    61 :   0.0250 0.3611 0.0000  plane waves:   35086
 k-point    62 :   0.0750 0.3611 0.0000  plane waves:   35072
 k-point    63 :   0.1250 0.3611 0.0000  plane waves:   35056
 k-point    64 :   0.1750 0.3611 0.0000  plane waves:   35074
 k-point    65 :   0.2250 0.3611 0.0000  plane waves:   35065
 k-point    66 :   0.2750 0.3611 0.0000  plane waves:   35037
 k-point    67 :   0.3250 0.3611 0.0000  plane waves:   35018
 k-point    68 :   0.3750 0.3611 0.0000  plane waves:   35018
 k-point    69 :   0.4250 0.3611 0.0000  plane waves:   35050
 k-point    70 :   0.4750 0.3611 0.0000  plane waves:   35055
 k-point    71 :   0.0250 0.4167 0.0000  plane waves:   35079
 k-point    72 :   0.0750 0.4167 0.0000  plane waves:   35082
 k-point    73 :   0.1250 0.4167 0.0000  plane waves:   35041
 k-point    74 :   0.1750 0.4167 0.0000  plane waves:   35031
 k-point    75 :   0.2250 0.4167 0.0000  plane waves:   35040
 k-point    76 :   0.2750 0.4167 0.0000  plane waves:   35041
 k-point    77 :   0.3250 0.4167 0.0000  plane waves:   35044
 k-point    78 :   0.3750 0.4167 0.0000  plane waves:   35037
 k-point    79 :   0.4250 0.4167 0.0000  plane waves:   35057
 k-point    80 :   0.4750 0.4167 0.0000  plane waves:   35051
 k-point    81 :   0.0250 0.4722 0.0000  plane waves:   35047
 k-point    82 :   0.0750 0.4722 0.0000  plane waves:   35051
 k-point    83 :   0.1250 0.4722 0.0000  plane waves:   35052
 k-point    84 :   0.1750 0.4722 0.0000  plane waves:   35060
 k-point    85 :   0.2250 0.4722 0.0000  plane waves:   35048
 k-point    86 :   0.2750 0.4722 0.0000  plane waves:   35060
 k-point    87 :   0.3250 0.4722 0.0000  plane waves:   35046
 k-point    88 :   0.3750 0.4722 0.0000  plane waves:   35053
 k-point    89 :   0.4250 0.4722 0.0000  plane waves:   35068
 k-point    90 :   0.4750 0.4722 0.0000  plane waves:   35078

 maximum and minimum number of plane-waves per node :     35115    34998

 maximum number of plane-waves:     35115
 maximum index in each direction: 
   IXMAX=   11   IYMAX=   12   IZMAX=   60
   IXMIN=  -11   IYMIN=  -12   IZMIN=  -60


 serial   3D FFT for wavefunctions
 parallel 3D FFT for charge:
    minimum data exchange during FFTs selected (reduces bandwidth)


 total amount of memory used by VASP MPI-rank0   387229. kBytes
=======================================================================

   base                                    :      30000. kBytes
   nonl-proj                               :     218236. kBytes
   fftplans                                :       6929. kBytes
   grid                                    :      30009. kBytes
   one-center                              :         86. kBytes
   wavefun                                 :     101969. kBytes
 
     INWAV:  cpu time      0.0001: real time      0.0001
 Broyden mixing: mesh for mixing (old mesh)
   NGX = 23   NGY = 25   NGZ =121
  (NGX  = 96   NGY  =100   NGZ  =480)
  gives a total of  69575 points

 initial charge density was supplied:
 charge density of overlapping atoms calculated
 number of electron      84.0000000 magnetization 
 keeping initial charge density in first step


--------------------------------------------------------------------------------------------------------


 Maximum index for augmentation-charges          697 (set IRDMAX)


--------------------------------------------------------------------------------------------------------


 First call to EWALD:  gamma=   0.174
 Maximum number of real-space cells   5x   4x   1
 Maximum number of reciprocal cells   2x   2x   7

    FEWALD:  cpu time      0.0015: real time      0.0016


--------------------------------------- Ionic step        1  -------------------------------------------




--------------------------------------- Iteration      1(   1)  ---------------------------------------


    POTLOK:  cpu time      0.0921: real time      0.0928
    SETDIJ:  cpu time      0.0027: real time      0.0027
     EDDAV:  cpu time     27.9891: real time     28.1277
       DOS:  cpu time      0.0013: real time      0.0013
    --------------------------------------------
      LOOP:  cpu time     28.0857: real time     28.2254

 eigenvalue-minimisations  : 15120
 total energy-change (2. order) : 0.4866031E+03  (-0.3096938E+04)
 number of electron      84.0000000 magnetization 
 augmentation part       84.0000000 magnetization 

 DIPCOR: dipole corrections for dipol
 direction  3 min pos   337,
 dipolmoment           0.000000      0.000000     -0.000002 electrons x Angstroem
 Tr[quadrupol]      -502.175581

 energy correction for charged system         0.000000 eV
 dipol+quadrupol energy correction           -0.000000 eV
 added-field ion interaction          0.000001 eV  (added to PSCEN)


 Free energy of the ion-electron system (eV)
  ---------------------------------------------------
  alpha Z        PSCENC =        51.34042373
  Ewald energy   TEWEN  =     24398.35243534
  -Hartree energ DENC   =    -25731.96780715
  -exchange      EXHF   =         0.00000000
  -V(xc)+E(xc)   XCENC  =       192.66061555
  PAW double counting   =      1217.99623415    -1194.04727563
  entropy T*S    EENTRO =        -0.04098916
  eigenvalues    EBANDS =      -440.43933124
  atomic energy  EATOM  =      1992.74882108
  Solvation  Ediel_sol  =         0.00000000
  ---------------------------------------------------
  free energy    TOTEN  =       486.60312667 eV

  energy without entropy =      486.64411582  energy(sigma->0) =      486.62362124


--------------------------------------------------------------------------------------------------------




--------------------------------------- Iteration      1(   2)  ---------------------------------------


     EDDAV:  cpu time     43.0384: real time     43.2467
       DOS:  cpu time      0.0007: real time      0.0007
    --------------------------------------------
      LOOP:  cpu time     43.0389: real time     43.2469

 eigenvalue-minimisations  : 25242
 total energy-change (2. order) :-0.6364833E+03  (-0.5907867E+03)
 number of electron      84.0000000 magnetization 
 augmentation part       84.0000000 magnetization 

 DIPCOR: dipole corrections for dipol
 direction  3 min pos   337,
 dipolmoment           0.000000      0.000000     -0.000002 electrons x Angstroem
 Tr[quadrupol]      -502.175581

 energy correction for charged system         0.000000 eV
 dipol+quadrupol energy correction           -0.000000 eV
 added-field ion interaction          0.000001 eV  (added to PSCEN)


 Free energy of the ion-electron system (eV)
  ---------------------------------------------------
  alpha Z        PSCENC =        51.34042373
  Ewald energy   TEWEN  =     24398.35243534
  -Hartree energ DENC   =    -25731.96780715
  -exchange      EXHF   =         0.00000000
  -V(xc)+E(xc)   XCENC  =       192.66061555
  PAW double counting   =      1217.99623415    -1194.04727563
  entropy T*S    EENTRO =        -0.00000032
  eigenvalues    EBANDS =     -1076.96360506
  atomic energy  EATOM  =      1992.74882108
  Solvation  Ediel_sol  =         0.00000000
  ---------------------------------------------------
  free energy    TOTEN  =      -149.88015832 eV

  energy without entropy =     -149.88015800  energy(sigma->0) =     -149.88015816


--------------------------------------------------------------------------------------------------------




--------------------------------------- Iteration      1(   3)  ---------------------------------------


     EDDAV:  cpu time     39.2773: real time     39.4651
       DOS:  cpu time      0.0009: real time      0.0009
    --------------------------------------------
      LOOP:  cpu time     39.2783: real time     39.4665

 eigenvalue-minimisations  : 22680
 total energy-change (2. order) :-0.4623134E+02  (-0.4559063E+02)
 number of electron      84.0000000 magnetization 
 augmentation part       84.0000000 magnetization 

 DIPCOR: dipole corrections for dipol
 direction  3 min pos   337,
 dipolmoment           0.000000      0.000000     -0.000002 electrons x Angstroem
 Tr[quadrupol]      -502.175581

 energy correction for charged system         0.000000 eV
 dipol+quadrupol energy correction           -0.000000 eV
 added-field ion interaction          0.000001 eV  (added to PSCEN)


 Free energy of the ion-electron system (eV)
  ---------------------------------------------------
  alpha Z        PSCENC =        51.34042373
  Ewald energy   TEWEN  =     24398.35243534
  -Hartree energ DENC   =    -25731.96780715
  -exchange      EXHF   =         0.00000000
  -V(xc)+E(xc)   XCENC  =       192.66061555
  PAW double counting   =      1217.99623415    -1194.04727563
  entropy T*S    EENTRO =        -0.00000000
  eigenvalues    EBANDS =     -1123.19494838
  atomic energy  EATOM  =      1992.74882108
  Solvation  Ediel_sol  =         0.00000000
  ---------------------------------------------------
  free energy    TOTEN  =      -196.11150131 eV

  energy without entropy =     -196.11150131  energy(sigma->0) =     -196.11150131


--------------------------------------------------------------------------------------------------------




--------------------------------------- Iteration      1(   4)  ---------------------------------------


     EDDAV:  cpu time     37.5854: real time     37.7680
       DOS:  cpu time      0.0006: real time      0.0006
    --------------------------------------------
      LOOP:  cpu time     37.5859: real time     37.7681

 eigenvalue-minimisations  : 22050
 total energy-change (2. order) :-0.7101570E+00  (-0.7092480E+00)
 number of electron      84.0000000 magnetization 
 augmentation part       84.0000000 magnetization 

 DIPCOR: dipole corrections for dipol
 direction  3 min pos   337,
 dipolmoment           0.000000      0.000000     -0.000002 electrons x Angstroem
 Tr[quadrupol]      -502.175581

 energy correction for charged system         0.000000 eV
 dipol+quadrupol energy correction           -0.000000 eV
 added-field ion interaction          0.000001 eV  (added to PSCEN)


 Free energy of the ion-electron system (eV)
  ---------------------------------------------------
  alpha Z        PSCENC =        51.34042373
  Ewald energy   TEWEN  =     24398.35243534
  -Hartree energ DENC   =    -25731.96780715
  -exchange      EXHF   =         0.00000000
  -V(xc)+E(xc)   XCENC  =       192.66061555
  PAW double counting   =      1217.99623415    -1194.04727563
  entropy T*S    EENTRO =        -0.00000000
  eigenvalues    EBANDS =     -1123.90510543
  atomic energy  EATOM  =      1992.74882108
  Solvation  Ediel_sol  =         0.00000000
  ---------------------------------------------------
  free energy    TOTEN  =      -196.82165836 eV

  energy without entropy =     -196.82165836  energy(sigma->0) =     -196.82165836


--------------------------------------------------------------------------------------------------------




--------------------------------------- Iteration      1(   5)  ---------------------------------------


     EDDAV:  cpu time     41.9870: real time     42.1880
       DOS:  cpu time      0.0005: real time      0.0005
    CHARGE:  cpu time      0.8158: real time      0.8199
    MIXING:  cpu time      0.0031: real time      0.0031
    --------------------------------------------
      LOOP:  cpu time     42.8063: real time     43.0113

 eigenvalue-minimisations  : 24318
 total energy-change (2. order) :-0.1900822E-01  (-0.1900510E-01)
 number of electron      83.9999999 magnetization 
 augmentation part       -0.1329527 magnetization 

 DIPCOR: dipole corrections for dipol
 direction  3 min pos   337,
 dipolmoment           0.000000      0.000000     -0.000002 electrons x Angstroem
 Tr[quadrupol]      -502.175581

 energy correction for charged system         0.000000 eV
 dipol+quadrupol energy correction           -0.000000 eV
 added-field ion interaction          0.000001 eV  (added to PSCEN)


 Broyden mixing:
  rms(total) = 0.19820E+01    rms(broyden)= 0.19820E+01
  rms(prec ) = 0.21475E+01
  weight for this iteration     100.00

 Free energy of the ion-electron system (eV)
  ---------------------------------------------------
  alpha Z        PSCENC =        51.34042373
  Ewald energy   TEWEN  =     24398.35243534
  -Hartree energ DENC   =    -25731.96780715
  -exchange      EXHF   =         0.00000000
  -V(xc)+E(xc)   XCENC  =       192.66061555
  PAW double counting   =      1217.99623415    -1194.04727563
  entropy T*S    EENTRO =        -0.00000000
  eigenvalues    EBANDS =     -1123.92411365
  atomic energy  EATOM  =      1992.74882108
  Solvation  Ediel_sol  =         0.00000000
  ---------------------------------------------------
  free energy    TOTEN  =      -196.84066658 eV

  energy without entropy =     -196.84066658  energy(sigma->0) =     -196.84066658


--------------------------------------------------------------------------------------------------------




--------------------------------------- Iteration      1(   6)  ---------------------------------------


    POTLOK:  cpu time      0.0802: real time      0.0848
    SETDIJ:  cpu time      0.0020: real time      0.0020
     EDDAV:  cpu time     42.7260: real time     42.9205
       DOS:  cpu time      0.0011: real time      0.0011
    CHARGE:  cpu time      1.3174: real time      1.3246
    MIXING:  cpu time      0.0039: real time      0.0039
    --------------------------------------------
      LOOP:  cpu time     44.1305: real time     44.3369

 eigenvalue-minimisations  : 22512
 total energy-change (2. order) : 0.1925232E+02  (-0.1578510E+01)
 number of electron      83.9999999 magnetization 
 augmentation part       -0.3110820 magnetization 

 DIPCOR: dipole corrections for dipol
 direction  3 min pos   337,
 dipolmoment           0.000000      0.000000     -0.002226 electrons x Angstroem
 Tr[quadrupol]      -507.138966

 energy correction for charged system         0.000000 eV
 dipol+quadrupol energy correction           -0.000000 eV
 added-field ion interaction          0.000851 eV  (added to PSCEN)


 Broyden mixing:
  rms(total) = 0.95785E+00    rms(broyden)= 0.95785E+00
  rms(prec ) = 0.10033E+01
  weight for this iteration     100.00

 eigenvalues of (default mixing * dielectric matrix)
  average eigenvalue GAMMA=   1.4258
  1.4258

 Free energy of the ion-electron system (eV)
  ---------------------------------------------------
  alpha Z        PSCENC =        51.34127411
  Ewald energy   TEWEN  =     24398.35243534
  -Hartree energ DENC   =    -25907.66039035
  -exchange      EXHF   =         0.00000000
  -V(xc)+E(xc)   XCENC  =       195.95667974
  PAW double counting   =      3029.61766746    -3006.93802636
  entropy T*S    EENTRO =        -0.04220613
  eigenvalues    EBANDS =      -930.96459985
  atomic energy  EATOM  =      1992.74882108
  Solvation  Ediel_sol  =         0.00000000
  ---------------------------------------------------
  free energy    TOTEN  =      -177.58834497 eV

  energy without entropy =     -177.54613884  energy(sigma->0) =     -177.56724191


--------------------------------------------------------------------------------------------------------




--------------------------------------- Iteration      1(   7)  ---------------------------------------


    POTLOK:  cpu time      0.0736: real time      0.0753
    SETDIJ:  cpu time      0.0014: real time      0.0014
     EDDAV:  cpu time     42.7628: real time     42.9575
       DOS:  cpu time      0.0010: real time      0.0010
    CHARGE:  cpu time      1.3157: real time      1.3222
    MIXING:  cpu time      0.0029: real time      0.0029
    --------------------------------------------
      LOOP:  cpu time     44.1574: real time     44.3605

 eigenvalue-minimisations  : 22680
 total energy-change (2. order) : 0.3026194E+01  (-0.6557442E+00)
 number of electron      83.9999999 magnetization 
 augmentation part       -0.3603119 magnetization 

 DIPCOR: dipole corrections for dipol
 direction  3 min pos   337,
 dipolmoment           0.000000      0.000000     -0.002063 electrons x Angstroem
 Tr[quadrupol]      -508.654909

 energy correction for charged system         0.000000 eV
 dipol+quadrupol energy correction           -0.000000 eV
 added-field ion interaction          0.000789 eV  (added to PSCEN)


 Broyden mixing:
  rms(total) = 0.42645E+00    rms(broyden)= 0.42645E+00
  rms(prec ) = 0.44350E+00
  weight for this iteration     100.00

 eigenvalues of (default mixing * dielectric matrix)
  average eigenvalue GAMMA=   1.6135
  1.1108  2.1161

 Free energy of the ion-electron system (eV)
  ---------------------------------------------------
  alpha Z        PSCENC =        51.34121180
  Ewald energy   TEWEN  =     24398.35243534
  -Hartree energ DENC   =    -25986.81416012
  -exchange      EXHF   =         0.00000000
  -V(xc)+E(xc)   XCENC  =       198.67713588
  PAW double counting   =      5103.87855679    -5081.94868764
  entropy T*S    EENTRO =        -0.04112832
  eigenvalues    EBANDS =      -850.75633605
  atomic energy  EATOM  =      1992.74882108
  Solvation  Ediel_sol  =         0.00000000
  ---------------------------------------------------
  free energy    TOTEN  =      -174.56215125 eV

  energy without entropy =     -174.52102293  energy(sigma->0) =     -174.54158709


--------------------------------------------------------------------------------------------------------




--------------------------------------- Iteration      1(   8)  ---------------------------------------


    POTLOK:  cpu time      0.0802: real time      0.0834
    SETDIJ:  cpu time      0.0037: real time      0.0038
     EDDAV:  cpu time     42.5140: real time     42.7086
       DOS:  cpu time      0.0024: real time      0.0024
    CHARGE:  cpu time      1.3315: real time      1.3381
    MIXING:  cpu time      0.0022: real time      0.0022
    --------------------------------------------
      LOOP:  cpu time     43.9339: real time     44.1384

 eigenvalue-minimisations  : 22596
 total energy-change (2. order) : 0.4336994E+00  (-0.1531947E+00)
 number of electron      83.9999999 magnetization 
 augmentation part       -0.3797757 magnetization 

 DIPCOR: dipole corrections for dipol
 direction  3 min pos   337,
 dipolmoment           0.000000      0.000000     -0.001947 electrons x Angstroem
 Tr[quadrupol]      -510.284891

 energy correction for charged system         0.000000 eV
 dipol+quadrupol energy correction           -0.000000 eV
 added-field ion interaction          0.000745 eV  (added to PSCEN)


 Broyden mixing:
  rms(total) = 0.12862E+00    rms(broyden)= 0.12862E+00
  rms(prec ) = 0.13931E+00
  weight for this iteration     100.00

 eigenvalues of (default mixing * dielectric matrix)
  average eigenvalue GAMMA=   1.5378
  2.2646  1.0137  1.3353

 Free energy of the ion-electron system (eV)
  ---------------------------------------------------
  alpha Z        PSCENC =        51.34116753
  Ewald energy   TEWEN  =     24398.35243534
  -Hartree energ DENC   =    -26042.31001166
  -exchange      EXHF   =         0.00000000
  -V(xc)+E(xc)   XCENC  =       200.40451308
  PAW double counting   =      6789.97111858    -6768.37800412
  entropy T*S    EENTRO =        -0.03860763
  eigenvalues    EBANDS =      -796.21988405
  atomic energy  EATOM  =      1992.74882108
  Solvation  Ediel_sol  =         0.00000000
  ---------------------------------------------------
  free energy    TOTEN  =      -174.12845186 eV

  energy without entropy =     -174.08984423  energy(sigma->0) =     -174.10914805


--------------------------------------------------------------------------------------------------------




--------------------------------------- Iteration      1(   9)  ---------------------------------------


    POTLOK:  cpu time      0.0745: real time      0.0764
    SETDIJ:  cpu time      0.0027: real time      0.0027
     EDDAV:  cpu time     41.2722: real time     41.4623
       DOS:  cpu time      0.0019: real time      0.0019
    CHARGE:  cpu time      1.2566: real time      1.2635
    MIXING:  cpu time      0.0029: real time      0.0029
    --------------------------------------------
      LOOP:  cpu time     42.6108: real time     42.8097

 eigenvalue-minimisations  : 21924
 total energy-change (2. order) : 0.2326297E-01  (-0.9103269E-02)
 number of electron      83.9999999 magnetization 
 augmentation part       -0.3858358 magnetization 

 DIPCOR: dipole corrections for dipol
 direction  3 min pos   337,
 dipolmoment           0.000000      0.000000     -0.001726 electrons x Angstroem
 Tr[quadrupol]      -511.220734

 energy correction for charged system         0.000000 eV
 dipol+quadrupol energy correction           -0.000000 eV
 added-field ion interaction          0.000660 eV  (added to PSCEN)


 Broyden mixing:
  rms(total) = 0.60238E-01    rms(broyden)= 0.60238E-01
  rms(prec ) = 0.67833E-01
  weight for this iteration     100.00

 eigenvalues of (default mixing * dielectric matrix)
  average eigenvalue GAMMA=   1.5868
  1.0307  1.0307  2.2702  2.0155

 Free energy of the ion-electron system (eV)
  ---------------------------------------------------
  alpha Z        PSCENC =        51.34108293
  Ewald energy   TEWEN  =     24398.35243534
  -Hartree energ DENC   =    -26061.15755732
  -exchange      EXHF   =         0.00000000
  -V(xc)+E(xc)   XCENC  =       200.74385412
  PAW double counting   =      7197.42143208    -7175.80239846
  entropy T*S    EENTRO =        -0.03679026
  eigenvalues    EBANDS =      -777.71606839
  atomic energy  EATOM  =      1992.74882108
  Solvation  Ediel_sol  =         0.00000000
  ---------------------------------------------------
  free energy    TOTEN  =      -174.10518889 eV

  energy without entropy =     -174.06839863  energy(sigma->0) =     -174.08679376


--------------------------------------------------------------------------------------------------------




--------------------------------------- Iteration      1(  10)  ---------------------------------------


    POTLOK:  cpu time      0.0829: real time      0.0851
    SETDIJ:  cpu time      0.0030: real time      0.0031
     EDDAV:  cpu time     36.9673: real time     37.1702
       DOS:  cpu time      0.0013: real time      0.0013
    CHARGE:  cpu time      1.3002: real time      1.3078
    MIXING:  cpu time      0.0018: real time      0.0019
    --------------------------------------------
      LOOP:  cpu time     38.3565: real time     38.5693

 eigenvalue-minimisations  : 21210
 total energy-change (2. order) :-0.1193038E-02  (-0.3084970E-02)
 number of electron      83.9999999 magnetization 
 augmentation part       -0.3804805 magnetization 

 DIPCOR: dipole corrections for dipol
 direction  3 min pos   337,
 dipolmoment           0.000000      0.000000     -0.001277 electrons x Angstroem
 Tr[quadrupol]      -511.799458

 energy correction for charged system         0.000000 eV
 dipol+quadrupol energy correction           -0.000000 eV
 added-field ion interaction          0.000489 eV  (added to PSCEN)


 Broyden mixing:
  rms(total) = 0.26170E-01    rms(broyden)= 0.26169E-01
  rms(prec ) = 0.38576E-01
  weight for this iteration     100.00

 eigenvalues of (default mixing * dielectric matrix)
  average eigenvalue GAMMA=   1.5351
  2.4144  1.9905  1.4605  0.9049  0.9049

 Free energy of the ion-electron system (eV)
  ---------------------------------------------------
  alpha Z        PSCENC =        51.34091155
  Ewald energy   TEWEN  =     24398.35243534
  -Hartree energ DENC   =    -26071.02097094
  -exchange      EXHF   =         0.00000000
  -V(xc)+E(xc)   XCENC  =       200.90229789
  PAW double counting   =      7310.24717292    -7288.58456762
  entropy T*S    EENTRO =        -0.03815455
  eigenvalues    EBANDS =      -768.05432759
  atomic energy  EATOM  =      1992.74882108
  Solvation  Ediel_sol  =         0.00000000
  ---------------------------------------------------
  free energy    TOTEN  =      -174.10638193 eV

  energy without entropy =     -174.06822737  energy(sigma->0) =     -174.08730465


--------------------------------------------------------------------------------------------------------




--------------------------------------- Iteration      1(  11)  ---------------------------------------


    POTLOK:  cpu time      0.0686: real time      0.0704
    SETDIJ:  cpu time      0.0044: real time      0.0044
     EDDAV:  cpu time     38.4983: real time     38.7027
       DOS:  cpu time      0.0011: real time      0.0011
    CHARGE:  cpu time      1.2244: real time      1.2313
    MIXING:  cpu time      0.0023: real time      0.0023
    --------------------------------------------
      LOOP:  cpu time     39.7990: real time     40.0122

 eigenvalue-minimisations  : 22218
 total energy-change (2. order) : 0.3262228E-02  (-0.1243313E-02)
 number of electron      83.9999999 magnetization 
 augmentation part       -0.3850571 magnetization 

 DIPCOR: dipole corrections for dipol
 direction  3 min pos   337,
 dipolmoment           0.000000      0.000000     -0.001031 electrons x Angstroem
 Tr[quadrupol]      -512.344757

 energy correction for charged system         0.000000 eV
 dipol+quadrupol energy correction           -0.000000 eV
 added-field ion interaction          0.000394 eV  (added to PSCEN)


 Broyden mixing:
  rms(total) = 0.23808E-01    rms(broyden)= 0.23807E-01
  rms(prec ) = 0.28774E-01
  weight for this iteration     100.00

 eigenvalues of (default mixing * dielectric matrix)
  average eigenvalue GAMMA=   1.5239
  2.5201  2.5201  1.5147  1.0116  1.0116  0.5655

 Free energy of the ion-electron system (eV)
  ---------------------------------------------------
  alpha Z        PSCENC =        51.34081750
  Ewald energy   TEWEN  =     24398.35243534
  -Hartree energ DENC   =    -26081.93511803
  -exchange      EXHF   =         0.00000000
  -V(xc)+E(xc)   XCENC  =       201.00457712
  PAW double counting   =      7333.54668770    -7311.87774044
  entropy T*S    EENTRO =        -0.03594208
  eigenvalues    EBANDS =      -757.24765789
  atomic energy  EATOM  =      1992.74882108
  Solvation  Ediel_sol  =         0.00000000
  ---------------------------------------------------
  free energy    TOTEN  =      -174.10311970 eV

  energy without entropy =     -174.06717762  energy(sigma->0) =     -174.08514866


--------------------------------------------------------------------------------------------------------




--------------------------------------- Iteration      1(  12)  ---------------------------------------


    POTLOK:  cpu time      0.0640: real time      0.0670
    SETDIJ:  cpu time      0.0015: real time      0.0015
     EDDAV:  cpu time     37.3611: real time     37.5558
       DOS:  cpu time      0.0011: real time      0.0011
    CHARGE:  cpu time      1.2565: real time      1.2629
    MIXING:  cpu time      0.0021: real time      0.0021
    --------------------------------------------
      LOOP:  cpu time     38.6862: real time     38.8904

 eigenvalue-minimisations  : 21672
 total energy-change (2. order) :-0.7607939E-03  (-0.4862065E-03)
 number of electron      83.9999999 magnetization 
 augmentation part       -0.3841594 magnetization 

 DIPCOR: dipole corrections for dipol
 direction  3 min pos   337,
 dipolmoment           0.000000      0.000000     -0.000559 electrons x Angstroem
 Tr[quadrupol]      -512.870678

 energy correction for charged system         0.000000 eV
 dipol+quadrupol energy correction           -0.000000 eV
 added-field ion interaction          0.000214 eV  (added to PSCEN)


 Broyden mixing:
  rms(total) = 0.95817E-02    rms(broyden)= 0.95817E-02
  rms(prec ) = 0.13123E-01
  weight for this iteration     100.00

 eigenvalues of (default mixing * dielectric matrix)
  average eigenvalue GAMMA=   1.6134
  2.9120  2.5887  1.5575  1.5575  0.9962  0.9962  0.6855

 Free energy of the ion-electron system (eV)
  ---------------------------------------------------
  alpha Z        PSCENC =        51.34063674
  Ewald energy   TEWEN  =     24398.35243534
  -Hartree energ DENC   =    -26090.83356871
  -exchange      EXHF   =         0.00000000
  -V(xc)+E(xc)   XCENC  =       201.07143634
  PAW double counting   =      7308.88804873    -7287.20137605
  entropy T*S    EENTRO =        -0.03606091
  eigenvalues    EBANDS =      -748.43425305
  atomic energy  EATOM  =      1992.74882108
  Solvation  Ediel_sol  =         0.00000000
  ---------------------------------------------------
  free energy    TOTEN  =      -174.10388049 eV

  energy without entropy =     -174.06781959  energy(sigma->0) =     -174.08585004


--------------------------------------------------------------------------------------------------------




--------------------------------------- Iteration      1(  13)  ---------------------------------------


    POTLOK:  cpu time      0.0698: real time      0.0716
    SETDIJ:  cpu time      0.0013: real time      0.0013
     EDDAV:  cpu time     37.5270: real time     37.7256
       DOS:  cpu time      0.0010: real time      0.0010
    CHARGE:  cpu time      1.2769: real time      1.2839
    MIXING:  cpu time      0.0035: real time      0.0036
    --------------------------------------------
      LOOP:  cpu time     38.8796: real time     39.0871

 eigenvalue-minimisations  : 21546
 total energy-change (2. order) :-0.2531642E-02  (-0.2886185E-03)
 number of electron      83.9999999 magnetization 
 augmentation part       -0.3834040 magnetization 

 DIPCOR: dipole corrections for dipol
 direction  3 min pos   337,
 dipolmoment           0.000000      0.000000     -0.000171 electrons x Angstroem
 Tr[quadrupol]      -513.210879

 energy correction for charged system         0.000000 eV
 dipol+quadrupol energy correction           -0.000000 eV
 added-field ion interaction          0.000066 eV  (added to PSCEN)


 Broyden mixing:
  rms(total) = 0.67894E-02    rms(broyden)= 0.67894E-02
  rms(prec ) = 0.94696E-02
  weight for this iteration     100.00

 eigenvalues of (default mixing * dielectric matrix)
  average eigenvalue GAMMA=   1.8142
  4.2516  2.5517  2.4220  1.3736  1.3736  0.9313  0.9313  0.6783

 Free energy of the ion-electron system (eV)
  ---------------------------------------------------
  alpha Z        PSCENC =        51.34048868
  Ewald energy   TEWEN  =     24398.35243534
  -Hartree energ DENC   =    -26096.36968191
  -exchange      EXHF   =         0.00000000
  -V(xc)+E(xc)   XCENC  =       201.10520399
  PAW double counting   =      7305.41202419    -7283.72546330
  entropy T*S    EENTRO =        -0.03626034
  eigenvalues    EBANDS =      -742.93397988
  atomic energy  EATOM  =      1992.74882108
  Solvation  Ediel_sol  =         0.00000000
  ---------------------------------------------------
  free energy    TOTEN  =      -174.10641214 eV

  energy without entropy =     -174.07015180  energy(sigma->0) =     -174.08828197


--------------------------------------------------------------------------------------------------------




--------------------------------------- Iteration      1(  14)  ---------------------------------------


    POTLOK:  cpu time      0.0674: real time      0.0709
    SETDIJ:  cpu time      0.0032: real time      0.0032
     EDDAV:  cpu time     36.0075: real time     36.1978
       DOS:  cpu time      0.0009: real time      0.0009
    CHARGE:  cpu time      1.2524: real time      1.2595
    MIXING:  cpu time      0.0050: real time      0.0050
    --------------------------------------------
      LOOP:  cpu time     37.3364: real time     37.5373

 eigenvalue-minimisations  : 20496
 total energy-change (2. order) :-0.2420024E-02  (-0.1188044E-03)
 number of electron      83.9999999 magnetization 
 augmentation part       -0.3845215 magnetization 

 DIPCOR: dipole corrections for dipol
 direction  3 min pos   337,
 dipolmoment           0.000000      0.000000      0.000222 electrons x Angstroem
 Tr[quadrupol]      -513.568413

 energy correction for charged system         0.000000 eV
 dipol+quadrupol energy correction           -0.000000 eV
 added-field ion interaction         -0.000085 eV  (added to PSCEN)


 Broyden mixing:
  rms(total) = 0.36926E-02    rms(broyden)= 0.36925E-02
  rms(prec ) = 0.47623E-02
  weight for this iteration     100.00

 eigenvalues of (default mixing * dielectric matrix)
  average eigenvalue GAMMA=   1.8045
  4.5270  2.5109  2.4768  1.6395  1.3276  1.1474  1.0375  0.8746  0.6991

 Free energy of the ion-electron system (eV)
  ---------------------------------------------------
  alpha Z        PSCENC =        51.34033833
  Ewald energy   TEWEN  =     24398.35243534
  -Hartree energ DENC   =    -26102.45797373
  -exchange      EXHF   =         0.00000000
  -V(xc)+E(xc)   XCENC  =       201.12728094
  PAW double counting   =      7299.95121384    -7278.26841050
  entropy T*S    EENTRO =        -0.03561033
  eigenvalues    EBANDS =      -736.86692711
  atomic energy  EATOM  =      1992.74882108
  Solvation  Ediel_sol  =         0.00000000
  ---------------------------------------------------
  free energy    TOTEN  =      -174.10883216 eV

  energy without entropy =     -174.07322183  energy(sigma->0) =     -174.09102699


--------------------------------------------------------------------------------------------------------




--------------------------------------- Iteration      1(  15)  ---------------------------------------


    POTLOK:  cpu time      0.0696: real time      0.0714
    SETDIJ:  cpu time      0.0015: real time      0.0015
     EDDAV:  cpu time     35.6851: real time     35.8744
       DOS:  cpu time      0.0010: real time      0.0010
    CHARGE:  cpu time      1.2548: real time      1.2617
    MIXING:  cpu time      0.0036: real time      0.0036
    --------------------------------------------
      LOOP:  cpu time     37.0155: real time     37.2137

 eigenvalue-minimisations  : 20496
 total energy-change (2. order) :-0.9455948E-03  (-0.1659875E-04)
 number of electron      83.9999999 magnetization 
 augmentation part       -0.3841896 magnetization 

 DIPCOR: dipole corrections for dipol
 direction  3 min pos   337,
 dipolmoment           0.000000      0.000000      0.000317 electrons x Angstroem
 Tr[quadrupol]      -513.624719

 energy correction for charged system         0.000000 eV
 dipol+quadrupol energy correction           -0.000000 eV
 added-field ion interaction         -0.000121 eV  (added to PSCEN)


 Broyden mixing:
  rms(total) = 0.14652E-02    rms(broyden)= 0.14651E-02
  rms(prec ) = 0.22823E-02
  weight for this iteration     100.00

 eigenvalues of (default mixing * dielectric matrix)
  average eigenvalue GAMMA=   1.9599
  5.5830  3.1836  2.4923  2.0341  1.3911  1.2885  1.0256  1.0256  0.8773  0.6974

 Free energy of the ion-electron system (eV)
  ---------------------------------------------------
  alpha Z        PSCENC =        51.34030188
  Ewald energy   TEWEN  =     24398.35243534
  -Hartree energ DENC   =    -26103.23000871
  -exchange      EXHF   =         0.00000000
  -V(xc)+E(xc)   XCENC  =       201.11996026
  PAW double counting   =      7301.02304429    -7279.33876338
  entropy T*S    EENTRO =        -0.03577244
  eigenvalues    EBANDS =      -736.08979606
  atomic energy  EATOM  =      1992.74882108
  Solvation  Ediel_sol  =         0.00000000
  ---------------------------------------------------
  free energy    TOTEN  =      -174.10977775 eV

  energy without entropy =     -174.07400532  energy(sigma->0) =     -174.09189154


--------------------------------------------------------------------------------------------------------




--------------------------------------- Iteration      1(  16)  ---------------------------------------


    POTLOK:  cpu time      0.0713: real time      0.0747
    SETDIJ:  cpu time      0.0012: real time      0.0012
     EDDAV:  cpu time     33.9229: real time     34.1023
       DOS:  cpu time      0.0009: real time      0.0009
    CHARGE:  cpu time      1.2801: real time      1.2871
    MIXING:  cpu time      0.0022: real time      0.0022
    --------------------------------------------
      LOOP:  cpu time     35.2787: real time     35.4684

 eigenvalue-minimisations  : 19404
 total energy-change (2. order) :-0.9226286E-03  (-0.1173540E-04)
 number of electron      83.9999999 magnetization 
 augmentation part       -0.3841062 magnetization 

 DIPCOR: dipole corrections for dipol
 direction  3 min pos   337,
 dipolmoment           0.000000      0.000000      0.000405 electrons x Angstroem
 Tr[quadrupol]      -513.705619

 energy correction for charged system         0.000000 eV
 dipol+quadrupol energy correction           -0.000000 eV
 added-field ion interaction         -0.000155 eV  (added to PSCEN)


 Broyden mixing:
  rms(total) = 0.10393E-02    rms(broyden)= 0.10393E-02
  rms(prec ) = 0.14578E-02
  weight for this iteration     100.00

 eigenvalues of (default mixing * dielectric matrix)
  average eigenvalue GAMMA=   1.9973
  6.0031  3.5025  2.4009  2.1670  1.7175  1.3082  1.3082  0.9948  0.9948  0.8769
  0.6968

 Free energy of the ion-electron system (eV)
  ---------------------------------------------------
  alpha Z        PSCENC =        51.34026826
  Ewald energy   TEWEN  =     24398.35243534
  -Hartree energ DENC   =    -26104.61440546
  -exchange      EXHF   =         0.00000000
  -V(xc)+E(xc)   XCENC  =       201.11604965
  PAW double counting   =      7302.09734659    -7280.41317957
  entropy T*S    EENTRO =        -0.03577001
  eigenvalues    EBANDS =      -734.70226625
  atomic energy  EATOM  =      1992.74882108
  Solvation  Ediel_sol  =         0.00000000
  ---------------------------------------------------
  free energy    TOTEN  =      -174.11070038 eV

  energy without entropy =     -174.07493038  energy(sigma->0) =     -174.09281538


--------------------------------------------------------------------------------------------------------




--------------------------------------- Iteration      1(  17)  ---------------------------------------


    POTLOK:  cpu time      0.0736: real time      0.0750
    SETDIJ:  cpu time      0.0013: real time      0.0013
     EDDAV:  cpu time     34.8058: real time     34.9884
       DOS:  cpu time      0.0008: real time      0.0008
    CHARGE:  cpu time      1.2594: real time      1.2662
    MIXING:  cpu time      0.0021: real time      0.0021
    --------------------------------------------
      LOOP:  cpu time     36.1430: real time     36.3338

 eigenvalue-minimisations  : 19740
 total energy-change (2. order) :-0.4477567E-03  (-0.3036692E-05)
 number of electron      83.9999999 magnetization 
 augmentation part       -0.3842806 magnetization 

 DIPCOR: dipole corrections for dipol
 direction  3 min pos   337,
 dipolmoment           0.000000      0.000000      0.000373 electrons x Angstroem
 Tr[quadrupol]      -513.738657

 energy correction for charged system         0.000000 eV
 dipol+quadrupol energy correction           -0.000000 eV
 added-field ion interaction         -0.000143 eV  (added to PSCEN)


 Broyden mixing:
  rms(total) = 0.86632E-03    rms(broyden)= 0.86631E-03
  rms(prec ) = 0.11261E-02
  weight for this iteration     100.00

 eigenvalues of (default mixing * dielectric matrix)
  average eigenvalue GAMMA=   2.0670
  6.5078  4.0509  2.5491  2.5491  1.6416  1.6416  1.1526  1.1526  0.6957  1.0129
  0.9249  0.9249

 Free energy of the ion-electron system (eV)
  ---------------------------------------------------
  alpha Z        PSCENC =        51.34028029
  Ewald energy   TEWEN  =     24398.35243534
  -Hartree energ DENC   =    -26105.35812541
  -exchange      EXHF   =         0.00000000
  -V(xc)+E(xc)   XCENC  =       201.11732377
  PAW double counting   =      7302.01525812    -7280.33108719
  entropy T*S    EENTRO =        -0.03568036
  eigenvalues    EBANDS =      -733.96037378
  atomic energy  EATOM  =      1992.74882108
  Solvation  Ediel_sol  =         0.00000000
  ---------------------------------------------------
  free energy    TOTEN  =      -174.11114814 eV

  energy without entropy =     -174.07546778  energy(sigma->0) =     -174.09330796


--------------------------------------------------------------------------------------------------------




--------------------------------------- Iteration      1(  18)  ---------------------------------------


    POTLOK:  cpu time      0.0660: real time      0.0692
    SETDIJ:  cpu time      0.0017: real time      0.0017
     EDDAV:  cpu time     35.3653: real time     35.5462
       DOS:  cpu time      0.0010: real time      0.0010
    CHARGE:  cpu time      1.1283: real time      1.1343
    MIXING:  cpu time      0.0046: real time      0.0046
    --------------------------------------------
      LOOP:  cpu time     36.5668: real time     36.7569

 eigenvalue-minimisations  : 20034
 total energy-change (2. order) :-0.3470055E-03  (-0.2255695E-05)
 number of electron      83.9999999 magnetization 
 augmentation part       -0.3842032 magnetization 

 DIPCOR: dipole corrections for dipol
 direction  3 min pos   337,
 dipolmoment           0.000000      0.000000      0.000294 electrons x Angstroem
 Tr[quadrupol]      -513.743316

 energy correction for charged system         0.000000 eV
 dipol+quadrupol energy correction           -0.000000 eV
 added-field ion interaction         -0.000112 eV  (added to PSCEN)


 Broyden mixing:
  rms(total) = 0.30668E-03    rms(broyden)= 0.30668E-03
  rms(prec ) = 0.44507E-03
  weight for this iteration     100.00

 eigenvalues of (default mixing * dielectric matrix)
  average eigenvalue GAMMA=   2.1900
  7.1451  4.7681  2.9715  2.5804  2.1538  1.5308  1.4974  0.6956  1.1198  1.0755
  1.0755  0.9286  0.9286

 Free energy of the ion-electron system (eV)
  ---------------------------------------------------
  alpha Z        PSCENC =        51.34031064
  Ewald energy   TEWEN  =     24398.35243534
  -Hartree energ DENC   =    -26105.58356171
  -exchange      EXHF   =         0.00000000
  -V(xc)+E(xc)   XCENC  =       201.11678601
  PAW double counting   =      7302.31136496    -7280.62685705
  entropy T*S    EENTRO =        -0.03571796
  eigenvalues    EBANDS =      -733.73507645
  atomic energy  EATOM  =      1992.74882108
  Solvation  Ediel_sol  =         0.00000000
  ---------------------------------------------------
  free energy    TOTEN  =      -174.11149515 eV

  energy without entropy =     -174.07577718  energy(sigma->0) =     -174.09363616


--------------------------------------------------------------------------------------------------------




--------------------------------------- Iteration      1(  19)  ---------------------------------------


    POTLOK:  cpu time      0.0691: real time      0.0710
    SETDIJ:  cpu time      0.0014: real time      0.0014
     EDDAV:  cpu time     36.4745: real time     36.6611
       DOS:  cpu time      0.0009: real time      0.0009
    CHARGE:  cpu time      1.2460: real time      1.2527
    MIXING:  cpu time      0.0021: real time      0.0021
    --------------------------------------------
      LOOP:  cpu time     37.7939: real time     37.9891

 eigenvalue-minimisations  : 20832
 total energy-change (2. order) :-0.2394022E-03  (-0.1430059E-05)
 number of electron      83.9999999 magnetization 
 augmentation part       -0.3841990 magnetization 

 DIPCOR: dipole corrections for dipol
 direction  3 min pos   337,
 dipolmoment           0.000000      0.000000      0.000176 electrons x Angstroem
 Tr[quadrupol]      -513.744768

 energy correction for charged system         0.000000 eV
 dipol+quadrupol energy correction           -0.000000 eV
 added-field ion interaction         -0.000067 eV  (added to PSCEN)


 Broyden mixing:
  rms(total) = 0.18976E-03    rms(broyden)= 0.18976E-03
  rms(prec ) = 0.24126E-03
  weight for this iteration     100.00

 eigenvalues of (default mixing * dielectric matrix)
  average eigenvalue GAMMA=   2.2359
  7.5470  5.2319  3.2097  2.5290  2.3517  1.6665  1.6665  0.6957  1.2528  1.2528
  0.9215  0.9215  1.0279  1.0279

 Free energy of the ion-electron system (eV)
  ---------------------------------------------------
  alpha Z        PSCENC =        51.34035597
  Ewald energy   TEWEN  =     24398.35243534
  -Hartree energ DENC   =    -26105.78719780
  -exchange      EXHF   =         0.00000000
  -V(xc)+E(xc)   XCENC  =       201.11777560
  PAW double counting   =      7301.81790139    -7280.13359079
  entropy T*S    EENTRO =        -0.03571045
  eigenvalues    EBANDS =      -733.53252487
  atomic energy  EATOM  =      1992.74882108
  Solvation  Ediel_sol  =         0.00000000
  ---------------------------------------------------
  free energy    TOTEN  =      -174.11173455 eV

  energy without entropy =     -174.07602410  energy(sigma->0) =     -174.09387932


--------------------------------------------------------------------------------------------------------




--------------------------------------- Iteration      1(  20)  ---------------------------------------


    POTLOK:  cpu time      0.0694: real time      0.0726
    SETDIJ:  cpu time      0.0014: real time      0.0014
     EDDAV:  cpu time     33.6826: real time     33.8546
       DOS:  cpu time      0.0007: real time      0.0007
    CHARGE:  cpu time      1.1986: real time      1.2055
    MIXING:  cpu time      0.0059: real time      0.0059
    --------------------------------------------
      LOOP:  cpu time     34.9585: real time     35.1407

 eigenvalue-minimisations  : 19026
 total energy-change (2. order) :-0.8735625E-04  (-0.3431095E-06)
 number of electron      83.9999999 magnetization 
 augmentation part       -0.3842292 magnetization 

 DIPCOR: dipole corrections for dipol
 direction  3 min pos   337,
 dipolmoment           0.000000      0.000000      0.000103 electrons x Angstroem
 Tr[quadrupol]      -513.744729

 energy correction for charged system         0.000000 eV
 dipol+quadrupol energy correction           -0.000000 eV
 added-field ion interaction         -0.000039 eV  (added to PSCEN)


 Broyden mixing:
  rms(total) = 0.16114E-03    rms(broyden)= 0.16114E-03
  rms(prec ) = 0.20044E-03
  weight for this iteration     100.00

 eigenvalues of (default mixing * dielectric matrix)
  average eigenvalue GAMMA=   2.3596
  8.2647  6.1117  3.6411  2.8662  2.4945  2.0749  1.6524  1.4275  0.6957  0.9029
  1.1294  0.9653  1.0383  1.0648  1.0648

 Free energy of the ion-electron system (eV)
  ---------------------------------------------------
  alpha Z        PSCENC =        51.34038369
  Ewald energy   TEWEN  =     24398.35243534
  -Hartree energ DENC   =    -26105.85708167
  -exchange      EXHF   =         0.00000000
  -V(xc)+E(xc)   XCENC  =       201.11790356
  PAW double counting   =      7301.92533555    -7280.24102704
  entropy T*S    EENTRO =        -0.03569643
  eigenvalues    EBANDS =      -733.46289598
  atomic energy  EATOM  =      1992.74882108
  Solvation  Ediel_sol  =         0.00000000
  ---------------------------------------------------
  free energy    TOTEN  =      -174.11182190 eV

  energy without entropy =     -174.07612547  energy(sigma->0) =     -174.09397369


--------------------------------------------------------------------------------------------------------




--------------------------------------- Iteration      1(  21)  ---------------------------------------


    POTLOK:  cpu time      0.0674: real time      0.0694
    SETDIJ:  cpu time      0.0014: real time      0.0014
     EDDAV:  cpu time     34.5420: real time     34.7198
       DOS:  cpu time      0.0008: real time      0.0008
    CHARGE:  cpu time      1.2523: real time      1.2593
    MIXING:  cpu time      0.0057: real time      0.0058
    --------------------------------------------
      LOOP:  cpu time     35.8696: real time     36.0565

 eigenvalue-minimisations  : 19320
 total energy-change (2. order) :-0.5108055E-04  (-0.2530791E-06)
 number of electron      83.9999999 magnetization 
 augmentation part       -0.3842097 magnetization 

 DIPCOR: dipole corrections for dipol
 direction  3 min pos   337,
 dipolmoment           0.000000      0.000000      0.000040 electrons x Angstroem
 Tr[quadrupol]      -513.742469

 energy correction for charged system         0.000000 eV
 dipol+quadrupol energy correction           -0.000000 eV
 added-field ion interaction         -0.000015 eV  (added to PSCEN)


 Broyden mixing:
  rms(total) = 0.37486E-04    rms(broyden)= 0.37485E-04
  rms(prec ) = 0.45052E-04
  weight for this iteration     100.00

 eigenvalues of (default mixing * dielectric matrix)
  average eigenvalue GAMMA=   2.3656
  8.1937  6.6342  3.6011  3.1082  2.4053  2.1458  1.7463  1.7463  1.4273  0.6957
  0.9020  1.1450  0.9871  0.9871  1.0621  1.0621

 Free energy of the ion-electron system (eV)
  ---------------------------------------------------
  alpha Z        PSCENC =        51.34040775
  Ewald energy   TEWEN  =     24398.35243534
  -Hartree energ DENC   =    -26105.85687068
  -exchange      EXHF   =         0.00000000
  -V(xc)+E(xc)   XCENC  =       201.11758596
  PAW double counting   =      7301.93540922    -7280.25105515
  entropy T*S    EENTRO =        -0.03570464
  eigenvalues    EBANDS =      -733.46290187
  atomic energy  EATOM  =      1992.74882108
  Solvation  Ediel_sol  =         0.00000000
  ---------------------------------------------------
  free energy    TOTEN  =      -174.11187298 eV

  energy without entropy =     -174.07616834  energy(sigma->0) =     -174.09402066


--------------------------------------------------------------------------------------------------------




--------------------------------------- Iteration      1(  22)  ---------------------------------------


    POTLOK:  cpu time      0.0722: real time      0.0761
    SETDIJ:  cpu time      0.0016: real time      0.0016
     EDDAV:  cpu time     35.6627: real time     35.8432
       DOS:  cpu time      0.0008: real time      0.0008
    CHARGE:  cpu time      1.2609: real time      1.2674
    MIXING:  cpu time      0.0025: real time      0.0025
    --------------------------------------------
      LOOP:  cpu time     37.0007: real time     37.1916

 eigenvalue-minimisations  : 20034
 total energy-change (2. order) :-0.1070490E-04  (-0.2665849E-07)
 number of electron      83.9999999 magnetization 
 augmentation part       -0.3842065 magnetization 

 DIPCOR: dipole corrections for dipol
 direction  3 min pos   337,
 dipolmoment           0.000000      0.000000      0.000020 electrons x Angstroem
 Tr[quadrupol]      -513.742267

 energy correction for charged system         0.000000 eV
 dipol+quadrupol energy correction           -0.000000 eV
 added-field ion interaction         -0.000008 eV  (added to PSCEN)


 Broyden mixing:
  rms(total) = 0.29053E-04    rms(broyden)= 0.29052E-04
  rms(prec ) = 0.35120E-04
  weight for this iteration     100.00

 eigenvalues of (default mixing * dielectric matrix)
  average eigenvalue GAMMA=   2.3905
  8.4951  6.8629  4.0448  3.2870  2.5145  2.4584  2.0126  1.5822  1.4936  0.6957
  1.1001  1.1001  1.0818  1.0818  0.9004  0.9636  0.9636

 Free energy of the ion-electron system (eV)
  ---------------------------------------------------
  alpha Z        PSCENC =        51.34041544
  Ewald energy   TEWEN  =     24398.35243534
  -Hartree energ DENC   =    -26105.85789324
  -exchange      EXHF   =         0.00000000
  -V(xc)+E(xc)   XCENC  =       201.11748917
  PAW double counting   =      7301.93456234    -7280.25019779
  entropy T*S    EENTRO =        -0.03570549
  eigenvalues    EBANDS =      -733.46181053
  atomic energy  EATOM  =      1992.74882108
  Solvation  Ediel_sol  =         0.00000000
  ---------------------------------------------------
  free energy    TOTEN  =      -174.11188369 eV

  energy without entropy =     -174.07617820  energy(sigma->0) =     -174.09403094


--------------------------------------------------------------------------------------------------------




--------------------------------------- Iteration      1(  23)  ---------------------------------------


    POTLOK:  cpu time      0.0761: real time      0.0778
    SETDIJ:  cpu time      0.0015: real time      0.0015
     EDDAV:  cpu time     33.0261: real time     33.1935
       DOS:  cpu time      0.0013: real time      0.0013
    CHARGE:  cpu time      1.2477: real time      1.2543
    MIXING:  cpu time      0.0027: real time      0.0028
    --------------------------------------------
      LOOP:  cpu time     34.3555: real time     34.5313

 eigenvalue-minimisations  : 18312
 total energy-change (2. order) :-0.5258602E-05  (-0.1283111E-07)
 number of electron      83.9999999 magnetization 
 augmentation part       -0.3842100 magnetization 

 DIPCOR: dipole corrections for dipol
 direction  3 min pos   337,
 dipolmoment           0.000000      0.000000      0.000006 electrons x Angstroem
 Tr[quadrupol]      -513.742584

 energy correction for charged system         0.000000 eV
 dipol+quadrupol energy correction           -0.000000 eV
 added-field ion interaction         -0.000002 eV  (added to PSCEN)


 Broyden mixing:
  rms(total) = 0.10891E-04    rms(broyden)= 0.10891E-04
  rms(prec ) = 0.12170E-04
  weight for this iteration     100.00

 eigenvalues of (default mixing * dielectric matrix)
  average eigenvalue GAMMA=   2.3880
  8.7132  6.8189  4.3068  3.2609  2.7693  2.4477  1.8988  1.8988  1.5226  1.5226
  0.6957  1.1181  1.1181  0.9046  1.0213  1.0213  0.9729  0.9729

 Free energy of the ion-electron system (eV)
  ---------------------------------------------------
  alpha Z        PSCENC =        51.34042066
  Ewald energy   TEWEN  =     24398.35243534
  -Hartree energ DENC   =    -26105.86639001
  -exchange      EXHF   =         0.00000000
  -V(xc)+E(xc)   XCENC  =       201.11749938
  PAW double counting   =      7301.94986838    -7280.26550616
  entropy T*S    EENTRO =        -0.03570361
  eigenvalues    EBANDS =      -733.45333401
  atomic energy  EATOM  =      1992.74882108
  Solvation  Ediel_sol  =         0.00000000
  ---------------------------------------------------
  free energy    TOTEN  =      -174.11188895 eV

  energy without entropy =     -174.07618534  energy(sigma->0) =     -174.09403714


--------------------------------------------------------------------------------------------------------




--------------------------------------- Iteration      1(  24)  ---------------------------------------


    POTLOK:  cpu time      0.0685: real time      0.0720
    SETDIJ:  cpu time      0.0030: real time      0.0031
     EDDAV:  cpu time     33.1370: real time     33.3040
       DOS:  cpu time      0.0014: real time      0.0014
    CHARGE:  cpu time      1.2613: real time      1.2680
    MIXING:  cpu time      0.0046: real time      0.0046
    --------------------------------------------
      LOOP:  cpu time     34.4759: real time     34.6531

 eigenvalue-minimisations  : 18018
 total energy-change (2. order) :-0.1211682E-05  (-0.1364890E-08)
 number of electron      83.9999999 magnetization 
 augmentation part       -0.3842093 magnetization 

 DIPCOR: dipole corrections for dipol
 direction  3 min pos   337,
 dipolmoment           0.000000      0.000000      0.000002 electrons x Angstroem
 Tr[quadrupol]      -513.742732

 energy correction for charged system         0.000000 eV
 dipol+quadrupol energy correction           -0.000000 eV
 added-field ion interaction         -0.000001 eV  (added to PSCEN)


 Broyden mixing:
  rms(total) = 0.32520E-05    rms(broyden)= 0.32520E-05
  rms(prec ) = 0.39107E-05
  weight for this iteration     100.00

 eigenvalues of (default mixing * dielectric matrix)
  average eigenvalue GAMMA=   2.3729
  8.7935  6.8367  4.5394  3.3746  2.8821  2.4238  2.3226  1.9349  1.5772  1.4919
  0.6957  1.1115  1.1115  0.9068  0.9498  0.9954  0.9954  1.0715  1.0715

 Free energy of the ion-electron system (eV)
  ---------------------------------------------------
  alpha Z        PSCENC =        51.34042249
  Ewald energy   TEWEN  =     24398.35243534
  -Hartree energ DENC   =    -26105.86776511
  -exchange      EXHF   =         0.00000000
  -V(xc)+E(xc)   XCENC  =       201.11750176
  PAW double counting   =      7301.94002001    -7280.25565948
  entropy T*S    EENTRO =        -0.03570398
  eigenvalues    EBANDS =      -733.45196225
  atomic energy  EATOM  =      1992.74882108
  Solvation  Ediel_sol  =         0.00000000
  ---------------------------------------------------
  free energy    TOTEN  =      -174.11189016 eV

  energy without entropy =     -174.07618618  energy(sigma->0) =     -174.09403817


--------------------------------------------------------------------------------------------------------




--------------------------------------- Iteration      1(  25)  ---------------------------------------


    POTLOK:  cpu time      0.0779: real time      0.0793
    SETDIJ:  cpu time      0.0014: real time      0.0014
     EDDAV:  cpu time     30.3110: real time     30.4654
       DOS:  cpu time      0.0008: real time      0.0008
    --------------------------------------------
      LOOP:  cpu time     30.3911: real time     30.5471

 eigenvalue-minimisations  : 16212
 total energy-change (2. order) :-0.3395890E-06  (-0.6436273E-10)
 number of electron      83.9999999 magnetization 
 augmentation part       -0.3842093 magnetization 

 DIPCOR: dipole corrections for dipol
 direction  3 min pos   337,
 dipolmoment           0.000000      0.000000     -0.000000 electrons x Angstroem
 Tr[quadrupol]      -513.742853

 energy correction for charged system         0.000000 eV
 dipol+quadrupol energy correction           -0.000000 eV
 added-field ion interaction          0.000000 eV  (added to PSCEN)


 Free energy of the ion-electron system (eV)
  ---------------------------------------------------
  alpha Z        PSCENC =        51.34042317
  Ewald energy   TEWEN  =     24398.35243534
  -Hartree energ DENC   =    -26105.86899192
  -exchange      EXHF   =         0.00000000
  -V(xc)+E(xc)   XCENC  =       201.11751069
  PAW double counting   =      7301.93723047    -7280.25287391
  entropy T*S    EENTRO =        -0.03570388
  eigenvalues    EBANDS =      -733.45074153
  atomic energy  EATOM  =      1992.74882108
  Solvation  Ediel_sol  =         0.00000000
  ---------------------------------------------------
  free energy    TOTEN  =      -174.11189050 eV

  energy without entropy =     -174.07618662  energy(sigma->0) =     -174.09403856


--------------------------------------------------------------------------------------------------------




 average (electrostatic) potential at core
  the test charge radii are     0.7672
  (the norm of the test charge is              1.0000)
       1 -35.1183       2 -35.1183       3 -35.1183       4 -35.1183       5 -35.1183
       6 -35.1183       7 -35.1183       8 -35.1183       9 -34.1015      10 -34.1015
      11 -34.1015      12 -34.1015      13 -34.1015      14 -34.1015      15 -34.1015
      16 -34.1015      17 -34.9064      18 -35.9479      19 -35.9480      20 -34.9064
      21 -35.9480      22 -34.9064      23 -34.9064      24 -35.9480      25 -34.9729
      26 -34.9729      27 -34.9729      28 -34.9729
 
 
 
 E-fermi :  -2.7284     XC(G=0):  -3.0312     alpha+bet : -2.9582

 val. band max:       -2.7298435454   @ k =   0.4250   0.1944   0.0000
 cond. band min:      -2.7280168501   @ k =   0.1750   0.0833   0.0000
 fundamental gap:      0.0018266952
 Fermi energy:        -2.7283868599

 k-point     1 :       0.0250    0.0278    0.0000
  band No.  band energies     occupation 
      1     -17.9318      2.00000
      2     -17.7918      2.00000
      3     -16.7866      2.00000
      4     -16.6615      2.00000
      5     -13.8405      2.00000
      6     -13.7357      2.00000
      7     -13.5735      2.00000
      8     -13.4424      2.00000
      9     -11.4191      2.00000
     10     -11.1895      2.00000
     11     -11.0356      2.00000
     12     -10.2460      2.00000
     13     -10.2455      2.00000
     14     -10.0297      2.00000
     15      -9.9806      2.00000
     16      -9.8429      2.00000
     17      -9.7008      2.00000
     18      -9.4769      2.00000
     19      -9.3702      2.00000
     20      -8.6542      2.00000
     21      -8.4980      2.00000
     22      -8.3516      2.00000
     23      -7.0120      2.00000
     24      -6.7712      2.00000
     25      -6.5280      2.00000
     26      -6.2492      2.00000
     27      -6.2251      2.00000
     28      -6.0789      2.00000
     29      -5.8918      2.00000
     30      -5.8748      2.00000
     31      -5.0914      2.00000
     32      -4.9959      2.00000
     33      -4.9415      2.00000
     34      -4.9097      2.00000
     35      -4.8613      2.00000
     36      -4.7672      2.00000
     37      -4.4867      2.00000
     38      -4.3011      2.00000
     39      -3.7957      2.00000
     40      -3.7372      2.00000
     41      -3.0320      1.99998
     42      -2.7486      1.22543
     43      -2.6163      0.11308
     44      -2.5372      0.00685
     45      -2.3248      0.00000
     46      -1.5704      0.00000
     47      -0.6187      0.00000
     48      -0.4583      0.00000
     49       0.1208      0.00000
     50       0.2466      0.00000
     51       0.6250      0.00000
     52       0.7785      0.00000
     53       1.3317      0.00000
     54       1.3979      0.00000
     55       1.6890      0.00000
     56       1.8354      0.00000
     57       1.9278      0.00000
     58       1.9962      0.00000
     59       2.3625      0.00000
     60       2.3781      0.00000
     61       2.7468      0.00000
     62       2.9024      0.00000
     63       2.9333      0.00000
     64       3.1298      0.00000
     65       3.4067      0.00000
     66       3.7646      0.00000
     67       3.8509      0.00000
     68       3.8889      0.00000
     69       4.1581      0.00000
     70       4.1599      0.00000
     71       4.1774      0.00000
     72       4.3323      0.00000
     73       4.6483      0.00000
     74       4.6775      0.00000
     75       4.8614      0.00000
     76       4.9371      0.00000
     77       5.1104      0.00000
     78       5.2684      0.00000
     79       5.5104      0.00000
     80       5.5899      0.00000
     81       5.7218      0.00000
     82       5.8729      0.00000
     83       5.9227      0.00000
     84       5.9459      0.00000

 k-point     2 :       0.0750    0.0278    0.0000
  band No.  band energies     occupation 
      1     -17.9209      2.00000
      2     -17.7810      2.00000
      3     -16.8055      2.00000
      4     -16.6802      2.00000
      5     -13.8351      2.00000
      6     -13.7300      2.00000
      7     -13.5699      2.00000
      8     -13.4395      2.00000
      9     -11.4071      2.00000
     10     -11.1696      2.00000
     11     -11.0125      2.00000
     12     -10.3667      2.00000
     13     -10.2628      2.00000
     14     -10.1661      2.00000
     15      -9.9642      2.00000
     16      -9.8993      2.00000
     17      -9.7640      2.00000
     18      -9.3172      2.00000
     19      -9.1930      2.00000
     20      -8.5556      2.00000
     21      -8.3993      2.00000
     22      -8.3808      2.00000
     23      -7.0058      2.00000
     24      -6.7783      2.00000
     25      -6.5199      2.00000
     26      -6.3285      2.00000
     27      -6.3031      2.00000
     28      -6.0738      2.00000
     29      -5.8941      2.00000
     30      -5.8464      2.00000
     31      -5.1253      2.00000
     32      -4.9800      2.00000
     33      -4.9528      2.00000
     34      -4.9168      2.00000
     35      -4.8902      2.00000
     36      -4.7857      2.00000
     37      -4.5145      2.00000
     38      -4.3345      2.00000
     39      -3.8328      2.00000
     40      -3.7510      2.00000
     41      -3.0212      1.99997
     42      -2.7826      1.55711
     43      -2.6525      0.28319
     44      -2.5214      0.00342
     45      -2.3355      0.00000
     46      -1.5817      0.00000
     47      -0.6065      0.00000
     48      -0.3603      0.00000
     49       0.1230      0.00000
     50       0.3571      0.00000
     51       0.6411      0.00000
     52       0.7727      0.00000
     53       1.3170      0.00000
     54       1.4262      0.00000
     55       1.7151      0.00000
     56       1.8784      0.00000
     57       1.9128      0.00000
     58       2.0207      0.00000
     59       2.3838      0.00000
     60       2.4104      0.00000
     61       2.5822      0.00000
     62       2.9204      0.00000
     63       3.0521      0.00000
     64       3.1227      0.00000
     65       3.4283      0.00000
     66       3.8237      0.00000
     67       3.8650      0.00000
     68       3.9698      0.00000
     69       4.0961      0.00000
     70       4.1722      0.00000
     71       4.1940      0.00000
     72       4.3808      0.00000
     73       4.6191      0.00000
     74       4.6822      0.00000
     75       4.9358      0.00000
     76       4.9506      0.00000
     77       4.9603      0.00000
     78       5.3525      0.00000
     79       5.4622      0.00000
     80       5.5946      0.00000
     81       5.5991      0.00000
     82       5.7484      0.00000
     83       5.8449      0.00000
     84       5.8498      0.00000

 k-point     3 :       0.1250    0.0278    0.0000
  band No.  band energies     occupation 
      1     -17.8991      2.00000
      2     -17.7596      2.00000
      3     -16.8423      2.00000
      4     -16.7166      2.00000
      5     -13.8239      2.00000
      6     -13.7182      2.00000
      7     -13.5634      2.00000
      8     -13.4343      2.00000
      9     -11.3834      2.00000
     10     -11.1394      2.00000
     11     -10.9754      2.00000
     12     -10.5329      2.00000
     13     -10.3422      2.00000
     14     -10.2958      2.00000
     15      -9.9657      2.00000
     16      -9.9346      2.00000
     17      -9.8388      2.00000
     18      -9.0869      2.00000
     19      -8.9504      2.00000
     20      -8.4386      2.00000
     21      -8.3850      2.00000
     22      -8.2271      2.00000
     23      -6.9939      2.00000
     24      -6.7911      2.00000
     25      -6.5141      2.00000
     26      -6.4682      2.00000
     27      -6.4504      2.00000
     28      -6.0648      2.00000
     29      -5.8832      2.00000
     30      -5.8090      2.00000
     31      -5.1904      2.00000
     32      -5.0170      2.00000
     33      -4.9521      2.00000
     34      -4.9426      2.00000
     35      -4.8885      2.00000
     36      -4.8237      2.00000
     37      -4.5694      2.00000
     38      -4.4008      2.00000
     39      -3.8949      2.00000
     40      -3.7857      2.00000
     41      -3.0006      1.99988
     42      -2.8507      1.91628
     43      -2.7260      0.97304
     44      -2.4908      0.00078
     45      -2.3545      0.00000
     46      -1.6036      0.00000
     47      -0.5483      0.00000
     48      -0.2025      0.00000
     49       0.1766      0.00000
     50       0.5252      0.00000
     51       0.6629      0.00000
     52       0.7707      0.00000
     53       1.2957      0.00000
     54       1.4770      0.00000
     55       1.7659      0.00000
     56       1.8894      0.00000
     57       1.9501      0.00000
     58       2.0687      0.00000
     59       2.4088      0.00000
     60       2.4302      0.00000
     61       2.4729      0.00000
     62       2.9480      0.00000
     63       3.1254      0.00000
     64       3.1488      0.00000
     65       3.4674      0.00000
     66       3.8337      0.00000
     67       3.9372      0.00000
     68       4.0810      0.00000
     69       4.0838      0.00000
     70       4.2004      0.00000
     71       4.2253      0.00000
     72       4.4626      0.00000
     73       4.4913      0.00000
     74       4.7441      0.00000
     75       4.7968      0.00000
     76       4.9797      0.00000
     77       5.0077      0.00000
     78       5.2327      0.00000
     79       5.3870      0.00000
     80       5.5218      0.00000
     81       5.5485      0.00000
     82       5.5679      0.00000
     83       5.5972      0.00000
     84       5.6984      0.00000

 k-point     4 :       0.1750    0.0278    0.0000
  band No.  band energies     occupation 
      1     -17.8667      2.00000
      2     -17.7276      2.00000
      3     -16.8952      2.00000
      4     -16.7688      2.00000
      5     -13.8066      2.00000
      6     -13.7004      2.00000
      7     -13.5553      2.00000
      8     -13.4281      2.00000
      9     -11.3485      2.00000
     10     -11.1172      2.00000
     11     -10.9430      2.00000
     12     -10.7006      2.00000
     13     -10.5150      2.00000
     14     -10.3437      2.00000
     15     -10.0014      2.00000
     16      -9.8917      2.00000
     17      -9.8854      2.00000
     18      -8.8288      2.00000
     19      -8.6838      2.00000
     20      -8.5196      2.00000
     21      -8.1703      2.00000
     22      -8.0109      2.00000
     23      -6.9771      2.00000
     24      -6.8074      2.00000
     25      -6.6936      2.00000
     26      -6.6536      2.00000
     27      -6.4716      2.00000
     28      -6.0543      2.00000
     29      -5.8606      2.00000
     30      -5.7666      2.00000
     31      -5.2836      2.00000
     32      -5.1119      2.00000
     33      -5.0118      2.00000
     34      -4.9226      2.00000
     35      -4.8802      2.00000
     36      -4.8477      2.00000
     37      -4.6423      2.00000
     38      -4.4954      2.00000
     39      -3.9731      2.00000
     40      -3.8417      2.00000
     41      -2.9718      1.99942
     42      -2.9519      1.99843
     43      -2.8360      1.87205
     44      -2.4473      0.00007
     45      -2.3794      0.00000
     46      -1.6350      0.00000
     47      -0.4339      0.00000
     48      -0.0028      0.00000
     49       0.2899      0.00000
     50       0.6726      0.00000
     51       0.7349      0.00000
     52       0.7881      0.00000
     53       1.2788      0.00000
     54       1.5357      0.00000
     55       1.8386      0.00000
     56       1.8733      0.00000
     57       2.0241      0.00000
     58       2.1382      0.00000
     59       2.2586      0.00000
     60       2.4869      0.00000
     61       2.5612      0.00000
     62       2.9721      0.00000
     63       3.1662      0.00000
     64       3.2266      0.00000
     65       3.5187      0.00000
     66       3.7311      0.00000
     67       4.0832      0.00000
     68       4.1075      0.00000
     69       4.1557      0.00000
     70       4.2377      0.00000
     71       4.2674      0.00000
     72       4.3549      0.00000
     73       4.5768      0.00000
     74       4.6551      0.00000
     75       4.8108      0.00000
     76       4.9143      0.00000
     77       4.9648      0.00000
     78       5.0972      0.00000
     79       5.1896      0.00000
     80       5.2971      0.00000
     81       5.3693      0.00000
     82       5.4030      0.00000
     83       5.4625      0.00000
     84       5.5792      0.00000

 k-point     5 :       0.2250    0.0278    0.0000
  band No.  band energies     occupation 
      1     -17.8241      2.00000
      2     -17.6856      2.00000
      3     -16.9615      2.00000
      4     -16.8343      2.00000
      5     -13.7832      2.00000
      6     -13.6763      2.00000
      7     -13.5474      2.00000
      8     -13.4227      2.00000
      9     -11.3037      2.00000
     10     -11.1226      2.00000
     11     -10.9387      2.00000
     12     -10.8522      2.00000
     13     -10.6690      2.00000
     14     -10.4050      2.00000
     15      -9.9742      2.00000
     16      -9.8718      2.00000
     17      -9.8331      2.00000
     18      -8.6198      2.00000
     19      -8.5616      2.00000
     20      -8.4097      2.00000
     21      -7.9309      2.00000
     22      -7.7697      2.00000
     23      -6.9572      2.00000
     24      -6.9414      2.00000
     25      -6.8960      2.00000
     26      -6.8246      2.00000
     27      -6.4382      2.00000
     28      -6.0455      2.00000
     29      -5.8292      2.00000
     30      -5.7251      2.00000
     31      -5.4003      2.00000
     32      -5.2277      2.00000
     33      -5.0903      2.00000
     34      -4.9526      2.00000
     35      -4.9351      2.00000
     36      -4.8215      2.00000
     37      -4.6885      2.00000
     38      -4.5912      2.00000
     39      -4.0594      2.00000
     40      -3.9149      2.00000
     41      -3.0835      2.00000
     42      -2.9845      1.99971
     43      -2.9303      1.99570
     44      -2.4092      0.00001
     45      -2.3934      0.00000
     46      -1.6746      0.00000
     47      -0.2635      0.00000
     48       0.2284      0.00000
     49       0.4612      0.00000
     50       0.6712      0.00000
     51       0.8218      0.00000
     52       0.9776      0.00000
     53       1.2763      0.00000
     54       1.5746      0.00000
     55       1.8919      0.00000
     56       1.9292      0.00000
     57       2.0693      0.00000
     58       2.1274      0.00000
     59       2.2245      0.00000
     60       2.5616      0.00000
     61       2.6679      0.00000
     62       3.0011      0.00000
     63       3.2505      0.00000
     64       3.2888      0.00000
     65       3.5728      0.00000
     66       3.6064      0.00000
     67       3.9447      0.00000
     68       4.1018      0.00000
     69       4.1908      0.00000
     70       4.2560      0.00000
     71       4.3147      0.00000
     72       4.3929      0.00000
     73       4.6296      0.00000
     74       4.6855      0.00000
     75       4.6873      0.00000
     76       4.7601      0.00000
     77       4.9054      0.00000
     78       4.9106      0.00000
     79       4.9970      0.00000
     80       5.1692      0.00000
     81       5.2034      0.00000
     82       5.2349      0.00000
     83       5.2607      0.00000
     84       5.5650      0.00000

 k-point     6 :       0.2750    0.0278    0.0000
  band No.  band energies     occupation 
      1     -17.7717      2.00000
      2     -17.6339      2.00000
      3     -17.0383      2.00000
      4     -16.9102      2.00000
      5     -13.7542      2.00000
      6     -13.6466      2.00000
      7     -13.5420      2.00000
      8     -13.4200      2.00000
      9     -11.2536      2.00000
     10     -11.1585      2.00000
     11     -10.9803      2.00000
     12     -10.9724      2.00000
     13     -10.7983      2.00000
     14     -10.4776      2.00000
     15      -9.8706      2.00000
     16      -9.7779      2.00000
     17      -9.7621      2.00000
     18      -8.7338      2.00000
     19      -8.3028      2.00000
     20      -8.1461      2.00000
     21      -7.6819      2.00000
     22      -7.5190      2.00000
     23      -7.2081      2.00000
     24      -7.1525      2.00000
     25      -6.9334      2.00000
     26      -6.8420      2.00000
     27      -6.3966      2.00000
     28      -6.0432      2.00000
     29      -5.7958      2.00000
     30      -5.6955      2.00000
     31      -5.5329      2.00000
     32      -5.3481      2.00000
     33      -5.1711      2.00000
     34      -5.0526      2.00000
     35      -5.0250      2.00000
     36      -4.8975      2.00000
     37      -4.6508      2.00000
     38      -4.5966      2.00000
     39      -4.1461      2.00000
     40      -3.9992      2.00000
     41      -3.2404      2.00000
     42      -3.1513      2.00000
     43      -2.8903      1.97796
     44      -2.4440      0.00006
     45      -2.3313      0.00000
     46      -1.7218      0.00000
     47      -0.0418      0.00000
     48       0.4786      0.00000
     49       0.6775      0.00000
     50       0.6856      0.00000
     51       0.8534      0.00000
     52       1.2433      0.00000
     53       1.2974      0.00000
     54       1.5765      0.00000
     55       1.9573      0.00000
     56       2.0144      0.00000
     57       2.0223      0.00000
     58       2.0851      0.00000
     59       2.3160      0.00000
     60       2.6462      0.00000
     61       2.7803      0.00000
     62       3.0500      0.00000
     63       3.3318      0.00000
     64       3.3533      0.00000
     65       3.4784      0.00000
     66       3.5649      0.00000
     67       3.7113      0.00000
     68       4.0031      0.00000
     69       4.0324      0.00000
     70       4.2783      0.00000
     71       4.3545      0.00000
     72       4.3960      0.00000
     73       4.5447      0.00000
     74       4.5448      0.00000
     75       4.6144      0.00000
     76       4.6397      0.00000
     77       4.8592      0.00000
     78       4.8713      0.00000
     79       4.9753      0.00000
     80       4.9950      0.00000
     81       5.0650      0.00000
     82       5.1724      0.00000
     83       5.2881      0.00000
     84       5.6309      0.00000

 k-point     7 :       0.3250    0.0278    0.0000
  band No.  band energies     occupation 
      1     -17.7102      2.00000
      2     -17.5732      2.00000
      3     -17.1227      2.00000
      4     -16.9935      2.00000
      5     -13.7206      2.00000
      6     -13.6124      2.00000
      7     -13.5414      2.00000
      8     -13.4221      2.00000
      9     -11.2410      2.00000
     10     -11.1738      2.00000
     11     -11.0783      2.00000
     12     -11.0289      2.00000
     13     -10.9043      2.00000
     14     -10.5591      2.00000
     15      -9.6989      2.00000
     16      -9.6786      2.00000
     17      -9.6123      2.00000
     18      -8.8571      2.00000
     19      -8.0973      2.00000
     20      -7.9500      2.00000
     21      -7.4868      2.00000
     22      -7.3926      2.00000
     23      -7.3865      2.00000
     24      -7.2462      2.00000
     25      -6.9100      2.00000
     26      -6.8573      2.00000
     27      -6.3492      2.00000
     28      -6.0562      2.00000
     29      -5.7881      2.00000
     30      -5.6876      2.00000
     31      -5.6678      2.00000
     32      -5.4376      2.00000
     33      -5.2520      2.00000
     34      -5.2117      2.00000
     35      -5.1109      2.00000
     36      -5.0654      2.00000
     37      -4.5599      2.00000
     38      -4.5137      2.00000
     39      -4.2244      2.00000
     40      -4.0877      2.00000
     41      -3.4156      2.00000
     42      -3.3378      2.00000
     43      -2.8430      1.89506
     44      -2.4839      0.00055
     45      -2.2634      0.00000
     46      -1.7759      0.00000
     47       0.2242      0.00000
     48       0.6523      0.00000
     49       0.7834      0.00000
     50       0.8750      0.00000
     51       0.9561      0.00000
     52       1.3324      0.00000
     53       1.5383      0.00000
     54       1.5589      0.00000
     55       1.9358      0.00000
     56       1.9844      0.00000
     57       2.0400      0.00000
     58       2.1813      0.00000
     59       2.3937      0.00000
     60       2.7431      0.00000
     61       2.8646      0.00000
     62       3.1144      0.00000
     63       3.2609      0.00000
     64       3.3329      0.00000
     65       3.3530      0.00000
     66       3.4519      0.00000
     67       3.7072      0.00000
     68       3.8144      0.00000
     69       3.9149      0.00000
     70       4.1410      0.00000
     71       4.2063      0.00000
     72       4.2809      0.00000
     73       4.2924      0.00000
     74       4.3347      0.00000
     75       4.6748      0.00000
     76       4.7589      0.00000
     77       4.8121      0.00000
     78       4.8428      0.00000
     79       4.9204      0.00000
     80       5.0288      0.00000
     81       5.0667      0.00000
     82       5.2745      0.00000
     83       5.3911      0.00000
     84       5.4114      0.00000

 k-point     8 :       0.3750    0.0278    0.0000
  band No.  band energies     occupation 
      1     -17.6404      2.00000
      2     -17.5044      2.00000
      3     -17.2117      2.00000
      4     -17.0813      2.00000
      5     -13.6842      2.00000
      6     -13.5754      2.00000
      7     -13.5474      2.00000
      8     -13.4309      2.00000
      9     -11.2860      2.00000
     10     -11.1977      2.00000
     11     -11.0828      2.00000
     12     -11.0782      2.00000
     13     -10.9912      2.00000
     14     -10.6467      2.00000
     15      -9.5833      2.00000
     16      -9.4755      2.00000
     17      -9.3927      2.00000
     18      -8.9851      2.00000
     19      -8.1022      2.00000
     20      -8.0038      2.00000
     21      -7.5072      2.00000
     22      -7.3593      2.00000
     23      -7.1981      2.00000
     24      -7.0257      2.00000
     25      -6.8935      2.00000
     26      -6.8606      2.00000
     27      -6.3007      2.00000
     28      -6.0970      2.00000
     29      -5.8585      2.00000
     30      -5.7802      2.00000
     31      -5.6760      2.00000
     32      -5.4694      2.00000
     33      -5.4178      2.00000
     34      -5.2965      2.00000
     35      -5.2558      2.00000
     36      -5.1900      2.00000
     37      -4.4408      2.00000
     38      -4.3972      2.00000
     39      -4.2840      2.00000
     40      -4.1728      2.00000
     41      -3.6009      2.00000
     42      -3.5327      2.00000
     43      -2.7920      1.63133
     44      -2.5288      0.00475
     45      -2.1917      0.00000
     46      -1.8363      0.00000
     47       0.5249      0.00000
     48       0.6876      0.00000
     49       0.8590      0.00000
     50       1.0660      0.00000
     51       1.2624      0.00000
     52       1.3970      0.00000
     53       1.5389      0.00000
     54       1.8406      0.00000
     55       1.8808      0.00000
     56       1.8975      0.00000
     57       2.0450      0.00000
     58       2.3106      0.00000
     59       2.4683      0.00000
     60       2.8460      0.00000
     61       2.8517      0.00000
     62       2.9217      0.00000
     63       3.1709      0.00000
     64       3.2071      0.00000
     65       3.2968      0.00000
     66       3.4653      0.00000
     67       3.6528      0.00000
     68       3.7293      0.00000
     69       3.8723      0.00000
     70       3.8897      0.00000
     71       4.0107      0.00000
     72       4.0119      0.00000
     73       4.2899      0.00000
     74       4.3486      0.00000
     75       4.5020      0.00000
     76       4.7828      0.00000
     77       4.7933      0.00000
     78       4.8779      0.00000
     79       4.8784      0.00000
     80       5.1116      0.00000
     81       5.1117      0.00000
     82       5.3589      0.00000
     83       5.3986      0.00000
     84       5.5039      0.00000

 k-point     9 :       0.4250    0.0278    0.0000
  band No.  band energies     occupation 
      1     -17.5634      2.00000
      2     -17.4284      2.00000
      3     -17.3025      2.00000
      4     -17.1710      2.00000
      5     -13.6475      2.00000
      6     -13.5615      2.00000
      7     -13.5379      2.00000
      8     -13.4474      2.00000
      9     -11.3186      2.00000
     10     -11.2604      2.00000
     11     -11.1171      2.00000
     12     -11.0592      2.00000
     13     -11.0050      2.00000
     14     -10.7379      2.00000
     15      -9.4776      2.00000
     16      -9.2152      2.00000
     17      -9.1367      2.00000
     18      -9.1127      2.00000
     19      -8.3377      2.00000
     20      -8.2588      2.00000
     21      -7.3527      2.00000
     22      -7.1623      2.00000
     23      -7.0580      2.00000
     24      -6.8767      2.00000
     25      -6.8615      2.00000
     26      -6.8385      2.00000
     27      -6.2598      2.00000
     28      -6.1598      2.00000
     29      -5.9425      2.00000
     30      -5.8438      2.00000
     31      -5.6954      2.00000
     32      -5.6093      2.00000
     33      -5.4769      2.00000
     34      -5.4100      2.00000
     35      -5.3307      2.00000
     36      -5.2579      2.00000
     37      -4.3278      2.00000
     38      -4.3007      2.00000
     39      -4.2528      2.00000
     40      -4.2419      2.00000
     41      -3.7883      2.00000
     42      -3.7276      2.00000
     43      -2.7385      1.11345
     44      -2.5778      0.03319
     45      -2.1181      0.00000
     46      -1.9019      0.00000
     47       0.7215      0.00000
     48       0.8377      0.00000
     49       0.8464      0.00000
     50       1.3350      0.00000
     51       1.4725      0.00000
     52       1.5131      0.00000
     53       1.6025      0.00000
     54       1.7900      0.00000
     55       1.8560      0.00000
     56       1.9255      0.00000
     57       2.1470      0.00000
     58       2.4187      0.00000
     59       2.5140      0.00000
     60       2.6179      0.00000
     61       2.7140      0.00000
     62       3.0305      0.00000
     63       3.0381      0.00000
     64       3.1315      0.00000
     65       3.1520      0.00000
     66       3.4537      0.00000
     67       3.5601      0.00000
     68       3.7094      0.00000
     69       3.7833      0.00000
     70       3.8134      0.00000
     71       3.8671      0.00000
     72       3.9580      0.00000
     73       4.2660      0.00000
     74       4.3595      0.00000
     75       4.4607      0.00000
     76       4.6010      0.00000
     77       4.7216      0.00000
     78       4.8248      0.00000
     79       4.9475      0.00000
     80       5.1874      0.00000
     81       5.2715      0.00000
     82       5.2779      0.00000
     83       5.4936      0.00000
     84       5.5929      0.00000

 k-point    10 :       0.4750    0.0278    0.0000
  band No.  band energies     occupation 
      1     -17.4803      2.00000
      2     -17.3928      2.00000
      3     -17.3464      2.00000
      4     -17.2600      2.00000
      5     -13.6131      2.00000
      6     -13.5837      2.00000
      7     -13.5025      2.00000
      8     -13.4716      2.00000
      9     -11.3258      2.00000
     10     -11.3057      2.00000
     11     -11.1249      2.00000
     12     -11.1050      2.00000
     13     -10.9199      2.00000
     14     -10.8298      2.00000
     15      -9.3629      2.00000
     16      -9.2411      2.00000
     17      -8.9301      2.00000
     18      -8.8523      2.00000
     19      -8.6318      2.00000
     20      -8.5552      2.00000
     21      -7.1825      2.00000
     22      -7.0697      2.00000
     23      -6.9608      2.00000
     24      -6.8357      2.00000
     25      -6.8308      2.00000
     26      -6.8151      2.00000
     27      -6.2325      2.00000
     28      -6.2039      2.00000
     29      -5.9311      2.00000
     30      -5.8461      2.00000
     31      -5.8110      2.00000
     32      -5.7664      2.00000
     33      -5.4794      2.00000
     34      -5.4640      2.00000
     35      -5.3340      2.00000
     36      -5.3080      2.00000
     37      -4.3292      2.00000
     38      -4.3016      2.00000
     39      -4.1430      2.00000
     40      -4.0907      2.00000
     41      -3.9708      2.00000
     42      -3.9154      2.00000
     43      -2.6840      0.53018
     44      -2.6300      0.16396
     45      -2.0442      0.00000
     46      -1.9717      0.00000
     47       0.7612      0.00000
     48       0.8022      0.00000
     49       1.1608      0.00000
     50       1.3971      0.00000
     51       1.5713      0.00000
     52       1.5737      0.00000
     53       1.6786      0.00000
     54       1.7189      0.00000
     55       1.9422      0.00000
     56       1.9639      0.00000
     57       2.2025      0.00000
     58       2.2385      0.00000
     59       2.5126      0.00000
     60       2.6879      0.00000
     61       2.7724      0.00000
     62       2.8630      0.00000
     63       2.8940      0.00000
     64       2.9623      0.00000
     65       3.2270      0.00000
     66       3.4233      0.00000
     67       3.5675      0.00000
     68       3.6778      0.00000
     69       3.6794      0.00000
     70       3.7033      0.00000
     71       3.9201      0.00000
     72       4.0706      0.00000
     73       4.1361      0.00000
     74       4.3618      0.00000
     75       4.4665      0.00000
     76       4.5883      0.00000
     77       4.6102      0.00000
     78       4.7504      0.00000
     79       5.0381      0.00000
     80       5.1516      0.00000
     81       5.3141      0.00000
     82       5.4267      0.00000
     83       5.4517      0.00000
     84       5.5084      0.00000

 k-point    11 :       0.0250    0.0833    0.0000
  band No.  band energies     occupation 
      1     -17.9262      2.00000
      2     -17.7865      2.00000
      3     -16.7971      2.00000
      4     -16.6715      2.00000
      5     -13.8380      2.00000
      6     -13.7335      2.00000
      7     -13.5571      2.00000
      8     -13.4269      2.00000
      9     -11.4105      2.00000
     10     -11.2579      2.00000
     11     -11.1062      2.00000
     12     -10.3514      2.00000
     13     -10.2638      2.00000
     14     -10.1441      2.00000
     15      -9.9711      2.00000
     16      -9.7195      2.00000
     17      -9.5672      2.00000
     18      -9.3993      2.00000
     19      -9.2910      2.00000
     20      -8.5947      2.00000
     21      -8.4384      2.00000
     22      -8.3818      2.00000
     23      -7.0040      2.00000
     24      -6.7571      2.00000
     25      -6.5235      2.00000
     26      -6.2751      2.00000
     27      -6.2502      2.00000
     28      -6.0701      2.00000
     29      -5.8816      2.00000
     30      -5.8284      2.00000
     31      -5.1153      2.00000
     32      -5.0782      2.00000
     33      -5.0586      2.00000
     34      -4.9074      2.00000
     35      -4.9061      2.00000
     36      -4.7875      2.00000
     37      -4.6045      2.00000
     38      -4.4190      2.00000
     39      -3.8495      2.00000
     40      -3.7515      2.00000
     41      -3.0287      1.99998
     42      -2.6011      0.07185
     43      -2.5133      0.00235
     44      -2.4753      0.00034
     45      -2.3165      0.00000
     46      -1.5802      0.00000
     47      -0.5994      0.00000
     48      -0.3859      0.00000
     49       0.1893      0.00000
     50       0.2638      0.00000
     51       0.6111      0.00000
     52       0.7015      0.00000
     53       1.2362      0.00000
     54       1.4380      0.00000
     55       1.7187      0.00000
     56       1.8292      0.00000
     57       1.9835      0.00000
     58       2.0238      0.00000
     59       2.3837      0.00000
     60       2.4191      0.00000
     61       2.7318      0.00000
     62       2.8882      0.00000
     63       2.9324      0.00000
     64       3.2508      0.00000
     65       3.4502      0.00000
     66       3.7604      0.00000
     67       3.9138      0.00000
     68       3.9806      0.00000
     69       4.1350      0.00000
     70       4.1894      0.00000
     71       4.1915      0.00000
     72       4.2462      0.00000
     73       4.6176      0.00000
     74       4.6624      0.00000
     75       4.9301      0.00000
     76       4.9593      0.00000
     77       4.9710      0.00000
     78       5.1155      0.00000
     79       5.3751      0.00000
     80       5.4422      0.00000
     81       5.5415      0.00000
     82       5.7129      0.00000
     83       5.7759      0.00000
     84       5.9495      0.00000

 k-point    12 :       0.0750    0.0833    0.0000
  band No.  band energies     occupation 
      1     -17.9153      2.00000
      2     -17.7757      2.00000
      3     -16.8154      2.00000
      4     -16.6896      2.00000
      5     -13.8369      2.00000
      6     -13.7314      2.00000
      7     -13.5513      2.00000
      8     -13.4223      2.00000
      9     -11.3988      2.00000
     10     -11.2443      2.00000
     11     -11.0891      2.00000
     12     -10.4138      2.00000
     13     -10.2798      2.00000
     14     -10.2147      2.00000
     15      -9.9551      2.00000
     16      -9.8181      2.00000
     17      -9.6773      2.00000
     18      -9.2531      2.00000
     19      -9.1298      2.00000
     20      -8.4930      2.00000
     21      -8.4102      2.00000
     22      -8.3350      2.00000
     23      -7.0017      2.00000
     24      -6.7659      2.00000
     25      -6.5143      2.00000
     26      -6.3533      2.00000
     27      -6.3271      2.00000
     28      -6.0630      2.00000
     29      -5.9147      2.00000
     30      -5.7738      2.00000
     31      -5.1440      2.00000
     32      -5.0669      2.00000
     33      -5.0531      2.00000
     34      -4.9640      2.00000
     35      -4.9313      2.00000
     36      -4.7702      2.00000
     37      -4.6266      2.00000
     38      -4.4447      2.00000
     39      -3.9210      2.00000
     40      -3.7233      2.00000
     41      -3.0191      1.99996
     42      -2.6404      0.21335
     43      -2.5144      0.00248
     44      -2.5030      0.00143
     45      -2.3330      0.00000
     46      -1.5913      0.00000
     47      -0.5793      0.00000
     48      -0.3024      0.00000
     49       0.1768      0.00000
     50       0.3796      0.00000
     51       0.5832      0.00000
     52       0.7519      0.00000
     53       1.2251      0.00000
     54       1.4673      0.00000
     55       1.7457      0.00000
     56       1.8841      0.00000
     57       1.9645      0.00000
     58       2.0489      0.00000
     59       2.4032      0.00000
     60       2.4531      0.00000
     61       2.5626      0.00000
     62       2.9527      0.00000
     63       3.0180      0.00000
     64       3.2316      0.00000
     65       3.4712      0.00000
     66       3.8144      0.00000
     67       3.9107      0.00000
     68       4.0168      0.00000
     69       4.0412      0.00000
     70       4.2083      0.00000
     71       4.2463      0.00000
     72       4.3465      0.00000
     73       4.5637      0.00000
     74       4.6964      0.00000
     75       4.8353      0.00000
     76       4.9725      0.00000
     77       4.9950      0.00000
     78       5.1717      0.00000
     79       5.3832      0.00000
     80       5.3901      0.00000
     81       5.5169      0.00000
     82       5.5631      0.00000
     83       5.6947      0.00000
     84       5.7793      0.00000

 k-point    13 :       0.1250    0.0833    0.0000
  band No.  band energies     occupation 
      1     -17.8937      2.00000
      2     -17.7544      2.00000
      3     -16.8512      2.00000
      4     -16.7250      2.00000
      5     -13.8332      2.00000
      6     -13.7261      2.00000
      7     -13.5415      2.00000
      8     -13.4148      2.00000
      9     -11.3757      2.00000
     10     -11.2267      2.00000
     11     -11.0645      2.00000
     12     -10.5061      2.00000
     13     -10.3151      2.00000
     14     -10.3111      2.00000
     15      -9.9255      2.00000
     16      -9.9253      2.00000
     17      -9.7941      2.00000
     18      -9.0463      2.00000
     19      -8.9128      2.00000
     20      -8.4633      2.00000
     21      -8.3192      2.00000
     22      -8.1601      2.00000
     23      -6.9970      2.00000
     24      -6.7806      2.00000
     25      -6.5265      2.00000
     26      -6.4730      2.00000
     27      -6.4720      2.00000
     28      -6.0508      2.00000
     29      -5.9331      2.00000
     30      -5.7152      2.00000
     31      -5.2107      2.00000
     32      -5.0745      2.00000
     33      -5.0509      2.00000
     34      -5.0264      2.00000
     35      -4.9435      2.00000
     36      -4.7682      2.00000
     37      -4.6732      2.00000
     38      -4.4984      2.00000
     39      -4.0114      2.00000
     40      -3.7160      2.00000
     41      -3.0002      1.99988
     42      -2.7227      0.93597
     43      -2.5990      0.06724
     44      -2.4782      0.00040
     45      -2.3572      0.00000
     46      -1.6128      0.00000
     47      -0.5180      0.00000
     48      -0.1601      0.00000
     49       0.2218      0.00000
     50       0.5389      0.00000
     51       0.5615      0.00000
     52       0.8163      0.00000
     53       1.2136      0.00000
     54       1.5190      0.00000
     55       1.7979      0.00000
     56       1.9339      0.00000
     57       1.9758      0.00000
     58       2.0978      0.00000
     59       2.3803      0.00000
     60       2.4597      0.00000
     61       2.5187      0.00000
     62       2.9854      0.00000
     63       3.1216      0.00000
     64       3.2094      0.00000
     65       3.5083      0.00000
     66       3.8320      0.00000
     67       3.9078      0.00000
     68       4.0427      0.00000
     69       4.0674      0.00000
     70       4.2397      0.00000
     71       4.3187      0.00000
     72       4.4484      0.00000
     73       4.4581      0.00000
     74       4.7163      0.00000
     75       4.7509      0.00000
     76       4.9925      0.00000
     77       5.0779      0.00000
     78       5.1307      0.00000
     79       5.2033      0.00000
     80       5.3454      0.00000
     81       5.4696      0.00000
     82       5.5065      0.00000
     83       5.6071      0.00000
     84       5.6725      0.00000

 k-point    14 :       0.1750    0.0833    0.0000
  band No.  band energies     occupation 
      1     -17.8615      2.00000
      2     -17.7226      2.00000
      3     -16.9026      2.00000
      4     -16.7758      2.00000
      5     -13.8245      2.00000
      6     -13.7158      2.00000
      7     -13.5312      2.00000
      8     -13.4071      2.00000
      9     -11.3424      2.00000
     10     -11.2201      2.00000
     11     -11.0495      2.00000
     12     -10.6039      2.00000
     13     -10.4170      2.00000
     14     -10.3568      2.00000
     15      -9.9947      2.00000
     16      -9.8867      2.00000
     17      -9.8705      2.00000
     18      -8.8094      2.00000
     19      -8.6685      2.00000
     20      -8.5391      2.00000
     21      -8.1042      2.00000
     22      -7.9433      2.00000
     23      -6.9897      2.00000
     24      -6.7986      2.00000
     25      -6.7162      2.00000
     26      -6.6737      2.00000
     27      -6.4619      2.00000
     28      -6.0366      2.00000
     29      -5.9352      2.00000
     30      -5.6611      2.00000
     31      -5.3079      2.00000
     32      -5.1536      2.00000
     33      -5.1340      2.00000
     34      -4.9797      2.00000
     35      -4.9071      2.00000
     36      -4.7918      2.00000
     37      -4.7435      2.00000
     38      -4.5825      2.00000
     39      -4.1067      2.00000
     40      -3.7364      2.00000
     41      -2.9735      1.99947
     42      -2.8455      1.90237
     43      -2.7280      0.99582
     44      -2.4396      0.00004
     45      -2.3839      0.00000
     46      -1.6436      0.00000
     47      -0.4041      0.00000
     48       0.0235      0.00000
     49       0.3269      0.00000
     50       0.5533      0.00000
     51       0.7338      0.00000
     52       0.8828      0.00000
     53       1.2130      0.00000
     54       1.5738      0.00000
     55       1.8725      0.00000
     56       1.9107      0.00000
     57       2.0747      0.00000
     58       2.1686      0.00000
     59       2.2373      0.00000
     60       2.5131      0.00000
     61       2.6111      0.00000
     62       3.0095      0.00000
     63       3.2064      0.00000
     64       3.2206      0.00000
     65       3.5557      0.00000
     66       3.7127      0.00000
     67       3.9876      0.00000
     68       4.1074      0.00000
     69       4.1246      0.00000
     70       4.1686      0.00000
     71       4.2825      0.00000
     72       4.5040      0.00000
     73       4.5501      0.00000
     74       4.6273      0.00000
     75       4.7965      0.00000
     76       4.8810      0.00000
     77       5.0608      0.00000
     78       5.0759      0.00000
     79       5.1054      0.00000
     80       5.1305      0.00000
     81       5.3322      0.00000
     82       5.3854      0.00000
     83       5.4439      0.00000
     84       5.5103      0.00000

 k-point    15 :       0.2250    0.0833    0.0000
  band No.  band energies     occupation 
      1     -17.8191      2.00000
      2     -17.6808      2.00000
      3     -16.9673      2.00000
      4     -16.8398      2.00000
      5     -13.8093      2.00000
      6     -13.6991      2.00000
      7     -13.5236      2.00000
      8     -13.4023      2.00000
      9     -11.3038      2.00000
     10     -11.2301      2.00000
     11     -11.0572      2.00000
     12     -10.7066      2.00000
     13     -10.5199      2.00000
     14     -10.4154      2.00000
     15      -9.9884      2.00000
     16      -9.8841      2.00000
     17      -9.8228      2.00000
     18      -8.6348      2.00000
     19      -8.5584      2.00000
     20      -8.4103      2.00000
     21      -7.8710      2.00000
     22      -7.7081      2.00000
     23      -6.9798      2.00000
     24      -6.9599      2.00000
     25      -6.9098      2.00000
     26      -6.8132      2.00000
     27      -6.4329      2.00000
     28      -6.0255      2.00000
     29      -5.9218      2.00000
     30      -5.6242      2.00000
     31      -5.4285      2.00000
     32      -5.2601      2.00000
     33      -5.2178      2.00000
     34      -4.9375      2.00000
     35      -4.8497      2.00000
     36      -4.8443      2.00000
     37      -4.8057      2.00000
     38      -4.6931      2.00000
     39      -4.1969      2.00000
     40      -3.7830      2.00000
     41      -3.0031      1.99990
     42      -2.9549      1.99864
     43      -2.8791      1.96694
     44      -2.4137      0.00001
     45      -2.3896      0.00000
     46      -1.6826      0.00000
     47      -0.2363      0.00000
     48       0.2375      0.00000
     49       0.4904      0.00000
     50       0.5606      0.00000
     51       0.9423      0.00000
     52       0.9578      0.00000
     53       1.2309      0.00000
     54       1.5968      0.00000
     55       1.9299      0.00000
     56       1.9657      0.00000
     57       2.1141      0.00000
     58       2.1456      0.00000
     59       2.2568      0.00000
     60       2.5865      0.00000
     61       2.7224      0.00000
     62       3.0193      0.00000
     63       3.2754      0.00000
     64       3.2859      0.00000
     65       3.5936      0.00000
     66       3.6017      0.00000
     67       3.8715      0.00000
     68       4.0386      0.00000
     69       4.1660      0.00000
     70       4.1759      0.00000
     71       4.3343      0.00000
     72       4.4517      0.00000
     73       4.5832      0.00000
     74       4.5864      0.00000
     75       4.7591      0.00000
     76       4.7750      0.00000
     77       4.8998      0.00000
     78       4.9151      0.00000
     79       4.9900      0.00000
     80       5.1278      0.00000
     81       5.1559      0.00000
     82       5.2048      0.00000
     83       5.3402      0.00000
     84       5.4929      0.00000

 k-point    16 :       0.2750    0.0833    0.0000
  band No.  band energies     occupation 
      1     -17.7670      2.00000
      2     -17.6294      2.00000
      3     -17.0425      2.00000
      4     -16.9141      2.00000
      5     -13.7865      2.00000
      6     -13.6752      2.00000
      7     -13.5218      2.00000
      8     -13.4032      2.00000
      9     -11.2920      2.00000
     10     -11.2187      2.00000
     11     -11.0838      2.00000
     12     -10.8191      2.00000
     13     -10.6321      2.00000
     14     -10.4852      2.00000
     15      -9.8937      2.00000
     16      -9.7988      2.00000
     17      -9.7525      2.00000
     18      -8.7439      2.00000
     19      -8.3108      2.00000
     20      -8.1581      2.00000
     21      -7.6482      2.00000
     22      -7.4893      2.00000
     23      -7.2041      2.00000
     24      -7.1387      2.00000
     25      -6.9663      2.00000
     26      -6.8289      2.00000
     27      -6.4005      2.00000
     28      -6.0250      2.00000
     29      -5.8956      2.00000
     30      -5.6310      2.00000
     31      -5.5628      2.00000
     32      -5.3571      2.00000
     33      -5.2879      2.00000
     34      -5.0281      2.00000
     35      -4.9000      2.00000
     36      -4.8697      2.00000
     37      -4.7721      2.00000
     38      -4.7233      2.00000
     39      -4.2717      2.00000
     40      -3.8508      2.00000
     41      -3.1875      2.00000
     42      -3.1035      2.00000
     43      -2.8838      1.97202
     44      -2.4479      0.00007
     45      -2.3304      0.00000
     46      -1.7291      0.00000
     47      -0.0181      0.00000
     48       0.4695      0.00000
     49       0.5878      0.00000
     50       0.7079      0.00000
     51       0.9847      0.00000
     52       1.2034      0.00000
     53       1.2726      0.00000
     54       1.5774      0.00000
     55       1.9782      0.00000
     56       2.0441      0.00000
     57       2.0666      0.00000
     58       2.1674      0.00000
     59       2.3484      0.00000
     60       2.6690      0.00000
     61       2.8391      0.00000
     62       3.0438      0.00000
     63       3.3182      0.00000
     64       3.3611      0.00000
     65       3.4940      0.00000
     66       3.5306      0.00000
     67       3.7169      0.00000
     68       3.9534      0.00000
     69       4.0541      0.00000
     70       4.1650      0.00000
     71       4.3728      0.00000
     72       4.3960      0.00000
     73       4.4728      0.00000
     74       4.4744      0.00000
     75       4.5203      0.00000
     76       4.6574      0.00000
     77       4.8690      0.00000
     78       4.8853      0.00000
     79       4.9454      0.00000
     80       5.0178      0.00000
     81       5.1151      0.00000
     82       5.2411      0.00000
     83       5.3082      0.00000
     84       5.5363      0.00000

 k-point    17 :       0.3250    0.0833    0.0000
  band No.  band energies     occupation 
      1     -17.7060      2.00000
      2     -17.5692      2.00000
      3     -17.1253      2.00000
      4     -16.9959      2.00000
      5     -13.7566      2.00000
      6     -13.6445      2.00000
      7     -13.5283      2.00000
      8     -13.4118      2.00000
      9     -11.3150      2.00000
     10     -11.1642      2.00000
     11     -11.1128      2.00000
     12     -10.9345      2.00000
     13     -10.7492      2.00000
     14     -10.5640      2.00000
     15      -9.7248      2.00000
     16      -9.6698      2.00000
     17      -9.6354      2.00000
     18      -8.8628      2.00000
     19      -8.1121      2.00000
     20      -7.9680      2.00000
     21      -7.5701      2.00000
     22      -7.4629      2.00000
     23      -7.2827      2.00000
     24      -7.1382      2.00000
     25      -6.9516      2.00000
     26      -6.8403      2.00000
     27      -6.3677      2.00000
     28      -6.0448      2.00000
     29      -5.8649      2.00000
     30      -5.7041      2.00000
     31      -5.6954      2.00000
     32      -5.4105      2.00000
     33      -5.3337      2.00000
     34      -5.1882      2.00000
     35      -5.0348      2.00000
     36      -4.9730      2.00000
     37      -4.6654      2.00000
     38      -4.6184      2.00000
     39      -4.3208      2.00000
     40      -3.9338      2.00000
     41      -3.3896      2.00000
     42      -3.3129      2.00000
     43      -2.8393      1.88331
     44      -2.4869      0.00064
     45      -2.2645      0.00000
     46      -1.7826      0.00000
     47       0.2439      0.00000
     48       0.6069      0.00000
     49       0.7363      0.00000
     50       0.9722      0.00000
     51       1.0027      0.00000
     52       1.3312      0.00000
     53       1.4716      0.00000
     54       1.5481      0.00000
     55       1.9241      0.00000
     56       2.0799      0.00000
     57       2.1128      0.00000
     58       2.2305      0.00000
     59       2.4199      0.00000
     60       2.7634      0.00000
     61       2.9237      0.00000
     62       3.0952      0.00000
     63       3.1812      0.00000
     64       3.3137      0.00000
     65       3.3858      0.00000
     66       3.4969      0.00000
     67       3.7380      0.00000
     68       3.8012      0.00000
     69       3.9187      0.00000
     70       4.0024      0.00000
     71       4.1824      0.00000
     72       4.2633      0.00000
     73       4.2993      0.00000
     74       4.3667      0.00000
     75       4.5727      0.00000
     76       4.6612      0.00000
     77       4.7485      0.00000
     78       4.8457      0.00000
     79       4.8779      0.00000
     80       5.0516      0.00000
     81       5.2088      0.00000
     82       5.2806      0.00000
     83       5.3661      0.00000
     84       5.4576      0.00000

 k-point    18 :       0.3750    0.0833    0.0000
  band No.  band energies     occupation 
      1     -17.6367      2.00000
      2     -17.5008      2.00000
      3     -17.2128      2.00000
      4     -17.0823      2.00000
      5     -13.7208      2.00000
      6     -13.6083      2.00000
      7     -13.5441      2.00000
      8     -13.4293      2.00000
      9     -11.3303      2.00000
     10     -11.1292      2.00000
     11     -11.1103      2.00000
     12     -11.0292      2.00000
     13     -10.8610      2.00000
     14     -10.6490      2.00000
     15      -9.5754      2.00000
     16      -9.5024      2.00000
     17      -9.4168      2.00000
     18      -8.9872      2.00000
     19      -8.1273      2.00000
     20      -8.0284      2.00000
     21      -7.5625      2.00000
     22      -7.4157      2.00000
     23      -7.1316      2.00000
     24      -6.9558      2.00000
     25      -6.9387      2.00000
     26      -6.8403      2.00000
     27      -6.3390      2.00000
     28      -6.0908      2.00000
     29      -5.8781      2.00000
     30      -5.8016      2.00000
     31      -5.7637      2.00000
     32      -5.4412      2.00000
     33      -5.3713      2.00000
     34      -5.3464      2.00000
     35      -5.2222      2.00000
     36      -5.0552      2.00000
     37      -4.5320      2.00000
     38      -4.4869      2.00000
     39      -4.3349      2.00000
     40      -4.0251      2.00000
     41      -3.6001      2.00000
     42      -3.5308      2.00000
     43      -2.7893      1.61071
     44      -2.5308      0.00519
     45      -2.1941      0.00000
     46      -1.8422      0.00000
     47       0.5393      0.00000
     48       0.6607      0.00000
     49       0.9284      0.00000
     50       1.0467      0.00000
     51       1.2728      0.00000
     52       1.4159      0.00000
     53       1.5319      0.00000
     54       1.7424      0.00000
     55       1.8694      0.00000
     56       1.9935      0.00000
     57       2.1281      0.00000
     58       2.3642      0.00000
     59       2.4869      0.00000
     60       2.8210      0.00000
     61       2.8985      0.00000
     62       2.9155      0.00000
     63       3.1309      0.00000
     64       3.2270      0.00000
     65       3.3328      0.00000
     66       3.4873      0.00000
     67       3.6512      0.00000
     68       3.7601      0.00000
     69       3.7697      0.00000
     70       3.8754      0.00000
     71       3.9957      0.00000
     72       4.0267      0.00000
     73       4.2778      0.00000
     74       4.3543      0.00000
     75       4.5091      0.00000
     76       4.7108      0.00000
     77       4.7255      0.00000
     78       4.8276      0.00000
     79       4.9022      0.00000
     80       5.0407      0.00000
     81       5.1013      0.00000
     82       5.3564      0.00000
     83       5.4281      0.00000
     84       5.4992      0.00000

 k-point    19 :       0.4250    0.0833    0.0000
  band No.  band energies     occupation 
      1     -17.5603      2.00000
      2     -17.4254      2.00000
      3     -17.3023      2.00000
      4     -17.1707      2.00000
      5     -13.6812      2.00000
      6     -13.5693      2.00000
      7     -13.5685      2.00000
      8     -13.4556      2.00000
      9     -11.3245      2.00000
     10     -11.1620      2.00000
     11     -11.1241      2.00000
     12     -10.9968      2.00000
     13     -10.9593      2.00000
     14     -10.7378      2.00000
     15      -9.4708      2.00000
     16      -9.2429      2.00000
     17      -9.1605      2.00000
     18      -9.1127      2.00000
     19      -8.3673      2.00000
     20      -8.2854      2.00000
     21      -7.3932      2.00000
     22      -7.2128      2.00000
     23      -7.0410      2.00000
     24      -6.9148      2.00000
     25      -6.8338      2.00000
     26      -6.8227      2.00000
     27      -6.3135      2.00000
     28      -6.1495      2.00000
     29      -5.9329      2.00000
     30      -5.8541      2.00000
     31      -5.7516      2.00000
     32      -5.5570      2.00000
     33      -5.4789      2.00000
     34      -5.3991      2.00000
     35      -5.3282      2.00000
     36      -5.1385      2.00000
     37      -4.3773      2.00000
     38      -4.3526      2.00000
     39      -4.2953      2.00000
     40      -4.1178      2.00000
     41      -3.8104      2.00000
     42      -3.7467      2.00000
     43      -2.7366      1.09236
     44      -2.5788      0.03434
     45      -2.1214      0.00000
     46      -1.9072      0.00000
     47       0.7195      0.00000
     48       0.8527      0.00000
     49       0.9123      0.00000
     50       1.2528      0.00000
     51       1.5114      0.00000
     52       1.5328      0.00000
     53       1.6022      0.00000
     54       1.8279      0.00000
     55       1.8732      0.00000
     56       2.0043      0.00000
     57       2.0209      0.00000
     58       2.4712      0.00000
     59       2.5071      0.00000
     60       2.6364      0.00000
     61       2.7574      0.00000
     62       3.0012      0.00000
     63       3.0642      0.00000
     64       3.1337      0.00000
     65       3.1877      0.00000
     66       3.4563      0.00000
     67       3.5741      0.00000
     68       3.7190      0.00000
     69       3.7290      0.00000
     70       3.7944      0.00000
     71       3.8694      0.00000
     72       3.9775      0.00000
     73       4.2404      0.00000
     74       4.3506      0.00000
     75       4.5117      0.00000
     76       4.6286      0.00000
     77       4.6849      0.00000
     78       4.8175      0.00000
     79       4.9286      0.00000
     80       5.1237      0.00000
     81       5.1320      0.00000
     82       5.2911      0.00000
     83       5.4371      0.00000
     84       5.5863      0.00000

 k-point    20 :       0.4750    0.0833    0.0000
  band No.  band energies     occupation 
      1     -17.4780      2.00000
      2     -17.3914      2.00000
      3     -17.3442      2.00000
      4     -17.2587      2.00000
      5     -13.6406      2.00000
      6     -13.6023      2.00000
      7     -13.5278      2.00000
      8     -13.4892      2.00000
      9     -11.2935      2.00000
     10     -11.2378      2.00000
     11     -11.0938      2.00000
     12     -11.0382      2.00000
     13     -10.9154      2.00000
     14     -10.8275      2.00000
     15      -9.3576      2.00000
     16      -9.2377      2.00000
     17      -8.9587      2.00000
     18      -8.8778      2.00000
     19      -8.6612      2.00000
     20      -8.5814      2.00000
     21      -7.2114      2.00000
     22      -7.0832      2.00000
     23      -7.0036      2.00000
     24      -6.8649      2.00000
     25      -6.8543      2.00000
     26      -6.8244      2.00000
     27      -6.2690      2.00000
     28      -6.2069      2.00000
     29      -5.8949      2.00000
     30      -5.8303      2.00000
     31      -5.7910      2.00000
     32      -5.7224      2.00000
     33      -5.5194      2.00000
     34      -5.4983      2.00000
     35      -5.2820      2.00000
     36      -5.2163      2.00000
     37      -4.2797      2.00000
     38      -4.2049      2.00000
     39      -4.2036      2.00000
     40      -4.1434      2.00000
     41      -4.0134      2.00000
     42      -3.9531      2.00000
     43      -2.6830      0.52076
     44      -2.6299      0.16370
     45      -2.0482      0.00000
     46      -1.9763      0.00000
     47       0.7856      0.00000
     48       0.8526      0.00000
     49       1.1472      0.00000
     50       1.3291      0.00000
     51       1.5978      0.00000
     52       1.6275      0.00000
     53       1.7326      0.00000
     54       1.7489      0.00000
     55       1.9210      0.00000
     56       1.9889      0.00000
     57       2.1209      0.00000
     58       2.1761      0.00000
     59       2.5949      0.00000
     60       2.6804      0.00000
     61       2.8022      0.00000
     62       2.8407      0.00000
     63       2.9208      0.00000
     64       2.9952      0.00000
     65       3.2547      0.00000
     66       3.4510      0.00000
     67       3.5563      0.00000
     68       3.6663      0.00000
     69       3.6834      0.00000
     70       3.6930      0.00000
     71       3.8955      0.00000
     72       4.0477      0.00000
     73       4.1664      0.00000
     74       4.3942      0.00000
     75       4.4617      0.00000
     76       4.5699      0.00000
     77       4.6537      0.00000
     78       4.7811      0.00000
     79       5.0068      0.00000
     80       5.1468      0.00000
     81       5.2535      0.00000
     82       5.3104      0.00000
     83       5.3747      0.00000
     84       5.4974      0.00000

 k-point    21 :       0.0250    0.1389    0.0000
  band No.  band energies     occupation 
      1     -17.9154      2.00000
      2     -17.7761      2.00000
      3     -16.8170      2.00000
      4     -16.6904      2.00000
      5     -13.8331      2.00000
      6     -13.7291      2.00000
      7     -13.5255      2.00000
      8     -13.3971      2.00000
      9     -11.4089      2.00000
     10     -11.3600      2.00000
     11     -11.2266      2.00000
     12     -10.4835      2.00000
     13     -10.2979      2.00000
     14     -10.2793      2.00000
     15      -9.9491      2.00000
     16      -9.5518      2.00000
     17      -9.3955      2.00000
     18      -9.2641      2.00000
     19      -9.1544      2.00000
     20      -8.4782      2.00000
     21      -8.4403      2.00000
     22      -8.3194      2.00000
     23      -6.9891      2.00000
     24      -6.7298      2.00000
     25      -6.5157      2.00000
     26      -6.3240      2.00000
     27      -6.2968      2.00000
     28      -6.0524      2.00000
     29      -5.8503      2.00000
     30      -5.7546      2.00000
     31      -5.3284      2.00000
     32      -5.2767      2.00000
     33      -5.0690      2.00000
     34      -4.9839      2.00000
     35      -4.9051      2.00000
     36      -4.8354      2.00000
     37      -4.7811      2.00000
     38      -4.5995      2.00000
     39      -3.9398      2.00000
     40      -3.7974      2.00000
     41      -3.0140      1.99995
     42      -2.5001      0.00124
     43      -2.3750      0.00000
     44      -2.3360      0.00000
     45      -2.1846      0.00000
     46      -1.5997      0.00000
     47      -0.5640      0.00000
     48      -0.2444      0.00000
     49       0.2457      0.00000
     50       0.3719      0.00000
     51       0.5316      0.00000
     52       0.6327      0.00000
     53       1.0857      0.00000
     54       1.5144      0.00000
     55       1.7741      0.00000
     56       1.8180      0.00000
     57       2.0653      0.00000
     58       2.0796      0.00000
     59       2.4214      0.00000
     60       2.4981      0.00000
     61       2.6667      0.00000
     62       2.8757      0.00000
     63       2.9931      0.00000
     64       3.4520      0.00000
     65       3.5143      0.00000
     66       3.7702      0.00000
     67       3.9723      0.00000
     68       4.0499      0.00000
     69       4.0888      0.00000
     70       4.2097      0.00000
     71       4.2406      0.00000
     72       4.2453      0.00000
     73       4.5171      0.00000
     74       4.6901      0.00000
     75       4.7096      0.00000
     76       4.9166      0.00000
     77       5.0059      0.00000
     78       5.0071      0.00000
     79       5.1120      0.00000
     80       5.1149      0.00000
     81       5.4788      0.00000
     82       5.6235      0.00000
     83       5.6498      0.00000
     84       5.6775      0.00000

 k-point    22 :       0.0750    0.1389    0.0000
  band No.  band energies     occupation 
      1     -17.9046      2.00000
      2     -17.7655      2.00000
      3     -16.8342      2.00000
      4     -16.7075      2.00000
      5     -13.8388      2.00000
      6     -13.7330      2.00000
      7     -13.5171      2.00000
      8     -13.3906      2.00000
      9     -11.3991      2.00000
     10     -11.3490      2.00000
     11     -11.2135      2.00000
     12     -10.4988      2.00000
     13     -10.3123      2.00000
     14     -10.3007      2.00000
     15      -9.9341      2.00000
     16      -9.6736      2.00000
     17      -9.5274      2.00000
     18      -9.1407      2.00000
     19      -9.0193      2.00000
     20      -8.4635      2.00000
     21      -8.3736      2.00000
     22      -8.2142      2.00000
     23      -6.9927      2.00000
     24      -6.7432      2.00000
     25      -6.5066      2.00000
     26      -6.3984      2.00000
     27      -6.3727      2.00000
     28      -6.0415      2.00000
     29      -5.9096      2.00000
     30      -5.6815      2.00000
     31      -5.3164      2.00000
     32      -5.2627      2.00000
     33      -5.1072      2.00000
     34      -5.0638      2.00000
     35      -4.9449      2.00000
     36      -4.7909      2.00000
     37      -4.7764      2.00000
     38      -4.6047      2.00000
     39      -4.0360      2.00000
     40      -3.7307      2.00000
     41      -3.0062      1.99991
     42      -2.4956      0.00100
     43      -2.3889      0.00000
     44      -2.3855      0.00000
     45      -2.2461      0.00000
     46      -1.6105      0.00000
     47      -0.5344      0.00000
     48      -0.1824      0.00000
     49       0.2509      0.00000
     50       0.4538      0.00000
     51       0.4775      0.00000
     52       0.7299      0.00000
     53       1.0875      0.00000
     54       1.5448      0.00000
     55       1.8034      0.00000
     56       1.8837      0.00000
     57       2.0432      0.00000
     58       2.1057      0.00000
     59       2.4257      0.00000
     60       2.5332      0.00000
     61       2.5346      0.00000
     62       2.9924      0.00000
     63       3.0164      0.00000
     64       3.4176      0.00000
     65       3.5340      0.00000
     66       3.8119      0.00000
     67       3.9033      0.00000
     68       4.0103      0.00000
     69       4.0649      0.00000
     70       4.2317      0.00000
     71       4.3174      0.00000
     72       4.3412      0.00000
     73       4.4542      0.00000
     74       4.6392      0.00000
     75       4.7452      0.00000
     76       4.9636      0.00000
     77       5.0140      0.00000
     78       5.0643      0.00000
     79       5.1286      0.00000
     80       5.1313      0.00000
     81       5.3553      0.00000
     82       5.4620      0.00000
     83       5.5493      0.00000
     84       5.6192      0.00000

 k-point    23 :       0.1250    0.1389    0.0000
  band No.  band energies     occupation 
      1     -17.8832      2.00000
      2     -17.7443      2.00000
      3     -16.8680      2.00000
      4     -16.7410      2.00000
      5     -13.8462      2.00000
      6     -13.7377      2.00000
      7     -13.5047      2.00000
      8     -13.3813      2.00000
      9     -11.3831      2.00000
     10     -11.3299      2.00000
     11     -11.1941      2.00000
     12     -10.5149      2.00000
     13     -10.3406      2.00000
     14     -10.3248      2.00000
     15      -9.9050      2.00000
     16      -9.8206      2.00000
     17      -9.6816      2.00000
     18      -8.9674      2.00000
     19      -8.8386      2.00000
     20      -8.5097      2.00000
     21      -8.1990      2.00000
     22      -8.0379      2.00000
     23      -6.9989      2.00000
     24      -6.7636      2.00000
     25      -6.5684      2.00000
     26      -6.5161      2.00000
     27      -6.4630      2.00000
     28      -6.0233      2.00000
     29      -5.9572      2.00000
     30      -5.6101      2.00000
     31      -5.3111      2.00000
     32      -5.2429      2.00000
     33      -5.1746      2.00000
     34      -5.1390      2.00000
     35      -5.0060      2.00000
     36      -4.8038      2.00000
     37      -4.7394      2.00000
     38      -4.6246      2.00000
     39      -4.1426      2.00000
     40      -3.6808      2.00000
     41      -2.9903      1.99979
     42      -2.5359      0.00649
     43      -2.4420      0.00005
     44      -2.4266      0.00002
     45      -2.3432      0.00000
     46      -1.6313      0.00000
     47      -0.4662      0.00000
     48      -0.0694      0.00000
     49       0.2962      0.00000
     50       0.4492      0.00000
     51       0.5824      0.00000
     52       0.8392      0.00000
     53       1.1001      0.00000
     54       1.5957      0.00000
     55       1.8578      0.00000
     56       1.9972      0.00000
     57       2.0068      0.00000
     58       2.1565      0.00000
     59       2.3332      0.00000
     60       2.5103      0.00000
     61       2.6048      0.00000
     62       3.0566      0.00000
     63       3.0973      0.00000
     64       3.3637      0.00000
     65       3.5689      0.00000
     66       3.7791      0.00000
     67       3.8719      0.00000
     68       4.0210      0.00000
     69       4.0824      0.00000
     70       4.2268      0.00000
     71       4.2687      0.00000
     72       4.3963      0.00000
     73       4.5049      0.00000
     74       4.6453      0.00000
     75       4.8135      0.00000
     76       4.9530      0.00000
     77       5.0081      0.00000
     78       5.0843      0.00000
     79       5.0993      0.00000
     80       5.1635      0.00000
     81       5.2312      0.00000
     82       5.3029      0.00000
     83       5.4992      0.00000
     84       5.5212      0.00000

 k-point    24 :       0.1750    0.1389    0.0000
  band No.  band energies     occupation 
      1     -17.8514      2.00000
      2     -17.7129      2.00000
      3     -16.9167      2.00000
      4     -16.7893      2.00000
      5     -13.8500      2.00000
      6     -13.7387      2.00000
      7     -13.4945      2.00000
      8     -13.3743      2.00000
      9     -11.3691      2.00000
     10     -11.3029      2.00000
     11     -11.1780      2.00000
     12     -10.5247      2.00000
     13     -10.3821      2.00000
     14     -10.3382      2.00000
     15      -9.9462      2.00000
     16      -9.8646      2.00000
     17      -9.8160      2.00000
     18      -8.7620      2.00000
     19      -8.6296      2.00000
     20      -8.5742      2.00000
     21      -7.9901      2.00000
     22      -7.8267      2.00000
     23      -7.0057      2.00000
     24      -6.7896      2.00000
     25      -6.7560      2.00000
     26      -6.7108      2.00000
     27      -6.4469      2.00000
     28      -6.0046      2.00000
     29      -5.9863      2.00000
     30      -5.5592      2.00000
     31      -5.3667      2.00000
     32      -5.2598      2.00000
     33      -5.2485      2.00000
     34      -5.1376      2.00000
     35      -5.0421      2.00000
     36      -4.8434      2.00000
     37      -4.7238      2.00000
     38      -4.6690      2.00000
     39      -4.2406      2.00000
     40      -3.6608      2.00000
     41      -2.9666      1.99925
     42      -2.6874      0.56240
     43      -2.5712      0.02621
     44      -2.4218      0.00001
     45      -2.3926      0.00000
     46      -1.6610      0.00000
     47      -0.3510      0.00000
     48       0.0826      0.00000
     49       0.3938      0.00000
     50       0.4500      0.00000
     51       0.7446      0.00000
     52       0.9478      0.00000
     53       1.1316      0.00000
     54       1.6384      0.00000
     55       1.9343      0.00000
     56       1.9797      0.00000
     57       2.1282      0.00000
     58       2.2003      0.00000
     59       2.2329      0.00000
     60       2.5638      0.00000
     61       2.7029      0.00000
     62       3.0877      0.00000
     63       3.1840      0.00000
     64       3.3292      0.00000
     65       3.6107      0.00000
     66       3.6576      0.00000
     67       3.8974      0.00000
     68       4.0114      0.00000
     69       4.0498      0.00000
     70       4.1414      0.00000
     71       4.3126      0.00000
     72       4.4611      0.00000
     73       4.5621      0.00000
     74       4.6606      0.00000
     75       4.8073      0.00000
     76       4.8119      0.00000
     77       4.9256      0.00000
     78       4.9701      0.00000
     79       5.1348      0.00000
     80       5.1827      0.00000
     81       5.2036      0.00000
     82       5.3119      0.00000
     83       5.3644      0.00000
     84       5.3821      0.00000

 k-point    25 :       0.2250    0.1389    0.0000
  band No.  band energies     occupation 
      1     -17.8095      2.00000
      2     -17.6716      2.00000
      3     -16.9784      2.00000
      4     -16.8504      2.00000
      5     -13.8463      2.00000
      6     -13.7327      2.00000
      7     -13.4918      2.00000
      8     -13.3742      2.00000
      9     -11.3641      2.00000
     10     -11.2635      2.00000
     11     -11.1700      2.00000
     12     -10.5545      2.00000
     13     -10.4353      2.00000
     14     -10.3644      2.00000
     15      -9.9977      2.00000
     16      -9.8896      2.00000
     17      -9.8025      2.00000
     18      -8.6639      2.00000
     19      -8.5369      2.00000
     20      -8.3946      2.00000
     21      -7.7779      2.00000
     22      -7.6135      2.00000
     23      -7.0139      2.00000
     24      -6.9835      2.00000
     25      -6.9292      2.00000
     26      -6.8024      2.00000
     27      -6.4259      2.00000
     28      -5.9961      2.00000
     29      -5.9955      2.00000
     30      -5.5559      2.00000
     31      -5.4786      2.00000
     32      -5.3294      2.00000
     33      -5.3014      2.00000
     34      -5.0761      2.00000
     35      -5.0076      2.00000
     36      -4.9096      2.00000
     37      -4.7413      2.00000
     38      -4.7357      2.00000
     39      -4.3162      2.00000
     40      -3.6730      2.00000
     41      -2.9417      1.99744
     42      -2.8882      1.97619
     43      -2.7722      1.46433
     44      -2.4229      0.00002
     45      -2.3803      0.00000
     46      -1.6987      0.00000
     47      -0.1861      0.00000
     48       0.2639      0.00000
     49       0.4770      0.00000
     50       0.5465      0.00000
     51       0.9338      0.00000
     52       1.0456      0.00000
     53       1.1854      0.00000
     54       1.6266      0.00000
     55       2.0015      0.00000
     56       2.0290      0.00000
     57       2.1029      0.00000
     58       2.2405      0.00000
     59       2.3229      0.00000
     60       2.6345      0.00000
     61       2.8205      0.00000
     62       3.0718      0.00000
     63       3.2527      0.00000
     64       3.3594      0.00000
     65       3.5540      0.00000
     66       3.6133      0.00000
     67       3.7671      0.00000
     68       3.9445      0.00000
     69       4.0769      0.00000
     70       4.1641      0.00000
     71       4.3370      0.00000
     72       4.4854      0.00000
     73       4.5054      0.00000
     74       4.5250      0.00000
     75       4.5923      0.00000
     76       4.7396      0.00000
     77       4.9321      0.00000
     78       4.9715      0.00000
     79       5.0350      0.00000
     80       5.1158      0.00000
     81       5.1196      0.00000
     82       5.2402      0.00000
     83       5.2750      0.00000
     84       5.4331      0.00000

 k-point    26 :       0.2750    0.1389    0.0000
  band No.  band energies     occupation 
      1     -17.7581      2.00000
      2     -17.6208      2.00000
      3     -17.0504      2.00000
      4     -16.9217      2.00000
      5     -13.8327      2.00000
      6     -13.7175      2.00000
      7     -13.4999      2.00000
      8     -13.3842      2.00000
      9     -11.3626      2.00000
     10     -11.2115      2.00000
     11     -11.1657      2.00000
     12     -10.6374      2.00000
     13     -10.4996      2.00000
     14     -10.4462      2.00000
     15      -9.9343      2.00000
     16      -9.8362      2.00000
     17      -9.7337      2.00000
     18      -8.7636      2.00000
     19      -8.3096      2.00000
     20      -8.1634      2.00000
     21      -7.6237      2.00000
     22      -7.4783      2.00000
     23      -7.1747      2.00000
     24      -7.0850      2.00000
     25      -7.0079      2.00000
     26      -6.8197      2.00000
     27      -6.4070      2.00000
     28      -6.0098      2.00000
     29      -5.9850      2.00000
     30      -5.6263      2.00000
     31      -5.6082      2.00000
     32      -5.3652      2.00000
     33      -5.3529      2.00000
     34      -5.0442      2.00000
     35      -4.9483      2.00000
     36      -4.9448      2.00000
     37      -4.8198      2.00000
     38      -4.7728      2.00000
     39      -4.3569      2.00000
     40      -3.7149      2.00000
     41      -3.1179      2.00000
     42      -3.0422      1.99999
     43      -2.8696      1.95412
     44      -2.4556      0.00011
     45      -2.3272      0.00000
     46      -1.7438      0.00000
     47       0.0267      0.00000
     48       0.4643      0.00000
     49       0.5279      0.00000
     50       0.7520      0.00000
     51       1.1199      0.00000
     52       1.1444      0.00000
     53       1.2618      0.00000
     54       1.5677      0.00000
     55       1.9865      0.00000
     56       2.1264      0.00000
     57       2.1360      0.00000
     58       2.2983      0.00000
     59       2.4136      0.00000
     60       2.7110      0.00000
     61       2.9442      0.00000
     62       3.0438      0.00000
     63       3.2692      0.00000
     64       3.3736      0.00000
     65       3.4525      0.00000
     66       3.5173      0.00000
     67       3.7591      0.00000
     68       3.8876      0.00000
     69       4.0300      0.00000
     70       4.0680      0.00000
     71       4.2795      0.00000
     72       4.3180      0.00000
     73       4.4169      0.00000
     74       4.4546      0.00000
     75       4.4656      0.00000
     76       4.7005      0.00000
     77       4.7999      0.00000
     78       4.8641      0.00000
     79       4.9155      0.00000
     80       5.0277      0.00000
     81       5.2447      0.00000
     82       5.3046      0.00000
     83       5.3266      0.00000
     84       5.3320      0.00000

 k-point    27 :       0.3250    0.1389    0.0000
  band No.  band energies     occupation 
      1     -17.6978      2.00000
      2     -17.5614      2.00000
      3     -17.1302      2.00000
      4     -17.0006      2.00000
      5     -13.8088      2.00000
      6     -13.6925      2.00000
      7     -13.5201      2.00000
      8     -13.4054      2.00000
      9     -11.3535      2.00000
     10     -11.1551      2.00000
     11     -11.1496      2.00000
     12     -10.7565      2.00000
     13     -10.5733      2.00000
     14     -10.5682      2.00000
     15      -9.7755      2.00000
     16      -9.6823      2.00000
     17      -9.6519      2.00000
     18      -8.8742      2.00000
     19      -8.1305      2.00000
     20      -7.9926      2.00000
     21      -7.6535      2.00000
     22      -7.5428      2.00000
     23      -7.1632      2.00000
     24      -7.0109      2.00000
     25      -7.0015      2.00000
     26      -6.8315      2.00000
     27      -6.3931      2.00000
     28      -6.0511      2.00000
     29      -5.9569      2.00000
     30      -5.7423      2.00000
     31      -5.7303      2.00000
     32      -5.4002      2.00000
     33      -5.3607      2.00000
     34      -5.1605      2.00000
     35      -5.0238      2.00000
     36      -4.8537      2.00000
     37      -4.8129      2.00000
     38      -4.7619      2.00000
     39      -4.3556      2.00000
     40      -3.7815      2.00000
     41      -3.3636      2.00000
     42      -3.2860      2.00000
     43      -2.8326      1.85954
     44      -2.4929      0.00087
     45      -2.2657      0.00000
     46      -1.7959      0.00000
     47       0.2814      0.00000
     48       0.5839      0.00000
     49       0.6892      0.00000
     50       1.0043      0.00000
     51       1.1506      0.00000
     52       1.3483      0.00000
     53       1.3815      0.00000
     54       1.5180      0.00000
     55       1.9248      0.00000
     56       2.2120      0.00000
     57       2.2287      0.00000
     58       2.3217      0.00000
     59       2.4671      0.00000
     60       2.7980      0.00000
     61       2.9919      0.00000
     62       3.0751      0.00000
     63       3.0967      0.00000
     64       3.2886      0.00000
     65       3.4102      0.00000
     66       3.5553      0.00000
     67       3.7705      0.00000
     68       3.7918      0.00000
     69       3.8365      0.00000
     70       3.9263      0.00000
     71       4.0989      0.00000
     72       4.2207      0.00000
     73       4.3167      0.00000
     74       4.3993      0.00000
     75       4.4348      0.00000
     76       4.5838      0.00000
     77       4.7498      0.00000
     78       4.8277      0.00000
     79       4.8657      0.00000
     80       5.0502      0.00000
     81       5.2304      0.00000
     82       5.2733      0.00000
     83       5.3214      0.00000
     84       5.4672      0.00000

 k-point    28 :       0.3750    0.1389    0.0000
  band No.  band energies     occupation 
      1     -17.6296      2.00000
      2     -17.4940      2.00000
      3     -17.2149      2.00000
      4     -17.0844      2.00000
      5     -13.7752      2.00000
      6     -13.6585      2.00000
      7     -13.5517      2.00000
      8     -13.4372      2.00000
      9     -11.3282      2.00000
     10     -11.1296      2.00000
     11     -11.0819      2.00000
     12     -10.8817      2.00000
     13     -10.6983      2.00000
     14     -10.6534      2.00000
     15      -9.5601      2.00000
     16      -9.5566      2.00000
     17      -9.4656      2.00000
     18      -8.9915      2.00000
     19      -8.1778      2.00000
     20      -8.0778      2.00000
     21      -7.6247      2.00000
     22      -7.4799      2.00000
     23      -7.0551      2.00000
     24      -6.9923      2.00000
     25      -6.8706      2.00000
     26      -6.8292      2.00000
     27      -6.3839      2.00000
     28      -6.1117      2.00000
     29      -5.9184      2.00000
     30      -5.8430      2.00000
     31      -5.8165      2.00000
     32      -5.4593      2.00000
     33      -5.3311      2.00000
     34      -5.3033      2.00000
     35      -5.1801      2.00000
     36      -4.9123      2.00000
     37      -4.6813      2.00000
     38      -4.6205      2.00000
     39      -4.3149      2.00000
     40      -3.8663      2.00000
     41      -3.6140      2.00000
     42      -3.5403      2.00000
     43      -2.7846      1.57303
     44      -2.5349      0.00621
     45      -2.1983      0.00000
     46      -1.8541      0.00000
     47       0.5659      0.00000
     48       0.6619      0.00000
     49       0.9003      0.00000
     50       1.1295      0.00000
     51       1.2925      0.00000
     52       1.4683      0.00000
     53       1.5135      0.00000
     54       1.6097      0.00000
     55       1.8714      0.00000
     56       2.1481      0.00000
     57       2.2465      0.00000
     58       2.4336      0.00000
     59       2.5162      0.00000
     60       2.7465      0.00000
     61       2.9344      0.00000
     62       2.9545      0.00000
     63       3.1277      0.00000
     64       3.2293      0.00000
     65       3.3859      0.00000
     66       3.5130      0.00000
     67       3.6265      0.00000
     68       3.6362      0.00000
     69       3.8057      0.00000
     70       3.8857      0.00000
     71       3.9386      0.00000
     72       4.0574      0.00000
     73       4.2502      0.00000
     74       4.3684      0.00000
     75       4.4940      0.00000
     76       4.5874      0.00000
     77       4.6363      0.00000
     78       4.8345      0.00000
     79       4.9508      0.00000
     80       5.0187      0.00000
     81       5.1258      0.00000
     82       5.2866      0.00000
     83       5.3064      0.00000
     84       5.4300      0.00000

 k-point    29 :       0.4250    0.1389    0.0000
  band No.  band energies     occupation 
      1     -17.5544      2.00000
      2     -17.4198      2.00000
      3     -17.3019      2.00000
      4     -17.1704      2.00000
      5     -13.7338      2.00000
      6     -13.6172      2.00000
      7     -13.5924      2.00000
      8     -13.4776      2.00000
      9     -11.2821      2.00000
     10     -11.0840      2.00000
     11     -11.0431      2.00000
     12     -10.9647      2.00000
     13     -10.8206      2.00000
     14     -10.7376      2.00000
     15      -9.4578      2.00000
     16      -9.2992      2.00000
     17      -9.2107      2.00000
     18      -9.1116      2.00000
     19      -8.4276      2.00000
     20      -8.3401      2.00000
     21      -7.4427      2.00000
     22      -7.2745      2.00000
     23      -7.0337      2.00000
     24      -6.9619      2.00000
     25      -6.8234      2.00000
     26      -6.8150      2.00000
     27      -6.3618      2.00000
     28      -6.1756      2.00000
     29      -5.8973      2.00000
     30      -5.8467      2.00000
     31      -5.8369      2.00000
     32      -5.5244      2.00000
     33      -5.4834      2.00000
     34      -5.3532      2.00000
     35      -5.2535      2.00000
     36      -4.9969      2.00000
     37      -4.5084      2.00000
     38      -4.4487      2.00000
     39      -4.2444      2.00000
     40      -3.9632      2.00000
     41      -3.8601      2.00000
     42      -3.7889      2.00000
     43      -2.7334      1.05645
     44      -2.5809      0.03700
     45      -2.1277      0.00000
     46      -1.9178      0.00000
     47       0.7434      0.00000
     48       0.8630      0.00000
     49       0.9957      0.00000
     50       1.1629      0.00000
     51       1.5477      0.00000
     52       1.5858      0.00000
     53       1.6078      0.00000
     54       1.8250      0.00000
     55       1.8282      0.00000
     56       2.0282      0.00000
     57       2.1260      0.00000
     58       2.4039      0.00000
     59       2.5733      0.00000
     60       2.6824      0.00000
     61       2.8021      0.00000
     62       2.9809      0.00000
     63       3.1157      0.00000
     64       3.1237      0.00000
     65       3.2482      0.00000
     66       3.4386      0.00000
     67       3.5852      0.00000
     68       3.6372      0.00000
     69       3.7461      0.00000
     70       3.8210      0.00000
     71       3.8331      0.00000
     72       4.0199      0.00000
     73       4.2346      0.00000
     74       4.3299      0.00000
     75       4.5784      0.00000
     76       4.5906      0.00000
     77       4.7067      0.00000
     78       4.7084      0.00000
     79       4.9053      0.00000
     80       5.0408      0.00000
     81       5.1661      0.00000
     82       5.2770      0.00000
     83       5.3011      0.00000
     84       5.4287      0.00000

 k-point    30 :       0.4750    0.1389    0.0000
  band No.  band energies     occupation 
      1     -17.4737      2.00000
      2     -17.3889      2.00000
      3     -17.3401      2.00000
      4     -17.2563      2.00000
      5     -13.6872      2.00000
      6     -13.6388      2.00000
      7     -13.5712      2.00000
      8     -13.5234      2.00000
      9     -11.2143      2.00000
     10     -11.1273      2.00000
     11     -11.0166      2.00000
     12     -10.9281      2.00000
     13     -10.9059      2.00000
     14     -10.8230      2.00000
     15      -9.3475      2.00000
     16      -9.2314      2.00000
     17      -9.0168      2.00000
     18      -8.9301      2.00000
     19      -8.7211      2.00000
     20      -8.6354      2.00000
     21      -7.2519      2.00000
     22      -7.1074      2.00000
     23      -7.0622      2.00000
     24      -6.9134      2.00000
     25      -6.8915      2.00000
     26      -6.8595      2.00000
     27      -6.3069      2.00000
     28      -6.2398      2.00000
     29      -5.8424      2.00000
     30      -5.8128      2.00000
     31      -5.7750      2.00000
     32      -5.6458      2.00000
     33      -5.5654      2.00000
     34      -5.5069      2.00000
     35      -5.1738      2.00000
     36      -5.0861      2.00000
     37      -4.3119      2.00000
     38      -4.2540      2.00000
     39      -4.1531      2.00000
     40      -4.0945      2.00000
     41      -4.0723      2.00000
     42      -4.0174      2.00000
     43      -2.6814      0.50625
     44      -2.6301      0.16459
     45      -2.0561      0.00000
     46      -1.9856      0.00000
     47       0.8335      0.00000
     48       0.9226      0.00000
     49       1.1224      0.00000
     50       1.2379      0.00000
     51       1.6298      0.00000
     52       1.7322      0.00000
     53       1.7539      0.00000
     54       1.8452      0.00000
     55       1.9018      0.00000
     56       1.9768      0.00000
     57       2.0345      0.00000
     58       2.1397      0.00000
     59       2.6585      0.00000
     60       2.6789      0.00000
     61       2.8390      0.00000
     62       2.8580      0.00000
     63       2.9407      0.00000
     64       3.0539      0.00000
     65       3.3082      0.00000
     66       3.5019      0.00000
     67       3.5138      0.00000
     68       3.5978      0.00000
     69       3.6804      0.00000
     70       3.7037      0.00000
     71       3.8850      0.00000
     72       4.0469      0.00000
     73       4.2254      0.00000
     74       4.4241      0.00000
     75       4.4747      0.00000
     76       4.5261      0.00000
     77       4.7153      0.00000
     78       4.8090      0.00000
     79       4.8881      0.00000
     80       5.0835      0.00000
     81       5.1024      0.00000
     82       5.2065      0.00000
     83       5.3957      0.00000
     84       5.5228      0.00000

 k-point    31 :       0.0250    0.1944    0.0000
  band No.  band energies     occupation 
      1     -17.9003      2.00000
      2     -17.7617      2.00000
      3     -16.8442      2.00000
      4     -16.7162      2.00000
      5     -13.8261      2.00000
      6     -13.7228      2.00000
      7     -13.4808      2.00000
      8     -13.3548      2.00000
      9     -11.5308      2.00000
     10     -11.3722      2.00000
     11     -11.3561      2.00000
     12     -10.6125      2.00000
     13     -10.4083      2.00000
     14     -10.3453      2.00000
     15      -9.9175      2.00000
     16      -9.3708      2.00000
     17      -9.2126      2.00000
     18      -9.0912      2.00000
     19      -8.9815      2.00000
     20      -8.5164      2.00000
     21      -8.3105      2.00000
     22      -8.1497      2.00000
     23      -6.9697      2.00000
     24      -6.6909      2.00000
     25      -6.5072      2.00000
     26      -6.3907      2.00000
     27      -6.3601      2.00000
     28      -6.0286      2.00000
     29      -5.8038      2.00000
     30      -5.6617      2.00000
     31      -5.6102      2.00000
     32      -5.5648      2.00000
     33      -5.0995      2.00000
     34      -5.0540      2.00000
     35      -4.9820      2.00000
     36      -4.9097      2.00000
     37      -4.8972      2.00000
     38      -4.8001      2.00000
     39      -4.0542      2.00000
     40      -3.8745      2.00000
     41      -2.9889      1.99977
     42      -2.4532      0.00010
     43      -2.3800      0.00000
     44      -2.0588      0.00000
     45      -1.9224      0.00000
     46      -1.6281      0.00000
     47      -0.5153      0.00000
     48      -0.0455      0.00000
     49       0.2721      0.00000
     50       0.3901      0.00000
     51       0.5680      0.00000
     52       0.6070      0.00000
     53       0.9319      0.00000
     54       1.6195      0.00000
     55       1.7958      0.00000
     56       1.8593      0.00000
     57       2.1473      0.00000
     58       2.1633      0.00000
     59       2.4442      0.00000
     60       2.6050      0.00000
     61       2.6089      0.00000
     62       2.8972      0.00000
     63       3.0855      0.00000
     64       3.5902      0.00000
     65       3.6847      0.00000
     66       3.7750      0.00000
     67       3.7834      0.00000
     68       4.0977      0.00000
     69       4.1843      0.00000
     70       4.2290      0.00000
     71       4.2306      0.00000
     72       4.2870      0.00000
     73       4.3992      0.00000
     74       4.5385      0.00000
     75       4.7019      0.00000
     76       4.7189      0.00000
     77       4.8458      0.00000
     78       4.8508      0.00000
     79       5.0696      0.00000
     80       5.0698      0.00000
     81       5.2656      0.00000
     82       5.2910      0.00000
     83       5.4739      0.00000
     84       5.6377      0.00000

 k-point    32 :       0.0750    0.1944    0.0000
  band No.  band energies     occupation 
      1     -17.8897      2.00000
      2     -17.7512      2.00000
      3     -16.8601      2.00000
      4     -16.7320      2.00000
      5     -13.8390      2.00000
      6     -13.7332      2.00000
      7     -13.4716      2.00000
      8     -13.3481      2.00000
      9     -11.5197      2.00000
     10     -11.3570      2.00000
     11     -11.3444      2.00000
     12     -10.6015      2.00000
     13     -10.4028      2.00000
     14     -10.3576      2.00000
     15      -9.9031      2.00000
     16      -9.4941      2.00000
     17      -9.3437      2.00000
     18      -8.9939      2.00000
     19      -8.8756      2.00000
     20      -8.5351      2.00000
     21      -8.2081      2.00000
     22      -8.0463      2.00000
     23      -6.9787      2.00000
     24      -6.7134      2.00000
     25      -6.5151      2.00000
     26      -6.4440      2.00000
     27      -6.4354      2.00000
     28      -6.0123      2.00000
     29      -5.8831      2.00000
     30      -5.5904      2.00000
     31      -5.5810      2.00000
     32      -5.5435      2.00000
     33      -5.1895      2.00000
     34      -5.1346      2.00000
     35      -4.9842      2.00000
     36      -4.9359      2.00000
     37      -4.8196      2.00000
     38      -4.7589      2.00000
     39      -4.1647      2.00000
     40      -3.7760      2.00000
     41      -2.9827      1.99968
     42      -2.4477      0.00007
     43      -2.3861      0.00000
     44      -2.1398      0.00000
     45      -2.0116      0.00000
     46      -1.6388      0.00000
     47      -0.4795      0.00000
     48      -0.0050      0.00000
     49       0.3023      0.00000
     50       0.3610      0.00000
     51       0.6076      0.00000
     52       0.7062      0.00000
     53       0.9548      0.00000
     54       1.6490      0.00000
     55       1.8666      0.00000
     56       1.8915      0.00000
     57       2.1255      0.00000
     58       2.1913      0.00000
     59       2.3896      0.00000
     60       2.5635      0.00000
     61       2.6476      0.00000
     62       2.9906      0.00000
     63       3.1128      0.00000
     64       3.6073      0.00000
     65       3.6319      0.00000
     66       3.7428      0.00000
     67       3.8061      0.00000
     68       4.0519      0.00000
     69       4.1001      0.00000
     70       4.1580      0.00000
     71       4.2487      0.00000
     72       4.3205      0.00000
     73       4.3675      0.00000
     74       4.6696      0.00000
     75       4.7271      0.00000
     76       4.7934      0.00000
     77       4.8748      0.00000
     78       4.8863      0.00000
     79       5.0688      0.00000
     80       5.1096      0.00000
     81       5.1389      0.00000
     82       5.2157      0.00000
     83       5.5095      0.00000
     84       5.5906      0.00000

 k-point    33 :       0.1250    0.1944    0.0000
  band No.  band energies     occupation 
      1     -17.8686      2.00000
      2     -17.7304      2.00000
      3     -16.8912      2.00000
      4     -16.7630      2.00000
      5     -13.8578      2.00000
      6     -13.7484      2.00000
      7     -13.4606      2.00000
      8     -13.3405      2.00000
      9     -11.5000      2.00000
     10     -11.3299      2.00000
     11     -11.3214      2.00000
     12     -10.5726      2.00000
     13     -10.3823      2.00000
     14     -10.3820      2.00000
     15      -9.8746      2.00000
     16      -9.6572      2.00000
     17      -9.5115      2.00000
     18      -8.8531      2.00000
     19      -8.7303      2.00000
     20      -8.5719      2.00000
     21      -8.0422      2.00000
     22      -7.8783      2.00000
     23      -6.9955      2.00000
     24      -6.7442      2.00000
     25      -6.6329      2.00000
     26      -6.5749      2.00000
     27      -6.4477      2.00000
     28      -5.9879      2.00000
     29      -5.9570      2.00000
     30      -5.5542      2.00000
     31      -5.5315      2.00000
     32      -5.4829      2.00000
     33      -5.2884      2.00000
     34      -5.2298      2.00000
     35      -5.0775      2.00000
     36      -4.9068      2.00000
     37      -4.7447      2.00000
     38      -4.7306      2.00000
     39      -4.2743      2.00000
     40      -3.6867      2.00000
     41      -2.9699      1.99936
     42      -2.4401      0.00005
     43      -2.3988      0.00000
     44      -2.2896      0.00000
     45      -2.1777      0.00000
     46      -1.6588      0.00000
     47      -0.4043      0.00000
     48       0.0728      0.00000
     49       0.3554      0.00000
     50       0.3668      0.00000
     51       0.6837      0.00000
     52       0.8405      0.00000
     53       1.0034      0.00000
     54       1.6924      0.00000
     55       1.9401      0.00000
     56       2.0022      0.00000
     57       2.0903      0.00000
     58       2.2434      0.00000
     59       2.2787      0.00000
     60       2.5837      0.00000
     61       2.7207      0.00000
     62       3.0887      0.00000
     63       3.1619      0.00000
     64       3.5491      0.00000
     65       3.6359      0.00000
     66       3.6607      0.00000
     67       3.8306      0.00000
     68       3.9780      0.00000
     69       4.0299      0.00000
     70       4.0485      0.00000
     71       4.2943      0.00000
     72       4.3500      0.00000
     73       4.4364      0.00000
     74       4.7421      0.00000
     75       4.7667      0.00000
     76       4.8096      0.00000
     77       4.8485      0.00000
     78       4.8660      0.00000
     79       5.0482      0.00000
     80       5.0887      0.00000
     81       5.1583      0.00000
     82       5.2592      0.00000
     83       5.4552      0.00000
     84       5.4694      0.00000

 k-point    34 :       0.1750    0.1944    0.0000
  band No.  band energies     occupation 
      1     -17.8372      2.00000
      2     -17.6994      2.00000
      3     -16.9364      2.00000
      4     -16.8079      2.00000
      5     -13.8745      2.00000
      6     -13.7614      2.00000
      7     -13.4564      2.00000
      8     -13.3393      2.00000
      9     -11.4742      2.00000
     10     -11.2955      2.00000
     11     -11.2876      2.00000
     12     -10.5211      2.00000
     13     -10.4178      2.00000
     14     -10.3373      2.00000
     15      -9.8331      2.00000
     16      -9.8222      2.00000
     17      -9.6830      2.00000
     18      -8.6799      2.00000
     19      -8.6351      2.00000
     20      -8.5452      2.00000
     21      -7.8547      2.00000
     22      -7.6886      2.00000
     23      -7.0168      2.00000
     24      -6.8186      2.00000
     25      -6.7700      2.00000
     26      -6.7560      2.00000
     27      -6.4324      2.00000
     28      -6.0127      2.00000
     29      -5.9712      2.00000
     30      -5.5206      2.00000
     31      -5.5183      2.00000
     32      -5.4104      2.00000
     33      -5.3655      2.00000
     34      -5.3208      2.00000
     35      -5.1691      2.00000
     36      -4.8995      2.00000
     37      -4.7260      2.00000
     38      -4.6927      2.00000
     39      -4.3566      2.00000
     40      -3.6247      2.00000
     41      -2.9504      1.99831
     42      -2.5336      0.00587
     43      -2.4303      0.00002
     44      -2.3892      0.00000
     45      -2.3886      0.00000
     46      -1.6869      0.00000
     47      -0.2857      0.00000
     48       0.1827      0.00000
     49       0.3830      0.00000
     50       0.4711      0.00000
     51       0.7924      0.00000
     52       0.9818      0.00000
     53       1.0782      0.00000
     54       1.7063      0.00000
     55       2.0172      0.00000
     56       2.0703      0.00000
     57       2.1571      0.00000
     58       2.1717      0.00000
     59       2.3268      0.00000
     60       2.6361      0.00000
     61       2.8202      0.00000
     62       3.1669      0.00000
     63       3.2070      0.00000
     64       3.4697      0.00000
     65       3.5637      0.00000
     66       3.6281      0.00000
     67       3.7655      0.00000
     68       3.9013      0.00000
     69       3.9964      0.00000
     70       4.0764      0.00000
     71       4.3391      0.00000
     72       4.3586      0.00000
     73       4.5383      0.00000
     74       4.5650      0.00000
     75       4.6940      0.00000
     76       4.7043      0.00000
     77       4.8878      0.00000
     78       4.9143      0.00000
     79       5.0474      0.00000
     80       5.1367      0.00000
     81       5.2168      0.00000
     82       5.2748      0.00000
     83       5.3284      0.00000
     84       5.3530      0.00000

 k-point    35 :       0.2250    0.1944    0.0000
  band No.  band energies     occupation 
      1     -17.7960      2.00000
      2     -17.6588      2.00000
      3     -16.9939      2.00000
      4     -16.8651      2.00000
      5     -13.8829      2.00000
      6     -13.7669      2.00000
      7     -13.4650      2.00000
      8     -13.3497      2.00000
      9     -11.4425      2.00000
     10     -11.2561      2.00000
     11     -11.2438      2.00000
     12     -10.4744      2.00000
     13     -10.4537      2.00000
     14     -10.2767      2.00000
     15      -9.9516      2.00000
     16      -9.8339      2.00000
     17      -9.7718      2.00000
     18      -8.7050      2.00000
     19      -8.4842      2.00000
     20      -8.3481      2.00000
     21      -7.6933      2.00000
     22      -7.5315      2.00000
     23      -7.0441      2.00000
     24      -6.9955      2.00000
     25      -6.9305      2.00000
     26      -6.7969      2.00000
     27      -6.4205      2.00000
     28      -6.0462      2.00000
     29      -5.9814      2.00000
     30      -5.5665      2.00000
     31      -5.5514      2.00000
     32      -5.4042      2.00000
     33      -5.3461      2.00000
     34      -5.3286      2.00000
     35      -5.2324      2.00000
     36      -4.9165      2.00000
     37      -4.7478      2.00000
     38      -4.6699      2.00000
     39      -4.3933      2.00000
     40      -3.5969      2.00000
     41      -2.9274      1.99512
     42      -2.7827      1.55739
     43      -2.6666      0.38259
     44      -2.4368      0.00004
     45      -2.3632      0.00000
     46      -1.7227      0.00000
     47      -0.1217      0.00000
     48       0.3200      0.00000
     49       0.4378      0.00000
     50       0.6199      0.00000
     51       0.9303      0.00000
     52       1.1160      0.00000
     53       1.1759      0.00000
     54       1.6462      0.00000
     55       2.0642      0.00000
     56       2.1107      0.00000
     57       2.1466      0.00000
     58       2.3056      0.00000
     59       2.4220      0.00000
     60       2.6991      0.00000
     61       2.9364      0.00000
     62       3.1802      0.00000
     63       3.2143      0.00000
     64       3.4124      0.00000
     65       3.4767      0.00000
     66       3.5249      0.00000
     67       3.7803      0.00000
     68       3.8823      0.00000
     69       3.9819      0.00000
     70       4.0994      0.00000
     71       4.2050      0.00000
     72       4.3961      0.00000
     73       4.4536      0.00000
     74       4.4923      0.00000
     75       4.5502      0.00000
     76       4.6957      0.00000
     77       4.9398      0.00000
     78       4.9416      0.00000
     79       5.0207      0.00000
     80       5.0548      0.00000
     81       5.0929      0.00000
     82       5.1584      0.00000
     83       5.3078      0.00000
     84       5.3327      0.00000

 k-point    36 :       0.2750    0.1944    0.0000
  band No.  band energies     occupation 
      1     -17.7455      2.00000
      2     -17.6089      2.00000
      3     -17.0617      2.00000
      4     -16.9324      2.00000
      5     -13.8796      2.00000
      6     -13.7614      2.00000
      7     -13.4885      2.00000
      8     -13.3739      2.00000
      9     -11.4023      2.00000
     10     -11.2107      2.00000
     11     -11.1906      2.00000
     12     -10.5261      2.00000
     13     -10.4613      2.00000
     14     -10.2700      2.00000
     15      -9.9711      2.00000
     16      -9.8698      2.00000
     17      -9.7067      2.00000
     18      -8.7923      2.00000
     19      -8.2845      2.00000
     20      -8.1454      2.00000
     21      -7.6526      2.00000
     22      -7.5217      2.00000
     23      -7.1063      2.00000
     24      -7.0382      2.00000
     25      -6.9790      2.00000
     26      -6.8176      2.00000
     27      -6.4150      2.00000
     28      -6.0561      2.00000
     29      -6.0260      2.00000
     30      -5.6645      2.00000
     31      -5.6552      2.00000
     32      -5.3841      2.00000
     33      -5.3598      2.00000
     34      -5.2619      2.00000
     35      -5.2052      2.00000
     36      -4.9489      2.00000
     37      -4.7891      2.00000
     38      -4.6774      2.00000
     39      -4.3769      2.00000
     40      -3.6047      2.00000
     41      -3.0645      2.00000
     42      -2.9966      1.99985
     43      -2.8489      1.91171
     44      -2.4670      0.00022
     45      -2.3195      0.00000
     46      -1.7658      0.00000
     47       0.0860      0.00000
     48       0.4795      0.00000
     49       0.5119      0.00000
     50       0.8145      0.00000
     51       1.0935      0.00000
     52       1.2313      0.00000
     53       1.2924      0.00000
     54       1.5428      0.00000
     55       2.0067      0.00000
     56       2.2159      0.00000
     57       2.2430      0.00000
     58       2.4103      0.00000
     59       2.5015      0.00000
     60       2.7592      0.00000
     61       3.0550      0.00000
     62       3.0988      0.00000
     63       3.1675      0.00000
     64       3.3216      0.00000
     65       3.3864      0.00000
     66       3.5737      0.00000
     67       3.8244      0.00000
     68       3.8347      0.00000
     69       3.9157      0.00000
     70       4.0507      0.00000
     71       4.0633      0.00000
     72       4.2559      0.00000
     73       4.3593      0.00000
     74       4.4265      0.00000
     75       4.4921      0.00000
     76       4.7616      0.00000
     77       4.7774      0.00000
     78       4.8555      0.00000
     79       4.9124      0.00000
     80       4.9692      0.00000
     81       5.0412      0.00000
     82       5.2631      0.00000
     83       5.3268      0.00000
     84       5.3536      0.00000

 k-point    37 :       0.3250    0.1944    0.0000
  band No.  band energies     occupation 
      1     -17.6865      2.00000
      2     -17.5505      2.00000
      3     -17.1372      2.00000
      4     -17.0073      2.00000
      5     -13.8633      2.00000
      6     -13.7437      2.00000
      7     -13.5262      2.00000
      8     -13.4113      2.00000
      9     -11.3495      2.00000
     10     -11.1554      2.00000
     11     -11.1292      2.00000
     12     -10.5958      2.00000
     13     -10.5543      2.00000
     14     -10.3710      2.00000
     15      -9.8459      2.00000
     16      -9.7483      2.00000
     17      -9.6274      2.00000
     18      -8.8914      2.00000
     19      -8.1475      2.00000
     20      -8.0178      2.00000
     21      -7.7379      2.00000
     22      -7.6210      2.00000
     23      -7.0749      2.00000
     24      -7.0268      2.00000
     25      -6.8844      2.00000
     26      -6.8273      2.00000
     27      -6.4167      2.00000
     28      -6.0921      2.00000
     29      -6.0423      2.00000
     30      -5.7721      2.00000
     31      -5.7517      2.00000
     32      -5.4373      2.00000
     33      -5.3269      2.00000
     34      -5.2166      2.00000
     35      -5.1492      2.00000
     36      -4.9471      2.00000
     37      -4.8128      2.00000
     38      -4.7128      2.00000
     39      -4.3160      2.00000
     40      -3.6454      2.00000
     41      -3.3585      2.00000
     42      -3.2762      2.00000
     43      -2.8242      1.82453
     44      -2.5018      0.00135
     45      -2.2651      0.00000
     46      -1.8159      0.00000
     47       0.3315      0.00000
     48       0.5980      0.00000
     49       0.6557      0.00000
     50       1.0515      0.00000
     51       1.2762      0.00000
     52       1.2931      0.00000
     53       1.4248      0.00000
     54       1.4663      0.00000
     55       1.9503      0.00000
     56       2.3158      0.00000
     57       2.3553      0.00000
     58       2.4485      0.00000
     59       2.5015      0.00000
     60       2.8337      0.00000
     61       3.0025      0.00000
     62       3.0129      0.00000
     63       3.1850      0.00000
     64       3.2098      0.00000
     65       3.4080      0.00000
     66       3.5891      0.00000
     67       3.7373      0.00000
     68       3.7418      0.00000
     69       3.8547      0.00000
     70       3.9293      0.00000
     71       3.9806      0.00000
     72       4.1751      0.00000
     73       4.3140      0.00000
     74       4.3222      0.00000
     75       4.4482      0.00000
     76       4.5437      0.00000
     77       4.7603      0.00000
     78       4.8364      0.00000
     79       4.8967      0.00000
     80       5.0098      0.00000
     81       5.1069      0.00000
     82       5.1548      0.00000
     83       5.2841      0.00000
     84       5.3425      0.00000

 k-point    38 :       0.3750    0.1944    0.0000
  band No.  band energies     occupation 
      1     -17.6197      2.00000
      2     -17.4846      2.00000
      3     -17.2180      2.00000
      4     -17.0874      2.00000
      5     -13.8341      2.00000
      6     -13.7139      2.00000
      7     -13.5749      2.00000
      8     -13.4590      2.00000
      9     -11.2813      2.00000
     10     -11.0863      2.00000
     11     -11.0615      2.00000
     12     -10.7016      2.00000
     13     -10.6555      2.00000
     14     -10.5107      2.00000
     15      -9.6370      2.00000
     16      -9.5451      2.00000
     17      -9.5326      2.00000
     18      -8.9986      2.00000
     19      -8.2569      2.00000
     20      -8.1539      2.00000
     21      -7.6672      2.00000
     22      -7.5259      2.00000
     23      -7.0504      2.00000
     24      -7.0035      2.00000
     25      -6.8208      2.00000
     26      -6.8017      2.00000
     27      -6.4170      2.00000
     28      -6.1619      2.00000
     29      -6.0068      2.00000
     30      -5.8403      2.00000
     31      -5.8004      2.00000
     32      -5.5257      2.00000
     33      -5.3025      2.00000
     34      -5.2175      2.00000
     35      -5.1839      2.00000
     36      -4.8438      2.00000
     37      -4.7694      2.00000
     38      -4.7415      2.00000
     39      -4.2262      2.00000
     40      -3.7140      2.00000
     41      -3.6524      2.00000
     42      -3.5698      2.00000
     43      -2.7789      1.52521
     44      -2.5412      0.00810
     45      -2.2031      0.00000
     46      -1.8722      0.00000
     47       0.6002      0.00000
     48       0.6934      0.00000
     49       0.8381      0.00000
     50       1.2349      0.00000
     51       1.3197      0.00000
     52       1.4688      0.00000
     53       1.5000      0.00000
     54       1.5720      0.00000
     55       1.8990      0.00000
     56       2.3087      0.00000
     57       2.3136      0.00000
     58       2.5052      0.00000
     59       2.5580      0.00000
     60       2.7238      0.00000
     61       2.9079      0.00000
     62       3.0226      0.00000
     63       3.0905      0.00000
     64       3.2732      0.00000
     65       3.4294      0.00000
     66       3.4626      0.00000
     67       3.6033      0.00000
     68       3.6159      0.00000
     69       3.8202      0.00000
     70       3.8629      0.00000
     71       3.9269      0.00000
     72       4.1062      0.00000
     73       4.2202      0.00000
     74       4.3148      0.00000
     75       4.4852      0.00000
     76       4.4952      0.00000
     77       4.6454      0.00000
     78       4.8741      0.00000
     79       4.9516      0.00000
     80       5.0439      0.00000
     81       5.1316      0.00000
     82       5.1509      0.00000
     83       5.1563      0.00000
     84       5.3300      0.00000

 k-point    39 :       0.4250    0.1944    0.0000
  band No.  band energies     occupation 
      1     -17.5463      2.00000
      2     -17.4121      2.00000
      3     -17.3016      2.00000
      4     -17.1701      2.00000
      5     -13.7935      2.00000
      6     -13.6733      2.00000
      7     -13.6305      2.00000
      8     -13.5132      2.00000
      9     -11.1964      2.00000
     10     -11.0014      2.00000
     11     -10.9923      2.00000
     12     -10.8314      2.00000
     13     -10.7363      2.00000
     14     -10.6515      2.00000
     15      -9.4395      2.00000
     16      -9.3842      2.00000
     17      -9.2881      2.00000
     18      -9.1102      2.00000
     19      -8.5197      2.00000
     20      -8.4245      2.00000
     21      -7.4784      2.00000
     22      -7.3227      2.00000
     23      -7.0503      2.00000
     24      -7.0080      2.00000
     25      -6.8452      2.00000
     26      -6.8171      2.00000
     27      -6.3912      2.00000
     28      -6.2257      2.00000
     29      -5.9552      2.00000
     30      -5.8398      2.00000
     31      -5.7770      2.00000
     32      -5.5935      2.00000
     33      -5.4129      2.00000
     34      -5.3016      2.00000
     35      -5.1342      2.00000
     36      -4.8523      2.00000
     37      -4.6623      2.00000
     38      -4.5798      2.00000
     39      -4.1212      2.00000
     40      -3.9368      2.00000
     41      -3.8616      2.00000
     42      -3.7955      2.00000
     43      -2.7298      1.01644
     44      -2.5845      0.04191
     45      -2.1364      0.00000
     46      -1.9338      0.00000
     47       0.7847      0.00000
     48       0.8699      0.00000
     49       0.9994      0.00000
     50       1.1470      0.00000
     51       1.5760      0.00000
     52       1.5919      0.00000
     53       1.6526      0.00000
     54       1.7330      0.00000
     55       1.8507      0.00000
     56       2.1605      0.00000
     57       2.1985      0.00000
     58       2.3926      0.00000
     59       2.5992      0.00000
     60       2.7535      0.00000
     61       2.7983      0.00000
     62       2.9808      0.00000
     63       3.1191      0.00000
     64       3.1910      0.00000
     65       3.3232      0.00000
     66       3.3840      0.00000
     67       3.5579      0.00000
     68       3.6199      0.00000
     69       3.7328      0.00000
     70       3.8020      0.00000
     71       3.8684      0.00000
     72       4.0899      0.00000
     73       4.2466      0.00000
     74       4.3054      0.00000
     75       4.4831      0.00000
     76       4.5688      0.00000
     77       4.6901      0.00000
     78       4.7809      0.00000
     79       4.8611      0.00000
     80       5.0275      0.00000
     81       5.1440      0.00000
     82       5.1670      0.00000
     83       5.2462      0.00000
     84       5.3000      0.00000

 k-point    40 :       0.4750    0.1944    0.0000
  band No.  band energies     occupation 
      1     -17.4678      2.00000
      2     -17.3855      2.00000
      3     -17.3344      2.00000
      4     -17.2531      2.00000
      5     -13.7439      2.00000
      6     -13.6882      2.00000
      7     -13.6243      2.00000
      8     -13.5697      2.00000
      9     -11.0961      2.00000
     10     -10.9903      2.00000
     11     -10.8999      2.00000
     12     -10.8847      2.00000
     13     -10.8156      2.00000
     14     -10.7826      2.00000
     15      -9.3335      2.00000
     16      -9.2229      2.00000
     17      -9.1054      2.00000
     18      -9.0108      2.00000
     19      -8.8126      2.00000
     20      -8.7187      2.00000
     21      -7.2867      2.00000
     22      -7.1343      2.00000
     23      -7.1148      2.00000
     24      -6.9728      2.00000
     25      -6.9349      2.00000
     26      -6.9127      2.00000
     27      -6.3406      2.00000
     28      -6.2842      2.00000
     29      -5.8938      2.00000
     30      -5.8403      2.00000
     31      -5.6850      2.00000
     32      -5.5705      2.00000
     33      -5.5528      2.00000
     34      -5.4470      2.00000
     35      -5.0372      2.00000
     36      -4.9410      2.00000
     37      -4.4482      2.00000
     38      -4.3695      2.00000
     39      -4.2042      2.00000
     40      -4.1272      2.00000
     41      -4.0096      2.00000
     42      -3.9002      2.00000
     43      -2.6800      0.49390
     44      -2.6312      0.16909
     45      -2.0678      0.00000
     46      -1.9996      0.00000
     47       0.8854      0.00000
     48       0.9728      0.00000
     49       1.0963      0.00000
     50       1.1495      0.00000
     51       1.6781      0.00000
     52       1.7897      0.00000
     53       1.7907      0.00000
     54       1.7941      0.00000
     55       1.8957      0.00000
     56       2.0506      0.00000
     57       2.0641      0.00000
     58       2.1358      0.00000
     59       2.6277      0.00000
     60       2.7424      0.00000
     61       2.8568      0.00000
     62       2.9349      0.00000
     63       2.9462      0.00000
     64       3.1309      0.00000
     65       3.3849      0.00000
     66       3.4446      0.00000
     67       3.5310      0.00000
     68       3.5575      0.00000
     69       3.6514      0.00000
     70       3.6867      0.00000
     71       3.9152      0.00000
     72       4.0848      0.00000
     73       4.3100      0.00000
     74       4.3973      0.00000
     75       4.4616      0.00000
     76       4.5535      0.00000
     77       4.6555      0.00000
     78       4.7613      0.00000
     79       4.8676      0.00000
     80       5.0254      0.00000
     81       5.0510      0.00000
     82       5.0834      0.00000
     83       5.3397      0.00000
     84       5.4047      0.00000

 k-point    41 :       0.0250    0.2500    0.0000
  band No.  band energies     occupation 
      1     -17.8823      2.00000
      2     -17.7445      2.00000
      3     -16.8759      2.00000
      4     -16.7462      2.00000
      5     -13.8177      2.00000
      6     -13.7154      2.00000
      7     -13.4260      2.00000
      8     -13.3032      2.00000
      9     -11.6819      2.00000
     10     -11.5239      2.00000
     11     -11.3232      2.00000
     12     -10.7286      2.00000
     13     -10.5231      2.00000
     14     -10.4018      2.00000
     15      -9.8784      2.00000
     16      -9.1915      2.00000
     17      -9.0320      2.00000
     18      -8.8920      2.00000
     19      -8.7842      2.00000
     20      -8.6016      2.00000
     21      -8.1011      2.00000
     22      -7.9365      2.00000
     23      -6.9484      2.00000
     24      -6.6432      2.00000
     25      -6.5072      2.00000
     26      -6.4624      2.00000
     27      -6.4345      2.00000
     28      -6.0512      2.00000
     29      -5.8897      2.00000
     30      -5.8673      2.00000
     31      -5.7465      2.00000
     32      -5.5730      2.00000
     33      -5.2448      2.00000
     34      -5.2095      2.00000
     35      -5.0342      2.00000
     36      -5.0091      2.00000
     37      -4.9864      2.00000
     38      -4.8837      2.00000
     39      -4.1805      2.00000
     40      -3.9763      2.00000
     41      -2.9568      1.99876
     42      -2.4009      0.00000
     43      -2.3999      0.00000
     44      -1.7848      0.00000
     45      -1.6607      0.00000
     46      -1.6549      0.00000
     47      -0.4566      0.00000
     48       0.1363      0.00000
     49       0.3013      0.00000
     50       0.3178      0.00000
     51       0.5813      0.00000
     52       0.6674      0.00000
     53       0.9412      0.00000
     54       1.7411      0.00000
     55       1.7773      0.00000
     56       1.9585      0.00000
     57       2.2176      0.00000
     58       2.2746      0.00000
     59       2.3902      0.00000
     60       2.6495      0.00000
     61       2.7427      0.00000
     62       2.9199      0.00000
     63       3.2078      0.00000
     64       3.5710      0.00000
     65       3.6705      0.00000
     66       3.7200      0.00000
     67       3.9012      0.00000
     68       3.9091      0.00000
     69       4.0034      0.00000
     70       4.2178      0.00000
     71       4.3021      0.00000
     72       4.3612      0.00000
     73       4.3705      0.00000
     74       4.4336      0.00000
     75       4.5968      0.00000
     76       4.6004      0.00000
     77       4.6994      0.00000
     78       4.8007      0.00000
     79       4.9641      0.00000
     80       5.0307      0.00000
     81       5.1021      0.00000
     82       5.2071      0.00000
     83       5.3224      0.00000
     84       5.5247      0.00000

 k-point    42 :       0.0750    0.2500    0.0000
  band No.  band energies     occupation 
      1     -17.8719      2.00000
      2     -17.7342      2.00000
      3     -16.8902      2.00000
      4     -16.7605      2.00000
      5     -13.8365      2.00000
      6     -13.7313      2.00000
      7     -13.4196      2.00000
      8     -13.2992      2.00000
      9     -11.6621      2.00000
     10     -11.5007      2.00000
     11     -11.3120      2.00000
     12     -10.7051      2.00000
     13     -10.5043      2.00000
     14     -10.4118      2.00000
     15      -9.8644      2.00000
     16      -9.3033      2.00000
     17      -9.1494      2.00000
     18      -8.8192      2.00000
     19      -8.7086      2.00000
     20      -8.6127      2.00000
     21      -8.0105      2.00000
     22      -7.8447      2.00000
     23      -6.9607      2.00000
     24      -6.6787      2.00000
     25      -6.5743      2.00000
     26      -6.5087      2.00000
     27      -6.4525      2.00000
     28      -6.0267      2.00000
     29      -5.8688      2.00000
     30      -5.8469      2.00000
     31      -5.8370      2.00000
     32      -5.4946      2.00000
     33      -5.3087      2.00000
     34      -5.2765      2.00000
     35      -5.0855      2.00000
     36      -4.9925      2.00000
     37      -4.8869      2.00000
     38      -4.8461      2.00000
     39      -4.2939      2.00000
     40      -3.8539      2.00000
     41      -2.9516      1.99840
     42      -2.4061      0.00001
     43      -2.3967      0.00000
     44      -1.8963      0.00000
     45      -1.7763      0.00000
     46      -1.6750      0.00000
     47      -0.4184      0.00000
     48       0.1664      0.00000
     49       0.3190      0.00000
     50       0.3393      0.00000
     51       0.6766      0.00000
     52       0.7260      0.00000
     53       0.9514      0.00000
     54       1.7643      0.00000
     55       1.8537      0.00000
     56       1.9882      0.00000
     57       2.1995      0.00000
     58       2.3023      0.00000
     59       2.3246      0.00000
     60       2.6496      0.00000
     61       2.7820      0.00000
     62       2.9984      0.00000
     63       3.2392      0.00000
     64       3.5390      0.00000
     65       3.6764      0.00000
     66       3.7057      0.00000
     67       3.8567      0.00000
     68       3.8587      0.00000
     69       3.9797      0.00000
     70       4.1333      0.00000
     71       4.2524      0.00000
     72       4.3242      0.00000
     73       4.3737      0.00000
     74       4.4633      0.00000
     75       4.6016      0.00000
     76       4.6659      0.00000
     77       4.6898      0.00000
     78       4.9007      0.00000
     79       4.9984      0.00000
     80       5.0141      0.00000
     81       5.1684      0.00000
     82       5.2063      0.00000
     83       5.3975      0.00000
     84       5.5440      0.00000

 k-point    43 :       0.1250    0.2500    0.0000
  band No.  band energies     occupation 
      1     -17.8511      2.00000
      2     -17.7138      2.00000
      3     -16.9183      2.00000
      4     -16.7887      2.00000
      5     -13.8654      2.00000
      6     -13.7558      2.00000
      7     -13.4157      2.00000
      8     -13.2984      2.00000
      9     -11.6229      2.00000
     10     -11.4556      2.00000
     11     -11.2899      2.00000
     12     -10.6552      2.00000
     13     -10.4625      2.00000
     14     -10.4317      2.00000
     15      -9.8367      2.00000
     16      -9.4648      2.00000
     17      -9.3144      2.00000
     18      -8.7062      2.00000
     19      -8.6574      2.00000
     20      -8.5761      2.00000
     21      -7.8696      2.00000
     22      -7.7020      2.00000
     23      -6.9848      2.00000
     24      -6.7254      2.00000
     25      -6.7053      2.00000
     26      -6.6389      2.00000
     27      -6.4343      2.00000
     28      -5.9909      2.00000
     29      -5.9374      2.00000
     30      -5.8175      2.00000
     31      -5.8138      2.00000
     32      -5.4454      2.00000
     33      -5.3914      2.00000
     34      -5.3497      2.00000
     35      -5.1542      2.00000
     36      -4.9650      2.00000
     37      -4.8036      2.00000
     38      -4.7829      2.00000
     39      -4.3888      2.00000
     40      -3.7319      2.00000
     41      -2.9411      1.99738
     42      -2.4167      0.00001
     43      -2.3907      0.00000
     44      -2.1034      0.00000
     45      -1.9937      0.00000
     46      -1.6945      0.00000
     47      -0.3397      0.00000
     48       0.2245      0.00000
     49       0.3410      0.00000
     50       0.4158      0.00000
     51       0.8150      0.00000
     52       0.8232      0.00000
     53       0.9897      0.00000
     54       1.7842      0.00000
     55       1.9906      0.00000
     56       2.0430      0.00000
     57       2.1737      0.00000
     58       2.2322      0.00000
     59       2.3663      0.00000
     60       2.6768      0.00000
     61       2.8537      0.00000
     62       3.0862      0.00000
     63       3.2964      0.00000
     64       3.4772      0.00000
     65       3.5693      0.00000
     66       3.7313      0.00000
     67       3.7616      0.00000
     68       3.8642      0.00000
     69       3.9372      0.00000
     70       4.0226      0.00000
     71       4.2146      0.00000
     72       4.3697      0.00000
     73       4.3812      0.00000
     74       4.4859      0.00000
     75       4.5188      0.00000
     76       4.6795      0.00000
     77       4.7298      0.00000
     78       4.8824      0.00000
     79       5.0535      0.00000
     80       5.0722      0.00000
     81       5.2450      0.00000
     82       5.3280      0.00000
     83       5.3933      0.00000
     84       5.4756      0.00000

 k-point    44 :       0.1750    0.2500    0.0000
  band No.  band energies     occupation 
      1     -17.8204      2.00000
      2     -17.6834      2.00000
      3     -16.9595      2.00000
      4     -16.8298      2.00000
      5     -13.8936      2.00000
      6     -13.7798      2.00000
      7     -13.4238      2.00000
      8     -13.3086      2.00000
      9     -11.5657      2.00000
     10     -11.3915      2.00000
     11     -11.2572      2.00000
     12     -10.5762      2.00000
     13     -10.4614      2.00000
     14     -10.3919      2.00000
     15      -9.7957      2.00000
     16      -9.6422      2.00000
     17      -9.4956      2.00000
     18      -8.6962      2.00000
     19      -8.5624      2.00000
     20      -8.4344      2.00000
     21      -7.7305      2.00000
     22      -7.5638      2.00000
     23      -7.0187      2.00000
     24      -6.8623      2.00000
     25      -6.7873      2.00000
     26      -6.7631      2.00000
     27      -6.4222      2.00000
     28      -6.0164      2.00000
     29      -5.9744      2.00000
     30      -5.7715      2.00000
     31      -5.7545      2.00000
     32      -5.4601      2.00000
     33      -5.4476      2.00000
     34      -5.4201      2.00000
     35      -5.2240      2.00000
     36      -4.9400      2.00000
     37      -4.7725      2.00000
     38      -4.6974      2.00000
     39      -4.4294      2.00000
     40      -3.6316      2.00000
     41      -2.9255      1.99468
     42      -2.4328      0.00003
     43      -2.4233      0.00002
     44      -2.3314      0.00000
     45      -2.2744      0.00000
     46      -1.7205      0.00000
     47      -0.2184      0.00000
     48       0.3053      0.00000
     49       0.3895      0.00000
     50       0.5314      0.00000
     51       0.8986      0.00000
     52       0.9869      0.00000
     53       1.0817      0.00000
     54       1.7494      0.00000
     55       2.1171      0.00000
     56       2.1497      0.00000
     57       2.1607      0.00000
     58       2.1958      0.00000
     59       2.4497      0.00000
     60       2.7197      0.00000
     61       2.9466      0.00000
     62       3.1420      0.00000
     63       3.3510      0.00000
     64       3.3921      0.00000
     65       3.4236      0.00000
     66       3.6601      0.00000
     67       3.7813      0.00000
     68       3.8694      0.00000
     69       3.9338      0.00000
     70       3.9442      0.00000
     71       4.1651      0.00000
     72       4.2461      0.00000
     73       4.4528      0.00000
     74       4.5145      0.00000
     75       4.5695      0.00000
     76       4.6384      0.00000
     77       4.7735      0.00000
     78       4.8022      0.00000
     79       5.0894      0.00000
     80       5.0957      0.00000
     81       5.2576      0.00000
     82       5.2932      0.00000
     83       5.3683      0.00000
     84       5.3704      0.00000

 k-point    45 :       0.2250    0.2500    0.0000
  band No.  band energies     occupation 
      1     -17.7801      2.00000
      2     -17.6435      2.00000
      3     -17.0124      2.00000
      4     -16.8826      2.00000
      5     -13.9136      2.00000
      6     -13.7963      2.00000
      7     -13.4489      2.00000
      8     -13.3344      2.00000
      9     -11.4924      2.00000
     10     -11.3118      2.00000
     11     -11.2147      2.00000
     12     -10.5039      2.00000
     13     -10.4681      2.00000
     14     -10.2911      2.00000
     15      -9.8135      2.00000
     16      -9.7447      2.00000
     17      -9.6721      2.00000
     18      -8.7548      2.00000
     19      -8.3972      2.00000
     20      -8.2665      2.00000
     21      -7.6647      2.00000
     22      -7.5135      2.00000
     23      -7.0600      2.00000
     24      -6.9694      2.00000
     25      -6.8771      2.00000
     26      -6.7952      2.00000
     27      -6.4184      2.00000
     28      -6.0737      2.00000
     29      -6.0090      2.00000
     30      -5.7092      2.00000
     31      -5.6958      2.00000
     32      -5.5470      2.00000
     33      -5.5078      2.00000
     34      -5.3823      2.00000
     35      -5.3048      2.00000
     36      -4.9294      2.00000
     37      -4.7615      2.00000
     38      -4.6393      2.00000
     39      -4.4030      2.00000
     40      -3.5627      2.00000
     41      -2.9069      1.98842
     42      -2.7081      0.77462
     43      -2.5884      0.04779
     44      -2.4542      0.00011
     45      -2.3372      0.00000
     46      -1.7539      0.00000
     47      -0.0547      0.00000
     48       0.4036      0.00000
     49       0.4621      0.00000
     50       0.6864      0.00000
     51       0.9806      0.00000
     52       1.1474      0.00000
     53       1.2172      0.00000
     54       1.6490      0.00000
     55       2.1004      0.00000
     56       2.2055      0.00000
     57       2.2612      0.00000
     58       2.3308      0.00000
     59       2.5339      0.00000
     60       2.7539      0.00000
     61       3.0465      0.00000
     62       3.1444      0.00000
     63       3.2913      0.00000
     64       3.3288      0.00000
     65       3.3407      0.00000
     66       3.6144      0.00000
     67       3.8320      0.00000
     68       3.8523      0.00000
     69       3.9160      0.00000
     70       3.9675      0.00000
     71       3.9866      0.00000
     72       4.2598      0.00000
     73       4.3818      0.00000
     74       4.4901      0.00000
     75       4.5599      0.00000
     76       4.6624      0.00000
     77       4.7969      0.00000
     78       4.8486      0.00000
     79       5.0100      0.00000
     80       5.0846      0.00000
     81       5.1084      0.00000
     82       5.1430      0.00000
     83       5.2203      0.00000
     84       5.3431      0.00000

 k-point    46 :       0.2750    0.2500    0.0000
  band No.  band energies     occupation 
      1     -17.7307      2.00000
      2     -17.5947      2.00000
      3     -17.0752      2.00000
      4     -16.9451      2.00000
      5     -13.9208      2.00000
      6     -13.8006      2.00000
      7     -13.4909      2.00000
      8     -13.3758      2.00000
      9     -11.4053      2.00000
     10     -11.2198      2.00000
     11     -11.1633      2.00000
     12     -10.5513      2.00000
     13     -10.3685      2.00000
     14     -10.1804      2.00000
     15      -9.9398      2.00000
     16      -9.8248      2.00000
     17      -9.6730      2.00000
     18      -8.8281      2.00000
     19      -8.2345      2.00000
     20      -8.1016      2.00000
     21      -7.7330      2.00000
     22      -7.6085      2.00000
     23      -7.0905      2.00000
     24      -6.9812      2.00000
     25      -6.8454      2.00000
     26      -6.8136      2.00000
     27      -6.4237      2.00000
     28      -6.1060      2.00000
     29      -6.0787      2.00000
     30      -5.7161      2.00000
     31      -5.6984      2.00000
     32      -5.5525      2.00000
     33      -5.4756      2.00000
     34      -5.4055      2.00000
     35      -5.3011      2.00000
     36      -4.9376      2.00000
     37      -4.7721      2.00000
     38      -4.6129      2.00000
     39      -4.3239      2.00000
     40      -3.5312      2.00000
     41      -3.0402      1.99999
     42      -2.9712      1.99941
     43      -2.8295      1.84742
     44      -2.4812      0.00047
     45      -2.3047      0.00000
     46      -1.7946      0.00000
     47       0.1485      0.00000
     48       0.5164      0.00000
     49       0.5530      0.00000
     50       0.8800      0.00000
     51       1.0825      0.00000
     52       1.2942      0.00000
     53       1.3705      0.00000
     54       1.5221      0.00000
     55       2.0506      0.00000
     56       2.3032      0.00000
     57       2.3678      0.00000
     58       2.4659      0.00000
     59       2.5316      0.00000
     60       2.8064      0.00000
     61       3.1057      0.00000
     62       3.1259      0.00000
     63       3.1921      0.00000
     64       3.2415      0.00000
     65       3.3391      0.00000
     66       3.5828      0.00000
     67       3.7928      0.00000
     68       3.8740      0.00000
     69       3.8913      0.00000
     70       3.9342      0.00000
     71       3.9772      0.00000
     72       4.2009      0.00000
     73       4.2731      0.00000
     74       4.3705      0.00000
     75       4.5328      0.00000
     76       4.7015      0.00000
     77       4.8016      0.00000
     78       4.8557      0.00000
     79       4.8920      0.00000
     80       4.9188      0.00000
     81       4.9412      0.00000
     82       5.2155      0.00000
     83       5.2605      0.00000
     84       5.2630      0.00000

 k-point    47 :       0.3250    0.2500    0.0000
  band No.  band energies     occupation 
      1     -17.6730      2.00000
      2     -17.5377      2.00000
      3     -17.1458      2.00000
      4     -17.0154      2.00000
      5     -13.9129      2.00000
      6     -13.7909      2.00000
      7     -13.5464      2.00000
      8     -13.4298      2.00000
      9     -11.3062      2.00000
     10     -11.1176      2.00000
     11     -11.1042      2.00000
     12     -10.6086      2.00000
     13     -10.3734      2.00000
     14     -10.1770      2.00000
     15      -9.9169      2.00000
     16      -9.8185      2.00000
     17      -9.5970      2.00000
     18      -8.9137      2.00000
     19      -8.1820      2.00000
     20      -8.0593      2.00000
     21      -7.8010      2.00000
     22      -7.6781      2.00000
     23      -7.1030      2.00000
     24      -6.9702      2.00000
     25      -6.8059      2.00000
     26      -6.7737      2.00000
     27      -6.4351      2.00000
     28      -6.1544      2.00000
     29      -6.1127      2.00000
     30      -5.7755      2.00000
     31      -5.7472      2.00000
     32      -5.5148      2.00000
     33      -5.4482      2.00000
     34      -5.3732      2.00000
     35      -5.2004      2.00000
     36      -4.9544      2.00000
     37      -4.7939      2.00000
     38      -4.6188      2.00000
     39      -4.2153      2.00000
     40      -3.5385      2.00000
     41      -3.3792      2.00000
     42      -3.2874      2.00000
     43      -2.8149      1.77883
     44      -2.5131      0.00233
     45      -2.2601      0.00000
     46      -1.8423      0.00000
     47       0.3833      0.00000
     48       0.6318      0.00000
     49       0.6661      0.00000
     50       1.1073      0.00000
     51       1.2103      0.00000
     52       1.3918      0.00000
     53       1.4249      0.00000
     54       1.5310      0.00000
     55       2.0008      0.00000
     56       2.3774      0.00000
     57       2.3987      0.00000
     58       2.5257      0.00000
     59       2.5356      0.00000
     60       2.9137      0.00000
     61       2.9937      0.00000
     62       3.0597      0.00000
     63       3.0941      0.00000
     64       3.2629      0.00000
     65       3.3707      0.00000
     66       3.5560      0.00000
     67       3.7140      0.00000
     68       3.7941      0.00000
     69       3.8902      0.00000
     70       3.8940      0.00000
     71       3.9214      0.00000
     72       4.1523      0.00000
     73       4.2393      0.00000
     74       4.2733      0.00000
     75       4.4939      0.00000
     76       4.5508      0.00000
     77       4.7188      0.00000
     78       4.8331      0.00000
     79       4.8892      0.00000
     80       4.9421      0.00000
     81       5.0114      0.00000
     82       5.1345      0.00000
     83       5.1773      0.00000
     84       5.2276      0.00000

 k-point    48 :       0.3750    0.2500    0.0000
  band No.  band energies     occupation 
      1     -17.6080      2.00000
      2     -17.4735      2.00000
      3     -17.2220      2.00000
      4     -17.0911      2.00000
      5     -13.8898      2.00000
      6     -13.7667      2.00000
      7     -13.6104      2.00000
      8     -13.4919      2.00000
      9     -11.1962      2.00000
     10     -11.0388      2.00000
     11     -11.0056      2.00000
     12     -10.6730      2.00000
     13     -10.4925      2.00000
     14     -10.3068      2.00000
     15      -9.7385      2.00000
     16      -9.6367      2.00000
     17      -9.5105      2.00000
     18      -9.0086      2.00000
     19      -8.3692      2.00000
     20      -8.2608      2.00000
     21      -7.6775      2.00000
     22      -7.5424      2.00000
     23      -7.1022      2.00000
     24      -6.9958      2.00000
     25      -6.8106      2.00000
     26      -6.7583      2.00000
     27      -6.4342      2.00000
     28      -6.2216      2.00000
     29      -6.0951      2.00000
     30      -5.8014      2.00000
     31      -5.7470      2.00000
     32      -5.6022      2.00000
     33      -5.3631      2.00000
     34      -5.2882      2.00000
     35      -5.0978      2.00000
     36      -4.9320      2.00000
     37      -4.7878      2.00000
     38      -4.6544      2.00000
     39      -4.0941      2.00000
     40      -3.7128      2.00000
     41      -3.6275      2.00000
     42      -3.5713      2.00000
     43      -2.7733      1.47425
     44      -2.5495      0.01143
     45      -2.2063      0.00000
     46      -1.8962      0.00000
     47       0.6304      0.00000
     48       0.7345      0.00000
     49       0.8100      0.00000
     50       1.2731      0.00000
     51       1.3527      0.00000
     52       1.3612      0.00000
     53       1.5346      0.00000
     54       1.6965      0.00000
     55       1.9500      0.00000
     56       2.2245      0.00000
     57       2.4425      0.00000
     58       2.5489      0.00000
     59       2.6659      0.00000
     60       2.7931      0.00000
     61       2.8521      0.00000
     62       3.0036      0.00000
     63       3.1146      0.00000
     64       3.2963      0.00000
     65       3.4113      0.00000
     66       3.4732      0.00000
     67       3.5958      0.00000
     68       3.6813      0.00000
     69       3.7787      0.00000
     70       3.8071      0.00000
     71       3.9982      0.00000
     72       4.1600      0.00000
     73       4.2140      0.00000
     74       4.2200      0.00000
     75       4.3948      0.00000
     76       4.5583      0.00000
     77       4.6770      0.00000
     78       4.8905      0.00000
     79       4.9259      0.00000
     80       4.9581      0.00000
     81       4.9730      0.00000
     82       5.0886      0.00000
     83       5.1896      0.00000
     84       5.1931      0.00000

 k-point    49 :       0.4250    0.2500    0.0000
  band No.  band energies     occupation 
      1     -17.5368      2.00000
      2     -17.4030      2.00000
      3     -17.3015      2.00000
      4     -17.1699      2.00000
      5     -13.8523      2.00000
      6     -13.7289      2.00000
      7     -13.6776      2.00000
      8     -13.5573      2.00000
      9     -11.0768      2.00000
     10     -10.9695      2.00000
     11     -10.8838      2.00000
     12     -10.7423      2.00000
     13     -10.6378      2.00000
     14     -10.4598      2.00000
     15      -9.4960      2.00000
     16      -9.4194      2.00000
     17      -9.3902      2.00000
     18      -9.1097      2.00000
     19      -8.6435      2.00000
     20      -8.5395      2.00000
     21      -7.4906      2.00000
     22      -7.3473      2.00000
     23      -7.0921      2.00000
     24      -7.0438      2.00000
     25      -6.8792      2.00000
     26      -6.8310      2.00000
     27      -6.4069      2.00000
     28      -6.2775      2.00000
     29      -6.0543      2.00000
     30      -5.8373      2.00000
     31      -5.6839      2.00000
     32      -5.5982      2.00000
     33      -5.3738      2.00000
     34      -5.2907      2.00000
     35      -4.9970      2.00000
     36      -4.8049      2.00000
     37      -4.7144      2.00000
     38      -4.6875      2.00000
     39      -4.0319      2.00000
     40      -3.9775      2.00000
     41      -3.9322      2.00000
     42      -3.6474      2.00000
     43      -2.7270      0.98387
     44      -2.5900      0.05030
     45      -2.1460      0.00000
     46      -1.9552      0.00000
     47       0.8248      0.00000
     48       0.8521      0.00000
     49       0.9669      0.00000
     50       1.1667      0.00000
     51       1.5166      0.00000
     52       1.5832      0.00000
     53       1.6349      0.00000
     54       1.8664      0.00000
     55       1.9017      0.00000
     56       2.0953      0.00000
     57       2.3581      0.00000
     58       2.4761      0.00000
     59       2.5535      0.00000
     60       2.7955      0.00000
     61       2.8471      0.00000
     62       2.9378      0.00000
     63       3.1661      0.00000
     64       3.2888      0.00000
     65       3.3309      0.00000
     66       3.4030      0.00000
     67       3.4801      0.00000
     68       3.6360      0.00000
     69       3.6680      0.00000
     70       3.8328      0.00000
     71       3.9405      0.00000
     72       4.1830      0.00000
     73       4.2340      0.00000
     74       4.2974      0.00000
     75       4.3873      0.00000
     76       4.5074      0.00000
     77       4.7667      0.00000
     78       4.7965      0.00000
     79       4.8570      0.00000
     80       4.9851      0.00000
     81       4.9981      0.00000
     82       5.0527      0.00000
     83       5.1793      0.00000
     84       5.2862      0.00000

 k-point    50 :       0.4750    0.2500    0.0000
  band No.  band energies     occupation 
      1     -17.4609      2.00000
      2     -17.3818      2.00000
      3     -17.3279      2.00000
      4     -17.2495      2.00000
      5     -13.8024      2.00000
      6     -13.7430      2.00000
      7     -13.6795      2.00000
      8     -13.6212      2.00000
      9     -10.9539      2.00000
     10     -10.9051      2.00000
     11     -10.8101      2.00000
     12     -10.7733      2.00000
     13     -10.7518      2.00000
     14     -10.6099      2.00000
     15      -9.3171      2.00000
     16      -9.2233      2.00000
     17      -9.2136      2.00000
     18      -9.1201      2.00000
     19      -8.9349      2.00000
     20      -8.8321      2.00000
     21      -7.3061      2.00000
     22      -7.1566      2.00000
     23      -7.1505      2.00000
     24      -7.0369      2.00000
     25      -6.9728      2.00000
     26      -6.9716      2.00000
     27      -6.3675      2.00000
     28      -6.3249      2.00000
     29      -5.9919      2.00000
     30      -5.9142      2.00000
     31      -5.5786      2.00000
     32      -5.4981      2.00000
     33      -5.4631      2.00000
     34      -5.3780      2.00000
     35      -4.8933      2.00000
     36      -4.7979      2.00000
     37      -4.5898      2.00000
     38      -4.4900      2.00000
     39      -4.3276      2.00000
     40      -4.2339      2.00000
     41      -3.8492      2.00000
     42      -3.7405      2.00000
     43      -2.6798      0.49173
     44      -2.6337      0.18046
     45      -2.0823      0.00000
     46      -2.0179      0.00000
     47       0.9175      0.00000
     48       0.9609      0.00000
     49       1.0761      0.00000
     50       1.0961      0.00000
     51       1.6538      0.00000
     52       1.7019      0.00000
     53       1.7495      0.00000
     54       1.8528      0.00000
     55       2.0397      0.00000
     56       2.0518      0.00000
     57       2.1907      0.00000
     58       2.2098      0.00000
     59       2.5979      0.00000
     60       2.7732      0.00000
     61       2.8720      0.00000
     62       2.9352      0.00000
     63       3.0294      0.00000
     64       3.2217      0.00000
     65       3.3973      0.00000
     66       3.4798      0.00000
     67       3.5056      0.00000
     68       3.5229      0.00000
     69       3.5879      0.00000
     70       3.7122      0.00000
     71       3.9866      0.00000
     72       4.1479      0.00000
     73       4.3629      0.00000
     74       4.3735      0.00000
     75       4.4360      0.00000
     76       4.5305      0.00000
     77       4.6417      0.00000
     78       4.6534      0.00000
     79       4.9392      0.00000
     80       4.9692      0.00000
     81       4.9978      0.00000
     82       5.0293      0.00000
     83       5.2407      0.00000
     84       5.2654      0.00000

 k-point    51 :       0.0250    0.3056    0.0000
  band No.  band energies     occupation 
      1     -17.8632      2.00000
      2     -17.7264      2.00000
      3     -16.9084      2.00000
      4     -16.7770      2.00000
      5     -13.8089      2.00000
      6     -13.7076      2.00000
      7     -13.3656      2.00000
      8     -13.2465      2.00000
      9     -11.8274      2.00000
     10     -11.6678      2.00000
     11     -11.2850      2.00000
     12     -10.8266      2.00000
     13     -10.6194      2.00000
     14     -10.4620      2.00000
     15      -9.8350      2.00000
     16      -9.0254      2.00000
     17      -8.8655      2.00000
     18      -8.6996      2.00000
     19      -8.6715      2.00000
     20      -8.5543      2.00000
     21      -7.8639      2.00000
     22      -7.6925      2.00000
     23      -6.9279      2.00000
     24      -6.5992      2.00000
     25      -6.5562      2.00000
     26      -6.5131      2.00000
     27      -6.4884      2.00000
     28      -6.3087      2.00000
     29      -6.2242      2.00000
     30      -5.8801      2.00000
     31      -5.6884      2.00000
     32      -5.5688      2.00000
     33      -5.4943      2.00000
     34      -5.3264      2.00000
     35      -5.1609      2.00000
     36      -5.0891      2.00000
     37      -4.9902      2.00000
     38      -4.8871      2.00000
     39      -4.3056      2.00000
     40      -4.0960      2.00000
     41      -2.9212      1.99361
     42      -2.4281      0.00002
     43      -2.3423      0.00000
     44      -1.7146      0.00000
     45      -1.5207      0.00000
     46      -1.4139      0.00000
     47      -0.3936      0.00000
     48       0.0688      0.00000
     49       0.3342      0.00000
     50       0.5432      0.00000
     51       0.5628      0.00000
     52       0.5662      0.00000
     53       1.2230      0.00000
     54       1.7576      0.00000
     55       1.8595      0.00000
     56       2.0766      0.00000
     57       2.2711      0.00000
     58       2.3294      0.00000
     59       2.4116      0.00000
     60       2.7546      0.00000
     61       2.8900      0.00000
     62       2.9243      0.00000
     63       3.2955      0.00000
     64       3.4242      0.00000
     65       3.4843      0.00000
     66       3.5463      0.00000
     67       3.7872      0.00000
     68       3.9514      0.00000
     69       3.9837      0.00000
     70       4.1109      0.00000
     71       4.1694      0.00000
     72       4.2743      0.00000
     73       4.3937      0.00000
     74       4.4505      0.00000
     75       4.5057      0.00000
     76       4.5272      0.00000
     77       4.5909      0.00000
     78       4.8609      0.00000
     79       4.9115      0.00000
     80       4.9434      0.00000
     81       5.0488      0.00000
     82       5.2101      0.00000
     83       5.2667      0.00000
     84       5.3943      0.00000

 k-point    52 :       0.0750    0.3056    0.0000
  band No.  band energies     occupation 
      1     -17.8530      2.00000
      2     -17.7163      2.00000
      3     -16.9211      2.00000
      4     -16.7899      2.00000
      5     -13.8320      2.00000
      6     -13.7277      2.00000
      7     -13.3658      2.00000
      8     -13.2486      2.00000
      9     -11.7941      2.00000
     10     -11.6324      2.00000
     11     -11.2743      2.00000
     12     -10.7982      2.00000
     13     -10.5949      2.00000
     14     -10.4697      2.00000
     15      -9.8214      2.00000
     16      -9.1197      2.00000
     17      -8.9633      2.00000
     18      -8.7087      2.00000
     19      -8.6192      2.00000
     20      -8.4996      2.00000
     21      -7.7979      2.00000
     22      -7.6258      2.00000
     23      -6.9407      2.00000
     24      -6.6574      2.00000
     25      -6.6374      2.00000
     26      -6.5821      2.00000
     27      -6.4514      2.00000
     28      -6.2766      2.00000
     29      -6.1950      2.00000
     30      -5.8649      2.00000
     31      -5.7934      2.00000
     32      -5.5132      2.00000
     33      -5.4970      2.00000
     34      -5.4071      2.00000
     35      -5.1557      2.00000
     36      -4.9951      2.00000
     37      -4.9738      2.00000
     38      -4.8764      2.00000
     39      -4.4076      2.00000
     40      -3.9568      2.00000
     41      -2.9166      1.99223
     42      -2.4324      0.00003
     43      -2.3408      0.00000
     44      -1.7247      0.00000
     45      -1.6806      0.00000
     46      -1.5748      0.00000
     47      -0.3557      0.00000
     48       0.1425      0.00000
     49       0.3736      0.00000
     50       0.5462      0.00000
     51       0.6432      0.00000
     52       0.6742      0.00000
     53       1.2028      0.00000
     54       1.8329      0.00000
     55       1.8640      0.00000
     56       2.1069      0.00000
     57       2.2538      0.00000
     58       2.2889      0.00000
     59       2.4437      0.00000
     60       2.7566      0.00000
     61       2.9274      0.00000
     62       2.9919      0.00000
     63       3.2977      0.00000
     64       3.3943      0.00000
     65       3.4315      0.00000
     66       3.5824      0.00000
     67       3.8139      0.00000
     68       3.9434      0.00000
     69       3.9642      0.00000
     70       4.0557      0.00000
     71       4.1074      0.00000
     72       4.2498      0.00000
     73       4.3521      0.00000
     74       4.4214      0.00000
     75       4.4688      0.00000
     76       4.5230      0.00000
     77       4.5419      0.00000
     78       4.8369      0.00000
     79       5.0084      0.00000
     80       5.0738      0.00000
     81       5.2063      0.00000
     82       5.2125      0.00000
     83       5.2906      0.00000
     84       5.4489      0.00000

 k-point    53 :       0.1250    0.3056    0.0000
  band No.  band energies     occupation 
      1     -17.8327      2.00000
      2     -17.6962      2.00000
      3     -16.9464      2.00000
      4     -16.8153      2.00000
      5     -13.8685      2.00000
      6     -13.7595      2.00000
      7     -13.3746      2.00000
      8     -13.2595      2.00000
      9     -11.7281      2.00000
     10     -11.5628      2.00000
     11     -11.2531      2.00000
     12     -10.7410      2.00000
     13     -10.5446      2.00000
     14     -10.4852      2.00000
     15      -9.7944      2.00000
     16      -9.2685      2.00000
     17      -9.1149      2.00000
     18      -8.7294      2.00000
     19      -8.5303      2.00000
     20      -8.4085      2.00000
     21      -7.7078      2.00000
     22      -7.5367      2.00000
     23      -6.9680      2.00000
     24      -6.7710      2.00000
     25      -6.7018      2.00000
     26      -6.6868      2.00000
     27      -6.4293      2.00000
     28      -6.2196      2.00000
     29      -6.1392      2.00000
     30      -5.9024      2.00000
     31      -5.8715      2.00000
     32      -5.5182      2.00000
     33      -5.5052      2.00000
     34      -5.4471      2.00000
     35      -5.1774      2.00000
     36      -4.9883      2.00000
     37      -4.8495      2.00000
     38      -4.8492      2.00000
     39      -4.4616      2.00000
     40      -3.8105      2.00000
     41      -2.9075      1.98871
     42      -2.4414      0.00005
     43      -2.3380      0.00000
     44      -1.9566      0.00000
     45      -1.8473      0.00000
     46      -1.7361      0.00000
     47      -0.2763      0.00000
     48       0.2483      0.00000
     49       0.4524      0.00000
     50       0.5475      0.00000
     51       0.7890      0.00000
     52       0.8482      0.00000
     53       1.1785      0.00000
     54       1.8386      0.00000
     55       1.9702      0.00000
     56       2.1610      0.00000
     57       2.2184      0.00000
     58       2.2719      0.00000
     59       2.5030      0.00000
     60       2.7677      0.00000
     61       2.9922      0.00000
     62       3.0556      0.00000
     63       3.2744      0.00000
     64       3.3100      0.00000
     65       3.4514      0.00000
     66       3.6253      0.00000
     67       3.8473      0.00000
     68       3.8935      0.00000
     69       3.9329      0.00000
     70       3.9343      0.00000
     71       4.1181      0.00000
     72       4.1345      0.00000
     73       4.2038      0.00000
     74       4.4712      0.00000
     75       4.5382      0.00000
     76       4.5418      0.00000
     77       4.5674      0.00000
     78       4.7890      0.00000
     79       5.0726      0.00000
     80       5.1774      0.00000
     81       5.2320      0.00000
     82       5.2596      0.00000
     83       5.3860      0.00000
     84       5.4809      0.00000

 k-point    54 :       0.1750    0.3056    0.0000
  band No.  band energies     occupation 
      1     -17.8026      2.00000
      2     -17.6665      2.00000
      3     -16.9836      2.00000
      4     -16.8527      2.00000
      5     -13.9064      2.00000
      6     -13.7926      2.00000
      7     -13.4001      2.00000
      8     -13.2857      2.00000
      9     -11.6322      2.00000
     10     -11.4627      2.00000
     11     -11.2220      2.00000
     12     -10.6541      2.00000
     13     -10.5087      2.00000
     14     -10.4660      2.00000
     15      -9.7546      2.00000
     16      -9.4422      2.00000
     17      -9.2910      2.00000
     18      -8.7626      2.00000
     19      -8.4138      2.00000
     20      -8.2897      2.00000
     21      -7.6586      2.00000
     22      -7.4976      2.00000
     23      -7.0113      2.00000
     24      -6.8677      2.00000
     25      -6.7663      2.00000
     26      -6.7539      2.00000
     27      -6.4193      2.00000
     28      -6.1452      2.00000
     29      -6.0592      2.00000
     30      -5.9984      2.00000
     31      -5.9217      2.00000
     32      -5.5688      2.00000
     33      -5.5471      2.00000
     34      -5.4093      2.00000
     35      -5.2497      2.00000
     36      -4.9704      2.00000
     37      -4.8144      2.00000
     38      -4.7363      2.00000
     39      -4.4343      2.00000
     40      -3.6790      2.00000
     41      -2.8945      1.98118
     42      -2.4555      0.00011
     43      -2.3554      0.00000
     44      -2.2651      0.00000
     45      -2.1813      0.00000
     46      -1.7596      0.00000
     47      -0.1550      0.00000
     48       0.3602      0.00000
     49       0.5608      0.00000
     50       0.5701      0.00000
     51       0.9650      0.00000
     52       1.0227      0.00000
     53       1.1861      0.00000
     54       1.7583      0.00000
     55       2.1431      0.00000
     56       2.1822      0.00000
     57       2.2331      0.00000
     58       2.3098      0.00000
     59       2.5614      0.00000
     60       2.7653      0.00000
     61       3.0651      0.00000
     62       3.0868      0.00000
     63       3.2124      0.00000
     64       3.2922      0.00000
     65       3.4495      0.00000
     66       3.6775      0.00000
     67       3.7923      0.00000
     68       3.8369      0.00000
     69       3.9088      0.00000
     70       3.9275      0.00000
     71       3.9533      0.00000
     72       4.1247      0.00000
     73       4.1973      0.00000
     74       4.4637      0.00000
     75       4.6154      0.00000
     76       4.6349      0.00000
     77       4.6373      0.00000
     78       4.7112      0.00000
     79       5.0915      0.00000
     80       5.1638      0.00000
     81       5.1826      0.00000
     82       5.3093      0.00000
     83       5.3220      0.00000
     84       5.3965      0.00000

 k-point    55 :       0.2250    0.3056    0.0000
  band No.  band energies     occupation 
      1     -17.7632      2.00000
      2     -17.6275      2.00000
      3     -17.0318      2.00000
      4     -16.9010      2.00000
      5     -13.9365      2.00000
      6     -13.8186      2.00000
      7     -13.4444      2.00000
      8     -13.3292      2.00000
      9     -11.5125      2.00000
     10     -11.3386      2.00000
     11     -11.1815      2.00000
     12     -10.5476      2.00000
     13     -10.5302      2.00000
     14     -10.3569      2.00000
     15      -9.7029      2.00000
     16      -9.6228      2.00000
     17      -9.4751      2.00000
     18      -8.8089      2.00000
     19      -8.2821      2.00000
     20      -8.1552      2.00000
     21      -7.7112      2.00000
     22      -7.5719      2.00000
     23      -7.0613      2.00000
     24      -6.9055      2.00000
     25      -6.7814      2.00000
     26      -6.7635      2.00000
     27      -6.4207      2.00000
     28      -6.0996      2.00000
     29      -6.0812      2.00000
     30      -5.9487      2.00000
     31      -5.9435      2.00000
     32      -5.6385      2.00000
     33      -5.6144      2.00000
     34      -5.3612      2.00000
     35      -5.3165      2.00000
     36      -4.9501      2.00000
     37      -4.7867      2.00000
     38      -4.6462      2.00000
     39      -4.3419      2.00000
     40      -3.5734      2.00000
     41      -2.8799      1.96781
     42      -2.6674      0.38815
     43      -2.5463      0.01000
     44      -2.4707      0.00027
     45      -2.3031      0.00000
     46      -1.7906      0.00000
     47       0.0064      0.00000
     48       0.4694      0.00000
     49       0.5948      0.00000
     50       0.7255      0.00000
     51       1.1052      0.00000
     52       1.1394      0.00000
     53       1.3085      0.00000
     54       1.6468      0.00000
     55       2.1451      0.00000
     56       2.2943      0.00000
     57       2.3415      0.00000
     58       2.3870      0.00000
     59       2.5241      0.00000
     60       2.8069      0.00000
     61       3.0599      0.00000
     62       3.1511      0.00000
     63       3.1859      0.00000
     64       3.3013      0.00000
     65       3.3927      0.00000
     66       3.6661      0.00000
     67       3.7358      0.00000
     68       3.7923      0.00000
     69       3.8105      0.00000
     70       3.9721      0.00000
     71       4.0091      0.00000
     72       4.1142      0.00000
     73       4.2579      0.00000
     74       4.3305      0.00000
     75       4.5844      0.00000
     76       4.6597      0.00000
     77       4.7037      0.00000
     78       4.8451      0.00000
     79       5.0000      0.00000
     80       5.0772      0.00000
     81       5.1327      0.00000
     82       5.1481      0.00000
     83       5.1737      0.00000
     84       5.3771      0.00000

 k-point    56 :       0.2750    0.3056    0.0000
  band No.  band energies     occupation 
      1     -17.7150      2.00000
      2     -17.5799      2.00000
      3     -17.0896      2.00000
      4     -16.9587      2.00000
      5     -13.9533      2.00000
      6     -13.8321      2.00000
      7     -13.5047      2.00000
      8     -13.3877      2.00000
      9     -11.3765      2.00000
     10     -11.1984      2.00000
     11     -11.1327      2.00000
     12     -10.5816      2.00000
     13     -10.3955      2.00000
     14     -10.2184      2.00000
     15      -9.7947      2.00000
     16      -9.6663      2.00000
     17      -9.6290      2.00000
     18      -8.8682      2.00000
     19      -8.1812      2.00000
     20      -8.0518      2.00000
     21      -7.8272      2.00000
     22      -7.7051      2.00000
     23      -7.1028      2.00000
     24      -6.9274      2.00000
     25      -6.7666      2.00000
     26      -6.7118      2.00000
     27      -6.4334      2.00000
     28      -6.1507      2.00000
     29      -6.1356      2.00000
     30      -5.8422      2.00000
     31      -5.8290      2.00000
     32      -5.6934      2.00000
     33      -5.6656      2.00000
     34      -5.4844      2.00000
     35      -5.2014      2.00000
     36      -4.9398      2.00000
     37      -4.7741      2.00000
     38      -4.5859      2.00000
     39      -4.2166      2.00000
     40      -3.5023      2.00000
     41      -3.0422      1.99999
     42      -2.9593      1.99891
     43      -2.8164      1.78666
     44      -2.4969      0.00106
     45      -2.2816      0.00000
     46      -1.8291      0.00000
     47       0.2028      0.00000
     48       0.5720      0.00000
     49       0.6545      0.00000
     50       0.9140      0.00000
     51       1.1529      0.00000
     52       1.2838      0.00000
     53       1.4888      0.00000
     54       1.5417      0.00000
     55       2.1019      0.00000
     56       2.3642      0.00000
     57       2.3839      0.00000
     58       2.4814      0.00000
     59       2.5214      0.00000
     60       2.9203      0.00000
     61       2.9329      0.00000
     62       3.2210      0.00000
     63       3.2238      0.00000
     64       3.2956      0.00000
     65       3.3087      0.00000
     66       3.5895      0.00000
     67       3.7318      0.00000
     68       3.7552      0.00000
     69       3.8032      0.00000
     70       3.9853      0.00000
     71       4.0708      0.00000
     72       4.1645      0.00000
     73       4.1732      0.00000
     74       4.2922      0.00000
     75       4.4927      0.00000
     76       4.5715      0.00000
     77       4.7251      0.00000
     78       4.9123      0.00000
     79       4.9144      0.00000
     80       4.9587      0.00000
     81       5.0012      0.00000
     82       5.1431      0.00000
     83       5.1483      0.00000
     84       5.2045      0.00000

 k-point    57 :       0.3250    0.3056    0.0000
  band No.  band energies     occupation 
      1     -17.6589      2.00000
      2     -17.5243      2.00000
      3     -17.1552      2.00000
      4     -17.0242      2.00000
      5     -13.9539      2.00000
      6     -13.8303      2.00000
      7     -13.5756      2.00000
      8     -13.4564      2.00000
      9     -11.2314      2.00000
     10     -11.0765      2.00000
     11     -11.0494      2.00000
     12     -10.6292      2.00000
     13     -10.2702      2.00000
     14     -10.0763      2.00000
     15      -9.9143      2.00000
     16      -9.8043      2.00000
     17      -9.5634      2.00000
     18      -8.9396      2.00000
     19      -8.2707      2.00000
     20      -8.1489      2.00000
     21      -7.8055      2.00000
     22      -7.6827      2.00000
     23      -7.1314      2.00000
     24      -6.9688      2.00000
     25      -6.7511      2.00000
     26      -6.6885      2.00000
     27      -6.4471      2.00000
     28      -6.2185      2.00000
     29      -6.1642      2.00000
     30      -5.7628      2.00000
     31      -5.7200      2.00000
     32      -5.6715      2.00000
     33      -5.6401      2.00000
     34      -5.5629      2.00000
     35      -5.0798      2.00000
     36      -4.9438      2.00000
     37      -4.7775      2.00000
     38      -4.5589      2.00000
     39      -4.0797      2.00000
     40      -3.4730      2.00000
     41      -3.4183      2.00000
     42      -3.3118      2.00000
     43      -2.8043      1.71713
     44      -2.5261      0.00422
     45      -2.2485      0.00000
     46      -1.8743      0.00000
     47       0.4225      0.00000
     48       0.6692      0.00000
     49       0.7395      0.00000
     50       1.1191      0.00000
     51       1.2335      0.00000
     52       1.3220      0.00000
     53       1.5255      0.00000
     54       1.6683      0.00000
     55       2.0430      0.00000
     56       2.2314      0.00000
     57       2.4517      0.00000
     58       2.5625      0.00000
     59       2.6470      0.00000
     60       2.7982      0.00000
     61       3.0563      0.00000
     62       3.1604      0.00000
     63       3.1652      0.00000
     64       3.2372      0.00000
     65       3.3231      0.00000
     66       3.6197      0.00000
     67       3.6641      0.00000
     68       3.7545      0.00000
     69       3.8240      0.00000
     70       3.9558      0.00000
     71       3.9681      0.00000
     72       4.1558      0.00000
     73       4.1767      0.00000
     74       4.2015      0.00000
     75       4.5367      0.00000
     76       4.5480      0.00000
     77       4.6529      0.00000
     78       4.6676      0.00000
     79       4.8446      0.00000
     80       5.0306      0.00000
     81       5.0773      0.00000
     82       5.0901      0.00000
     83       5.1461      0.00000
     84       5.1489      0.00000

 k-point    58 :       0.3750    0.3056    0.0000
  band No.  band energies     occupation 
      1     -17.5958      2.00000
      2     -17.4619      2.00000
      3     -17.2266      2.00000
      4     -17.0954      2.00000
      5     -13.9373      2.00000
      6     -13.8122      2.00000
      7     -13.6513      2.00000
      8     -13.5298      2.00000
      9     -11.0833      2.00000
     10     -11.0134      2.00000
     11     -10.8959      2.00000
     12     -10.6832      2.00000
     13     -10.2965      2.00000
     14     -10.1012      2.00000
     15      -9.8451      2.00000
     16      -9.7440      2.00000
     17      -9.4814      2.00000
     18      -9.0212      2.00000
     19      -8.5143      2.00000
     20      -8.3991      2.00000
     21      -7.6546      2.00000
     22      -7.5275      2.00000
     23      -7.1438      2.00000
     24      -7.0217      2.00000
     25      -6.8007      2.00000
     26      -6.7351      2.00000
     27      -6.4401      2.00000
     28      -6.2754      2.00000
     29      -6.1649      2.00000
     30      -5.8134      2.00000
     31      -5.6648      2.00000
     32      -5.6087      2.00000
     33      -5.5141      2.00000
     34      -5.4535      2.00000
     35      -4.9673      2.00000
     36      -4.9416      2.00000
     37      -4.7824      2.00000
     38      -4.5654      2.00000
     39      -3.9442      2.00000
     40      -3.7848      2.00000
     41      -3.6809      2.00000
     42      -3.4728      2.00000
     43      -2.7676      1.42115
     44      -2.5597      0.01707
     45      -2.2055      0.00000
     46      -1.9254      0.00000
     47       0.6384      0.00000
     48       0.7636      0.00000
     49       0.8490      0.00000
     50       1.2459      0.00000
     51       1.2807      0.00000
     52       1.3911      0.00000
     53       1.6116      0.00000
     54       1.8423      0.00000
     55       1.9689      0.00000
     56       2.1312      0.00000
     57       2.4645      0.00000
     58       2.5591      0.00000
     59       2.7324      0.00000
     60       2.7955      0.00000
     61       2.9036      0.00000
     62       3.0294      0.00000
     63       3.2274      0.00000
     64       3.2480      0.00000
     65       3.3408      0.00000
     66       3.5669      0.00000
     67       3.5809      0.00000
     68       3.7286      0.00000
     69       3.7584      0.00000
     70       3.8163      0.00000
     71       4.0725      0.00000
     72       4.1372      0.00000
     73       4.1410      0.00000
     74       4.2518      0.00000
     75       4.3807      0.00000
     76       4.5763      0.00000
     77       4.6856      0.00000
     78       4.6987      0.00000
     79       4.8165      0.00000
     80       4.9509      0.00000
     81       4.9765      0.00000
     82       5.0717      0.00000
     83       5.0852      0.00000
     84       5.2136      0.00000

 k-point    59 :       0.4250    0.3056    0.0000
  band No.  band energies     occupation 
      1     -17.5270      2.00000
      2     -17.3937      2.00000
      3     -17.3016      2.00000
      4     -17.1700      2.00000
      5     -13.9043      2.00000
      6     -13.7785      2.00000
      7     -13.7263      2.00000
      8     -13.6028      2.00000
      9     -10.9602      2.00000
     10     -10.9222      2.00000
     11     -10.7397      2.00000
     12     -10.7392      2.00000
     13     -10.4359      2.00000
     14     -10.2539      2.00000
     15      -9.6292      2.00000
     16      -9.5211      2.00000
     17      -9.3921      2.00000
     18      -9.1105      2.00000
     19      -8.7959      2.00000
     20      -8.6836      2.00000
     21      -7.4792      2.00000
     22      -7.3478      2.00000
     23      -7.1386      2.00000
     24      -7.0808      2.00000
     25      -6.9097      2.00000
     26      -6.8455      2.00000
     27      -6.4160      2.00000
     28      -6.3205      2.00000
     29      -6.1370      2.00000
     30      -5.9123      2.00000
     31      -5.5751      2.00000
     32      -5.5157      2.00000
     33      -5.3966      2.00000
     34      -5.3435      2.00000
     35      -4.9090      2.00000
     36      -4.8380      2.00000
     37      -4.7406      2.00000
     38      -4.6032      2.00000
     39      -4.1321      2.00000
     40      -4.0289      2.00000
     41      -3.8076      2.00000
     42      -3.5187      2.00000
     43      -2.7253      0.96559
     44      -2.5973      0.06385
     45      -2.1544      0.00000
     46      -1.9810      0.00000
     47       0.8067      0.00000
     48       0.8511      0.00000
     49       0.9713      0.00000
     50       1.1605      0.00000
     51       1.4065      0.00000
     52       1.5558      0.00000
     53       1.7099      0.00000
     54       1.9307      0.00000
     55       2.0129      0.00000
     56       2.0592      0.00000
     57       2.4451      0.00000
     58       2.4927      0.00000
     59       2.5722      0.00000
     60       2.7477      0.00000
     61       2.9223      0.00000
     62       2.9608      0.00000
     63       3.2201      0.00000
     64       3.3194      0.00000
     65       3.3649      0.00000
     66       3.4094      0.00000
     67       3.4788      0.00000
     68       3.5762      0.00000
     69       3.6896      0.00000
     70       3.9282      0.00000
     71       4.0227      0.00000
     72       4.1853      0.00000
     73       4.2457      0.00000
     74       4.3010      0.00000
     75       4.3354      0.00000
     76       4.5107      0.00000
     77       4.6897      0.00000
     78       4.8174      0.00000
     79       4.8283      0.00000
     80       4.8755      0.00000
     81       4.8813      0.00000
     82       5.0266      0.00000
     83       5.0765      0.00000
     84       5.1920      0.00000

 k-point    60 :       0.4750    0.3056    0.0000
  band No.  band energies     occupation 
      1     -17.4538      2.00000
      2     -17.3781      2.00000
      3     -17.3212      2.00000
      4     -17.2460      2.00000
      5     -13.8564      2.00000
      6     -13.7960      2.00000
      7     -13.7306      2.00000
      8     -13.6711      2.00000
      9     -10.8899      2.00000
     10     -10.8380      2.00000
     11     -10.7363      2.00000
     12     -10.5928      2.00000
     13     -10.5806      2.00000
     14     -10.4181      2.00000
     15      -9.3670      2.00000
     16      -9.3016      2.00000
     17      -9.2552      2.00000
     18      -9.2040      2.00000
     19      -9.0849      2.00000
     20      -8.9735      2.00000
     21      -7.3087      2.00000
     22      -7.1736      2.00000
     23      -7.1669      2.00000
     24      -7.0978      2.00000
     25      -7.0278      2.00000
     26      -6.9956      2.00000
     27      -6.3877      2.00000
     28      -6.3567      2.00000
     29      -6.0829      2.00000
     30      -6.0063      2.00000
     31      -5.4730      2.00000
     32      -5.4082      2.00000
     33      -5.3947      2.00000
     34      -5.3330      2.00000
     35      -4.7717      2.00000
     36      -4.7014      2.00000
     37      -4.6684      2.00000
     38      -4.5882      2.00000
     39      -4.4478      2.00000
     40      -4.3362      2.00000
     41      -3.6923      2.00000
     42      -3.5936      2.00000
     43      -2.6814      0.50626
     44      -2.6382      0.20226
     45      -2.0980      0.00000
     46      -2.0393      0.00000
     47       0.9041      0.00000
     48       0.9208      0.00000
     49       1.0416      0.00000
     50       1.0913      0.00000
     51       1.5249      0.00000
     52       1.5992      0.00000
     53       1.8352      0.00000
     54       1.9323      0.00000
     55       2.0470      0.00000
     56       2.1819      0.00000
     57       2.2522      0.00000
     58       2.3420      0.00000
     59       2.5747      0.00000
     60       2.7518      0.00000
     61       2.8545      0.00000
     62       2.9317      0.00000
     63       3.1390      0.00000
     64       3.3220      0.00000
     65       3.4099      0.00000
     66       3.4152      0.00000
     67       3.4710      0.00000
     68       3.5510      0.00000
     69       3.6028      0.00000
     70       3.8138      0.00000
     71       4.0924      0.00000
     72       4.2180      0.00000
     73       4.2941      0.00000
     74       4.3205      0.00000
     75       4.4538      0.00000
     76       4.5445      0.00000
     77       4.5508      0.00000
     78       4.7585      0.00000
     79       4.8760      0.00000
     80       4.8896      0.00000
     81       4.9138      0.00000
     82       4.9146      0.00000
     83       5.1359      0.00000
     84       5.2270      0.00000

 k-point    61 :       0.0250    0.3611    0.0000
  band No.  band energies     occupation 
      1     -17.8454      2.00000
      2     -17.7095      2.00000
      3     -16.9378      2.00000
      4     -16.8048      2.00000
      5     -13.8008      2.00000
      6     -13.7006      2.00000
      7     -13.3061      2.00000
      8     -13.1910      2.00000
      9     -11.9543      2.00000
     10     -11.7921      2.00000
     11     -11.2463      2.00000
     12     -10.9030      2.00000
     13     -10.6942      2.00000
     14     -10.5194      2.00000
     15      -9.7918      2.00000
     16      -8.8839      2.00000
     17      -8.7778      2.00000
     18      -8.7240      2.00000
     19      -8.4354      2.00000
     20      -8.3201      2.00000
     21      -7.6208      2.00000
     22      -7.4369      2.00000
     23      -6.9111      2.00000
     24      -6.6543      2.00000
     25      -6.6255      2.00000
     26      -6.5865      2.00000
     27      -6.5434      2.00000
     28      -6.5338      2.00000
     29      -6.4748      2.00000
     30      -5.8316      2.00000
     31      -5.7768      2.00000
     32      -5.7387      2.00000
     33      -5.6003      2.00000
     34      -5.4315      2.00000
     35      -5.1981      2.00000
     36      -5.1201      2.00000
     37      -4.9728      2.00000
     38      -4.8902      2.00000
     39      -4.4155      2.00000
     40      -4.2260      2.00000
     41      -2.8860      1.97419
     42      -2.4574      0.00013
     43      -2.2853      0.00000
     44      -1.7578      0.00000
     45      -1.3131      0.00000
     46      -1.2180      0.00000
     47      -0.3343      0.00000
     48      -0.0246      0.00000
     49       0.3666      0.00000
     50       0.4597      0.00000
     51       0.5152      0.00000
     52       0.8927      0.00000
     53       1.5708      0.00000
     54       1.7392      0.00000
     55       1.9409      0.00000
     56       2.2115      0.00000
     57       2.2991      0.00000
     58       2.3306      0.00000
     59       2.5665      0.00000
     60       2.8374      0.00000
     61       2.9015      0.00000
     62       3.0215      0.00000
     63       3.1487      0.00000
     64       3.1543      0.00000
     65       3.3233      0.00000
     66       3.5494      0.00000
     67       3.6682      0.00000
     68       3.7812      0.00000
     69       3.8926      0.00000
     70       4.0129      0.00000
     71       4.0548      0.00000
     72       4.2793      0.00000
     73       4.3188      0.00000
     74       4.4175      0.00000
     75       4.5590      0.00000
     76       4.5665      0.00000
     77       4.6342      0.00000
     78       4.7081      0.00000
     79       4.8668      0.00000
     80       4.8966      0.00000
     81       5.0129      0.00000
     82       5.2114      0.00000
     83       5.2299      0.00000
     84       5.4568      0.00000

 k-point    62 :       0.0750    0.3611    0.0000
  band No.  band energies     occupation 
      1     -17.8354      2.00000
      2     -17.6996      2.00000
      3     -16.9493      2.00000
      4     -16.8165      2.00000
      5     -13.8267      2.00000
      6     -13.7232      2.00000
      7     -13.3159      2.00000
      8     -13.2017      2.00000
      9     -11.9053      2.00000
     10     -11.7425      2.00000
     11     -11.2361      2.00000
     12     -10.8737      2.00000
     13     -10.6680      2.00000
     14     -10.5251      2.00000
     15      -9.7786      2.00000
     16      -8.9597      2.00000
     17      -8.8028      2.00000
     18      -8.7841      2.00000
     19      -8.3987      2.00000
     20      -8.2814      2.00000
     21      -7.5979      2.00000
     22      -7.4169      2.00000
     23      -6.9221      2.00000
     24      -6.7233      2.00000
     25      -6.6355      2.00000
     26      -6.6039      2.00000
     27      -6.5929      2.00000
     28      -6.5094      2.00000
     29      -6.4302      2.00000
     30      -5.8318      2.00000
     31      -5.8047      2.00000
     32      -5.7264      2.00000
     33      -5.6265      2.00000
     34      -5.4728      2.00000
     35      -5.1197      2.00000
     36      -5.0792      2.00000
     37      -4.9838      2.00000
     38      -4.8887      2.00000
     39      -4.4841      2.00000
     40      -4.0771      2.00000
     41      -2.8818      1.96993
     42      -2.4609      0.00015
     43      -2.2848      0.00000
     44      -1.7650      0.00000
     45      -1.5285      0.00000
     46      -1.4220      0.00000
     47      -0.2979      0.00000
     48       0.1153      0.00000
     49       0.4054      0.00000
     50       0.5847      0.00000
     51       0.6239      0.00000
     52       0.8726      0.00000
     53       1.5276      0.00000
     54       1.8108      0.00000
     55       1.9138      0.00000
     56       2.2429      0.00000
     57       2.2719      0.00000
     58       2.3409      0.00000
     59       2.5836      0.00000
     60       2.7958      0.00000
     61       2.9661      0.00000
     62       3.0392      0.00000
     63       3.1514      0.00000
     64       3.1605      0.00000
     65       3.3562      0.00000
     66       3.4871      0.00000
     67       3.7160      0.00000
     68       3.8100      0.00000
     69       3.9136      0.00000
     70       4.0132      0.00000
     71       4.0603      0.00000
     72       4.1719      0.00000
     73       4.3421      0.00000
     74       4.3450      0.00000
     75       4.4518      0.00000
     76       4.4784      0.00000
     77       4.5905      0.00000
     78       4.7007      0.00000
     79       4.9292      0.00000
     80       4.9598      0.00000
     81       5.2236      0.00000
     82       5.2611      0.00000
     83       5.2830      0.00000
     84       5.5358      0.00000

 k-point    63 :       0.1250    0.3611    0.0000
  band No.  band energies     occupation 
      1     -17.8156      2.00000
      2     -17.6799      2.00000
      3     -16.9720      2.00000
      4     -16.8395      2.00000
      5     -13.8684      2.00000
      6     -13.7602      2.00000
      7     -13.3411      2.00000
      8     -13.2274      2.00000
      9     -11.8098      2.00000
     10     -11.6464      2.00000
     11     -11.2160      2.00000
     12     -10.8160      2.00000
     13     -10.6158      2.00000
     14     -10.5367      2.00000
     15      -9.7525      2.00000
     16      -9.0891      2.00000
     17      -8.9334      2.00000
     18      -8.8004      2.00000
     19      -8.3317      2.00000
     20      -8.2121      2.00000
     21      -7.5953      2.00000
     22      -7.4254      2.00000
     23      -6.9505      2.00000
     24      -6.7928      2.00000
     25      -6.6800      2.00000
     26      -6.6775      2.00000
     27      -6.5369      2.00000
     28      -6.4442      2.00000
     29      -6.3992      2.00000
     30      -5.8918      2.00000
     31      -5.8834      2.00000
     32      -5.7057      2.00000
     33      -5.6407      2.00000
     34      -5.4377      2.00000
     35      -5.1812      2.00000
     36      -4.9956      2.00000
     37      -4.9380      2.00000
     38      -4.8734      2.00000
     39      -4.4680      2.00000
     40      -3.9146      2.00000
     41      -2.8736      1.95995
     42      -2.4682      0.00023
     43      -2.2841      0.00000
     44      -1.8602      0.00000
     45      -1.7782      0.00000
     46      -1.7457      0.00000
     47      -0.2192      0.00000
     48       0.2836      0.00000
     49       0.4828      0.00000
     50       0.7179      0.00000
     51       0.8471      0.00000
     52       0.8667      0.00000
     53       1.4628      0.00000
     54       1.8466      0.00000
     55       1.9425      0.00000
     56       2.2417      0.00000
     57       2.2956      0.00000
     58       2.3689      0.00000
     59       2.5685      0.00000
     60       2.7800      0.00000
     61       3.0303      0.00000
     62       3.0417      0.00000
     63       3.1747      0.00000
     64       3.2175      0.00000
     65       3.3956      0.00000
     66       3.4042      0.00000
     67       3.8163      0.00000
     68       3.8563      0.00000
     69       3.9063      0.00000
     70       3.9941      0.00000
     71       4.0332      0.00000
     72       4.0573      0.00000
     73       4.0969      0.00000
     74       4.3847      0.00000
     75       4.4355      0.00000
     76       4.4846      0.00000
     77       4.6579      0.00000
     78       4.6861      0.00000
     79       5.0148      0.00000
     80       5.0183      0.00000
     81       5.2163      0.00000
     82       5.2889      0.00000
     83       5.4286      0.00000
     84       5.5285      0.00000

 k-point    64 :       0.1750    0.3611    0.0000
  band No.  band energies     occupation 
      1     -17.7861      2.00000
      2     -17.6508      2.00000
      3     -17.0058      2.00000
      4     -16.8736      2.00000
      5     -13.9134      2.00000
      6     -13.8001      2.00000
      7     -13.3858      2.00000
      8     -13.2711      2.00000
      9     -11.6744      2.00000
     10     -11.5100      2.00000
     11     -11.1865      2.00000
     12     -10.7308      2.00000
     13     -10.5546      2.00000
     14     -10.5377      2.00000
     15      -9.7139      2.00000
     16      -9.2490      2.00000
     17      -9.0952      2.00000
     18      -8.8254      2.00000
     19      -8.2435      2.00000
     20      -8.1214      2.00000
     21      -7.6651      2.00000
     22      -7.5150      2.00000
     23      -6.9978      2.00000
     24      -6.8316      2.00000
     25      -6.7232      2.00000
     26      -6.6713      2.00000
     27      -6.4672      2.00000
     28      -6.3675      2.00000
     29      -6.3462      2.00000
     30      -5.9863      2.00000
     31      -5.9828      2.00000
     32      -5.7026      2.00000
     33      -5.6601      2.00000
     34      -5.3388      2.00000
     35      -5.3005      2.00000
     36      -4.9916      2.00000
     37      -4.8485      2.00000
     38      -4.8047      2.00000
     39      -4.3701      2.00000
     40      -3.7605      2.00000
     41      -2.8620      1.94123
     42      -2.4805      0.00046
     43      -2.3008      0.00000
     44      -2.2208      0.00000
     45      -2.1233      0.00000
     46      -1.8006      0.00000
     47      -0.0996      0.00000
     48       0.4268      0.00000
     49       0.5977      0.00000
     50       0.7964      0.00000
     51       0.9238      0.00000
     52       1.1179      0.00000
     53       1.4062      0.00000
     54       1.7503      0.00000
     55       2.1108      0.00000
     56       2.2080      0.00000
     57       2.3614      0.00000
     58       2.3888      0.00000
     59       2.5059      0.00000
     60       2.8445      0.00000
     61       2.9522      0.00000
     62       3.1451      0.00000
     63       3.2193      0.00000
     64       3.2866      0.00000
     65       3.3271      0.00000
     66       3.4624      0.00000
     67       3.7990      0.00000
     68       3.8648      0.00000
     69       3.9000      0.00000
     70       3.9254      0.00000
     71       3.9545      0.00000
     72       4.0341      0.00000
     73       4.0574      0.00000
     74       4.3634      0.00000
     75       4.4659      0.00000
     76       4.6130      0.00000
     77       4.6683      0.00000
     78       4.7354      0.00000
     79       5.0647      0.00000
     80       5.0919      0.00000
     81       5.1421      0.00000
     82       5.2195      0.00000
     83       5.3371      0.00000
     84       5.4158      0.00000

 k-point    65 :       0.2250    0.3611    0.0000
  band No.  band energies     occupation 
      1     -17.7476      2.00000
      2     -17.6127      2.00000
      3     -17.0498      2.00000
      4     -16.9179      2.00000
      5     -13.9516      2.00000
      6     -13.8337      2.00000
      7     -13.4484      2.00000
      8     -13.3317      2.00000
      9     -11.5091      2.00000
     10     -11.3430      2.00000
     11     -11.1482      2.00000
     12     -10.6197      2.00000
     13     -10.5780      2.00000
     14     -10.4331      2.00000
     15      -9.6637      2.00000
     16      -9.4237      2.00000
     17      -9.2719      2.00000
     18      -8.8609      2.00000
     19      -8.1585      2.00000
     20      -8.0321      2.00000
     21      -7.7992      2.00000
     22      -7.6684      2.00000
     23      -7.0513      2.00000
     24      -6.8811      2.00000
     25      -6.7041      2.00000
     26      -6.6251      2.00000
     27      -6.4358      2.00000
     28      -6.2926      2.00000
     29      -6.2155      2.00000
     30      -6.0753      2.00000
     31      -6.0683      2.00000
     32      -5.7135      2.00000
     33      -5.6867      2.00000
     34      -5.4406      2.00000
     35      -5.2127      2.00000
     36      -4.9740      2.00000
     37      -4.8185      2.00000
     38      -4.6887      2.00000
     39      -4.2320      2.00000
     40      -3.6258      2.00000
     41      -2.8495      1.91318
     42      -2.6523      0.28214
     43      -2.5421      0.00841
     44      -2.4764      0.00037
     45      -2.2642      0.00000
     46      -1.8299      0.00000
     47       0.0573      0.00000
     48       0.5440      0.00000
     49       0.7470      0.00000
     50       0.7911      0.00000
     51       1.0987      0.00000
     52       1.2804      0.00000
     53       1.4430      0.00000
     54       1.6519      0.00000
     55       2.1531      0.00000
     56       2.2769      0.00000
     57       2.3059      0.00000
     58       2.4383      0.00000
     59       2.5569      0.00000
     60       2.8246      0.00000
     61       2.9487      0.00000
     62       3.2198      0.00000
     63       3.2693      0.00000
     64       3.3201      0.00000
     65       3.3239      0.00000
     66       3.5336      0.00000
     67       3.7120      0.00000
     68       3.7135      0.00000
     69       3.7936      0.00000
     70       3.9757      0.00000
     71       3.9953      0.00000
     72       4.0854      0.00000
     73       4.1897      0.00000
     74       4.2610      0.00000
     75       4.5280      0.00000
     76       4.5534      0.00000
     77       4.7645      0.00000
     78       4.8530      0.00000
     79       4.9636      0.00000
     80       5.0871      0.00000
     81       5.1280      0.00000
     82       5.1657      0.00000
     83       5.1989      0.00000
     84       5.2038      0.00000

 k-point    66 :       0.2750    0.3611    0.0000
  band No.  band energies     occupation 
      1     -17.7006      2.00000
      2     -17.5661      2.00000
      3     -17.1030      2.00000
      4     -16.9714      2.00000
      5     -13.9764      2.00000
      6     -13.8548      2.00000
      7     -13.5240      2.00000
      8     -13.4047      2.00000
      9     -11.3257      2.00000
     10     -11.1564      2.00000
     11     -11.1022      2.00000
     12     -10.6121      2.00000
     13     -10.4780      2.00000
     14     -10.3004      2.00000
     15      -9.6035      2.00000
     16      -9.6020      2.00000
     17      -9.4532      2.00000
     18      -8.9077      2.00000
     19      -8.1946      2.00000
     20      -8.0643      2.00000
     21      -7.8562      2.00000
     22      -7.7384      2.00000
     23      -7.1029      2.00000
     24      -6.9413      2.00000
     25      -6.6723      2.00000
     26      -6.5980      2.00000
     27      -6.4458      2.00000
     28      -6.2394      2.00000
     29      -6.1489      2.00000
     30      -6.0527      2.00000
     31      -6.0526      2.00000
     32      -5.7067      2.00000
     33      -5.7051      2.00000
     34      -5.5670      2.00000
     35      -5.0791      2.00000
     36      -4.9541      2.00000
     37      -4.7920      2.00000
     38      -4.5981      2.00000
     39      -4.0811      2.00000
     40      -3.5201      2.00000
     41      -3.0596      2.00000
     42      -2.9571      1.99878
     43      -2.8059      1.72681
     44      -2.5126      0.00228
     45      -2.2515      0.00000
     46      -1.8665      0.00000
     47       0.2445      0.00000
     48       0.6411      0.00000
     49       0.8054      0.00000
     50       0.9222      0.00000
     51       1.2270      0.00000
     52       1.2971      0.00000
     53       1.5885      0.00000
     54       1.6325      0.00000
     55       2.0477      0.00000
     56       2.2420      0.00000
     57       2.3837      0.00000
     58       2.5241      0.00000
     59       2.6605      0.00000
     60       2.6990      0.00000
     61       3.0695      0.00000
     62       3.1670      0.00000
     63       3.2813      0.00000
     64       3.3269      0.00000
     65       3.3962      0.00000
     66       3.6063      0.00000
     67       3.6573      0.00000
     68       3.6641      0.00000
     69       3.7435      0.00000
     70       3.9936      0.00000
     71       3.9964      0.00000
     72       4.1185      0.00000
     73       4.2093      0.00000
     74       4.2996      0.00000
     75       4.4150      0.00000
     76       4.5875      0.00000
     77       4.6110      0.00000
     78       4.8863      0.00000
     79       4.9793      0.00000
     80       5.0031      0.00000
     81       5.0324      0.00000
     82       5.0831      0.00000
     83       5.1459      0.00000
     84       5.2110      0.00000

 k-point    67 :       0.3250    0.3611    0.0000
  band No.  band energies     occupation 
      1     -17.6459      2.00000
      2     -17.5120      2.00000
      3     -17.1640      2.00000
      4     -17.0326      2.00000
      5     -13.9844      2.00000
      6     -13.8599      2.00000
      7     -13.6065      2.00000
      8     -13.4846      2.00000
      9     -11.1363      2.00000
     10     -11.0489      2.00000
     11     -10.9615      2.00000
     12     -10.6502      2.00000
     13     -10.3173      2.00000
     14     -10.1401      2.00000
     15      -9.7717      2.00000
     16      -9.6360      2.00000
     17      -9.5296      2.00000
     18      -8.9661      2.00000
     19      -8.4115      2.00000
     20      -8.2866      2.00000
     21      -7.7545      2.00000
     22      -7.6367      2.00000
     23      -7.1449      2.00000
     24      -7.0034      2.00000
     25      -6.6968      2.00000
     26      -6.6305      2.00000
     27      -6.4534      2.00000
     28      -6.2757      2.00000
     29      -6.1955      2.00000
     30      -5.8909      2.00000
     31      -5.8622      2.00000
     32      -5.7732      2.00000
     33      -5.6577      2.00000
     34      -5.5862      2.00000
     35      -4.9499      2.00000
     36      -4.9413      2.00000
     37      -4.7771      2.00000
     38      -4.5385      2.00000
     39      -3.9317      2.00000
     40      -3.4637      2.00000
     41      -3.4581      2.00000
     42      -3.3377      2.00000
     43      -2.7917      1.62959
     44      -2.5396      0.00760
     45      -2.2298      0.00000
     46      -1.9094      0.00000
     47       0.4465      0.00000
     48       0.7222      0.00000
     49       0.8496      0.00000
     50       1.0994      0.00000
     51       1.2508      0.00000
     52       1.3348      0.00000
     53       1.6068      0.00000
     54       1.8225      0.00000
     55       1.9334      0.00000
     56       2.2054      0.00000
     57       2.3816      0.00000
     58       2.5848      0.00000
     59       2.6480      0.00000
     60       2.7855      0.00000
     61       3.0917      0.00000
     62       3.1917      0.00000
     63       3.2522      0.00000
     64       3.2841      0.00000
     65       3.3394      0.00000
     66       3.5696      0.00000
     67       3.7030      0.00000
     68       3.7161      0.00000
     69       3.7728      0.00000
     70       3.9855      0.00000
     71       4.0162      0.00000
     72       4.0931      0.00000
     73       4.1313      0.00000
     74       4.2572      0.00000
     75       4.3423      0.00000
     76       4.5740      0.00000
     77       4.6415      0.00000
     78       4.7527      0.00000
     79       4.7879      0.00000
     80       4.9540      0.00000
     81       5.0172      0.00000
     82       5.0928      0.00000
     83       5.1512      0.00000
     84       5.2532      0.00000

 k-point    68 :       0.3750    0.3611    0.0000
  band No.  band energies     occupation 
      1     -17.5846      2.00000
      2     -17.4512      2.00000
      3     -17.2310      2.00000
      4     -17.0996      2.00000
      5     -13.9741      2.00000
      6     -13.8476      2.00000
      7     -13.6901      2.00000
      8     -13.5657      2.00000
      9     -10.9975      2.00000
     10     -10.9436      2.00000
     11     -10.7670      2.00000
     12     -10.6928      2.00000
     13     -10.1822      2.00000
     14      -9.9813      2.00000
     15      -9.8820      2.00000
     16      -9.7777      2.00000
     17      -9.4529      2.00000
     18      -9.0352      2.00000
     19      -8.6833      2.00000
     20      -8.5622      2.00000
     21      -7.6083      2.00000
     22      -7.4897      2.00000
     23      -7.1707      2.00000
     24      -7.0649      2.00000
     25      -6.7933      2.00000
     26      -6.7234      2.00000
     27      -6.4410      2.00000
     28      -6.3184      2.00000
     29      -6.2120      2.00000
     30      -5.8890      2.00000
     31      -5.6816      2.00000
     32      -5.6544      2.00000
     33      -5.5705      2.00000
     34      -5.5023      2.00000
     35      -4.9438      2.00000
     36      -4.8245      2.00000
     37      -4.7718      2.00000
     38      -4.5130      2.00000
     39      -3.8552      2.00000
     40      -3.8074      2.00000
     41      -3.7221      2.00000
     42      -3.4123      2.00000
     43      -2.7613      1.35830
     44      -2.5709      0.02595
     45      -2.1988      0.00000
     46      -1.9575      0.00000
     47       0.6321      0.00000
     48       0.7948      0.00000
     49       0.9207      0.00000
     50       1.2014      0.00000
     51       1.2332      0.00000
     52       1.4320      0.00000
     53       1.6708      0.00000
     54       1.8769      0.00000
     55       1.9935      0.00000
     56       2.1655      0.00000
     57       2.3281      0.00000
     58       2.6038      0.00000
     59       2.6510      0.00000
     60       2.9231      0.00000
     61       2.9835      0.00000
     62       3.0141      0.00000
     63       3.2496      0.00000
     64       3.2912      0.00000
     65       3.3795      0.00000
     66       3.4943      0.00000
     67       3.6454      0.00000
     68       3.7020      0.00000
     69       3.8323      0.00000
     70       3.9218      0.00000
     71       4.0391      0.00000
     72       4.0552      0.00000
     73       4.1537      0.00000
     74       4.3102      0.00000
     75       4.4064      0.00000
     76       4.5255      0.00000
     77       4.5287      0.00000
     78       4.6730      0.00000
     79       4.7964      0.00000
     80       4.8644      0.00000
     81       4.9850      0.00000
     82       5.0275      0.00000
     83       5.1415      0.00000
     84       5.1748      0.00000

 k-point    69 :       0.4250    0.3611    0.0000
  band No.  band energies     occupation 
      1     -17.5180      2.00000
      2     -17.3851      2.00000
      3     -17.3020      2.00000
      4     -17.1704      2.00000
      5     -13.9458      2.00000
      6     -13.8182      2.00000
      7     -13.7697      2.00000
      8     -13.6435      2.00000
      9     -10.9357      2.00000
     10     -10.7968      2.00000
     11     -10.7081      2.00000
     12     -10.5775      2.00000
     13     -10.2370      2.00000
     14     -10.0460      2.00000
     15      -9.7698      2.00000
     16      -9.6630      2.00000
     17      -9.3695      2.00000
     18      -9.1130      2.00000
     19      -8.9699      2.00000
     20      -8.8509      2.00000
     21      -7.4513      2.00000
     22      -7.3306      2.00000
     23      -7.1758      2.00000
     24      -7.1235      2.00000
     25      -6.9279      2.00000
     26      -6.8553      2.00000
     27      -6.4220      2.00000
     28      -6.3527      2.00000
     29      -6.1984      2.00000
     30      -5.9977      2.00000
     31      -5.4758      2.00000
     32      -5.4679      2.00000
     33      -5.4605      2.00000
     34      -5.3948      2.00000
     35      -4.9294      2.00000
     36      -4.7513      2.00000
     37      -4.7150      2.00000
     38      -4.5226      2.00000
     39      -4.2236      2.00000
     40      -4.1046      2.00000
     41      -3.6579      2.00000
     42      -3.4245      2.00000
     43      -2.7247      0.95812
     44      -2.6063      0.08417
     45      -2.1592      0.00000
     46      -2.0090      0.00000
     47       0.7681      0.00000
     48       0.8595      0.00000
     49       0.9894      0.00000
     50       1.1388      0.00000
     51       1.3304      0.00000
     52       1.5146      0.00000
     53       1.7579      0.00000
     54       1.9136      0.00000
     55       2.1114      0.00000
     56       2.1502      0.00000
     57       2.3614      0.00000
     58       2.5547      0.00000
     59       2.6520      0.00000
     60       2.6765      0.00000
     61       2.8687      0.00000
     62       3.0892      0.00000
     63       3.2642      0.00000
     64       3.2783      0.00000
     65       3.3823      0.00000
     66       3.4175      0.00000
     67       3.5477      0.00000
     68       3.6005      0.00000
     69       3.7970      0.00000
     70       4.0300      0.00000
     71       4.0652      0.00000
     72       4.1123      0.00000
     73       4.2573      0.00000
     74       4.2754      0.00000
     75       4.4310      0.00000
     76       4.4946      0.00000
     77       4.5984      0.00000
     78       4.6568      0.00000
     79       4.7450      0.00000
     80       4.8143      0.00000
     81       4.8375      0.00000
     82       4.9678      0.00000
     83       5.1194      0.00000
     84       5.1790      0.00000

 k-point    70 :       0.4750    0.3611    0.0000
  band No.  band energies     occupation 
      1     -17.4475      2.00000
      2     -17.3748      2.00000
      3     -17.3151      2.00000
      4     -17.2429      2.00000
      5     -13.9007      2.00000
      6     -13.8410      2.00000
      7     -13.7728      2.00000
      8     -13.7136      2.00000
      9     -10.8754      2.00000
     10     -10.8189      2.00000
     11     -10.5630      2.00000
     12     -10.3939      2.00000
     13     -10.3928      2.00000
     14     -10.2152      2.00000
     15      -9.5300      2.00000
     16      -9.4162      2.00000
     17      -9.2831      2.00000
     18      -9.2563      2.00000
     19      -9.1977      2.00000
     20      -9.1368      2.00000
     21      -7.2991      2.00000
     22      -7.1903      2.00000
     23      -7.1680      2.00000
     24      -7.1484      2.00000
     25      -7.0658      2.00000
     26      -7.0073      2.00000
     27      -6.4019      2.00000
     28      -6.3797      2.00000
     29      -6.1563      2.00000
     30      -6.0883      2.00000
     31      -5.3820      2.00000
     32      -5.3609      2.00000
     33      -5.3389      2.00000
     34      -5.3175      2.00000
     35      -4.8182      2.00000
     36      -4.6488      2.00000
     37      -4.6228      2.00000
     38      -4.5884      2.00000
     39      -4.5298      2.00000
     40      -4.4191      2.00000
     41      -3.5528      2.00000
     42      -3.4728      2.00000
     43      -2.6849      0.53854
     44      -2.6447      0.23683
     45      -2.1126      0.00000
     46      -2.0616      0.00000
     47       0.8551      0.00000
     48       0.8910      0.00000
     49       1.0277      0.00000
     50       1.0783      0.00000
     51       1.4226      0.00000
     52       1.4996      0.00000
     53       1.9149      0.00000
     54       2.0040      0.00000
     55       2.0630      0.00000
     56       2.2976      0.00000
     57       2.3053      0.00000
     58       2.4253      0.00000
     59       2.5609      0.00000
     60       2.6937      0.00000
     61       2.8006      0.00000
     62       2.9448      0.00000
     63       3.2568      0.00000
     64       3.2980      0.00000
     65       3.3538      0.00000
     66       3.4381      0.00000
     67       3.5088      0.00000
     68       3.6602      0.00000
     69       3.7354      0.00000
     70       3.9270      0.00000
     71       4.1972      0.00000
     72       4.2303      0.00000
     73       4.2477      0.00000
     74       4.2514      0.00000
     75       4.4399      0.00000
     76       4.4870      0.00000
     77       4.6552      0.00000
     78       4.7362      0.00000
     79       4.7491      0.00000
     80       4.7621      0.00000
     81       4.8087      0.00000
     82       4.8806      0.00000
     83       5.0020      0.00000
     84       5.0870      0.00000

 k-point    71 :       0.0250    0.4167    0.0000
  band No.  band energies     occupation 
      1     -17.8316      2.00000
      2     -17.6964      2.00000
      3     -16.9602      2.00000
      4     -16.8261      2.00000
      5     -13.7946      2.00000
      6     -13.6952      2.00000
      7     -13.2564      2.00000
      8     -13.1451      2.00000
      9     -12.0503      2.00000
     10     -11.8852      2.00000
     11     -11.2134      2.00000
     12     -10.9553      2.00000
     13     -10.7453      2.00000
     14     -10.5659      2.00000
     15      -9.7557      2.00000
     16      -8.8407      2.00000
     17      -8.7790      2.00000
     18      -8.6193      2.00000
     19      -8.1969      2.00000
     20      -8.0802      2.00000
     21      -7.4302      2.00000
     22      -7.2298      2.00000
     23      -6.9092      2.00000
     24      -6.8456      2.00000
     25      -6.7875      2.00000
     26      -6.7075      2.00000
     27      -6.6383      2.00000
     28      -6.5437      2.00000
     29      -6.4604      2.00000
     30      -6.0331      2.00000
     31      -5.9924      2.00000
     32      -5.7415      2.00000
     33      -5.5480      2.00000
     34      -5.5053      2.00000
     35      -5.3060      2.00000
     36      -5.0193      2.00000
     37      -4.9600      2.00000
     38      -4.8940      2.00000
     39      -4.4932      2.00000
     40      -4.3558      2.00000
     41      -2.8562      1.92933
     42      -2.4835      0.00053
     43      -2.2363      0.00000
     44      -1.7983      0.00000
     45      -1.1636      0.00000
     46      -1.0805      0.00000
     47      -0.2880      0.00000
     48      -0.0871      0.00000
     49       0.3866      0.00000
     50       0.3947      0.00000
     51       0.4831      0.00000
     52       1.2579      0.00000
     53       1.7247      0.00000
     54       1.9498      0.00000
     55       1.9650      0.00000
     56       2.2713      0.00000
     57       2.3624      0.00000
     58       2.4003      0.00000
     59       2.5956      0.00000
     60       2.7375      0.00000
     61       2.8959      0.00000
     62       3.0253      0.00000
     63       3.0370      0.00000
     64       3.1181      0.00000
     65       3.2290      0.00000
     66       3.2478      0.00000
     67       3.5409      0.00000
     68       3.7320      0.00000
     69       3.8378      0.00000
     70       3.9858      0.00000
     71       4.0143      0.00000
     72       4.2159      0.00000
     73       4.3569      0.00000
     74       4.4303      0.00000
     75       4.5814      0.00000
     76       4.5898      0.00000
     77       4.6109      0.00000
     78       4.6565      0.00000
     79       4.7352      0.00000
     80       4.8148      0.00000
     81       5.0414      0.00000
     82       5.1740      0.00000
     83       5.3405      0.00000
     84       5.4987      0.00000

 k-point    72 :       0.0750    0.4167    0.0000
  band No.  band energies     occupation 
      1     -17.8217      2.00000
      2     -17.6866      2.00000
      3     -16.9708      2.00000
      4     -16.8368      2.00000
      5     -13.8219      2.00000
      6     -13.7193      2.00000
      7     -13.2764      2.00000
      8     -13.1648      2.00000
      9     -11.9866      2.00000
     10     -11.8227      2.00000
     11     -11.2037      2.00000
     12     -10.9266      2.00000
     13     -10.7190      2.00000
     14     -10.5701      2.00000
     15      -9.7429      2.00000
     16      -8.8463      2.00000
     17      -8.8393      2.00000
     18      -8.6802      2.00000
     19      -8.1716      2.00000
     20      -8.0541      2.00000
     21      -7.4675      2.00000
     22      -7.2815      2.00000
     23      -6.9171      2.00000
     24      -6.8253      2.00000
     25      -6.7666      2.00000
     26      -6.7466      2.00000
     27      -6.6259      2.00000
     28      -6.5701      2.00000
     29      -6.4449      2.00000
     30      -5.9971      2.00000
     31      -5.9500      2.00000
     32      -5.8173      2.00000
     33      -5.6174      2.00000
     34      -5.4684      2.00000
     35      -5.1893      2.00000
     36      -5.0861      2.00000
     37      -4.9754      2.00000
     38      -4.8869      2.00000
     39      -4.4977      2.00000
     40      -4.2060      2.00000
     41      -2.8523      1.92020
     42      -2.4862      0.00062
     43      -2.2362      0.00000
     44      -1.8055      0.00000
     45      -1.4288      0.00000
     46      -1.3228      0.00000
     47      -0.2529      0.00000
     48       0.1210      0.00000
     49       0.4304      0.00000
     50       0.5355      0.00000
     51       0.5995      0.00000
     52       1.2195      0.00000
     53       1.7917      0.00000
     54       1.8834      0.00000
     55       1.9172      0.00000
     56       2.2407      0.00000
     57       2.3903      0.00000
     58       2.3956      0.00000
     59       2.5516      0.00000
     60       2.8084      0.00000
     61       2.8741      0.00000
     62       3.0638      0.00000
     63       3.0978      0.00000
     64       3.1506      0.00000
     65       3.1653      0.00000
     66       3.2768      0.00000
     67       3.5668      0.00000
     68       3.8187      0.00000
     69       3.8500      0.00000
     70       4.0041      0.00000
     71       4.0367      0.00000
     72       4.2394      0.00000
     73       4.2464      0.00000
     74       4.3715      0.00000
     75       4.4019      0.00000
     76       4.4806      0.00000
     77       4.5847      0.00000
     78       4.6661      0.00000
     79       4.7844      0.00000
     80       4.8476      0.00000
     81       5.2260      0.00000
     82       5.3016      0.00000
     83       5.4008      0.00000
     84       5.5740      0.00000

 k-point    73 :       0.1250    0.4167    0.0000
  band No.  band energies     occupation 
      1     -17.8022      2.00000
      2     -17.6673      2.00000
      3     -16.9917      2.00000
      4     -16.8581      2.00000
      5     -13.8668      2.00000
      6     -13.7593      2.00000
      7     -13.3177      2.00000
      8     -13.2047      2.00000
      9     -11.8652      2.00000
     10     -11.7034      2.00000
     11     -11.1845      2.00000
     12     -10.8710      2.00000
     13     -10.6677      2.00000
     14     -10.5788      2.00000
     15      -9.7174      2.00000
     16      -8.9479      2.00000
     17      -8.8589      2.00000
     18      -8.7889      2.00000
     19      -8.1247      2.00000
     20      -8.0058      2.00000
     21      -7.5677      2.00000
     22      -7.4051      2.00000
     23      -6.9489      2.00000
     24      -6.7837      2.00000
     25      -6.7443      2.00000
     26      -6.7171      2.00000
     27      -6.6351      2.00000
     28      -6.5715      2.00000
     29      -6.4126      2.00000
     30      -5.9703      2.00000
     31      -5.9303      2.00000
     32      -5.8906      2.00000
     33      -5.7036      2.00000
     34      -5.3680      2.00000
     35      -5.2139      2.00000
     36      -5.0441      2.00000
     37      -4.9945      2.00000
     38      -4.8827      2.00000
     39      -4.4054      2.00000
     40      -4.0361      2.00000
     41      -2.8447      1.89988
     42      -2.4923      0.00084
     43      -2.2362      0.00000
     44      -1.8351      0.00000
     45      -1.7877      0.00000
     46      -1.6851      0.00000
     47      -0.1749      0.00000
     48       0.3521      0.00000
     49       0.5060      0.00000
     50       0.6516      0.00000
     51       0.8968      0.00000
     52       1.1582      0.00000
     53       1.7835      0.00000
     54       1.8350      0.00000
     55       1.9150      0.00000
     56       2.1737      0.00000
     57       2.3419      0.00000
     58       2.4427      0.00000
     59       2.5651      0.00000
     60       2.8068      0.00000
     61       2.9033      0.00000
     62       3.1054      0.00000
     63       3.1419      0.00000
     64       3.1760      0.00000
     65       3.2254      0.00000
     66       3.3247      0.00000
     67       3.6136      0.00000
     68       3.8404      0.00000
     69       3.9236      0.00000
     70       3.9742      0.00000
     71       4.0826      0.00000
     72       4.0959      0.00000
     73       4.1378      0.00000
     74       4.2885      0.00000
     75       4.3413      0.00000
     76       4.4578      0.00000
     77       4.5923      0.00000
     78       4.7395      0.00000
     79       4.8282      0.00000
     80       4.9434      0.00000
     81       5.2484      0.00000
     82       5.3745      0.00000
     83       5.4876      0.00000
     84       5.5391      0.00000

 k-point    74 :       0.1750    0.4167    0.0000
  band No.  band energies     occupation 
      1     -17.7732      2.00000
      2     -17.6386      2.00000
      3     -17.0229      2.00000
      4     -16.8897      2.00000
      5     -13.9164      2.00000
      6     -13.8037      2.00000
      7     -13.3790      2.00000
      8     -13.2636      2.00000
      9     -11.6969      2.00000
     10     -11.5371      2.00000
     11     -11.1564      2.00000
     12     -10.7911      2.00000
     13     -10.5934      2.00000
     14     -10.5924      2.00000
     15      -9.6800      2.00000
     16      -9.0890      2.00000
     17      -8.9352      2.00000
     18      -8.8737      2.00000
     19      -8.0686      2.00000
     20      -7.9466      2.00000
     21      -7.7283      2.00000
     22      -7.5866      2.00000
     23      -6.9885      2.00000
     24      -6.8159      2.00000
     25      -6.6749      2.00000
     26      -6.6305      2.00000
     27      -6.6279      2.00000
     28      -6.4930      2.00000
     29      -6.3958      2.00000
     30      -6.0381      2.00000
     31      -5.9998      2.00000
     32      -5.8373      2.00000
     33      -5.7477      2.00000
     34      -5.3674      2.00000
     35      -5.2361      2.00000
     36      -5.0047      2.00000
     37      -4.8961      2.00000
     38      -4.8723      2.00000
     39      -4.2606      2.00000
     40      -3.8680      2.00000
     41      -2.8339      1.86443
     42      -2.5032      0.00145
     43      -2.2539      0.00000
     44      -2.2012      0.00000
     45      -2.0926      0.00000
     46      -1.8372      0.00000
     47      -0.0576      0.00000
     48       0.5157      0.00000
     49       0.6176      0.00000
     50       0.8347      0.00000
     51       1.0943      0.00000
     52       1.2020      0.00000
     53       1.6815      0.00000
     54       1.7412      0.00000
     55       2.0631      0.00000
     56       2.0715      0.00000
     57       2.2986      0.00000
     58       2.4850      0.00000
     59       2.6269      0.00000
     60       2.7000      0.00000
     61       3.0076      0.00000
     62       3.0799      0.00000
     63       3.2356      0.00000
     64       3.2732      0.00000
     65       3.3226      0.00000
     66       3.3776      0.00000
     67       3.6711      0.00000
     68       3.7655      0.00000
     69       3.8019      0.00000
     70       3.8817      0.00000
     71       4.0020      0.00000
     72       4.1335      0.00000
     73       4.1888      0.00000
     74       4.2993      0.00000
     75       4.3273      0.00000
     76       4.5647      0.00000
     77       4.6106      0.00000
     78       4.8128      0.00000
     79       4.9052      0.00000
     80       5.0135      0.00000
     81       5.1834      0.00000
     82       5.2484      0.00000
     83       5.3608      0.00000
     84       5.4389      0.00000

 k-point    75 :       0.2250    0.4167    0.0000
  band No.  band energies     occupation 
      1     -17.7354      2.00000
      2     -17.6011      2.00000
      3     -17.0638      2.00000
      4     -16.9311      2.00000
      5     -13.9601      2.00000
      6     -13.8425      2.00000
      7     -13.4558      2.00000
      8     -13.3374      2.00000
      9     -11.4938      2.00000
     10     -11.3351      2.00000
     11     -11.1201      2.00000
     12     -10.6891      2.00000
     13     -10.6111      2.00000
     14     -10.4974      2.00000
     15      -9.6313      2.00000
     16      -9.2494      2.00000
     17      -9.0954      2.00000
     18      -8.9026      2.00000
     19      -8.0857      2.00000
     20      -7.9527      2.00000
     21      -7.8497      2.00000
     22      -7.7301      2.00000
     23      -7.0358      2.00000
     24      -6.8982      2.00000
     25      -6.6030      2.00000
     26      -6.5400      2.00000
     27      -6.5312      2.00000
     28      -6.4033      2.00000
     29      -6.3982      2.00000
     30      -6.1259      2.00000
     31      -6.0752      2.00000
     32      -5.7813      2.00000
     33      -5.7341      2.00000
     34      -5.5225      2.00000
     35      -5.0937      2.00000
     36      -4.9947      2.00000
     37      -4.8481      2.00000
     38      -4.7616      2.00000
     39      -4.0989      2.00000
     40      -3.7130      2.00000
     41      -2.8216      1.81281
     42      -2.6513      0.27578
     43      -2.5583      0.01618
     44      -2.4750      0.00034
     45      -2.2271      0.00000
     46      -1.8661      0.00000
     47       0.0947      0.00000
     48       0.6254      0.00000
     49       0.7610      0.00000
     50       0.9988      0.00000
     51       1.0665      0.00000
     52       1.4547      0.00000
     53       1.6232      0.00000
     54       1.6605      0.00000
     55       1.9350      0.00000
     56       2.2231      0.00000
     57       2.2778      0.00000
     58       2.4673      0.00000
     59       2.6446      0.00000
     60       2.7123      0.00000
     61       3.0655      0.00000
     62       3.1137      0.00000
     63       3.3081      0.00000
     64       3.3489      0.00000
     65       3.4174      0.00000
     66       3.4555      0.00000
     67       3.6083      0.00000
     68       3.6499      0.00000
     69       3.7716      0.00000
     70       3.8432      0.00000
     71       3.9381      0.00000
     72       4.1283      0.00000
     73       4.2712      0.00000
     74       4.3539      0.00000
     75       4.3943      0.00000
     76       4.5400      0.00000
     77       4.7585      0.00000
     78       4.8314      0.00000
     79       4.9064      0.00000
     80       5.0499      0.00000
     81       5.1321      0.00000
     82       5.1504      0.00000
     83       5.1692      0.00000
     84       5.2530      0.00000

 k-point    76 :       0.2750    0.4167    0.0000
  band No.  band energies     occupation 
      1     -17.6893      2.00000
      2     -17.5555      2.00000
      3     -17.1136      2.00000
      4     -16.9814      2.00000
      5     -13.9908      2.00000
      6     -13.8690      2.00000
      7     -13.5421      2.00000
      8     -13.4207      2.00000
      9     -11.2687      2.00000
     10     -11.1087      2.00000
     11     -11.0767      2.00000
     12     -10.6375      2.00000
     13     -10.5636      2.00000
     14     -10.3799      2.00000
     15      -9.5726      2.00000
     16      -9.4193      2.00000
     17      -9.2669      2.00000
     18      -8.9404      2.00000
     19      -8.2952      2.00000
     20      -8.1638      2.00000
     21      -7.7954      2.00000
     22      -7.6818      2.00000
     23      -7.0904      2.00000
     24      -6.9778      2.00000
     25      -6.5908      2.00000
     26      -6.5213      2.00000
     27      -6.4660      2.00000
     28      -6.3597      2.00000
     29      -6.2477      2.00000
     30      -6.1629      2.00000
     31      -6.1518      2.00000
     32      -5.7191      2.00000
     33      -5.7042      2.00000
     34      -5.6218      2.00000
     35      -4.9744      2.00000
     36      -4.9511      2.00000
     37      -4.8167      2.00000
     38      -4.6469      2.00000
     39      -3.9374      2.00000
     40      -3.5805      2.00000
     41      -3.0800      2.00000
     42      -2.9617      1.99903
     43      -2.7951      1.65461
     44      -2.5260      0.00421
     45      -2.2202      0.00000
     46      -1.9015      0.00000
     47       0.2737      0.00000
     48       0.7077      0.00000
     49       0.9263      0.00000
     50       0.9935      0.00000
     51       1.1644      0.00000
     52       1.4839      0.00000
     53       1.6192      0.00000
     54       1.7767      0.00000
     55       1.8274      0.00000
     56       2.2674      0.00000
     57       2.2755      0.00000
     58       2.4358      0.00000
     59       2.6747      0.00000
     60       2.8144      0.00000
     61       3.0328      0.00000
     62       3.2046      0.00000
     63       3.3115      0.00000
     64       3.4001      0.00000
     65       3.4021      0.00000
     66       3.5432      0.00000
     67       3.5999      0.00000
     68       3.6026      0.00000
     69       3.8610      0.00000
     70       3.8653      0.00000
     71       3.9327      0.00000
     72       3.9999      0.00000
     73       4.3009      0.00000
     74       4.4169      0.00000
     75       4.4259      0.00000
     76       4.4824      0.00000
     77       4.6349      0.00000
     78       4.8456      0.00000
     79       4.8754      0.00000
     80       4.9905      0.00000
     81       5.0648      0.00000
     82       5.0718      0.00000
     83       5.2436      0.00000
     84       5.2507      0.00000

 k-point    77 :       0.3250    0.4167    0.0000
  band No.  band energies     occupation 
      1     -17.6358      2.00000
      2     -17.5024      2.00000
      3     -17.1711      2.00000
      4     -17.0392      2.00000
      5     -14.0042      2.00000
      6     -13.8793      2.00000
      7     -13.6320      2.00000
      8     -13.5078      2.00000
      9     -11.0406      2.00000
     10     -11.0220      2.00000
     11     -10.8698      2.00000
     12     -10.6670      2.00000
     13     -10.4172      2.00000
     14     -10.2388      2.00000
     15      -9.5914      2.00000
     16      -9.5068      2.00000
     17      -9.4410      2.00000
     18      -8.9887      2.00000
     19      -8.5676      2.00000
     20      -8.4405      2.00000
     21      -7.6848      2.00000
     22      -7.5724      2.00000
     23      -7.1423      2.00000
     24      -7.0486      2.00000
     25      -6.6620      2.00000
     26      -6.5964      2.00000
     27      -6.4554      2.00000
     28      -6.3273      2.00000
     29      -6.2085      2.00000
     30      -6.0455      2.00000
     31      -6.0352      2.00000
     32      -5.8352      2.00000
     33      -5.6013      2.00000
     34      -5.5400      2.00000
     35      -4.9534      2.00000
     36      -4.8196      2.00000
     37      -4.7891      2.00000
     38      -4.5587      2.00000
     39      -3.7874      2.00000
     40      -3.5026      2.00000
     41      -3.4884      2.00000
     42      -3.3614      2.00000
     43      -2.7787      1.52289
     44      -2.5516      0.01242
     45      -2.2074      0.00000
     46      -1.9427      0.00000
     47       0.4617      0.00000
     48       0.7713      0.00000
     49       0.9879      0.00000
     50       1.0896      0.00000
     51       1.1921      0.00000
     52       1.4641      0.00000
     53       1.6106      0.00000
     54       1.7960      0.00000
     55       1.9711      0.00000
     56       2.2067      0.00000
     57       2.2521      0.00000
     58       2.4967      0.00000
     59       2.6948      0.00000
     60       2.9290      0.00000
     61       2.9667      0.00000
     62       3.1888      0.00000
     63       3.3667      0.00000
     64       3.3892      0.00000
     65       3.4200      0.00000
     66       3.4836      0.00000
     67       3.5621      0.00000
     68       3.6783      0.00000
     69       3.9273      0.00000
     70       3.9636      0.00000
     71       3.9854      0.00000
     72       4.0179      0.00000
     73       4.1508      0.00000
     74       4.2889      0.00000
     75       4.3374      0.00000
     76       4.4902      0.00000
     77       4.6372      0.00000
     78       4.7831      0.00000
     79       4.8336      0.00000
     80       4.8740      0.00000
     81       5.0017      0.00000
     82       5.0907      0.00000
     83       5.0966      0.00000
     84       5.1769      0.00000

 k-point    78 :       0.3750    0.4167    0.0000
  band No.  band energies     occupation 
      1     -17.5759      2.00000
      2     -17.4430      2.00000
      3     -17.2347      2.00000
      4     -17.1030      2.00000
      5     -13.9988      2.00000
      6     -13.8715      2.00000
      7     -13.7201      2.00000
      8     -13.5936      2.00000
      9     -10.9758      2.00000
     10     -10.8159      2.00000
     11     -10.6906      2.00000
     12     -10.6313      2.00000
     13     -10.2497      2.00000
     14     -10.0712      2.00000
     15      -9.7555      2.00000
     16      -9.6183      2.00000
     17      -9.4297      2.00000
     18      -9.0477      2.00000
     19      -8.8576      2.00000
     20      -8.7335      2.00000
     21      -7.5564      2.00000
     22      -7.4453      2.00000
     23      -7.1809      2.00000
     24      -7.1112      2.00000
     25      -6.7883      2.00000
     26      -6.7174      2.00000
     27      -6.4406      2.00000
     28      -6.3503      2.00000
     29      -6.2375      2.00000
     30      -5.9616      2.00000
     31      -5.8153      2.00000
     32      -5.7881      2.00000
     33      -5.4866      2.00000
     34      -5.4246      2.00000
     35      -4.9426      2.00000
     36      -4.7704      2.00000
     37      -4.7022      2.00000
     38      -4.5020      2.00000
     39      -3.9110      2.00000
     40      -3.7998      2.00000
     41      -3.6343      2.00000
     42      -3.4007      2.00000
     43      -2.7541      1.28366
     44      -2.5813      0.03756
     45      -2.1873      0.00000
     46      -1.9881      0.00000
     47       0.6277      0.00000
     48       0.8212      0.00000
     49       1.0001      0.00000
     50       1.1617      0.00000
     51       1.2130      0.00000
     52       1.4727      0.00000
     53       1.6265      0.00000
     54       1.8558      0.00000
     55       2.1250      0.00000
     56       2.1973      0.00000
     57       2.2192      0.00000
     58       2.5463      0.00000
     59       2.6728      0.00000
     60       2.8742      0.00000
     61       3.0131      0.00000
     62       3.1274      0.00000
     63       3.1962      0.00000
     64       3.4034      0.00000
     65       3.4134      0.00000
     66       3.5381      0.00000
     67       3.6057      0.00000
     68       3.6921      0.00000
     69       3.8492      0.00000
     70       3.9919      0.00000
     71       4.0207      0.00000
     72       4.0813      0.00000
     73       4.2014      0.00000
     74       4.2358      0.00000
     75       4.3601      0.00000
     76       4.4994      0.00000
     77       4.5970      0.00000
     78       4.6343      0.00000
     79       4.7371      0.00000
     80       4.7998      0.00000
     81       4.9222      0.00000
     82       5.0008      0.00000
     83       5.1230      0.00000
     84       5.1574      0.00000

 k-point    79 :       0.4250    0.4167    0.0000
  band No.  band energies     occupation 
      1     -17.5111      2.00000
      2     -17.3786      2.00000
      3     -17.3025      2.00000
      4     -17.1708      2.00000
      5     -13.9743      2.00000
      6     -13.8456      2.00000
      7     -13.8019      2.00000
      8     -13.6738      2.00000
      9     -10.9206      2.00000
     10     -10.7695      2.00000
     11     -10.5636      2.00000
     12     -10.4056      2.00000
     13     -10.1163      2.00000
     14      -9.9090      2.00000
     15      -9.8511      2.00000
     16      -9.7525      2.00000
     17      -9.3516      2.00000
     18      -9.1518      2.00000
     19      -9.1165      2.00000
     20      -9.0289      2.00000
     21      -7.4186      2.00000
     22      -7.3072      2.00000
     23      -7.1985      2.00000
     24      -7.1646      2.00000
     25      -6.9355      2.00000
     26      -6.8601      2.00000
     27      -6.4258      2.00000
     28      -6.3749      2.00000
     29      -6.2369      2.00000
     30      -6.0657      2.00000
     31      -5.5607      2.00000
     32      -5.5413      2.00000
     33      -5.3812      2.00000
     34      -5.3236      2.00000
     35      -4.9326      2.00000
     36      -4.7491      2.00000
     37      -4.6046      2.00000
     38      -4.4808      2.00000
     39      -4.2937      2.00000
     40      -4.1610      2.00000
     41      -3.5286      2.00000
     42      -3.3756      2.00000
     43      -2.7239      0.94954
     44      -2.6153      0.10976
     45      -2.1592      0.00000
     46      -2.0351      0.00000
     47       0.7451      0.00000
     48       0.8568      0.00000
     49       1.0094      0.00000
     50       1.1130      0.00000
     51       1.2904      0.00000
     52       1.4659      0.00000
     53       1.7468      0.00000
     54       1.9435      0.00000
     55       2.1650      0.00000
     56       2.2662      0.00000
     57       2.3017      0.00000
     58       2.5618      0.00000
     59       2.6385      0.00000
     60       2.7074      0.00000
     61       2.7790      0.00000
     62       3.1556      0.00000
     63       3.2538      0.00000
     64       3.3185      0.00000
     65       3.3408      0.00000
     66       3.5068      0.00000
     67       3.6219      0.00000
     68       3.7044      0.00000
     69       3.9419      0.00000
     70       3.9684      0.00000
     71       4.0030      0.00000
     72       4.2253      0.00000
     73       4.2310      0.00000
     74       4.3176      0.00000
     75       4.4315      0.00000
     76       4.4771      0.00000
     77       4.5064      0.00000
     78       4.5790      0.00000
     79       4.6367      0.00000
     80       4.7966      0.00000
     81       4.8829      0.00000
     82       4.9285      0.00000
     83       4.9738      0.00000
     84       5.0602      0.00000

 k-point    80 :       0.4750    0.4167    0.0000
  band No.  band energies     occupation 
      1     -17.4427      2.00000
      2     -17.3725      2.00000
      3     -17.3106      2.00000
      4     -17.2407      2.00000
      5     -13.9320      2.00000
      6     -13.8736      2.00000
      7     -13.8026      2.00000
      8     -13.7445      2.00000
      9     -10.8657      2.00000
     10     -10.8134      2.00000
     11     -10.3711      2.00000
     12     -10.1991      2.00000
     13     -10.1989      2.00000
     14     -10.0126      2.00000
     15      -9.6992      2.00000
     16      -9.5883      2.00000
     17      -9.4386      2.00000
     18      -9.3248      2.00000
     19      -9.2660      2.00000
     20      -9.1898      2.00000
     21      -7.2855      2.00000
     22      -7.2104      2.00000
     23      -7.1824      2.00000
     24      -7.1613      2.00000
     25      -7.0829      2.00000
     26      -7.0107      2.00000
     27      -6.4111      2.00000
     28      -6.3948      2.00000
     29      -6.2068      2.00000
     30      -6.1489      2.00000
     31      -5.3597      2.00000
     32      -5.3450      2.00000
     33      -5.3159      2.00000
     34      -5.2768      2.00000
     35      -4.8636      2.00000
     36      -4.6752      2.00000
     37      -4.6383      2.00000
     38      -4.5313      2.00000
     39      -4.4858      2.00000
     40      -4.4739      2.00000
     41      -3.4430      2.00000
     42      -3.3902      2.00000
     43      -2.6891      0.57882
     44      -2.6520      0.28013
     45      -2.1233      0.00000
     46      -2.0811      0.00000
     47       0.8194      0.00000
     48       0.8598      0.00000
     49       1.0231      0.00000
     50       1.0617      0.00000
     51       1.3547      0.00000
     52       1.4182      0.00000
     53       1.9678      0.00000
     54       2.0489      0.00000
     55       2.0978      0.00000
     56       2.3438      0.00000
     57       2.3847      0.00000
     58       2.4594      0.00000
     59       2.5495      0.00000
     60       2.6393      0.00000
     61       2.7415      0.00000
     62       2.9599      0.00000
     63       3.2067      0.00000
     64       3.2685      0.00000
     65       3.3953      0.00000
     66       3.5362      0.00000
     67       3.6493      0.00000
     68       3.8069      0.00000
     69       3.8742      0.00000
     70       3.9670      0.00000
     71       4.1592      0.00000
     72       4.1844      0.00000
     73       4.1846      0.00000
     74       4.3736      0.00000
     75       4.4095      0.00000
     76       4.5160      0.00000
     77       4.5362      0.00000
     78       4.6348      0.00000
     79       4.6667      0.00000
     80       4.7070      0.00000
     81       4.7594      0.00000
     82       4.8633      0.00000
     83       4.9693      0.00000
     84       5.0532      0.00000

 k-point    81 :       0.0250    0.4722    0.0000
  band No.  band energies     occupation 
      1     -17.8239      2.00000
      2     -17.6891      2.00000
      3     -16.9724      2.00000
      4     -16.8376      2.00000
      5     -13.7913      2.00000
      6     -13.6922      2.00000
      7     -13.2274      2.00000
      8     -13.1186      2.00000
      9     -12.1029      2.00000
     10     -11.9357      2.00000
     11     -11.1939      2.00000
     12     -10.9819      2.00000
     13     -10.7712      2.00000
     14     -10.5926      2.00000
     15      -9.7346      2.00000
     16      -8.8759      2.00000
     17      -8.7226      2.00000
     18      -8.5629      2.00000
     19      -8.0051      2.00000
     20      -7.8862      2.00000
     21      -7.4172      2.00000
     22      -7.2416      2.00000
     23      -6.9217      2.00000
     24      -6.8453      2.00000
     25      -6.7977      2.00000
     26      -6.7267      2.00000
     27      -6.6338      2.00000
     28      -6.6333      2.00000
     29      -6.4364      2.00000
     30      -6.2744      2.00000
     31      -6.1321      2.00000
     32      -5.7018      2.00000
     33      -5.5214      2.00000
     34      -5.5136      2.00000
     35      -5.3944      2.00000
     36      -4.9532      2.00000
     37      -4.9524      2.00000
     38      -4.8853      2.00000
     39      -4.5169      2.00000
     40      -4.4645      2.00000
     41      -2.8384      1.88037
     42      -2.4995      0.00121
     43      -2.2064      0.00000
     44      -1.8240      0.00000
     45      -1.0858      0.00000
     46      -1.0099      0.00000
     47      -0.2629      0.00000
     48      -0.1160      0.00000
     49       0.3524      0.00000
     50       0.4080      0.00000
     51       0.4627      0.00000
     52       1.6398      0.00000
     53       1.7165      0.00000
     54       1.9633      0.00000
     55       2.0224      0.00000
     56       2.3382      0.00000
     57       2.4423      0.00000
     58       2.5256      0.00000
     59       2.5288      0.00000
     60       2.7054      0.00000
     61       2.8268      0.00000
     62       2.8531      0.00000
     63       2.9664      0.00000
     64       3.0178      0.00000
     65       3.1619      0.00000
     66       3.3274      0.00000
     67       3.4207      0.00000
     68       3.6213      0.00000
     69       3.8576      0.00000
     70       4.0157      0.00000
     71       4.0203      0.00000
     72       4.2028      0.00000
     73       4.3808      0.00000
     74       4.4303      0.00000
     75       4.4970      0.00000
     76       4.5720      0.00000
     77       4.5884      0.00000
     78       4.6567      0.00000
     79       4.6844      0.00000
     80       4.8129      0.00000
     81       5.0712      0.00000
     82       5.1635      0.00000
     83       5.4200      0.00000
     84       5.4499      0.00000

 k-point    82 :       0.0750    0.4722    0.0000
  band No.  band energies     occupation 
      1     -17.8142      2.00000
      2     -17.6795      2.00000
      3     -16.9824      2.00000
      4     -16.8478      2.00000
      5     -13.8191      2.00000
      6     -13.7170      2.00000
      7     -13.2544      2.00000
      8     -13.1442      2.00000
      9     -12.0298      2.00000
     10     -11.8652      2.00000
     11     -11.1845      2.00000
     12     -10.9539      2.00000
     13     -10.7452      2.00000
     14     -10.5960      2.00000
     15      -9.7220      2.00000
     16      -8.8803      2.00000
     17      -8.7739      2.00000
     18      -8.6145      2.00000
     19      -7.9872      2.00000
     20      -7.8687      2.00000
     21      -7.4704      2.00000
     22      -7.2957      2.00000
     23      -6.9773      2.00000
     24      -6.8897      2.00000
     25      -6.8766      2.00000
     26      -6.7060      2.00000
     27      -6.5488      2.00000
     28      -6.5165      2.00000
     29      -6.4811      2.00000
     30      -6.2203      2.00000
     31      -6.0919      2.00000
     32      -5.8308      2.00000
     33      -5.5865      2.00000
     34      -5.4016      2.00000
     35      -5.2983      2.00000
     36      -5.0852      2.00000
     37      -4.9706      2.00000
     38      -4.8781      2.00000
     39      -4.4409      2.00000
     40      -4.3318      2.00000
     41      -2.8347      1.86725
     42      -2.5018      0.00135
     43      -2.2063      0.00000
     44      -1.8314      0.00000
     45      -1.3819      0.00000
     46      -1.2749      0.00000
     47      -0.2280      0.00000
     48       0.1385      0.00000
     49       0.4442      0.00000
     50       0.4994      0.00000
     51       0.5922      0.00000
     52       1.5845      0.00000
     53       1.7803      0.00000
     54       1.9093      0.00000
     55       1.9647      0.00000
     56       2.2452      0.00000
     57       2.3771      0.00000
     58       2.5384      0.00000
     59       2.6187      0.00000
     60       2.6636      0.00000
     61       2.8329      0.00000
     62       2.8948      0.00000
     63       3.0026      0.00000
     64       3.0943      0.00000
     65       3.1925      0.00000
     66       3.3517      0.00000
     67       3.4469      0.00000
     68       3.6487      0.00000
     69       3.9351      0.00000
     70       4.0322      0.00000
     71       4.0764      0.00000
     72       4.1984      0.00000
     73       4.2931      0.00000
     74       4.3448      0.00000
     75       4.3991      0.00000
     76       4.4608      0.00000
     77       4.5091      0.00000
     78       4.6801      0.00000
     79       4.6894      0.00000
     80       4.8207      0.00000
     81       5.2556      0.00000
     82       5.3362      0.00000
     83       5.4687      0.00000
     84       5.4979      0.00000

 k-point    83 :       0.1250    0.4722    0.0000
  band No.  band energies     occupation 
      1     -17.7948      2.00000
      2     -17.6603      2.00000
      3     -17.0024      2.00000
      4     -16.8682      2.00000
      5     -13.8654      2.00000
      6     -13.7584      2.00000
      7     -13.3057      2.00000
      8     -13.1930      2.00000
      9     -11.8931      2.00000
     10     -11.7323      2.00000
     11     -11.1659      2.00000
     12     -10.9001      2.00000
     13     -10.6950      2.00000
     14     -10.6030      2.00000
     15      -9.6970      2.00000
     16      -8.8900      2.00000
     17      -8.8685      2.00000
     18      -8.7093      2.00000
     19      -7.9531      2.00000
     20      -7.8351      2.00000
     21      -7.6112      2.00000
     22      -7.4526      2.00000
     23      -7.0001      2.00000
     24      -6.8765      2.00000
     25      -6.8723      2.00000
     26      -6.7169      2.00000
     27      -6.5623      2.00000
     28      -6.4339      2.00000
     29      -6.4200      2.00000
     30      -6.1431      2.00000
     31      -6.0252      2.00000
     32      -5.9575      2.00000
     33      -5.6905      2.00000
     34      -5.2676      2.00000
     35      -5.2482      2.00000
     36      -5.1555      2.00000
     37      -4.9946      2.00000
     38      -4.8856      2.00000
     39      -4.2993      2.00000
     40      -4.1644      2.00000
     41      -2.8274      1.83864
     42      -2.5070      0.00175
     43      -2.2061      0.00000
     44      -1.8561      0.00000
     45      -1.7686      0.00000
     46      -1.6576      0.00000
     47      -0.1505      0.00000
     48       0.4320      0.00000
     49       0.5189      0.00000
     50       0.5736      0.00000
     51       0.9201      0.00000
     52       1.4939      0.00000
     53       1.8205      0.00000
     54       1.8718      0.00000
     55       1.8957      0.00000
     56       2.1148      0.00000
     57       2.3316      0.00000
     58       2.4684      0.00000
     59       2.6636      0.00000
     60       2.7033      0.00000
     61       2.8512      0.00000
     62       2.9587      0.00000
     63       3.0925      0.00000
     64       3.2063      0.00000
     65       3.2591      0.00000
     66       3.3977      0.00000
     67       3.4828      0.00000
     68       3.6767      0.00000
     69       3.9303      0.00000
     70       4.0660      0.00000
     71       4.1032      0.00000
     72       4.1681      0.00000
     73       4.1995      0.00000
     74       4.2308      0.00000
     75       4.2835      0.00000
     76       4.4153      0.00000
     77       4.5317      0.00000
     78       4.7219      0.00000
     79       4.7387      0.00000
     80       4.9359      0.00000
     81       5.3205      0.00000
     82       5.4261      0.00000
     83       5.4377      0.00000
     84       5.5327      0.00000

 k-point    84 :       0.1750    0.4722    0.0000
  band No.  band energies     occupation 
      1     -17.7661      2.00000
      2     -17.6319      2.00000
      3     -17.0322      2.00000
      4     -16.8985      2.00000
      5     -13.9172      2.00000
      6     -13.8049      2.00000
      7     -13.3766      2.00000
      8     -13.2607      2.00000
      9     -11.7058      2.00000
     10     -11.5489      2.00000
     11     -11.1386      2.00000
     12     -10.8242      2.00000
     13     -10.6237      2.00000
     14     -10.6142      2.00000
     15      -9.6602      2.00000
     16      -8.9945      2.00000
     17      -8.9073      2.00000
     18      -8.8343      2.00000
     19      -7.9191      2.00000
     20      -7.8106      2.00000
     21      -7.7965      2.00000
     22      -7.6725      2.00000
     23      -7.0017      2.00000
     24      -6.8221      2.00000
     25      -6.7936      2.00000
     26      -6.7730      2.00000
     27      -6.5427      2.00000
     28      -6.3981      2.00000
     29      -6.3641      2.00000
     30      -6.0817      2.00000
     31      -6.0676      2.00000
     32      -5.9367      2.00000
     33      -5.7693      2.00000
     34      -5.4169      2.00000
     35      -5.1214      2.00000
     36      -5.0151      2.00000
     37      -4.9987      2.00000
     38      -4.8845      2.00000
     39      -4.1324      2.00000
     40      -3.9913      2.00000
     41      -2.8170      1.79007
     42      -2.5172      0.00282
     43      -2.2208      0.00000
     44      -2.1993      0.00000
     45      -2.0800      0.00000
     46      -1.8601      0.00000
     47      -0.0347      0.00000
     48       0.6055      0.00000
     49       0.6285      0.00000
     50       0.7584      0.00000
     51       1.2568      0.00000
     52       1.3903      0.00000
     53       1.7136      0.00000
     54       1.7794      0.00000
     55       1.9633      0.00000
     56       2.0516      0.00000
     57       2.3049      0.00000
     58       2.3443      0.00000
     59       2.7042      0.00000
     60       2.7857      0.00000
     61       2.8771      0.00000
     62       3.0297      0.00000
     63       3.2098      0.00000
     64       3.3239      0.00000
     65       3.3725      0.00000
     66       3.4607      0.00000
     67       3.5118      0.00000
     68       3.6865      0.00000
     69       3.7268      0.00000
     70       3.8523      0.00000
     71       4.0902      0.00000
     72       4.1791      0.00000
     73       4.2033      0.00000
     74       4.3113      0.00000
     75       4.3554      0.00000
     76       4.4715      0.00000
     77       4.5595      0.00000
     78       4.7932      0.00000
     79       4.8183      0.00000
     80       5.0356      0.00000
     81       5.2335      0.00000
     82       5.2593      0.00000
     83       5.3707      0.00000
     84       5.4427      0.00000

 k-point    85 :       0.2250    0.4722    0.0000
  band No.  band energies     occupation 
      1     -17.7287      2.00000
      2     -17.5948      2.00000
      3     -17.0714      2.00000
      4     -16.9383      2.00000
      5     -13.9638      2.00000
      6     -13.8464      2.00000
      7     -13.4611      2.00000
      8     -13.3417      2.00000
      9     -11.4806      2.00000
     10     -11.3267      2.00000
     11     -11.1035      2.00000
     12     -10.7301      2.00000
     13     -10.6301      2.00000
     14     -10.5344      2.00000
     15      -9.6125      2.00000
     16      -9.1406      2.00000
     17      -8.9879      2.00000
     18      -8.9239      2.00000
     19      -8.1054      2.00000
     20      -7.9689      2.00000
     21      -7.8153      2.00000
     22      -7.7017      2.00000
     23      -7.0281      2.00000
     24      -6.9142      2.00000
     25      -6.6790      2.00000
     26      -6.6175      2.00000
     27      -6.5098      2.00000
     28      -6.4137      2.00000
     29      -6.3652      2.00000
     30      -6.1530      2.00000
     31      -6.0896      2.00000
     32      -5.8268      2.00000
     33      -5.7491      2.00000
     34      -5.5805      2.00000
     35      -5.0082      2.00000
     36      -4.9717      2.00000
     37      -4.8660      2.00000
     38      -4.8580      2.00000
     39      -3.9619      2.00000
     40      -3.8251      2.00000
     41      -2.8042      1.71613
     42      -2.6538      0.29175
     43      -2.5722      0.02724
     44      -2.4743      0.00033
     45      -2.2028      0.00000
     46      -1.8895      0.00000
     47       0.1149      0.00000
     48       0.6878      0.00000
     49       0.7687      0.00000
     50       0.9768      0.00000
     51       1.2894      0.00000
     52       1.5634      0.00000
     53       1.6044      0.00000
     54       1.7206      0.00000
     55       1.8359      0.00000
     56       2.1702      0.00000
     57       2.2448      0.00000
     58       2.2947      0.00000
     59       2.7477      0.00000
     60       2.8731      0.00000
     61       2.9053      0.00000
     62       3.1098      0.00000
     63       3.3134      0.00000
     64       3.4070      0.00000
     65       3.4948      0.00000
     66       3.5172      0.00000
     67       3.5341      0.00000
     68       3.5880      0.00000
     69       3.5935      0.00000
     70       3.7710      0.00000
     71       4.0586      0.00000
     72       4.1289      0.00000
     73       4.1978      0.00000
     74       4.3821      0.00000
     75       4.5104      0.00000
     76       4.5605      0.00000
     77       4.6126      0.00000
     78       4.7981      0.00000
     79       4.9068      0.00000
     80       4.9969      0.00000
     81       5.1277      0.00000
     82       5.1677      0.00000
     83       5.2222      0.00000
     84       5.2760      0.00000

 k-point    86 :       0.2750    0.4722    0.0000
  band No.  band energies     occupation 
      1     -17.6831      2.00000
      2     -17.5496      2.00000
      3     -17.1194      2.00000
      4     -16.9869      2.00000
      5     -13.9974      2.00000
      6     -13.8758      2.00000
      7     -13.5528      2.00000
      8     -13.4302      2.00000
      9     -11.2284      2.00000
     10     -11.0754      2.00000
     11     -11.0618      2.00000
     12     -10.6514      2.00000
     13     -10.6202      2.00000
     14     -10.4298      2.00000
     15      -9.5550      2.00000
     16      -9.2981      2.00000
     17      -9.1440      2.00000
     18      -8.9587      2.00000
     19      -8.3861      2.00000
     20      -8.2550      2.00000
     21      -7.7340      2.00000
     22      -7.6229      2.00000
     23      -7.0724      2.00000
     24      -7.0120      2.00000
     25      -6.5644      2.00000
     26      -6.4990      2.00000
     27      -6.4791      2.00000
     28      -6.4368      2.00000
     29      -6.3466      2.00000
     30      -6.1984      2.00000
     31      -6.1511      2.00000
     32      -5.7397      2.00000
     33      -5.6989      2.00000
     34      -5.6340      2.00000
     35      -4.9875      2.00000
     36      -4.8346      2.00000
     37      -4.8319      2.00000
     38      -4.7269      2.00000
     39      -3.8006      2.00000
     40      -3.6747      2.00000
     41      -3.0930      2.00000
     42      -2.9666      1.99925
     43      -2.7875      1.59662
     44      -2.5340      0.00598
     45      -2.1986      0.00000
     46      -1.9246      0.00000
     47       0.2891      0.00000
     48       0.7521      0.00000
     49       0.9291      0.00000
     50       1.1148      0.00000
     51       1.2000      0.00000
     52       1.5169      0.00000
     53       1.6845      0.00000
     54       1.7227      0.00000
     55       1.8481      0.00000
     56       2.1253      0.00000
     57       2.2925      0.00000
     58       2.3248      0.00000
     59       2.7672      0.00000
     60       2.9200      0.00000
     61       2.9652      0.00000
     62       3.1908      0.00000
     63       3.3095      0.00000
     64       3.4448      0.00000
     65       3.4549      0.00000
     66       3.4650      0.00000
     67       3.5596      0.00000
     68       3.6510      0.00000
     69       3.7092      0.00000
     70       3.8221      0.00000
     71       3.9749      0.00000
     72       4.0796      0.00000
     73       4.2515      0.00000
     74       4.4066      0.00000
     75       4.4483      0.00000
     76       4.5545      0.00000
     77       4.6959      0.00000
     78       4.7164      0.00000
     79       4.8129      0.00000
     80       4.9429      0.00000
     81       5.0542      0.00000
     82       5.1060      0.00000
     83       5.2695      0.00000
     84       5.3187      0.00000

 k-point    87 :       0.3250    0.4722    0.0000
  band No.  band energies     occupation 
      1     -17.6302      2.00000
      2     -17.4972      2.00000
      3     -17.1750      2.00000
      4     -17.0429      2.00000
      5     -14.0139      2.00000
      6     -13.8888      2.00000
      7     -13.6463      2.00000
      8     -13.5208      2.00000
      9     -11.0151      2.00000
     10     -10.9605      2.00000
     11     -10.8031      2.00000
     12     -10.6745      2.00000
     13     -10.4976      2.00000
     14     -10.3113      2.00000
     15      -9.4894      2.00000
     16      -9.4601      2.00000
     17      -9.3071      2.00000
     18      -9.0018      2.00000
     19      -8.6847      2.00000
     20      -8.5577      2.00000
     21      -7.6347      2.00000
     22      -7.5262      2.00000
     23      -7.1251      2.00000
     24      -7.0907      2.00000
     25      -6.6469      2.00000
     26      -6.5813      2.00000
     27      -6.4548      2.00000
     28      -6.3669      2.00000
     29      -6.2104      2.00000
     30      -6.1359      2.00000
     31      -6.1214      2.00000
     32      -5.8766      2.00000
     33      -5.5639      2.00000
     34      -5.5009      2.00000
     35      -4.9636      2.00000
     36      -4.8013      2.00000
     37      -4.7065      2.00000
     38      -4.6166      2.00000
     39      -3.6614      2.00000
     40      -3.5530      2.00000
     41      -3.5249      2.00000
     42      -3.3788      2.00000
     43      -2.7699      1.44238
     44      -2.5590      0.01659
     45      -2.1905      0.00000
     46      -1.9649      0.00000
     47       0.4697      0.00000
     48       0.8011      0.00000
     49       1.0870      0.00000
     50       1.1239      0.00000
     51       1.1572      0.00000
     52       1.4842      0.00000
     53       1.5896      0.00000
     54       1.7899      0.00000
     55       1.9773      0.00000
     56       2.1681      0.00000
     57       2.2820      0.00000
     58       2.4002      0.00000
     59       2.7470      0.00000
     60       2.8815      0.00000
     61       3.0375      0.00000
     62       3.2058      0.00000
     63       3.3265      0.00000
     64       3.4392      0.00000
     65       3.4393      0.00000
     66       3.5255      0.00000
     67       3.5850      0.00000
     68       3.6064      0.00000
     69       3.7814      0.00000
     70       3.9179      0.00000
     71       4.0447      0.00000
     72       4.1224      0.00000
     73       4.1961      0.00000
     74       4.3349      0.00000
     75       4.3387      0.00000
     76       4.3822      0.00000
     77       4.6061      0.00000
     78       4.7934      0.00000
     79       4.8320      0.00000
     80       4.8846      0.00000
     81       4.9657      0.00000
     82       5.0043      0.00000
     83       5.1730      0.00000
     84       5.2060      0.00000

 k-point    88 :       0.3750    0.4722    0.0000
  band No.  band energies     occupation 
      1     -17.5712      2.00000
      2     -17.4386      2.00000
      3     -17.2368      2.00000
      4     -17.1049      2.00000
      5     -14.0111      2.00000
      6     -13.8835      2.00000
      7     -13.7364      2.00000
      8     -13.6088      2.00000
      9     -10.9644      2.00000
     10     -10.7531      2.00000
     11     -10.6360      2.00000
     12     -10.5187      2.00000
     13     -10.3605      2.00000
     14     -10.1780      2.00000
     15      -9.6209      2.00000
     16      -9.4720      2.00000
     17      -9.4169      2.00000
     18      -9.0550      2.00000
     19      -8.9924      2.00000
     20      -8.8690      2.00000
     21      -7.5211      2.00000
     22      -7.4151      2.00000
     23      -7.1740      2.00000
     24      -7.1498      2.00000
     25      -6.7858      2.00000
     26      -6.7147      2.00000
     27      -6.4401      2.00000
     28      -6.3690      2.00000
     29      -6.2468      2.00000
     30      -6.0051      2.00000
     31      -5.8888      2.00000
     32      -5.8658      2.00000
     33      -5.4356      2.00000
     34      -5.3735      2.00000
     35      -4.9460      2.00000
     36      -4.7740      2.00000
     37      -4.6020      2.00000
     38      -4.5329      2.00000
     39      -3.9420      2.00000
     40      -3.8211      2.00000
     41      -3.5208      2.00000
     42      -3.4390      2.00000
     43      -2.7486      1.22493
     44      -2.5880      0.04711
     45      -2.1770      0.00000
     46      -2.0084      0.00000
     47       0.6268      0.00000
     48       0.8355      0.00000
     49       1.0642      0.00000
     50       1.1353      0.00000
     51       1.2082      0.00000
     52       1.5025      0.00000
     53       1.5480      0.00000
     54       1.8851      0.00000
     55       2.0719      0.00000
     56       2.2482      0.00000
     57       2.2949      0.00000
     58       2.4503      0.00000
     59       2.6991      0.00000
     60       2.7979      0.00000
     61       3.0270      0.00000
     62       3.1771      0.00000
     63       3.2799      0.00000
     64       3.3738      0.00000
     65       3.4514      0.00000
     66       3.5243      0.00000
     67       3.6898      0.00000
     68       3.7193      0.00000
     69       3.7481      0.00000
     70       3.9033      0.00000
     71       4.0792      0.00000
     72       4.1755      0.00000
     73       4.2274      0.00000
     74       4.2583      0.00000
     75       4.3695      0.00000
     76       4.4300      0.00000
     77       4.4829      0.00000
     78       4.6910      0.00000
     79       4.7765      0.00000
     80       4.8178      0.00000
     81       4.8500      0.00000
     82       5.0029      0.00000
     83       5.0157      0.00000
     84       5.1124      0.00000

 k-point    89 :       0.4250    0.4722    0.0000
  band No.  band energies     occupation 
      1     -17.5073      2.00000
      2     -17.3750      2.00000
      3     -17.3029      2.00000
      4     -17.1711      2.00000
      5     -13.9889      2.00000
      6     -13.8596      2.00000
      7     -13.8191      2.00000
      8     -13.6899      2.00000
      9     -10.9122      2.00000
     10     -10.7684      2.00000
     11     -10.3941      2.00000
     12     -10.2392      2.00000
     13     -10.2038      2.00000
     14     -10.0223      2.00000
     15      -9.7697      2.00000
     16      -9.6320      2.00000
     17      -9.3433      2.00000
     18      -9.3022      2.00000
     19      -9.1817      2.00000
     20      -9.1173      2.00000
     21      -7.3961      2.00000
     22      -7.2909      2.00000
     23      -7.2051      2.00000
     24      -7.1939      2.00000
     25      -6.9376      2.00000
     26      -6.8618      2.00000
     27      -6.4276      2.00000
     28      -6.3866      2.00000
     29      -6.2545      2.00000
     30      -6.1037      2.00000
     31      -5.6126      2.00000
     32      -5.5950      2.00000
     33      -5.3309      2.00000
     34      -5.2778      2.00000
     35      -4.9329      2.00000
     36      -4.7475      2.00000
     37      -4.5239      2.00000
     38      -4.4812      2.00000
     39      -4.3322      2.00000
     40      -4.1906      2.00000
     41      -3.4320      2.00000
     42      -3.3782      2.00000
     43      -2.7229      0.93771
     44      -2.6214      0.13042
     45      -2.1566      0.00000
     46      -2.0522      0.00000
     47       0.7358      0.00000
     48       0.8520      0.00000
     49       1.0262      0.00000
     50       1.0918      0.00000
     51       1.2786      0.00000
     52       1.4290      0.00000
     53       1.7274      0.00000
     54       1.9781      0.00000
     55       2.1914      0.00000
     56       2.2552      0.00000
     57       2.3911      0.00000
     58       2.4910      0.00000
     59       2.6523      0.00000
     60       2.7102      0.00000
     61       2.7354      0.00000
     62       3.1125      0.00000
     63       3.3026      0.00000
     64       3.3364      0.00000
     65       3.3945      0.00000
     66       3.5432      0.00000
     67       3.6555      0.00000
     68       3.8327      0.00000
     69       3.8661      0.00000
     70       3.9596      0.00000
     71       4.1496      0.00000
     72       4.1563      0.00000
     73       4.1740      0.00000
     74       4.3637      0.00000
     75       4.4001      0.00000
     76       4.4844      0.00000
     77       4.5108      0.00000
     78       4.5757      0.00000
     79       4.5983      0.00000
     80       4.7332      0.00000
     81       4.8023      0.00000
     82       4.9423      0.00000
     83       4.9769      0.00000
     84       5.0228      0.00000

 k-point    90 :       0.4750    0.4722    0.0000
  band No.  band energies     occupation 
      1     -17.4401      2.00000
      2     -17.3713      2.00000
      3     -17.3081      2.00000
      4     -17.2395      2.00000
      5     -13.9481      2.00000
      6     -13.8907      2.00000
      7     -13.8181      2.00000
      8     -13.7607      2.00000
      9     -10.8605      2.00000
     10     -10.8114      2.00000
     11     -10.1871      2.00000
     12     -10.0812      2.00000
     13     -10.0060      2.00000
     14      -9.8701      2.00000
     15      -9.8210      2.00000
     16      -9.7308      2.00000
     17      -9.6006      2.00000
     18      -9.4928      2.00000
     19      -9.2616      2.00000
     20      -9.1876      2.00000
     21      -7.2754      2.00000
     22      -7.2276      2.00000
     23      -7.1968      2.00000
     24      -7.1553      2.00000
     25      -7.0873      2.00000
     26      -7.0109      2.00000
     27      -6.4156      2.00000
     28      -6.4024      2.00000
     29      -6.2322      2.00000
     30      -6.1811      2.00000
     31      -5.3693      2.00000
     32      -5.3616      2.00000
     33      -5.2815      2.00000
     34      -5.2530      2.00000
     35      -4.8803      2.00000
     36      -4.6829      2.00000
     37      -4.6752      2.00000
     38      -4.4995      2.00000
     39      -4.4744      2.00000
     40      -4.4590      2.00000
     41      -3.3744      2.00000
     42      -3.3557      2.00000
     43      -2.6920      0.60698
     44      -2.6572      0.31414
     45      -2.1285      0.00000
     46      -2.0931      0.00000
     47       0.8018      0.00000
     48       0.8405      0.00000
     49       1.0227      0.00000
     50       1.0497      0.00000
     51       1.3235      0.00000
     52       1.3699      0.00000
     53       1.9895      0.00000
     54       2.0759      0.00000
     55       2.1206      0.00000
     56       2.3640      0.00000
     57       2.4504      0.00000
     58       2.4674      0.00000
     59       2.5161      0.00000
     60       2.6146      0.00000
     61       2.7075      0.00000
     62       2.9689      0.00000
     63       3.1601      0.00000
     64       3.2280      0.00000
     65       3.5143      0.00000
     66       3.5827      0.00000
     67       3.8037      0.00000
     68       3.9151      0.00000
     69       3.9248      0.00000
     70       3.9440      0.00000
     71       4.1083      0.00000
     72       4.1568      0.00000
     73       4.2321      0.00000
     74       4.2729      0.00000
     75       4.3849      0.00000
     76       4.5215      0.00000
     77       4.5445      0.00000
     78       4.5742      0.00000
     79       4.6187      0.00000
     80       4.7181      0.00000
     81       4.7901      0.00000
     82       4.8412      0.00000
     83       4.8502      0.00000
     84       4.9842      0.00000


--------------------------------------------------------------------------------------------------------


 soft charge-density along one line, spin component           1
         0         1         2         3         4         5         6         7         8         9
 total charge-density along one line
 
 pseudopotential strength for first ion, spin component:           1
  6.768  10.329  -0.009  -0.001   0.006  -0.014  -0.001   0.009
 10.329  15.761  -0.014  -0.001   0.009  -0.021  -0.002   0.014
 -0.009  -0.014  -2.334   0.000  -0.001  -4.011   0.000  -0.002
 -0.001  -0.001   0.000  -2.330   0.000   0.000  -4.002   0.000
  0.006   0.009  -0.001   0.000  -2.333  -0.002   0.000  -4.009
 -0.014  -0.021  -4.011   0.000  -0.002  -6.696   0.001  -0.005
 -0.001  -0.002   0.000  -4.002   0.000   0.001  -6.675   0.001
  0.009   0.014  -0.002   0.000  -4.009  -0.005   0.001  -6.690
 total augmentation occupancy for first ion, spin component:           1
  3.695  -1.000  -0.250   0.001   0.400   0.125   0.003  -0.172
 -1.000   0.295   0.159   0.008  -0.194  -0.056  -0.003   0.073
 -0.250   0.159   3.930   0.002   0.312  -1.098   0.003  -0.119
  0.001   0.008   0.002   2.277  -0.000   0.003  -0.560   0.004
  0.400  -0.194   0.312  -0.000   3.684  -0.120   0.004  -1.002
  0.125  -0.056  -1.098   0.003  -0.120   0.317  -0.002   0.043
  0.003  -0.003   0.003  -0.560   0.004  -0.002   0.142  -0.002
 -0.172   0.073  -0.119   0.004  -1.002   0.043  -0.002   0.283


------------------------ aborting loop because EDIFF is reached ----------------------------------------


    CHARGE:  cpu time      1.1789: real time      1.1852
    FORLOC:  cpu time      0.0061: real time      0.0061
    FORNL :  cpu time      9.4829: real time      9.5327
    STRESS:  cpu time     26.9822: real time     27.1256
    FORCOR:  cpu time      0.0639: real time      0.0642
    FORHAR:  cpu time      0.0182: real time      0.0183
    MIXING:  cpu time      0.0031: real time      0.0031
    OFIELD:  cpu time      0.0000: real time      0.0000

 ---------------------------------------------------------------------------------------------

         DFTD3 V3.0 Rev 1        
 DF pbe       
 parameters
 k1-k3        =   16.0000    1.3333   -4.0000
 Edisp (eV)   -3.13807

 E6    (eV) :    -2.0650
 E8    (eV) :    -1.0731
 % E8        : 34.19
    FORVDW:  cpu time      0.0325: real time      0.0330

  FORCE on cell =-STRESS in cart. coord.  units (eV):
  Direction    XX          YY          ZZ          XY          YZ          ZX
  --------------------------------------------------------------------------------------
  Alpha Z    51.34042    51.34042    51.34042
  Ewald   25884.62104 25794.34953-27280.62112    -0.00000     0.00000    -0.00000
  Hartree 25838.54242 25786.93209-25519.60358     0.00000    -0.00000    -0.00000
  E(xc)    -267.81683  -267.84665  -270.19782     0.00000    -0.00000    -0.00000
  Local  -52387.69734-52244.30457 52102.24350     0.00000    -0.00000    -0.00000
  n-local   -17.99560   -20.32143   -11.62419     0.26807    -0.00000    -0.00000
  augment     2.82169     2.83508     3.21203     0.00000    -0.00000     0.00000
  Kinetic   905.18508   912.14916   901.72315    -3.04680    -0.00000     0.00000
  Fock        0.00000     0.00000     0.00000     0.00000     0.00000     0.00000
  vdW        -3.31832    -3.26488    -2.03084    -0.00000     0.00000    -0.00000
  -------------------------------------------------------------------------------------
  Total       5.68258    11.86875   -25.55843     0.00000     0.00000     0.00000
  in kB       8.66647    18.10095   -38.97900     0.00000     0.00000     0.00000
  external pressure =       -4.07 kB  Pullay stress =        0.00 kB


 VOLUME and BASIS-vectors are now :
 -----------------------------------------------------------------------------
  energy-cutoff  :      600.00
  volume of cell :     1050.54
      direct lattice vectors                 reciprocal lattice vectors
     5.679996051  0.000000000  0.000000000     0.176056460  0.000000000  0.000000000
     0.000000000  6.147111186  0.000000000     0.000000000  0.162678040  0.000000000
     0.000000000  0.000000000 30.088116646     0.000000000  0.000000000  0.033235713

  length of vectors
     5.679996051  6.147111186 30.088116646     0.176056460  0.162678040  0.033235713


 FORCES acting on ions
    electron-ion (+dipol)            ewald-force                    non-local-force                 convergence-correction
 -----------------------------------------------------------------------------------------------
   0.462E+02 -.234E+02 0.239E+03   -.485E+02 0.269E+02 -.238E+03   0.195E+01 -.308E+01 -.394E+00   0.191E-05 -.491E-05 -.987E-05
   0.462E+02 -.234E+02 -.239E+03   -.485E+02 0.269E+02 0.238E+03   0.195E+01 -.308E+01 0.394E+00   0.191E-05 -.491E-05 0.987E-05
   -.462E+02 0.234E+02 0.239E+03   0.485E+02 -.269E+02 -.238E+03   -.195E+01 0.308E+01 -.394E+00   -.191E-05 0.491E-05 -.987E-05
   -.462E+02 0.234E+02 -.239E+03   0.485E+02 -.269E+02 0.238E+03   -.195E+01 0.308E+01 0.394E+00   -.191E-05 0.491E-05 0.987E-05
   -.462E+02 -.234E+02 0.239E+03   0.485E+02 0.269E+02 -.238E+03   -.195E+01 -.308E+01 -.394E+00   -.191E-05 -.491E-05 -.987E-05
   -.462E+02 -.234E+02 -.239E+03   0.485E+02 0.269E+02 0.238E+03   -.195E+01 -.308E+01 0.394E+00   -.191E-05 -.491E-05 0.987E-05
   0.462E+02 0.234E+02 0.239E+03   -.485E+02 -.269E+02 -.238E+03   0.195E+01 0.308E+01 -.394E+00   0.191E-05 0.491E-05 -.987E-05
   0.462E+02 0.234E+02 -.239E+03   -.485E+02 -.269E+02 0.238E+03   0.195E+01 0.308E+01 0.394E+00   0.191E-05 0.491E-05 0.987E-05
   0.273E+02 -.480E+02 0.241E+03   -.301E+02 0.525E+02 -.240E+03   0.262E+01 -.418E+01 -.486E+00   0.463E-06 0.192E-05 -.960E-05
   0.273E+02 -.480E+02 -.241E+03   -.301E+02 0.525E+02 0.240E+03   0.262E+01 -.418E+01 0.486E+00   0.463E-06 0.192E-05 0.960E-05
   -.273E+02 0.480E+02 0.241E+03   0.301E+02 -.525E+02 -.240E+03   -.262E+01 0.418E+01 -.486E+00   -.463E-06 -.192E-05 -.960E-05
   -.273E+02 0.480E+02 -.241E+03   0.301E+02 -.525E+02 0.240E+03   -.262E+01 0.418E+01 0.486E+00   -.463E-06 -.192E-05 0.960E-05
   -.273E+02 -.480E+02 0.241E+03   0.301E+02 0.525E+02 -.240E+03   -.262E+01 -.418E+01 -.486E+00   -.463E-06 0.192E-05 -.960E-05
   -.273E+02 -.480E+02 -.241E+03   0.301E+02 0.525E+02 0.240E+03   -.262E+01 -.418E+01 0.486E+00   -.463E-06 0.192E-05 0.960E-05
   0.273E+02 0.480E+02 0.241E+03   -.301E+02 -.525E+02 -.240E+03   0.262E+01 0.418E+01 -.486E+00   0.463E-06 -.192E-05 -.960E-05
   0.273E+02 0.480E+02 -.241E+03   -.301E+02 -.525E+02 0.240E+03   0.262E+01 0.418E+01 0.486E+00   0.463E-06 -.192E-05 0.960E-05
   0.389E-07 -.159E+02 0.432E+02   0.798E-08 0.171E+02 -.398E+02   -.173E-17 -.137E+01 -.665E+01   -.605E-13 -.487E-06 -.825E-05
   0.309E-07 -.108E+02 -.466E+03   0.103E-07 0.116E+02 0.464E+03   0.347E-17 -.101E+01 -.159E+01   -.302E-13 -.138E-05 0.148E-04
   0.469E-07 0.108E+02 0.466E+03   0.182E-07 -.116E+02 -.464E+03   0.347E-17 0.101E+01 0.159E+01   0.545E-13 0.138E-05 -.148E-04
   0.596E-07 0.159E+02 -.432E+02   0.179E-07 -.171E+02 0.398E+02   0.173E-17 0.137E+01 0.665E+01   0.896E-13 0.487E-06 0.825E-05
   0.295E-07 -.108E+02 0.466E+03   0.103E-07 0.116E+02 -.464E+03   0.000E+00 -.101E+01 0.159E+01   -.333E-13 -.138E-05 -.148E-04
   0.387E-07 -.159E+02 -.432E+02   0.798E-08 0.171E+02 0.398E+02   0.000E+00 -.137E+01 0.665E+01   -.612E-13 -.487E-06 0.825E-05
   0.593E-07 0.159E+02 0.432E+02   0.179E-07 -.171E+02 -.398E+02   0.000E+00 0.137E+01 -.665E+01   0.885E-13 0.487E-06 -.825E-05
   0.455E-07 0.108E+02 -.466E+03   0.182E-07 -.116E+02 0.464E+03   0.000E+00 0.101E+01 -.159E+01   0.600E-13 0.138E-05 0.148E-04
   0.895E-08 -.594E+02 0.237E+03   0.976E-07 0.626E+02 -.237E+03   -.173E-17 -.312E+01 -.403E+00   0.704E-13 -.342E-05 -.976E-05
   0.451E-08 -.594E+02 -.237E+03   0.976E-07 0.626E+02 0.237E+03   -.867E-18 -.312E+01 0.403E+00   0.689E-13 -.342E-05 0.976E-05
   0.209E-08 0.594E+02 0.237E+03   0.542E-07 -.626E+02 -.237E+03   0.867E-18 0.312E+01 -.403E+00   -.672E-13 0.342E-05 -.976E-05
   0.653E-08 0.594E+02 -.237E+03   0.542E-07 -.626E+02 0.237E+03   0.173E-17 0.312E+01 0.403E+00   -.669E-13 0.342E-05 0.976E-05
 -----------------------------------------------------------------------------------------------
   0.214E-06 0.419E-04 -.412E-04   -.302E-13 0.284E-13 -.568E-13   0.694E-17 0.000E+00 0.222E-15   0.134E-12 -.126E-10 0.213E-07
 
 
 POSITION                                       TOTAL-FORCE (eV/Angst)
 -----------------------------------------------------------------------------------
      2.96805      3.92015      4.01906        -0.387890      0.411123     -0.127043
      2.96805      3.92015      8.06906        -0.387890      0.411123      0.127043
      2.71194      2.22696      4.01906         0.387890     -0.411123     -0.127043
      2.71194      2.22696      8.06906         0.387890     -0.411123      0.127043
      5.55194      3.92015      4.01906         0.387890      0.411123     -0.127043
      5.55194      3.92015      8.06906         0.387890      0.411123      0.127043
      0.12805      2.22696      4.01906        -0.387890     -0.411123     -0.127043
      0.12805      2.22696      8.06906        -0.387890     -0.411123      0.127043
      3.39666      5.53313      4.00005        -0.210085      0.344726     -0.188711
      3.39666      5.53313      8.08806        -0.210085      0.344726      0.188711
      2.28334      0.61398      4.00005         0.210085     -0.344726     -0.188711
      2.28334      0.61398      8.08806         0.210085     -0.344726      0.188711
      5.12334      5.53313      4.00005         0.210085      0.344726     -0.188711
      5.12334      5.53313      8.08806         0.210085      0.344726      0.188711
      0.55666      0.61398      4.00005        -0.210085     -0.344726     -0.188711
      0.55666      0.61398      8.08806        -0.210085     -0.344726      0.188711
      4.26000      4.50802      5.22143         0.000000     -0.205853     -3.235117
      4.26000      4.47998      9.26014         0.000000     -0.223285     -3.353008
      1.42000      1.66714      2.82797         0.000000      0.223285      3.353008
      1.42000      1.63909      6.86669         0.000000      0.205853      3.235117
      4.26000      4.47998      2.82797         0.000000     -0.223285      3.353008
      4.26000      4.50802      6.86669         0.000000     -0.205853      3.235117
      1.42000      1.63909      5.22143         0.000000      0.205853     -3.235117
      1.42000      1.66714      9.26014         0.000000      0.223285     -3.353008
      1.42000      3.23176      4.02330         0.000000      0.169210     -0.241944
      1.42000      3.23176      8.06482         0.000000      0.169210      0.241944
      4.26000      2.91535      4.02330         0.000000     -0.169210     -0.241944
      4.26000      2.91535      8.06482         0.000000     -0.169210      0.241944
 -----------------------------------------------------------------------------------
    total drift:                                0.000000      0.000042     -0.000041


--------------------------------------------------------------------------------------------------------



  FREE ENERGIE OF THE ION-ELECTRON SYSTEM (eV)
  ---------------------------------------------------
  free  energy   TOTEN  =      -177.24996135 eV

  energy  without entropy=     -177.21425747  energy(sigma->0) =     -177.23210941
 


--------------------------------------------------------------------------------------------------------


    POTLOK:  cpu time      0.0702: real time      0.0711


--------------------------------------------------------------------------------------------------------


 writing wavefunctions
     LOOP+:  cpu time   1000.2672: real time   1023.8104
 vacuum level on the upper side and lower side of the slab         2.001         2.003
    4ORBIT:  cpu time      0.0000: real time      0.0000

 total amount of memory used by VASP MPI-rank0   387229. kBytes
=======================================================================

   base                                    :      30000. kBytes
   nonl-proj                               :     218236. kBytes
   fftplans                                :       6929. kBytes
   grid                                    :      30009. kBytes
   one-center                              :         86. kBytes
   wavefun                                 :     101969. kBytes
 
  
  
 General timing and accounting informations for this job:
 ========================================================
  
                  Total CPU time used (sec):     1019.190
                            User time (sec):      898.941
                          System time (sec):      120.249
                         Elapsed time (sec):     1044.032
  
                   Maximum memory used (kb):      744836.
                   Average memory used (kb):          N/A
  
                          Minor page faults:        37017
                          Major page faults:           45
                 Voluntary context switches:        54989
