  18  18   0   0
  0.5207225E+02  0.5699758E-09  0.6314134E-09  0.2604406E-08  0.5000000E-15
  1.000000000000000E-004
  CAR 
 Parameters                              
      3.47182957    -20.49514018  301     -5.31335022      1.00000000
    -20.495  0.0000E+00  0.0000E+00
    -20.415  0.0000E+00  0.0000E+00
    -20.335  0.0000E+00  0.0000E+00
    -20.255  0.0000E+00  0.0000E+00
    -20.176  0.0000E+00  0.0000E+00
    -20.096  0.0000E+00  0.0000E+00
    -20.016  0.0000E+00  0.0000E+00
    -19.936  0.0000E+00  0.0000E+00
    -19.856  0.0000E+00  0.0000E+00
    -19.776  0.0000E+00  0.0000E+00
    -19.696  0.2059E-18  0.1645E-19
    -19.616  0.3097E-11  0.2474E-12
    -19.536  0.3229E-06  0.2580E-07
    -19.457  0.3239E-03  0.2590E-04
    -19.377  0.7394E-02  0.6166E-03
    -19.297  0.1860E-01  0.2102E-02
    -19.217  0.1708E-01  0.3467E-02
    -19.137  0.1150E-01  0.4385E-02
    -19.057  0.1042E-01  0.5217E-02
    -18.977  0.8412E-02  0.5889E-02
    -18.897  0.9242E-02  0.6628E-02
    -18.817  0.6772E-02  0.7169E-02
    -18.738  0.1004E-01  0.7971E-02
    -18.658  0.5901E-02  0.8442E-02
    -18.578  0.1103E-01  0.9323E-02
    -18.498  0.8137E-02  0.9973E-02
    -18.418  0.1430E-01  0.1112E-01
    -18.338  0.1332E-01  0.1218E-01
    -18.258  0.1014E-01  0.1299E-01
    -18.178  0.4085E-02  0.1332E-01
    -18.098  0.2069E-03  0.1333E-01
    -18.019  0.2039E-06  0.1333E-01
    -17.939  0.1958E-11  0.1333E-01
    -17.859  0.0000E+00  0.1333E-01
    -17.779  0.0000E+00  0.1333E-01
    -17.699  0.0000E+00  0.1333E-01
    -17.619  0.0000E+00  0.1333E-01
    -17.539  0.0000E+00  0.1333E-01
    -17.459  0.0000E+00  0.1333E-01
    -17.379  0.0000E+00  0.1333E-01
    -17.300  0.0000E+00  0.1333E-01
    -17.220  0.0000E+00  0.1333E-01
    -17.140  0.0000E+00  0.1333E-01
    -17.060  0.0000E+00  0.1333E-01
    -16.980  0.0000E+00  0.1333E-01
    -16.900  0.0000E+00  0.1333E-01
    -16.820  0.0000E+00  0.1333E-01
    -16.740  0.0000E+00  0.1333E-01
    -16.660  0.0000E+00  0.1333E-01
    -16.581  0.0000E+00  0.1333E-01
    -16.501  0.0000E+00  0.1333E-01
    -16.421  0.0000E+00  0.1333E-01
    -16.341  0.0000E+00  0.1333E-01
    -16.261  0.0000E+00  0.1333E-01
    -16.181  0.0000E+00  0.1333E-01
    -16.101  0.0000E+00  0.1333E-01
    -16.021  0.0000E+00  0.1333E-01
    -15.941  0.0000E+00  0.1333E-01
    -15.862  0.2059E-18  0.1333E-01
    -15.782  0.2211E-11  0.1333E-01
    -15.702  0.2864E-06  0.1333E-01
    -15.622  0.3381E-03  0.1336E-01
    -15.542  0.8070E-02  0.1401E-01
    -15.462  0.2426E-01  0.1594E-01
    -15.382  0.3197E-01  0.1850E-01
    -15.302  0.1582E-01  0.1976E-01
    -15.222  0.9557E-02  0.2053E-01
    -15.143  0.1184E-01  0.2147E-01
    -15.063  0.1570E-01  0.2273E-01
    -14.983  0.2327E-01  0.2458E-01
    -14.903  0.1183E-01  0.2553E-01
    -14.823  0.8323E-02  0.2619E-01
    -14.743  0.4362E-02  0.2654E-01
    -14.663  0.1522E-02  0.2666E-01
    -14.583  0.2422E-04  0.2667E-01
    -14.503  0.3929E-08  0.2667E-01
    -14.424  0.4701E-14  0.2667E-01
    -14.344  0.0000E+00  0.2667E-01
    -14.264  0.0000E+00  0.2667E-01
    -14.184  0.0000E+00  0.2667E-01
    -14.104  0.0000E+00  0.2667E-01
    -14.024  0.0000E+00  0.2667E-01
    -13.944  0.0000E+00  0.2667E-01
    -13.864  0.3053E-15  0.2667E-01
    -13.784  0.5814E-09  0.2667E-01
    -13.704  0.7968E-05  0.2667E-01
    -13.625  0.1014E-02  0.2675E-01
    -13.545  0.2510E-02  0.2695E-01
    -13.465  0.6661E-03  0.2700E-01
    -13.385  0.3398E-02  0.2727E-01
    -13.305  0.3568E-02  0.2756E-01
    -13.225  0.3130E-02  0.2781E-01
    -13.145  0.2570E-02  0.2801E-01
    -13.065  0.3810E-02  0.2832E-01
    -12.985  0.3071E-02  0.2856E-01
    -12.906  0.8314E-02  0.2923E-01
    -12.826  0.8576E-02  0.2991E-01
    -12.746  0.1555E-01  0.3116E-01
    -12.666  0.7772E-02  0.3178E-01
    -12.586  0.9350E-02  0.3252E-01
    -12.506  0.6103E-02  0.3301E-01
    -12.426  0.4122E-02  0.3334E-01
    -12.346  0.9825E-02  0.3412E-01
    -12.266  0.1549E-01  0.3536E-01
    -12.187  0.1899E-01  0.3688E-01
    -12.107  0.2427E-01  0.3882E-01
    -12.027  0.2318E-01  0.4067E-01
    -11.947  0.2150E-01  0.4239E-01
    -11.867  0.2048E-01  0.4402E-01
    -11.787  0.1680E-01  0.4537E-01
    -11.707  0.9383E-02  0.4612E-01
    -11.627  0.1447E-01  0.4727E-01
    -11.547  0.1503E-01  0.4847E-01
    -11.468  0.2382E-01  0.5038E-01
    -11.388  0.2617E-01  0.5247E-01
    -11.308  0.1556E-01  0.5371E-01
    -11.228  0.1437E-01  0.5486E-01
    -11.148  0.1660E-01  0.5618E-01
    -11.068  0.1356E-01  0.5727E-01
    -10.988  0.4957E-02  0.5766E-01
    -10.908  0.6363E-02  0.5817E-01
    -10.828  0.6540E-02  0.5869E-01
    -10.749  0.1004E-01  0.5950E-01
    -10.669  0.4755E-02  0.5988E-01
    -10.589  0.3459E-02  0.6015E-01
    -10.509  0.5008E-02  0.6055E-01
    -10.429  0.9547E-02  0.6131E-01
    -10.349  0.7256E-02  0.6189E-01
    -10.269  0.6296E-02  0.6240E-01
    -10.189  0.7334E-02  0.6298E-01
    -10.109  0.6605E-02  0.6351E-01
    -10.030  0.5808E-02  0.6397E-01
     -9.950  0.1003E-01  0.6478E-01
     -9.870  0.5513E-02  0.6522E-01
     -9.790  0.7258E-02  0.6580E-01
     -9.710  0.9929E-02  0.6659E-01
     -9.630  0.1201E-01  0.6755E-01
     -9.550  0.3589E-02  0.6784E-01
     -9.470  0.4070E-03  0.6787E-01
     -9.390  0.6259E-02  0.6837E-01
     -9.311  0.1163E-01  0.6930E-01
     -9.231  0.1615E-01  0.7059E-01
     -9.151  0.1468E-01  0.7176E-01
     -9.071  0.3238E-01  0.7435E-01
     -8.991  0.7112E-01  0.8003E-01
     -8.911  0.5199E-01  0.8418E-01
     -8.831  0.2389E-01  0.8609E-01
     -8.751  0.8761E-02  0.8679E-01
     -8.671  0.6082E-02  0.8728E-01
     -8.592  0.1216E-01  0.8825E-01
     -8.512  0.8832E-02  0.8895E-01
     -8.432  0.1534E-01  0.9018E-01
     -8.352  0.1713E-01  0.9155E-01
     -8.272  0.1235E-01  0.9253E-01
     -8.192  0.5735E-02  0.9299E-01
     -8.112  0.9613E-02  0.9376E-01
     -8.032  0.2267E-01  0.9557E-01
     -7.952  0.1783E-01  0.9699E-01
     -7.873  0.1930E-01  0.9854E-01
     -7.793  0.2484E-01  0.1005E+00
     -7.713  0.2547E-01  0.1026E+00
     -7.633  0.3699E-01  0.1055E+00
     -7.553  0.2731E-01  0.1077E+00
     -7.473  0.1759E-01  0.1091E+00
     -7.393  0.1256E-01  0.1101E+00
     -7.313  0.1801E-01  0.1115E+00
     -7.233  0.1612E-01  0.1128E+00
     -7.154  0.1162E-01  0.1138E+00
     -7.074  0.1261E-01  0.1148E+00
     -6.994  0.3112E-01  0.1172E+00
     -6.914  0.2563E-01  0.1193E+00
     -6.834  0.2666E-01  0.1214E+00
     -6.754  0.2703E-01  0.1236E+00
     -6.674  0.3050E-01  0.1260E+00
     -6.594  0.2823E-01  0.1283E+00
     -6.514  0.3385E-01  0.1310E+00
     -6.435  0.3395E-01  0.1337E+00
     -6.355  0.2516E-01  0.1357E+00
     -6.275  0.1994E-01  0.1373E+00
     -6.195  0.1917E-01  0.1388E+00
     -6.115  0.7694E-02  0.1394E+00
     -6.035  0.1011E-01  0.1403E+00
     -5.955  0.1666E-01  0.1416E+00
     -5.875  0.2345E-01  0.1435E+00
     -5.795  0.2071E-01  0.1451E+00
     -5.716  0.1692E-01  0.1465E+00
     -5.636  0.1636E-01  0.1478E+00
     -5.556  0.2108E-01  0.1495E+00
     -5.476  0.1931E-01  0.1510E+00
     -5.396  0.1505E-01  0.1522E+00
     -5.316  0.1382E-01  0.1533E+00
     -5.236  0.1400E-01  0.1544E+00
     -5.156  0.1158E-01  0.1553E+00
     -5.076  0.7477E-02  0.1559E+00
     -4.996  0.7161E-03  0.1560E+00
     -4.917  0.1655E-05  0.1560E+00
     -4.837  0.7445E-04  0.1560E+00
     -4.757  0.1223E-02  0.1561E+00
     -4.677  0.1563E-02  0.1562E+00
     -4.597  0.2537E-02  0.1564E+00
     -4.517  0.2172E-02  0.1566E+00
     -4.437  0.8620E-02  0.1573E+00
     -4.357  0.3042E-02  0.1575E+00
     -4.277  0.2925E-02  0.1578E+00
     -4.198  0.1904E-02  0.1579E+00
     -4.118  0.2549E-03  0.1579E+00
     -4.038  0.2570E-02  0.1581E+00
     -3.958  0.1356E-02  0.1583E+00
     -3.878  0.2752E-02  0.1585E+00
     -3.798  0.5324E-03  0.1585E+00
     -3.718  0.5186E-03  0.1586E+00
     -3.638  0.3117E-02  0.1588E+00
     -3.558  0.4176E-02  0.1591E+00
     -3.479  0.3133E-02  0.1594E+00
     -3.399  0.1824E-03  0.1594E+00
     -3.319  0.1655E-06  0.1594E+00
     -3.239  0.3499E-07  0.1594E+00
     -3.159  0.8075E-04  0.1594E+00
     -3.079  0.2127E-02  0.1596E+00
     -2.999  0.1478E-02  0.1597E+00
     -2.919  0.9777E-04  0.1597E+00
     -2.839  0.2087E-02  0.1599E+00
     -2.760  0.1522E-02  0.1600E+00
     -2.680  0.2511E-04  0.1600E+00
     -2.600  0.4189E-08  0.1600E+00
     -2.520  0.5156E-14  0.1600E+00
     -2.440  0.0000E+00  0.1600E+00
     -2.360  0.0000E+00  0.1600E+00
     -2.280  0.0000E+00  0.1600E+00
     -2.200  0.0000E+00  0.1600E+00
     -2.120  0.0000E+00  0.1600E+00
     -2.041  0.0000E+00  0.1600E+00
     -1.961  0.1944E-14  0.1600E+00
     -1.881  0.1723E-08  0.1600E+00
     -1.801  0.1125E-04  0.1600E+00
     -1.721  0.7819E-03  0.1601E+00
     -1.641  0.3583E-02  0.1603E+00
     -1.561  0.6537E-02  0.1609E+00
     -1.481  0.6907E-02  0.1614E+00
     -1.401  0.8874E-02  0.1621E+00
     -1.322  0.7921E-02  0.1628E+00
     -1.242  0.1050E-01  0.1636E+00
     -1.162  0.8983E-02  0.1643E+00
     -1.082  0.6379E-02  0.1648E+00
     -1.002  0.6251E-02  0.1653E+00
     -0.922  0.1040E-01  0.1662E+00
     -0.842  0.5536E-02  0.1666E+00
     -0.762  0.7226E-02  0.1672E+00
     -0.682  0.1506E-01  0.1684E+00
     -0.603  0.1684E-01  0.1697E+00
     -0.523  0.1291E-01  0.1708E+00
     -0.443  0.1594E-01  0.1720E+00
     -0.363  0.2126E-01  0.1737E+00
     -0.283  0.1661E-01  0.1751E+00
     -0.203  0.2006E-01  0.1767E+00
     -0.123  0.2043E-01  0.1783E+00
     -0.043  0.2579E-01  0.1804E+00
      0.037  0.1468E-01  0.1815E+00
      0.116  0.9388E-02  0.1823E+00
      0.196  0.1424E-01  0.1834E+00
      0.276  0.1435E-01  0.1846E+00
      0.356  0.1608E-01  0.1858E+00
      0.436  0.1322E-01  0.1869E+00
      0.516  0.7382E-02  0.1875E+00
      0.596  0.1137E-01  0.1884E+00
      0.676  0.1725E-01  0.1898E+00
      0.756  0.2054E-01  0.1914E+00
      0.835  0.2439E-01  0.1934E+00
      0.915  0.3901E-01  0.1965E+00
      0.995  0.2894E-01  0.1988E+00
      1.075  0.1441E-01  0.1999E+00
      1.155  0.1750E-01  0.2013E+00
      1.235  0.2580E-01  0.2034E+00
      1.315  0.2385E-01  0.2053E+00
      1.395  0.1588E-01  0.2066E+00
      1.475  0.2323E-01  0.2084E+00
      1.554  0.3450E-01  0.2112E+00
      1.634  0.2886E-01  0.2135E+00
      1.714  0.2488E-01  0.2155E+00
      1.794  0.3021E-01  0.2179E+00
      1.874  0.3181E-01  0.2204E+00
      1.954  0.2781E-01  0.2227E+00
      2.034  0.3177E-01  0.2252E+00
      2.114  0.3589E-01  0.2281E+00
      2.194  0.3310E-01  0.2307E+00
      2.273  0.2289E-01  0.2325E+00
      2.353  0.6311E-02  0.2330E+00
      2.433  0.3337E-02  0.2333E+00
      2.513  0.2807E-03  0.2333E+00
      2.593  0.4037E-06  0.2333E+00
      2.673  0.4758E-11  0.2333E+00
      2.753  0.4118E-18  0.2333E+00
      2.833  0.0000E+00  0.2333E+00
      2.913  0.0000E+00  0.2333E+00
      2.992  0.0000E+00  0.2333E+00
      3.072  0.0000E+00  0.2333E+00
      3.152  0.0000E+00  0.2333E+00
      3.232  0.0000E+00  0.2333E+00
      3.312  0.0000E+00  0.2333E+00
      3.392  0.0000E+00  0.2333E+00
      3.472  0.0000E+00  0.2333E+00
