  28  28   0   0
  0.6180874E+02  0.1139952E-08  0.6314134E-09  0.2404406E-08  0.5000000E-15
  1.000000000000000E-004
  CAR 
 SCF                                     
      5.00507050    -21.14696306  301     -4.35171153      1.00000000
    -21.147  0.0000E+00  0.0000E+00
    -21.060  0.0000E+00  0.0000E+00
    -20.973  0.0000E+00  0.0000E+00
    -20.885  0.0000E+00  0.0000E+00
    -20.798  0.0000E+00  0.0000E+00
    -20.711  0.0000E+00  0.0000E+00
    -20.624  0.0000E+00  0.0000E+00
    -20.537  0.1698E-15  0.1480E-16
    -20.450  0.2701E-11  0.2355E-12
    -20.362  0.9507E-08  0.8290E-09
    -20.275  0.7920E-05  0.6913E-06
    -20.188  0.1619E-02  0.1418E-03
    -20.101  0.8597E-01  0.7636E-02
    -20.014  0.1293E+01  0.1204E+00
    -19.927  0.6226E+01  0.6631E+00
    -19.839  0.1139E+02  0.1656E+01
    -19.752  0.1074E+02  0.2592E+01
    -19.665  0.8467E+01  0.3330E+01
    -19.578  0.7473E+01  0.3982E+01
    -19.491  0.7314E+01  0.4619E+01
    -19.403  0.7881E+01  0.5306E+01
    -19.316  0.9570E+01  0.6141E+01
    -19.229  0.1083E+02  0.7084E+01
    -19.142  0.7653E+01  0.7751E+01
    -19.055  0.2526E+01  0.7972E+01
    -18.968  0.3126E+00  0.7999E+01
    -18.880  0.1203E-01  0.8000E+01
    -18.793  0.1266E-03  0.8000E+01
    -18.706  0.3359E-06  0.8000E+01
    -18.619  0.2145E-09  0.8000E+01
    -18.532  0.3190E-13  0.8000E+01
    -18.445  0.0000E+00  0.8000E+01
    -18.357  0.0000E+00  0.8000E+01
    -18.270  0.0000E+00  0.8000E+01
    -18.183  0.0000E+00  0.8000E+01
    -18.096  0.0000E+00  0.8000E+01
    -18.009  0.0000E+00  0.8000E+01
    -17.922  0.0000E+00  0.8000E+01
    -17.834  0.0000E+00  0.8000E+01
    -17.747  0.0000E+00  0.8000E+01
    -17.660  0.0000E+00  0.8000E+01
    -17.573  0.0000E+00  0.8000E+01
    -17.486  0.0000E+00  0.8000E+01
    -17.399  0.0000E+00  0.8000E+01
    -17.311  0.0000E+00  0.8000E+01
    -17.224  0.0000E+00  0.8000E+01
    -17.137  0.0000E+00  0.8000E+01
    -17.050  0.0000E+00  0.8000E+01
    -16.963  0.0000E+00  0.8000E+01
    -16.875  0.0000E+00  0.8000E+01
    -16.788  0.0000E+00  0.8000E+01
    -16.701  0.0000E+00  0.8000E+01
    -16.614  0.0000E+00  0.8000E+01
    -16.527  0.0000E+00  0.8000E+01
    -16.440  0.0000E+00  0.8000E+01
    -16.352  0.0000E+00  0.8000E+01
    -16.265  0.0000E+00  0.8000E+01
    -16.178  0.0000E+00  0.8000E+01
    -16.091  0.5328E-14  0.8000E+01
    -16.004  0.4902E-10  0.8000E+01
    -15.917  0.1043E-06  0.8000E+01
    -15.829  0.5290E-04  0.8000E+01
    -15.742  0.6652E-02  0.8001E+01
    -15.655  0.2213E+00  0.8020E+01
    -15.568  0.2176E+01  0.8210E+01
    -15.481  0.7715E+01  0.8882E+01
    -15.394  0.1413E+02  0.1011E+02
    -15.306  0.1913E+02  0.1178E+02
    -15.219  0.1973E+02  0.1350E+02
    -15.132  0.1534E+02  0.1484E+02
    -15.045  0.8824E+01  0.1561E+02
    -14.958  0.3587E+01  0.1592E+02
    -14.870  0.8240E+00  0.1599E+02
    -14.783  0.7544E-01  0.1600E+02
    -14.696  0.2150E-02  0.1600E+02
    -14.609  0.1662E-04  0.1600E+02
    -14.522  0.3222E-07  0.1600E+02
    -14.435  0.1498E-10  0.1600E+02
    -14.347  0.1712E-14  0.1600E+02
    -14.260  0.9222E-12  0.1600E+02
    -14.173  0.2684E-08  0.1600E+02
    -14.086  0.1836E-05  0.1600E+02
    -13.999  0.3066E-03  0.1600E+02
    -13.912  0.1329E-01  0.1600E+02
    -13.824  0.1651E+00  0.1602E+02
    -13.737  0.6920E+00  0.1608E+02
    -13.650  0.1309E+01  0.1619E+02
    -13.563  0.1699E+01  0.1634E+02
    -13.476  0.2095E+01  0.1652E+02
    -13.389  0.2862E+01  0.1677E+02
    -13.301  0.4936E+01  0.1720E+02
    -13.214  0.8081E+01  0.1790E+02
    -13.127  0.8432E+01  0.1864E+02
    -13.040  0.7023E+01  0.1925E+02
    -12.953  0.6765E+01  0.1984E+02
    -12.865  0.6841E+01  0.2044E+02
    -12.778  0.6737E+01  0.2103E+02
    -12.691  0.7219E+01  0.2165E+02
    -12.604  0.8249E+01  0.2237E+02
    -12.517  0.7992E+01  0.2307E+02
    -12.430  0.5832E+01  0.2358E+02
    -12.342  0.3408E+01  0.2388E+02
    -12.255  0.1232E+01  0.2398E+02
    -12.168  0.1809E+00  0.2400E+02
    -12.081  0.8331E-02  0.2400E+02
    -11.994  0.1048E-03  0.2400E+02
    -11.907  0.3335E-06  0.2400E+02
    -11.819  0.3101E-06  0.2400E+02
    -11.732  0.1225E-03  0.2400E+02
    -11.645  0.1207E-01  0.2400E+02
    -11.558  0.3147E+00  0.2403E+02
    -11.471  0.2399E+01  0.2424E+02
    -11.384  0.6477E+01  0.2480E+02
    -11.296  0.9141E+01  0.2560E+02
    -11.209  0.1070E+02  0.2653E+02
    -11.122  0.1179E+02  0.2756E+02
    -11.035  0.1206E+02  0.2861E+02
    -10.948  0.1088E+02  0.2956E+02
    -10.860  0.9452E+01  0.3038E+02
    -10.773  0.8641E+01  0.3114E+02
    -10.686  0.8169E+01  0.3185E+02
    -10.599  0.7896E+01  0.3254E+02
    -10.512  0.7334E+01  0.3318E+02
    -10.425  0.6896E+01  0.3378E+02
    -10.337  0.7196E+01  0.3440E+02
    -10.250  0.8146E+01  0.3511E+02
    -10.163  0.9883E+01  0.3598E+02
    -10.076  0.1130E+02  0.3696E+02
     -9.989  0.1078E+02  0.3790E+02
     -9.902  0.1001E+02  0.3877E+02
     -9.814  0.9309E+01  0.3958E+02
     -9.727  0.7692E+01  0.4026E+02
     -9.640  0.6680E+01  0.4084E+02
     -9.553  0.7305E+01  0.4147E+02
     -9.466  0.8142E+01  0.4218E+02
     -9.379  0.6451E+01  0.4275E+02
     -9.291  0.4261E+01  0.4312E+02
     -9.204  0.3242E+01  0.4340E+02
     -9.117  0.3050E+01  0.4367E+02
     -9.030  0.3311E+01  0.4395E+02
     -8.943  0.3427E+01  0.4425E+02
     -8.856  0.3535E+01  0.4456E+02
     -8.768  0.4020E+01  0.4491E+02
     -8.681  0.5330E+01  0.4538E+02
     -8.594  0.7245E+01  0.4601E+02
     -8.507  0.7309E+01  0.4665E+02
     -8.420  0.5539E+01  0.4713E+02
     -8.332  0.3800E+01  0.4746E+02
     -8.245  0.3103E+01  0.4773E+02
     -8.158  0.2978E+01  0.4799E+02
     -8.071  0.3363E+01  0.4828E+02
     -7.984  0.4627E+01  0.4869E+02
     -7.897  0.8026E+01  0.4939E+02
     -7.809  0.1256E+02  0.5048E+02
     -7.722  0.1563E+02  0.5184E+02
     -7.635  0.1754E+02  0.5337E+02
     -7.548  0.1870E+02  0.5500E+02
     -7.461  0.1797E+02  0.5657E+02
     -7.374  0.1618E+02  0.5798E+02
     -7.286  0.1575E+02  0.5935E+02
     -7.199  0.1683E+02  0.6082E+02
     -7.112  0.1570E+02  0.6219E+02
     -7.025  0.1170E+02  0.6321E+02
     -6.938  0.9352E+01  0.6402E+02
     -6.851  0.7990E+01  0.6472E+02
     -6.763  0.6128E+01  0.6525E+02
     -6.676  0.5286E+01  0.6571E+02
     -6.589  0.5347E+01  0.6618E+02
     -6.502  0.4518E+01  0.6657E+02
     -6.415  0.4602E+01  0.6698E+02
     -6.327  0.6795E+01  0.6757E+02
     -6.240  0.9304E+01  0.6838E+02
     -6.153  0.1160E+02  0.6939E+02
     -6.066  0.1122E+02  0.7037E+02
     -5.979  0.9422E+01  0.7119E+02
     -5.892  0.8811E+01  0.7196E+02
     -5.804  0.9034E+01  0.7275E+02
     -5.717  0.9901E+01  0.7361E+02
     -5.630  0.1085E+02  0.7455E+02
     -5.543  0.1027E+02  0.7545E+02
     -5.456  0.8889E+01  0.7622E+02
     -5.369  0.7618E+01  0.7689E+02
     -5.281  0.5545E+01  0.7737E+02
     -5.194  0.2916E+01  0.7763E+02
     -5.107  0.1811E+01  0.7778E+02
     -5.020  0.1809E+01  0.7794E+02
     -4.933  0.1985E+01  0.7811E+02
     -4.846  0.2169E+01  0.7830E+02
     -4.758  0.2047E+01  0.7848E+02
     -4.671  0.3154E+01  0.7876E+02
     -4.584  0.8245E+01  0.7948E+02
     -4.497  0.1589E+02  0.8086E+02
     -4.410  0.2039E+02  0.8264E+02
     -4.322  0.2352E+02  0.8469E+02
     -4.235  0.1825E+02  0.8628E+02
     -4.148  0.7687E+01  0.8695E+02
     -4.061  0.2644E+01  0.8718E+02
     -3.974  0.1422E+01  0.8730E+02
     -3.887  0.1013E+01  0.8739E+02
     -3.799  0.9321E+00  0.8747E+02
     -3.712  0.9460E+00  0.8756E+02
     -3.625  0.7641E+00  0.8762E+02
     -3.538  0.7102E+00  0.8768E+02
     -3.451  0.7181E+00  0.8775E+02
     -3.364  0.6310E+00  0.8780E+02
     -3.276  0.5663E+00  0.8785E+02
     -3.189  0.5534E+00  0.8790E+02
     -3.102  0.4789E+00  0.8794E+02
     -3.015  0.3988E+00  0.8798E+02
     -2.928  0.2138E+00  0.8800E+02
     -2.841  0.5085E-01  0.8800E+02
     -2.753  0.4077E-02  0.8800E+02
     -2.666  0.8927E-04  0.8800E+02
     -2.579  0.4785E-06  0.8800E+02
     -2.492  0.5976E-09  0.8800E+02
     -2.405  0.2154E-12  0.8800E+02
     -2.317  0.1999E-09  0.8800E+02
     -2.230  0.2012E-06  0.8800E+02
     -2.143  0.4766E-04  0.8800E+02
     -2.056  0.2803E-02  0.8800E+02
     -1.969  0.4517E-01  0.8800E+02
     -1.882  0.2349E+00  0.8802E+02
     -1.794  0.5093E+00  0.8807E+02
     -1.707  0.7022E+00  0.8813E+02
     -1.620  0.1222E+01  0.8824E+02
     -1.533  0.3340E+01  0.8853E+02
     -1.446  0.6997E+01  0.8914E+02
     -1.359  0.1050E+02  0.9005E+02
     -1.271  0.1253E+02  0.9115E+02
     -1.184  0.1415E+02  0.9238E+02
     -1.097  0.1493E+02  0.9368E+02
     -1.010  0.1422E+02  0.9492E+02
     -0.923  0.1224E+02  0.9599E+02
     -0.836  0.1072E+02  0.9692E+02
     -0.748  0.1053E+02  0.9784E+02
     -0.661  0.9699E+01  0.9868E+02
     -0.574  0.9251E+01  0.9949E+02
     -0.487  0.1113E+02  0.1005E+03
     -0.400  0.1138E+02  0.1015E+03
     -0.313  0.9624E+01  0.1023E+03
     -0.225  0.1017E+02  0.1032E+03
     -0.138  0.1108E+02  0.1041E+03
     -0.051  0.1017E+02  0.1050E+03
      0.036  0.9127E+01  0.1058E+03
      0.123  0.1021E+02  0.1067E+03
      0.211  0.1216E+02  0.1078E+03
      0.298  0.1212E+02  0.1088E+03
      0.385  0.1000E+02  0.1097E+03
      0.472  0.7350E+01  0.1103E+03
      0.559  0.5433E+01  0.1108E+03
      0.646  0.4665E+01  0.1112E+03
      0.734  0.4723E+01  0.1116E+03
      0.821  0.5635E+01  0.1121E+03
      0.908  0.6783E+01  0.1127E+03
      0.995  0.7537E+01  0.1134E+03
      1.082  0.9867E+01  0.1142E+03
      1.169  0.1480E+02  0.1155E+03
      1.257  0.1790E+02  0.1171E+03
      1.344  0.1760E+02  0.1186E+03
      1.431  0.1682E+02  0.1201E+03
      1.518  0.1681E+02  0.1216E+03
      1.605  0.1656E+02  0.1230E+03
      1.692  0.1513E+02  0.1243E+03
      1.780  0.1483E+02  0.1256E+03
      1.867  0.1572E+02  0.1270E+03
      1.954  0.1753E+02  0.1285E+03
      2.041  0.1964E+02  0.1302E+03
      2.128  0.2054E+02  0.1320E+03
      2.216  0.2183E+02  0.1339E+03
      2.303  0.2250E+02  0.1359E+03
      2.390  0.2070E+02  0.1377E+03
      2.477  0.1958E+02  0.1394E+03
      2.564  0.1980E+02  0.1411E+03
      2.651  0.2088E+02  0.1429E+03
      2.739  0.2181E+02  0.1448E+03
      2.826  0.2251E+02  0.1468E+03
      2.913  0.2298E+02  0.1488E+03
      3.000  0.2527E+02  0.1510E+03
      3.087  0.2827E+02  0.1535E+03
      3.174  0.3051E+02  0.1561E+03
      3.262  0.2971E+02  0.1587E+03
      3.349  0.2967E+02  0.1613E+03
      3.436  0.2916E+02  0.1638E+03
      3.523  0.2191E+02  0.1658E+03
      3.610  0.1303E+02  0.1669E+03
      3.697  0.7536E+01  0.1675E+03
      3.785  0.3782E+01  0.1679E+03
      3.872  0.1197E+01  0.1680E+03
      3.959  0.1914E+00  0.1680E+03
      4.046  0.1210E-01  0.1680E+03
      4.133  0.2387E-03  0.1680E+03
      4.221  0.1269E-05  0.1680E+03
      4.308  0.1679E-08  0.1680E+03
      4.395  0.5283E-12  0.1680E+03
      4.482  0.5660E-16  0.1680E+03
      4.569  0.0000E+00  0.1680E+03
      4.656  0.0000E+00  0.1680E+03
      4.744  0.0000E+00  0.1680E+03
      4.831  0.0000E+00  0.1680E+03
      4.918  0.0000E+00  0.1680E+03
      5.005  0.0000E+00  0.1680E+03
