SCF                                     
           1
    11.399516    0.000000    0.000000
     0.000000    6.314134    0.000000
     0.000000    0.000000   24.044058
   B 
    28
Direct configuration=     1
   0.25697135  0.64087710  0.08456482
   0.75697178  0.64087689  0.08519060
   0.24321096  0.35938181  0.08472250
   0.74323646  0.35932035  0.08531008
   0.49321262  0.64081842  0.08558638
   0.99319136  0.64082492  0.08449796
   0.00697850  0.35935827  0.08434471
   0.50698452  0.35941165  0.08566171
   0.29812434  0.90129880  0.08484927
   0.79809224  0.90128658  0.08517584
   0.20210675  0.09899816  0.08458939
   0.70205558  0.09891501  0.08541026
   0.45211377  0.90122696  0.08548994
   0.95211869  0.90120502  0.08457167
   0.04810164  0.09897981  0.08444539
   0.54806001  0.09903213  0.08565205
   0.37432053  0.72375798  0.12643277
   0.87569213  0.72364961  0.12612211
   0.12532152  0.27633908  0.04316364
   0.62481568  0.27650875  0.04429725
   0.37585749  0.72371587  0.04386803
   0.87444598  0.72390722  0.04353173
   0.12487585  0.27663872  0.12573136
   0.62540019  0.27648377  0.12685810
   0.12508976  0.51652262  0.08410633
   0.62511776  0.51653451  0.08577688
   0.37508666  0.48371798  0.08529978
   0.87508019  0.48373778  0.08461876
