k-points
0
Monkhorst-pack
12  17  11
0   0   0