o-B14                                   
   1.00000000000000     
     5.7194924874008013    0.0000000000000000    0.0000000000000000
     0.0000000000000000    6.3490955856932922    0.0000000000000000
     0.0000000000000000    0.0000000000000000   28.0881166459999996
   B             
   28
Direct
     0.5099247278968022    0.6449423237320815    0.0755303457300727
     0.5099247278968022    0.6449423237320815    0.2124247616534589
     0.4900752721558206    0.3550576762679185    0.0755303457300727
     0.4900752721558206    0.3550576762679185    0.2124247616534589
     0.9900752721821320    0.6449423237320815    0.0755303457300727
     0.9900752721821320    0.6449423237320815    0.2124247616534589
     0.0099247278704908    0.3550576762679185    0.0755303457300727
     0.0099247278704908    0.3550576762679185    0.2124247616534589
     0.5979573698959371    0.9032369555191480    0.0757887978791274
     0.5979573698959371    0.9032369555191480    0.2121663095044042
     0.4020426301566857    0.0967630370637380    0.0757887978791274
     0.4020426301566857    0.0967630370637380    0.2121663095044042
     0.9020426301829971    0.9032369555191480    0.0757887978791274
     0.9020426301829971    0.9032369555191480    0.2121663095044042
     0.0979573698696257    0.0967630370637380    0.0757887978791274
     0.0979573698696257    0.0967630370637380    0.2121663095044042
     0.7499999999517613    0.7234670043488265    0.1138365849972587
     0.7499999999517613    0.7231352550500958    0.2435137522789717
     0.2499999999254499    0.2768647449499042    0.0444413572762912
     0.2499999999254499    0.2765329956511735    0.1741185245580041
     0.7499999999517613    0.7231352550500958    0.0444413572762912
     0.7499999999517613    0.7234670043488265    0.1741185245580041
     0.2499999999254499    0.2765329956511735    0.1138365849972587
     0.2499999999254499    0.2768647449499042    0.2435137522789717
     0.2499999999254499    0.5166392725816848    0.0739767696198115
     0.2499999999254499    0.5166392725816848    0.2139783377637201
     0.7499999999517613    0.4833606977498519    0.0739767696198115
     0.7499999999517613    0.4833606977498519    0.2139783377637201
