       N       E                     dE             d eps       ncg     rms          rms(c)
DAV:   1     0.607489290013E+04    0.60749E+04   -0.29267E+05  6576   0.122E+03
DAV:   2    -0.893112136123E+03   -0.69680E+04   -0.67240E+04  9072   0.263E+02
DAV:   3    -0.176221662102E+04   -0.86910E+03   -0.85629E+03  7200   0.981E+01
DAV:   4    -0.179175674990E+04   -0.29540E+02   -0.29306E+02  8544   0.186E+01
DAV:   5    -0.179277192307E+04   -0.10152E+01   -0.10130E+01  8388   0.303E+00    0.547E+01
DAV:   6    -0.166555951245E+04    0.12721E+03   -0.17794E+02  7320   0.143E+01    0.291E+01
DAV:   7    -0.163529556887E+04    0.30264E+02   -0.11352E+02  7680   0.110E+01    0.883E+00
DAV:   8    -0.163433382135E+04    0.96175E+00   -0.93947E+00  7788   0.379E+00    0.326E+00
DAV:   9    -0.163391482399E+04    0.41900E+00   -0.12453E+00  7668   0.131E+00    0.115E+00
DAV:  10    -0.163386160018E+04    0.53224E-01   -0.17345E-01  8136   0.460E-01    0.649E-01
DAV:  11    -0.163380550227E+04    0.56098E-01   -0.93096E-02  7476   0.300E-01    0.299E-01
DAV:  12    -0.163380251445E+04    0.29878E-02   -0.37868E-02  7644   0.194E-01    0.213E-01
DAV:  13    -0.163382507743E+04   -0.22563E-01   -0.22043E-02  7176   0.144E-01    0.118E-01
DAV:  14    -0.163383973470E+04   -0.14657E-01   -0.53018E-03  7224   0.978E-02    0.696E-02
DAV:  15    -0.163384986555E+04   -0.10131E-01   -0.21661E-03  7368   0.543E-02    0.487E-02
DAV:  16    -0.163386022445E+04   -0.10359E-01   -0.10916E-03  7560   0.324E-02    0.241E-02
DAV:  17    -0.163386527759E+04   -0.50531E-02   -0.27324E-04  7452   0.167E-02    0.162E-02
DAV:  18    -0.163386934369E+04   -0.40661E-02   -0.26319E-04  7476   0.127E-02    0.103E-02
DAV:  19    -0.163387162536E+04   -0.22817E-02   -0.13278E-04  7704   0.811E-03    0.596E-03
DAV:  20    -0.163387271371E+04   -0.10883E-02   -0.44805E-05  7260   0.477E-03    0.377E-03
DAV:  21    -0.163387331740E+04   -0.60369E-03   -0.16526E-05  7128   0.280E-03    0.203E-03
DAV:  22    -0.163387361539E+04   -0.29799E-03   -0.71311E-06  6516   0.162E-03    0.108E-03
DAV:  23    -0.163387372962E+04   -0.11423E-03   -0.20434E-06  6000   0.908E-04    0.495E-04
DAV:  24    -0.163387376166E+04   -0.32043E-04   -0.38803E-07  5520   0.463E-04    0.241E-04
DAV:  25    -0.163387377232E+04   -0.10657E-04   -0.68586E-08  5016   0.247E-04    0.106E-04
DAV:  26    -0.163387377577E+04   -0.34499E-05   -0.18496E-08  4764   0.145E-04    0.554E-05
DAV:  27    -0.163387377716E+04   -0.13889E-05    0.97399E-09  4488   0.862E-05    0.277E-05
DAV:  28    -0.163387377775E+04   -0.59199E-06    0.15860E-08  4464   0.628E-05
   1 F= -.16658325E+04 E0= -.16657602E+04  d E =-.144603E+00
