o-B14 monolayer with hydrogen termination           
   1.00000000000000     
     5.6941754920579868    0.0000000000000000    0.0000000000000000
    -0.0000000000000000    6.1337693540596403    0.0000000000000000
     0.0000000000000000    0.0000000000000000   26.0440578460999994
  B               H             
    14     4
Direct
     0.5234128161568959    0.6370354066868812    0.1544317381249485
     0.4765871840536378    0.3629645932972808    0.1544317381249485
     0.9765871839834576    0.6370354066868812    0.1544317381249485
     0.0234128160516291    0.3629645932972808    0.1544317381249485
     0.5985127418153466    0.9000068734855632    0.1544317381249485
     0.4014872582197400    0.0999931190549816    0.1544317381249485
     0.9014872583250069    0.9000068734855632    0.1544317381249485
     0.0985127417100798    0.0999931190549816    0.1544317381249485
     0.7499999998947331    0.7312961466759340    0.2000854589760313
     0.2499999999649134    0.2687038533082280    0.1087780196160560
     0.7499999998947331    0.7312961466759340    0.1087780196160560
     0.2499999999649134    0.2687038533082280    0.2000854589760313
     0.2499999999649134    0.5249601126206026    0.1544317381249485
     0.7499999998947331    0.4750398575890903    0.1544317381249485
     0.7499999998947331    0.7177373132604452    0.0631446696312943
     0.2499999999649134    0.2822626867237166    0.0631446696312943
     0.7499999998947331    0.7177373132604452    0.2457188089607931
     0.2499999999649134    0.2822626867237166    0.2457188089607931
 
  0.00000000E+00  0.00000000E+00  0.00000000E+00
  0.00000000E+00  0.00000000E+00  0.00000000E+00
  0.00000000E+00  0.00000000E+00  0.00000000E+00
  0.00000000E+00  0.00000000E+00  0.00000000E+00
  0.00000000E+00  0.00000000E+00  0.00000000E+00
  0.00000000E+00  0.00000000E+00  0.00000000E+00
  0.00000000E+00  0.00000000E+00  0.00000000E+00
  0.00000000E+00  0.00000000E+00  0.00000000E+00
  0.00000000E+00  0.00000000E+00  0.00000000E+00
  0.00000000E+00  0.00000000E+00  0.00000000E+00
  0.00000000E+00  0.00000000E+00  0.00000000E+00
  0.00000000E+00  0.00000000E+00  0.00000000E+00
  0.00000000E+00  0.00000000E+00  0.00000000E+00
  0.00000000E+00  0.00000000E+00  0.00000000E+00
  0.00000000E+00  0.00000000E+00  0.00000000E+00
  0.00000000E+00  0.00000000E+00  0.00000000E+00
  0.00000000E+00  0.00000000E+00  0.00000000E+00
  0.00000000E+00  0.00000000E+00  0.00000000E+00
