 running  168 mpi-ranks, on    1 nodes
 distrk:  each k-point on  168 cores,    1 groups
 distr:  one band on    7 cores,   24 groups
 vasp.6.5.1 10Mar25 (build Mar 14 2025 17:12:02) complex                        
  
 POSCAR found type information on POSCAR B H 
 POSCAR found :  2 types and     288 ions
 Reading from existing POTCAR
 scaLAPACK will be used
 Reading from existing POTCAR
 LDA part: xc-table for (Slater+PW92), standard interpolation
 POSCAR, INCAR and KPOINTS ok, starting setup
 FFT: planning ... GRIDC
 FFT: planning ... GRID_SOFT
 FFT: planning ... GRID
 WAVECAR not read
 entering main loop
       N       E                     dE             d eps       ncg     rms          rms(c)
DAV:   1     0.606996833208E+04    0.60700E+04   -0.29715E+05  6696   0.119E+03
DAV:   2    -0.101220452378E+04   -0.70822E+04   -0.68639E+04  9576   0.257E+02
DAV:   3    -0.187777613456E+04   -0.86557E+03   -0.85470E+03  7824   0.953E+01
DAV:   4    -0.190383558598E+04   -0.26059E+02   -0.25913E+02  8856   0.173E+01
DAV:   5    -0.190465820029E+04   -0.82261E+00   -0.82145E+00  8712   0.275E+00    0.567E+01
DAV:   6    -0.179489241520E+04    0.10977E+03   -0.11296E+02  7272   0.108E+01    0.318E+01
DAV:   7    -0.175566641869E+04    0.39226E+02   -0.13024E+02  7656   0.109E+01    0.650E+00
DAV:   8    -0.175559350007E+04    0.72919E-01   -0.98693E+00  8184   0.365E+00    0.247E+00
DAV:   9    -0.175541763609E+04    0.17586E+00   -0.97032E-01  8184   0.102E+00    0.987E-01
DAV:  10    -0.175540142257E+04    0.16214E-01   -0.10629E-01  7920   0.384E-01    0.478E-01
DAV:  11    -0.175537228237E+04    0.29140E-01   -0.86681E-02  8040   0.365E-01    0.315E-01
DAV:  12    -0.175536338464E+04    0.88977E-02   -0.55101E-02  8112   0.296E-01    0.202E-01
DAV:  13    -0.175537382351E+04   -0.10439E-01   -0.29520E-02  7464   0.187E-01    0.130E-01
DAV:  14    -0.175538269969E+04   -0.88762E-02   -0.56968E-03  7608   0.115E-01    0.833E-02
DAV:  15    -0.175539086858E+04   -0.81689E-02   -0.33636E-03  7440   0.743E-02    0.557E-02
DAV:  16    -0.175539633766E+04   -0.54691E-02   -0.11490E-03  7608   0.408E-02    0.401E-02
DAV:  17    -0.175540085261E+04   -0.45149E-02   -0.52995E-04  7608   0.309E-02    0.279E-02
DAV:  18    -0.175540593975E+04   -0.50871E-02   -0.40086E-04  7416   0.213E-02    0.167E-02
DAV:  19    -0.175540883632E+04   -0.28966E-02   -0.14312E-04  7584   0.115E-02    0.116E-02
DAV:  20    -0.175541132038E+04   -0.24841E-02   -0.11201E-04  7488   0.820E-03    0.728E-03
DAV:  21    -0.175541255074E+04   -0.12304E-02   -0.45304E-05  7944   0.567E-03    0.459E-03
DAV:  22    -0.175541312271E+04   -0.57197E-03   -0.15620E-05  7608   0.376E-03    0.330E-03
DAV:  23    -0.175541346241E+04   -0.33970E-03   -0.85562E-06  7152   0.282E-03    0.202E-03
DAV:  24    -0.175541368043E+04   -0.21802E-03   -0.45649E-06  6624   0.181E-03    0.111E-03
DAV:  25    -0.175541380933E+04   -0.12890E-03   -0.29515E-06  6672   0.116E-03    0.563E-04
DAV:  26    -0.175541383982E+04   -0.30496E-04   -0.29983E-07  5400   0.475E-04    0.299E-04
DAV:  27    -0.175541385471E+04   -0.14890E-04   -0.20282E-07  5016   0.332E-04    0.141E-04
DAV:  28    -0.175541385889E+04   -0.41778E-05   -0.36054E-08  5088   0.195E-04    0.951E-05
DAV:  29    -0.175541386118E+04   -0.22890E-05   -0.71744E-09  4536   0.135E-04    0.480E-05
DAV:  30    -0.175541386248E+04   -0.13014E-05    0.46570E-09  4872   0.877E-05    0.279E-05
DAV:  31    -0.175541386295E+04   -0.46910E-06    0.17873E-08  4656   0.537E-05
   1 F= -.17855828E+04 E0= -.17854732E+04  d E =-.219074E+00
