SCF                                     
           1
    17.039988    0.000000    0.000000
     0.000000   18.441334    0.000000
     0.000000    0.000000   30.088117
   B    H 
   252    36
Direct configuration=     1
   0.17418153  0.21257432  0.13357634
   0.50751486  0.21257432  0.13357634
   0.84084820  0.21257432  0.13357634
   0.17418153  0.54590765  0.13357634
   0.50751486  0.54590765  0.13357634
   0.84084820  0.54590765  0.13357634
   0.17418153  0.87924098  0.13357634
   0.50751486  0.87924098  0.13357634
   0.84084820  0.87924098  0.13357634
   0.17418153  0.21257432  0.26818083
   0.50751486  0.21257432  0.26818083
   0.84084820  0.21257432  0.26818083
   0.17418153  0.54590765  0.26818083
   0.50751486  0.54590765  0.26818083
   0.84084820  0.54590765  0.26818083
   0.17418153  0.87924098  0.26818083
   0.50751486  0.87924098  0.26818083
   0.84084820  0.87924098  0.26818083
   0.15915180  0.12075902  0.13357634
   0.49248514  0.12075902  0.13357634
   0.82581847  0.12075902  0.13357634
   0.15915180  0.45409235  0.13357634
   0.49248514  0.45409235  0.13357634
   0.82581847  0.45409235  0.13357634
   0.15915180  0.78742568  0.13357634
   0.49248514  0.78742568  0.13357634
   0.82581847  0.78742568  0.13357634
   0.15915180  0.12075902  0.26818083
   0.49248514  0.12075902  0.26818083
   0.82581847  0.12075902  0.26818083
   0.15915180  0.45409235  0.26818083
   0.49248514  0.45409235  0.26818083
   0.82581847  0.45409235  0.26818083
   0.15915180  0.78742568  0.26818083
   0.49248514  0.78742568  0.26818083
   0.82581847  0.78742568  0.26818083
   0.32581847  0.21257432  0.13357634
   0.65915180  0.21257432  0.13357634
   0.99248514  0.21257432  0.13357634
   0.32581847  0.54590765  0.13357634
   0.65915180  0.54590765  0.13357634
   0.99248514  0.54590765  0.13357634
   0.32581847  0.87924098  0.13357634
   0.65915180  0.87924098  0.13357634
   0.99248514  0.87924098  0.13357634
   0.32581847  0.21257432  0.26818083
   0.65915180  0.21257432  0.26818083
   0.99248514  0.21257432  0.26818083
   0.32581847  0.54590765  0.26818083
   0.65915180  0.54590765  0.26818083
   0.99248514  0.54590765  0.26818083
   0.32581847  0.87924098  0.26818083
   0.65915180  0.87924098  0.26818083
   0.99248514  0.87924098  0.26818083
   0.00751486  0.12075902  0.13357634
   0.34084820  0.12075902  0.13357634
   0.67418153  0.12075902  0.13357634
   0.00751486  0.45409235  0.13357634
   0.34084820  0.45409235  0.13357634
   0.67418153  0.45409235  0.13357634
   0.00751486  0.78742568  0.13357634
   0.34084820  0.78742568  0.13357634
   0.67418153  0.78742568  0.13357634
   0.00751486  0.12075902  0.26818083
   0.34084820  0.12075902  0.26818083
   0.67418153  0.12075902  0.26818083
   0.00751486  0.45409235  0.26818083
   0.34084820  0.45409235  0.26818083
   0.67418153  0.45409235  0.26818083
   0.00751486  0.78742568  0.26818083
   0.34084820  0.78742568  0.26818083
   0.67418153  0.78742568  0.26818083
   0.19933448  0.30003970  0.13261222
   0.53266782  0.30003970  0.13294458
   0.86600115  0.30003970  0.13294458
   0.19933448  0.63337303  0.13294458
   0.53266782  0.63337303  0.13294458
   0.86600115  0.63337303  0.13294458
   0.19933448  0.96670636  0.13294458
   0.53266782  0.96670636  0.13294458
   0.86600115  0.96670636  0.13294458
   0.19933448  0.30003970  0.26881259
   0.53266782  0.30003970  0.26881259
   0.86600115  0.30003970  0.26881259
   0.19933448  0.63337303  0.26881259
   0.53266782  0.63337303  0.26881259
   0.86600115  0.63337303  0.26881259
   0.19933448  0.96670636  0.26881259
   0.53266782  0.96670636  0.26881259
   0.86600115  0.96670636  0.26881259
   0.13399885  0.03329363  0.13294458
   0.46733218  0.03329363  0.13294458
   0.80066552  0.03329363  0.13294458
   0.13399885  0.36662697  0.13294458
   0.46733218  0.36662697  0.13294458
   0.80066552  0.36662697  0.13294458
   0.13399885  0.69996030  0.13294458
   0.46733218  0.69996030  0.13294458
   0.80066552  0.69996030  0.13294458
   0.13399885  0.03329363  0.26881259
   0.46733218  0.03329363  0.26881259
   0.80066552  0.03329363  0.26881259
   0.13399885  0.36662697  0.26881259
   0.46733218  0.36662697  0.26881259
   0.80066552  0.36662697  0.26881259
   0.13399885  0.69996030  0.26881259
   0.46733218  0.69996030  0.26881259
   0.80066552  0.69996030  0.26881259
   0.30066552  0.30003970  0.13294458
   0.63399885  0.30003970  0.13294458
   0.96733218  0.30003970  0.13294458
   0.30066552  0.63337303  0.13294458
   0.63399885  0.63337303  0.13294458
   0.96733218  0.63337303  0.13294458
   0.30066552  0.96670636  0.13294458
   0.63399885  0.96670636  0.13294458
   0.96733218  0.96670636  0.13294458
   0.30066552  0.30003970  0.26881259
   0.63399885  0.30003970  0.26881259
   0.96733218  0.30003970  0.26881259
   0.30066552  0.63337303  0.26881259
   0.63399885  0.63337303  0.26881259
   0.96733218  0.63337303  0.26881259
   0.30066552  0.96670636  0.26881259
   0.63399885  0.96670636  0.26881259
   0.96733218  0.96670636  0.26881259
   0.03266782  0.03329363  0.13294458
   0.36600115  0.03329363  0.13294458
   0.69933448  0.03329363  0.13294458
   0.03266782  0.36662697  0.13294458
   0.36600115  0.36662697  0.13294458
   0.69933448  0.36662697  0.13294458
   0.03266782  0.69996030  0.13294458
   0.36600115  0.69996030  0.13294458
   0.69933448  0.69996030  0.13294458
   0.03266782  0.03329363  0.26881259
   0.36600115  0.03329363  0.26881259
   0.69933448  0.03329363  0.26881259
   0.03266782  0.36662697  0.26881259
   0.36600115  0.36662697  0.26881259
   0.69933448  0.36662697  0.26881259
   0.03266782  0.69996030  0.26881259
   0.36600115  0.69996030  0.26881259
   0.69933448  0.69996030  0.26881259
   0.25000000  0.24445205  0.17353786
   0.58333333  0.24445205  0.17353786
   0.91666667  0.24445205  0.17353786
   0.25000000  0.57778539  0.17353786
   0.58333333  0.57778539  0.17353786
   0.91666667  0.57778539  0.17353786
   0.25000000  0.91111872  0.17353786
   0.58333333  0.91111872  0.17353786
   0.91666667  0.91111872  0.17353786
   0.25000000  0.24293121  0.30776750
   0.58333333  0.24293121  0.30776750
   0.91666667  0.24293121  0.30776750
   0.25000000  0.57626455  0.30776750
   0.58333333  0.57626455  0.30776750
   0.91666667  0.57626455  0.30776750
   0.25000000  0.90959788  0.30776750
   0.58333333  0.90959788  0.30776750
   0.91666667  0.90959788  0.30776750
   0.08333333  0.09040212  0.09398968
   0.41666667  0.09040212  0.09398968
   0.75000000  0.09040212  0.09398968
   0.08333333  0.42373545  0.09398968
   0.41666667  0.42373545  0.09398968
   0.75000000  0.42373545  0.09398968
   0.08333333  0.75706879  0.09398968
   0.41666667  0.75706879  0.09398968
   0.75000000  0.75706879  0.09398968
   0.08333333  0.08888128  0.22821932
   0.41666667  0.08888128  0.22821932
   0.75000000  0.08888128  0.22821932
   0.08333333  0.42221461  0.22821932
   0.41666667  0.42221461  0.22821932
   0.75000000  0.42221461  0.22821932
   0.08333333  0.75554795  0.22821932
   0.41666667  0.75554795  0.22821932
   0.75000000  0.75554795  0.22821932
   0.25000000  0.24293121  0.09398968
   0.58333333  0.24293121  0.09398968
   0.91666667  0.24293121  0.09398968
   0.25000000  0.57626455  0.09398968
   0.58333333  0.57626455  0.09398968
   0.91666667  0.57626455  0.09398968
   0.25000000  0.90959788  0.09398968
   0.58333333  0.90959788  0.09398968
   0.91666667  0.90959788  0.09398968
   0.25000000  0.24445205  0.22821932
   0.58333333  0.24445205  0.22821932
   0.91666667  0.24445205  0.22821932
   0.25000000  0.57778539  0.22821932
   0.58333333  0.57778539  0.22821932
   0.91666667  0.57778539  0.22821932
   0.25000000  0.91111872  0.22821932
   0.58333333  0.91111872  0.22821932
   0.91666667  0.91111872  0.22821932
   0.08333333  0.08888128  0.17353786
   0.41666667  0.08888128  0.17353786
   0.75000000  0.08888128  0.17353786
   0.08333333  0.42221461  0.17353786
   0.41666667  0.42221461  0.17353786
   0.75000000  0.42221461  0.17353786
   0.08333333  0.75554795  0.17353786
   0.41666667  0.75554795  0.17353786
   0.75000000  0.75554795  0.17353786
   0.08333333  0.09040212  0.30776750
   0.41666667  0.09040212  0.30776750
   0.75000000  0.09040212  0.30776750
   0.08333333  0.42373545  0.30776750
   0.41666667  0.42373545  0.30776750
   0.75000000  0.42373545  0.30776750
   0.08333333  0.75706879  0.30776750
   0.41666667  0.75706879  0.30776750
   0.75000000  0.75706879  0.30776750
   0.08333333  0.17524546  0.13371722
   0.41666667  0.17524546  0.13371722
   0.75000000  0.17524546  0.13371722
   0.08333333  0.50857879  0.13371722
   0.41666667  0.50857879  0.13371722
   0.75000000  0.50857879  0.13371722
   0.08333333  0.84191213  0.13371722
   0.41666667  0.84191213  0.13371722
   0.75000000  0.84191213  0.13371722
   0.08333333  0.17524546  0.26803996
   0.41666667  0.17524546  0.26803996
   0.75000000  0.17524546  0.26803996
   0.08333333  0.50857879  0.26803996
   0.41666667  0.50857879  0.26803996
   0.75000000  0.50857879  0.26803996
   0.08333333  0.84191213  0.26803996
   0.41666667  0.84191213  0.26803996
   0.75000000  0.84191213  0.26803996
   0.25000000  0.15808786  0.13371722
   0.58333333  0.15808786  0.13371722
   0.91666667  0.15808786  0.13371722
   0.25000000  0.49142120  0.13371722
   0.58333333  0.49142120  0.13371722
   0.91666667  0.49142120  0.13371722
   0.25000000  0.82475453  0.13371722
   0.58333333  0.82475453  0.13371722
   0.91666667  0.82475453  0.13371722
   0.25000000  0.15808786  0.26803996
   0.58333333  0.15808786  0.26803996
   0.91666667  0.15808786  0.26803996
   0.25000000  0.49142120  0.26803996
   0.58333333  0.49142120  0.26803996
   0.91666667  0.49142120  0.26803996
   0.25000000  0.82475453  0.26803996
   0.58333333  0.82475453  0.26803996
   0.91666667  0.82475453  0.26803996
   0.08333333  0.09570900  0.05449827
   0.41666667  0.09570900  0.05449827
   0.75000000  0.09570900  0.05449827
   0.08333333  0.42904234  0.05449827
   0.41666667  0.42904234  0.05449827
   0.75000000  0.42904234  0.05449827
   0.08333333  0.76237567  0.05449827
   0.41666667  0.76237567  0.05449827
   0.75000000  0.76237567  0.05449827
   0.25000000  0.23762433  0.05449827
   0.58333333  0.23762433  0.05449827
   0.91666667  0.23762433  0.05449827
   0.25000000  0.57095766  0.05449827
   0.58333333  0.57095766  0.05449827
   0.91666667  0.57095766  0.05449827
   0.25000000  0.90429100  0.05449827
   0.58333333  0.90429100  0.05449827
   0.91666667  0.90429100  0.05449827
   0.08333333  0.09570900  0.34725890
   0.41666667  0.09570900  0.34725890
   0.75000000  0.09570900  0.34725890
   0.08333333  0.42904234  0.34725890
   0.41666667  0.42904234  0.34725890
   0.75000000  0.42904234  0.34725890
   0.08333333  0.76237567  0.34725890
   0.41666667  0.76237567  0.34725890
   0.75000000  0.76237567  0.34725890
   0.25000000  0.23762433  0.34725890
   0.58333333  0.23762433  0.34725890
   0.91666667  0.23762433  0.34725890
   0.25000000  0.57095766  0.34725890
   0.58333333  0.57095766  0.34725890
   0.91666667  0.57095766  0.34725890
   0.25000000  0.90429100  0.34725890
   0.58333333  0.90429100  0.34725890
   0.91666667  0.90429100  0.34725890
