o-B14 large bilayer
1.0
       11.4389848710         0.0000000000         0.0000000000
        0.0000000000        12.6981916428         0.0000000000
        0.0000000000         0.0000000000        28.0881175995
    B
  112
Cartesian
     2.916510624         4.094800613         2.121505233
     2.916510624        10.443896434         2.121505233
     8.636003059         4.094800613         2.121505233
     8.636003059        10.443896434         2.121505233
     2.916510624         4.094800613         5.966611686
     2.916510624        10.443896434         5.966611686
     8.636003059         4.094800613         5.966611686
     8.636003059        10.443896434         5.966611686
     2.802981812         2.254295209         2.121505233
     2.802981812         8.603391030         2.121505233
     8.522474247         2.254295209         2.121505233
     8.522474247         8.603391030         2.121505233
     2.802981812         2.254295209         5.966611686
     2.802981812         8.603391030         5.966611686
     8.522474247         2.254295209         5.966611686
     8.522474247         8.603391030         5.966611686
     5.662728030         4.094800613         2.121505233
     5.662728030        10.443896434         2.121505233
    11.382220465         4.094800613         2.121505233
    11.382220465        10.443896434         2.121505233
     5.662728030         4.094800613         5.966611686
     5.662728030        10.443896434         5.966611686
    11.382220465         4.094800613         5.966611686
    11.382220465        10.443896434         5.966611686
     0.056764406         2.254295209         2.121505233
     0.056764406         8.603391030         2.121505233
     5.776256841         2.254295209         2.121505233
     5.776256841         8.603391030         2.121505233
     0.056764406         2.254295209         5.966611686
     0.056764406         8.603391030         5.966611686
     5.776256841         2.254295209         5.966611686
     5.776256841         8.603391030         5.966611686
     3.420012654         5.734737980         2.128764668
     3.420012654        12.083833801         2.128764668
     9.139505089         5.734737980         2.128764668
     9.139505089        12.083833801         2.128764668
     3.420012654         5.734737980         5.959352252
     3.420012654        12.083833801         5.959352252
     9.139505089         5.734737980         5.959352252
     9.139505089        12.083833801         5.959352252
     2.299479782         0.614357794         2.128764668
     2.299479782         6.963453616         2.128764668
     8.018972217         0.614357794         2.128764668
     8.018972217         6.963453616         2.128764668
     2.299479782         0.614357794         5.959352252
     2.299479782         6.963453616         5.959352252
     8.018972217         0.614357794         5.959352252
     8.018972217         6.963453616         5.959352252
     5.159226000         5.734737980         2.128764668
     5.159226000        12.083833801         2.128764668
    10.878718435         5.734737980         2.128764668
    10.878718435        12.083833801         2.128764668
     5.159226000         5.734737980         5.959352252
     5.159226000        12.083833801         5.959352252
    10.878718435         5.734737980         5.959352252
    10.878718435        12.083833801         5.959352252
     0.560266436         0.614357794         2.128764668
     0.560266436         6.963453616         2.128764668
     6.279758871         0.614357794         2.128764668
     6.279758871         6.963453616         2.128764668
     0.560266436         0.614357794         5.959352252
     0.560266436         6.963453616         5.959352252
     6.279758871         0.614357794         5.959352252
     6.279758871         6.963453616         5.959352252
     4.289619326         4.593361334         3.197455387
     4.289619326        10.942457156         3.197455387
    10.009111762         4.593361334         3.197455387
    10.009111762        10.942457156         3.197455387
     4.289619326         4.591255026         6.839842911
     4.289619326        10.940350848         6.839842911
    10.009111762         4.591255026         6.839842911
    10.009111762        10.940350848         6.839842911
     1.429873108         1.757840795         1.248274069
     1.429873108         8.106936617         1.248274069
     7.149365544         1.757840795         1.248274069
     7.149365544         8.106936617         1.248274069
     1.429873108         1.755734487         4.890661594
     1.429873108         8.104830309         4.890661594
     7.149365544         1.755734487         4.890661594
     7.149365544         8.104830309         4.890661594
     4.289619326         4.591255026         1.248274069
     4.289619326        10.940350848         1.248274069
    10.009111762         4.591255026         1.248274069
    10.009111762        10.940350848         1.248274069
     4.289619326         4.593361334         4.890661594
     4.289619326        10.942457156         4.890661594
    10.009111762         4.593361334         4.890661594
    10.009111762        10.942457156         4.890661594
     1.429873108         1.755734487         3.197455387
     1.429873108         8.104830309         3.197455387
     7.149365544         1.755734487         3.197455387
     7.149365544         8.104830309         3.197455387
     1.429873108         1.757840795         6.839842911
     1.429873108         8.106936617         6.839842911
     7.149365544         1.757840795         6.839842911
     7.149365544         8.106936617         6.839842911
     1.429873108         3.280192247         2.077868205
     1.429873108         9.629288068         2.077868205
     7.149365544         3.280192247         2.077868205
     7.149365544         9.629288068         2.077868205
     1.429873108         3.280192247         6.010248715
     1.429873108         9.629288068         6.010248715
     7.149365544         3.280192247         6.010248715
     7.149365544         9.629288068         6.010248715
     4.289619326         3.068903386         2.077868205
     4.289619326         9.417999208         2.077868205
    10.009111762         3.068903386         2.077868205
    10.009111762         9.417999208         2.077868205
     4.289619326         3.068903386         6.010248715
     4.289619326         9.417999208         6.010248715
    10.009111762         3.068903386         6.010248715
    10.009111762         9.417999208         6.010248715
