       N       E                     dE             d eps       ncg     rms          rms(c)
DAV:   1     0.607003654824E+04    0.60700E+04   -0.29715E+05  6696   0.119E+03
DAV:   2    -0.101416322453E+04   -0.70842E+04   -0.68678E+04  9600   0.257E+02
DAV:   3    -0.187789074819E+04   -0.86373E+03   -0.85290E+03  7824   0.952E+01
DAV:   4    -0.190381947946E+04   -0.25929E+02   -0.25780E+02  8808   0.173E+01
DAV:   5    -0.190466653682E+04   -0.84706E+00   -0.84582E+00  8712   0.279E+00    0.567E+01
DAV:   6    -0.179489345342E+04    0.10977E+03   -0.11295E+02  7224   0.108E+01    0.318E+01
DAV:   7    -0.175566642797E+04    0.39227E+02   -0.13031E+02  7656   0.109E+01    0.650E+00
DAV:   8    -0.175559896381E+04    0.67464E-01   -0.99226E+00  8184   0.367E+00    0.249E+00
DAV:   9    -0.175545893532E+04    0.14003E+00   -0.12225E+00  8112   0.129E+00    0.118E+00
DAV:  10    -0.175540870289E+04    0.50232E-01   -0.50260E-01  8160   0.942E-01    0.732E-01
DAV:  11    -0.175538261055E+04    0.26092E-01   -0.13986E-01  7848   0.476E-01    0.374E-01
DAV:  12    -0.175536179783E+04    0.20813E-01   -0.93628E-02  7992   0.348E-01    0.231E-01
DAV:  13    -0.175536714221E+04   -0.53444E-02   -0.25140E-02  7992   0.213E-01    0.164E-01
DAV:  14    -0.175537805386E+04   -0.10912E-01   -0.11064E-02  7344   0.132E-01    0.103E-01
DAV:  15    -0.175538603185E+04   -0.79780E-02   -0.49759E-03  7368   0.906E-02    0.688E-02
DAV:  16    -0.175539132831E+04   -0.52965E-02   -0.16654E-03  7560   0.552E-02    0.480E-02
DAV:  17    -0.175539880449E+04   -0.74762E-02   -0.10012E-03  7560   0.336E-02    0.294E-02
DAV:  18    -0.175540322111E+04   -0.44166E-02   -0.32488E-04  7608   0.197E-02    0.199E-02
DAV:  19    -0.175540661441E+04   -0.33933E-02   -0.18971E-04  7416   0.149E-02    0.139E-02
DAV:  20    -0.175540856068E+04   -0.19463E-02   -0.10228E-04  7632   0.111E-02    0.105E-02
DAV:  21    -0.175541044338E+04   -0.18827E-02   -0.81639E-05  7344   0.783E-03    0.640E-03
DAV:  22    -0.175541185669E+04   -0.14133E-02   -0.61397E-05  7656   0.583E-03    0.372E-03
DAV:  23    -0.175541237083E+04   -0.51414E-03   -0.13535E-05  7488   0.284E-03    0.213E-03
DAV:  24    -0.175541266125E+04   -0.29042E-03   -0.65348E-06  6744   0.183E-03    0.109E-03
DAV:  25    -0.175541276097E+04   -0.99720E-04   -0.16071E-06  6576   0.974E-04    0.652E-04
DAV:  26    -0.175541279840E+04   -0.37431E-04   -0.43777E-07  5472   0.625E-04    0.418E-04
DAV:  27    -0.175541281617E+04   -0.17771E-04   -0.23249E-07  5256   0.411E-04    0.204E-04
DAV:  28    -0.175541282567E+04   -0.95007E-05   -0.97598E-08  5016   0.257E-04    0.113E-04
DAV:  29    -0.175541282868E+04   -0.30101E-05   -0.11677E-08  4968   0.143E-04    0.625E-05
DAV:  30    -0.175541282997E+04   -0.12911E-05    0.72048E-09  4464   0.888E-05    0.339E-05
DAV:  31    -0.175541283079E+04   -0.81732E-06    0.13362E-08  4944   0.689E-05
   1 F= -.17855820E+04 E0= -.17854724E+04  d E =-.219181E+00
