       N       E                     dE             d eps       ncg     rms          rms(c)
DAV:   1     0.606997172338E+04    0.60700E+04   -0.29715E+05  6696   0.119E+03
DAV:   2    -0.101416032957E+04   -0.70841E+04   -0.68677E+04  9600   0.257E+02
DAV:   3    -0.187788344191E+04   -0.86372E+03   -0.85290E+03  7824   0.952E+01
DAV:   4    -0.190384214736E+04   -0.25959E+02   -0.25813E+02  8856   0.173E+01
DAV:   5    -0.190466154434E+04   -0.81940E+00   -0.81824E+00  8712   0.275E+00    0.567E+01
DAV:   6    -0.179489256785E+04    0.10977E+03   -0.11296E+02  7248   0.108E+01    0.318E+01
DAV:   7    -0.175566554232E+04    0.39227E+02   -0.13024E+02  7680   0.109E+01    0.650E+00
DAV:   8    -0.175559359536E+04    0.71947E-01   -0.98769E+00  8208   0.365E+00    0.247E+00
DAV:   9    -0.175542088156E+04    0.17271E+00   -0.98748E-01  8184   0.105E+00    0.101E+00
DAV:  10    -0.175540881584E+04    0.12066E-01   -0.20821E-01  8016   0.580E-01    0.589E-01
DAV:  11    -0.175538544175E+04    0.23374E-01   -0.12116E-01  8304   0.460E-01    0.372E-01
DAV:  12    -0.175536142336E+04    0.24018E-01   -0.92292E-02  7824   0.326E-01    0.217E-01
DAV:  13    -0.175537162374E+04   -0.10200E-01   -0.26024E-02  7848   0.207E-01    0.142E-01
DAV:  14    -0.175538160923E+04   -0.99855E-02   -0.85673E-03  7416   0.131E-01    0.895E-02
DAV:  15    -0.175538835469E+04   -0.67455E-02   -0.28324E-03  7392   0.627E-02    0.610E-02
DAV:  16    -0.175539518734E+04   -0.68326E-02   -0.14658E-03  7656   0.492E-02    0.448E-02
DAV:  17    -0.175539976132E+04   -0.45740E-02   -0.72354E-04  7584   0.351E-02    0.284E-02
DAV:  18    -0.175540497038E+04   -0.52091E-02   -0.32766E-04  7416   0.192E-02    0.171E-02
DAV:  19    -0.175540819735E+04   -0.32270E-02   -0.16684E-04  7584   0.118E-02    0.122E-02
DAV:  20    -0.175541029654E+04   -0.20992E-02   -0.79344E-05  7488   0.787E-03    0.824E-03
DAV:  21    -0.175541190233E+04   -0.16058E-02   -0.66891E-05  7632   0.729E-03    0.534E-03
DAV:  22    -0.175541254159E+04   -0.63926E-03   -0.23334E-05  7800   0.481E-03    0.387E-03
DAV:  23    -0.175541303412E+04   -0.49253E-03   -0.13207E-05  7272   0.307E-03    0.226E-03
DAV:  24    -0.175541333201E+04   -0.29789E-03   -0.80702E-06  7104   0.208E-03    0.111E-03
DAV:  25    -0.175541342971E+04   -0.97702E-04   -0.14960E-06  6480   0.961E-04    0.599E-04
DAV:  26    -0.175541347940E+04   -0.49689E-04   -0.76801E-07  5784   0.626E-04    0.276E-04
DAV:  27    -0.175541349145E+04   -0.12049E-04   -0.10788E-07  5304   0.315E-04    0.179E-04
DAV:  28    -0.175541349676E+04   -0.53167E-05   -0.45626E-08  4824   0.219E-04    0.940E-05
DAV:  29    -0.175541350030E+04   -0.35368E-05   -0.14265E-08  5016   0.144E-04    0.489E-05
DAV:  30    -0.175541350129E+04   -0.99193E-06    0.11118E-08  4728   0.821E-05
   1 F= -.17855827E+04 E0= -.17854732E+04  d E =-.219071E+00
