       N       E                     dE             d eps       ncg     rms          rms(c)
DAV:   1     0.328980728030E+04    0.32898E+04   -0.13064E+05  3564   0.109E+03
DAV:   2    -0.267142864152E+03   -0.35570E+04   -0.34111E+04  4896   0.228E+02
DAV:   3    -0.867401719848E+03   -0.60026E+03   -0.59471E+03  3912   0.101E+02
DAV:   4    -0.891657053182E+03   -0.24255E+02   -0.23924E+02  4140   0.218E+01
DAV:   5    -0.892445481482E+03   -0.78843E+00   -0.78321E+00  4596   0.347E+00    0.386E+01
DAV:   6    -0.823907215282E+03    0.68538E+02   -0.91138E+01  3876   0.135E+01    0.202E+01
DAV:   7    -0.807061739184E+03    0.16845E+02   -0.69893E+01  3924   0.112E+01    0.626E+00
DAV:   8    -0.806120722648E+03    0.94102E+00   -0.62157E+00  4116   0.436E+00    0.181E+00
DAV:   9    -0.805747574105E+03    0.37315E+00   -0.70566E-01  3936   0.130E+00    0.828E-01
DAV:  10    -0.805673858727E+03    0.73715E-01   -0.10227E-01  4236   0.475E-01    0.458E-01
DAV:  11    -0.805594849052E+03    0.79010E-01   -0.12863E-01  3912   0.390E-01    0.279E-01
DAV:  12    -0.805603418231E+03   -0.85692E-02   -0.33052E-02  4104   0.231E-01    0.204E-01
DAV:  13    -0.805622736347E+03   -0.19318E-01   -0.90510E-03  3612   0.152E-01    0.108E-01
DAV:  14    -0.805638798265E+03   -0.16062E-01   -0.57302E-03  3960   0.832E-02    0.639E-02
DAV:  15    -0.805652641346E+03   -0.13843E-01   -0.12219E-03  3888   0.388E-02    0.377E-02
DAV:  16    -0.805665695666E+03   -0.13054E-01   -0.15228E-03  3876   0.327E-02    0.191E-02
DAV:  17    -0.805670226563E+03   -0.45309E-02   -0.32494E-04  4032   0.155E-02    0.122E-02
DAV:  18    -0.805673960335E+03   -0.37338E-02   -0.38366E-04  3888   0.123E-02    0.614E-03
DAV:  19    -0.805674956383E+03   -0.99605E-03   -0.54753E-05  3816   0.510E-03    0.302E-03
DAV:  20    -0.805675410782E+03   -0.45440E-03   -0.14632E-05  3084   0.283E-03    0.162E-03
DAV:  21    -0.805675571857E+03   -0.16107E-03   -0.41347E-06  3096   0.161E-03    0.798E-04
DAV:  22    -0.805675612544E+03   -0.40687E-04   -0.56429E-07  3012   0.770E-04    0.326E-04
DAV:  23    -0.805675624826E+03   -0.12283E-04   -0.12338E-07  2796   0.367E-04    0.135E-04
DAV:  24    -0.805675628034E+03   -0.32077E-05   -0.27634E-08  2664   0.196E-04    0.590E-05
DAV:  25    -0.805675628755E+03   -0.72036E-06    0.48259E-09  2436   0.111E-04
   1 F= -.81835248E+03 E0= -.81835247E+03  d E =-.171913E-04
