       N       E                     dE             d eps       ncg     rms          rms(c)
DAV:   1     0.467220057474E+03    0.46722E+03   -0.25805E+04 15120   0.760E+02
DAV:   2    -0.108836465816E+03   -0.57606E+03   -0.53621E+03 26544   0.129E+02
DAV:   3    -0.169564700238E+03   -0.60728E+02   -0.59476E+02 22176   0.527E+01
DAV:   4    -0.170647688327E+03   -0.10830E+01   -0.10796E+01 21840   0.821E+00
DAV:   5    -0.170671543819E+03   -0.23855E-01   -0.23838E-01 20832   0.118E+00
DAV:   6    -0.170672432416E+03   -0.88860E-03   -0.88833E-03 22806   0.229E-01
DAV:   7    -0.170672466373E+03   -0.33957E-04   -0.33956E-04 23268   0.371E-02
DAV:   8    -0.170672466564E+03   -0.19133E-06   -0.18969E-06 22890   0.239E-03
   1 F= -.17067247E+03 E0= -.17061242E+03  d E =-.120094E+00
