       N       E                     dE             d eps       ncg     rms          rms(c)
DAV:   1     0.607510132977E+04    0.60751E+04   -0.29267E+05  6576   0.122E+03
DAV:   2    -0.893079748591E+03   -0.69682E+04   -0.67242E+04  9072   0.263E+02
DAV:   3    -0.176220863363E+04   -0.86913E+03   -0.85631E+03  7200   0.981E+01
DAV:   4    -0.179175979682E+04   -0.29551E+02   -0.29318E+02  8568   0.186E+01
DAV:   5    -0.179276743905E+04   -0.10076E+01   -0.10055E+01  8388   0.301E+00    0.547E+01
DAV:   6    -0.166555701349E+04    0.12721E+03   -0.17806E+02  7308   0.143E+01    0.291E+01
DAV:   7    -0.163529545942E+04    0.30262E+02   -0.11346E+02  7680   0.110E+01    0.883E+00
DAV:   8    -0.163433369359E+04    0.96177E+00   -0.93913E+00  7764   0.379E+00    0.326E+00
DAV:   9    -0.163391518829E+04    0.41851E+00   -0.12466E+00  7644   0.131E+00    0.115E+00
DAV:  10    -0.163386149653E+04    0.53692E-01   -0.17589E-01  8088   0.471E-01    0.651E-01
DAV:  11    -0.163380720623E+04    0.54290E-01   -0.89472E-02  7464   0.307E-01    0.306E-01
DAV:  12    -0.163380183247E+04    0.53738E-02   -0.42682E-02  7668   0.213E-01    0.216E-01
DAV:  13    -0.163382130482E+04   -0.19472E-01   -0.19755E-02  7152   0.158E-01    0.136E-01
DAV:  14    -0.163383700073E+04   -0.15696E-01   -0.85653E-03  7080   0.114E-01    0.746E-02
DAV:  15    -0.163384933682E+04   -0.12336E-01   -0.25072E-03  7392   0.537E-02    0.495E-02
DAV:  16    -0.163385862988E+04   -0.92931E-02   -0.88510E-04  7608   0.308E-02    0.261E-02
DAV:  17    -0.163386441732E+04   -0.57874E-02   -0.33147E-04  7464   0.178E-02    0.177E-02
DAV:  18    -0.163386898953E+04   -0.45722E-02   -0.29693E-04  7440   0.129E-02    0.107E-02
DAV:  19    -0.163387140573E+04   -0.24162E-02   -0.14399E-04  7704   0.878E-03    0.663E-03
DAV:  20    -0.163387270640E+04   -0.13007E-02   -0.60815E-05  7404   0.553E-03    0.387E-03
DAV:  21    -0.163387334663E+04   -0.64023E-03   -0.18822E-05  7224   0.296E-03    0.218E-03
DAV:  22    -0.163387363990E+04   -0.29327E-03   -0.64002E-06  6480   0.169E-03    0.116E-03
DAV:  23    -0.163387375941E+04   -0.11950E-03   -0.21571E-06  6072   0.973E-04    0.618E-04
DAV:  24    -0.163387380763E+04   -0.48225E-04   -0.67571E-07  5448   0.555E-04    0.272E-04
DAV:  25    -0.163387382124E+04   -0.13603E-04   -0.11186E-07  5244   0.287E-04    0.113E-04
DAV:  26    -0.163387382487E+04   -0.36297E-05   -0.27049E-08  4800   0.153E-04    0.583E-05
DAV:  27    -0.163387382651E+04   -0.16414E-05    0.41128E-09  4488   0.959E-05    0.246E-05
DAV:  28    -0.163387382701E+04   -0.50318E-06    0.14950E-08  4464   0.631E-05
   1 F= -.16658331E+04 E0= -.16657608E+04  d E =-.144574E+00
