  162  162    1    1
  0.5053525E+02  0.1708253E-08  0.1840131E-08  0.2604406E-08  0.5000000E-15
  1.000000000000000E-004
  CAR 
 SCF                                     
    414      6    294
 
  0.1250000E+00  0.1276756E-14  0.1276756E-14  0.1666667E+00
      1        -19.393447   1.000000
      2        -19.318438   1.000000
      3        -19.318333   1.000000
      4        -19.213690   1.000000
      5        -19.152927   1.000000
      6        -19.152818   1.000000
      7        -19.099883   1.000000
      8        -19.050166   1.000000
      9        -19.050054   1.000000
     10        -18.673300   1.000000
     11        -18.673175   1.000000
     12        -18.658773   1.000000
     13        -18.554061   1.000000
     14        -18.553930   1.000000
     15        -18.506416   1.000000
     16        -18.347930   1.000000
     17        -18.347789   1.000000
     18        -18.214687   1.000000
     19        -15.514058   1.000000
     20        -15.514002   1.000000
     21        -15.488377   1.000000
     22        -15.488314   1.000000
     23        -15.424896   1.000000
     24        -15.399260   1.000000
     25        -15.399211   1.000000
     26        -15.293384   1.000000
     27        -15.220385   1.000000
     28        -15.176080   1.000000
     29        -15.175997   1.000000
     30        -15.053129   1.000000
     31        -15.052092   1.000000
     32        -15.038954   1.000000
     33        -15.038865   1.000000
     34        -15.037649   1.000000
     35        -14.821695   1.000000
     36        -14.821599   1.000000
     37        -13.412038   1.000000
     38        -13.411975   1.000000
     39        -12.796613   1.000000
     40        -12.796572   1.000000
     41        -12.716793   1.000000
     42        -12.691190   1.000000
     43        -12.678929   1.000000
     44        -12.595242   1.000000
     45        -12.530287   1.000000
     46        -12.491962   1.000000
     47        -12.491936   1.000000
     48        -12.300626   1.000000
     49        -12.295509   1.000000
     50        -12.295404   1.000000
     51        -12.152691   1.000000
     52        -12.152515   1.000000
     53        -12.096605   1.000000
     54        -11.979304   1.000000
     55        -11.979136   1.000000
     56        -11.969615   1.000000
     57        -11.876325   1.000000
     58        -11.876165   1.000000
     59        -11.857119   1.000000
     60        -11.857046   1.000000
     61        -11.675314   1.000000
     62        -11.641339   1.000000
     63        -11.641310   1.000000
     64        -11.538930   1.000000
     65        -11.538806   1.000000
     66        -11.497454   1.000000
     67        -11.460739   1.000000
     68        -11.460732   1.000000
     69        -11.448533   1.000000
     70        -11.448421   1.000000
     71        -11.447237   1.000000
     72        -11.386433   1.000000
     73        -11.343558   1.000000
     74        -11.314671   1.000000
     75        -11.314578   1.000000
     76        -11.251261   1.000000
     77        -11.251202   1.000000
     78        -11.124372   1.000000
     79        -11.065868   1.000000
     80        -10.998706   1.000000
     81        -10.439177   1.000000
     82        -10.439098   1.000000
     83        -10.173898   1.000000
     84        -10.173881   1.000000
     85        -10.146214   1.000000
     86        -10.128071   1.000000
     87        -10.128029   1.000000
     88         -9.778767   1.000000
     89         -9.778739   1.000000
     90         -9.737285   1.000000
     91         -9.736762   1.000000
     92         -9.416384   1.000000
     93         -9.416336   1.000000
     94         -9.261779   1.000000
     95         -9.261552   1.000000
     96         -9.222300   1.000000
     97         -9.222196   1.000000
     98         -9.156998   1.000000
     99         -9.114809   1.000000
    100         -9.110091   1.000000
    101         -9.081631   1.000000
    102         -9.044203   1.000000
    103         -9.044089   1.000000
    104         -9.035580   1.000000
    105         -9.035369   1.000000
    106         -9.008972   1.000000
    107         -9.008798   1.000000
    108         -8.991602   1.000000
    109         -8.991306   1.000000
    110         -8.991180   1.000000
    111         -8.982292   1.000000
    112         -8.982222   1.000000
    113         -8.942841   1.000000
    114         -8.922580   1.000000
    115         -8.922411   1.000000
    116         -8.915519   1.000000
    117         -8.896362   1.000000
    118         -8.881161   1.000000
    119         -8.659828   1.000000
    120         -8.402353   1.000000
    121         -8.402296   1.000000
    122         -8.313364   1.000000
    123         -8.313308   1.000000
    124         -8.283343   1.000000
    125         -8.283304   1.000000
    126         -8.050317   1.000000
    127         -8.050078   1.000000
    128         -8.039193   1.000000
    129         -8.039153   1.000000
    130         -8.012819   1.000000
    131         -8.001505   1.000000
    132         -8.001256   1.000000
    133         -7.852224   1.000000
    134         -7.851837   1.000000
    135         -7.804999   1.000000
    136         -7.715170   1.000000
    137         -7.714705   1.000000
    138         -7.698766   1.000000
    139         -7.680961   1.000000
    140         -7.676485   1.000000
    141         -7.663140   1.000000
    142         -7.662555   1.000000
    143         -7.633892   1.000000
    144         -7.633328   1.000000
    145         -7.544932   1.000000
    146         -7.544874   1.000000
    147         -7.452161   1.000000
    148         -7.451789   1.000000
    149         -7.359834   1.000000
    150         -7.273083   1.000000
    151         -7.273058   1.000000
    152         -7.239771   1.000000
    153         -7.239712   1.000000
    154         -7.162711   1.000000
    155         -7.162700   1.000000
    156         -7.132600   1.000000
    157         -7.132557   1.000000
    158         -7.087135   1.000000
    159         -7.026420   1.000000
    160         -7.025810   1.000000
    161         -7.016724   1.000000
    162         -6.948643   1.000000
    163         -6.932889   1.000000
    164         -6.856622   1.000000
    165         -6.798220   1.000000
    166         -6.797761   1.000000
    167         -6.755180   1.000000
    168         -6.754773   1.000000
    169         -6.664743   1.000000
    170         -6.664344   1.000000
    171         -6.613018   1.000000
    172         -6.612597   1.000000
    173         -6.606668   1.000000
    174         -6.565210   1.000000
    175         -6.558347   1.000000
    176         -6.542395   1.000000
    177         -6.542344   1.000000
    178         -6.471637   1.000000
    179         -6.418813   1.000000
    180         -6.418776   1.000000
    181         -6.417562   1.000000
    182         -6.417530   1.000000
    183         -6.364425   1.000000
    184         -6.265324   1.000000
    185         -6.237703   1.000000
    186         -6.237180   1.000000
    187         -6.220235   1.000000
    188         -6.108589   1.000000
    189         -6.107995   1.000000
    190         -6.042160   1.000000
    191         -5.955778   1.000000
    192         -5.888672   1.000000
    193         -5.848318   1.000000
    194         -5.812411   1.000000
    195         -5.778290   1.000000
    196         -5.730157   1.000000
    197         -5.729667   1.000000
    198         -5.710523   1.000000
    199         -5.710084   1.000000
    200         -5.596571   0.999958
    201         -5.542434   0.999237
    202         -5.542094   0.999224
    203         -5.524504   0.998227
    204         -5.396287   0.864915
    205         -5.396212   0.864685
    206         -5.282224   0.304877
    207         -5.282070   0.304115
    208         -5.243992   0.146604
    209         -5.243852   0.146152
    210         -5.206159   0.056354
    211         -4.893655   0.000000
    212         -4.757350   0.000000
    213         -4.757272   0.000000
    214         -4.313846   0.000000
    215         -3.033425   0.000000
    216         -3.033346   0.000000
    217         -1.693081   0.000000
    218         -1.553991   0.000000
    219         -1.444883   0.000000
    220         -1.444832   0.000000
    221         -1.212474   0.000000
    222         -1.212393   0.000000
    223         -1.092019   0.000000
    224         -0.807857   0.000000
    225         -0.807805   0.000000
    226         -0.599813   0.000000
    227         -0.485487   0.000000
    228         -0.465788   0.000000
    229         -0.465750   0.000000
    230         -0.459233   0.000000
    231         -0.459182   0.000000
    232         -0.457961   0.000000
    233         -0.417236   0.000000
    234         -0.411331   0.000000
    235         -0.387192   0.000000
    236         -0.387160   0.000000
    237         -0.361225   0.000000
    238         -0.361094   0.000000
    239         -0.336857   0.000000
    240         -0.336824   0.000000
    241         -0.274225   0.000000
    242         -0.274113   0.000000
    243         -0.254149   0.000000
    244         -0.039463   0.000000
    245         -0.033166   0.000000
    246         -0.033062   0.000000
    247          0.015280   0.000000
    248          0.104620   0.000000
    249          0.280742   0.000000
    250          0.383033   0.000000
    251          0.383152   0.000000
    252          0.459721   0.000000
    253          0.459892   0.000000
    254          0.590375   0.000000
    255          0.590514   0.000000
    256          0.637982   0.000000
    257          0.638136   0.000000
    258          0.784842   0.000000
    259          0.795644   0.000000
    260          0.795693   0.000000
    261          0.835062   0.000000
    262          0.847526   0.000000
    263          0.877174   0.000000
    264          0.881461   0.000000
    265          0.993526   0.000000
    266          0.993675   0.000000
    267          1.005743   0.000000
    268          1.005899   0.000000
    269          1.083137   0.000000
    270          1.083175   0.000000
    271          1.125181   0.000000
    272          1.147385   0.000000
    273          1.147489   0.000000
    274          1.164567   0.000000
    275          1.247448   0.000000
    276          1.308465   0.000000
    277          1.308580   0.000000
    278          1.318640   0.000000
    279          1.391967   0.000000
    280          1.498451   0.000000
    281          1.523406   0.000000
    282          1.553260   0.000000
    283          1.553535   0.000000
    284          1.615451   0.000000
    285          1.615590   0.000000
    286          1.622927   0.000000
    287          1.645994   0.000000
    288          1.781215   0.000000
    289          1.781312   0.000000
    290          1.802502   0.000000
    291          1.804692   0.000000
    292          1.818839   0.000000
    293          1.831049   0.000000
    294          1.859407   0.000000
 
  0.3750000E+00  0.1276756E-14  0.1276756E-14  0.1666667E+00
      1        -19.362776   1.000000
      2        -19.302275   1.000000
      3        -19.289954   1.000000
      4        -19.289849   1.000000
      5        -19.234046   1.000000
      6        -19.233939   1.000000
      7        -18.965082   1.000000
      8        -18.930959   1.000000
      9        -18.930844   1.000000
     10        -18.815297   1.000000
     11        -18.802358   1.000000
     12        -18.802238   1.000000
     13        -18.454931   1.000000
     14        -18.454795   1.000000
     15        -18.384402   1.000000
     16        -18.384262   1.000000
     17        -18.371764   1.000000
     18        -18.269900   1.000000
     19        -15.494630   1.000000
     20        -15.494579   1.000000
     21        -15.444751   1.000000
     22        -15.444703   1.000000
     23        -15.417187   1.000000
     24        -15.417117   1.000000
     25        -15.401494   1.000000
     26        -15.356284   1.000000
     27        -15.308513   1.000000
     28        -15.308437   1.000000
     29        -15.148270   1.000000
     30        -15.089252   1.000000
     31        -15.047041   1.000000
     32        -15.039192   1.000000
     33        -14.921520   1.000000
     34        -14.921427   1.000000
     35        -14.847724   1.000000
     36        -14.847629   1.000000
     37        -13.296722   1.000000
     38        -13.296660   1.000000
     39        -13.079311   1.000000
     40        -13.079256   1.000000
     41        -12.763146   1.000000
     42        -12.751381   1.000000
     43        -12.650109   1.000000
     44        -12.579677   1.000000
     45        -12.288596   1.000000
     46        -12.265541   1.000000
     47        -12.224358   1.000000
     48        -12.224256   1.000000
     49        -12.196656   1.000000
     50        -12.189992   1.000000
     51        -12.189966   1.000000
     52        -12.122259   1.000000
     53        -12.122084   1.000000
     54        -12.079943   1.000000
     55        -12.079852   1.000000
     56        -12.063215   1.000000
     57        -12.063044   1.000000
     58        -11.985151   1.000000
     59        -11.893507   1.000000
     60        -11.893469   1.000000
     61        -11.821683   1.000000
     62        -11.762156   1.000000
     63        -11.762006   1.000000
     64        -11.660884   1.000000
     65        -11.646343   1.000000
     66        -11.646205   1.000000
     67        -11.576465   1.000000
     68        -11.507752   1.000000
     69        -11.380455   1.000000
     70        -11.380353   1.000000
     71        -11.336170   1.000000
     72        -11.336075   1.000000
     73        -11.212389   1.000000
     74        -11.116525   1.000000
     75        -11.109313   1.000000
     76        -11.109289   1.000000
     77        -10.941885   1.000000
     78        -10.941818   1.000000
     79        -10.687743   1.000000
     80        -10.650985   1.000000
     81        -10.650965   1.000000
     82        -10.649786   1.000000
     83        -10.649715   1.000000
     84        -10.610134   1.000000
     85        -10.197895   1.000000
     86        -10.156461   1.000000
     87        -10.010755   1.000000
     88        -10.010710   1.000000
     89         -9.895274   1.000000
     90         -9.829349   1.000000
     91         -9.829299   1.000000
     92         -9.518906   1.000000
     93         -9.246436   1.000000
     94         -9.246361   1.000000
     95         -9.184621   1.000000
     96         -9.184383   1.000000
     97         -9.099866   1.000000
     98         -9.079841   1.000000
     99         -9.066507   1.000000
    100         -9.061825   1.000000
    101         -9.061722   1.000000
    102         -9.056659   1.000000
    103         -9.056498   1.000000
    104         -9.021570   1.000000
    105         -9.021309   1.000000
    106         -9.019212   1.000000
    107         -9.018554   1.000000
    108         -9.018510   1.000000
    109         -8.979217   1.000000
    110         -8.979142   1.000000
    111         -8.951489   1.000000
    112         -8.951348   1.000000
    113         -8.915136   1.000000
    114         -8.903168   1.000000
    115         -8.862061   1.000000
    116         -8.861931   1.000000
    117         -8.615227   1.000000
    118         -8.615153   1.000000
    119         -8.593666   1.000000
    120         -8.568877   1.000000
    121         -8.435306   1.000000
    122         -8.379960   1.000000
    123         -8.379901   1.000000
    124         -8.368869   1.000000
    125         -8.368801   1.000000
    126         -8.215122   1.000000
    127         -8.036992   1.000000
    128         -8.036726   1.000000
    129         -7.966488   1.000000
    130         -7.966170   1.000000
    131         -7.957016   1.000000
    132         -7.956973   1.000000
    133         -7.896554   1.000000
    134         -7.896250   1.000000
    135         -7.792050   1.000000
    136         -7.792000   1.000000
    137         -7.782703   1.000000
    138         -7.756979   1.000000
    139         -7.756570   1.000000
    140         -7.743590   1.000000
    141         -7.683446   1.000000
    142         -7.683198   1.000000
    143         -7.649358   1.000000
    144         -7.646210   1.000000
    145         -7.583574   1.000000
    146         -7.583015   1.000000
    147         -7.508062   1.000000
    148         -7.488680   1.000000
    149         -7.488087   1.000000
    150         -7.308416   1.000000
    151         -7.236793   1.000000
    152         -7.236759   1.000000
    153         -7.157933   1.000000
    154         -7.157894   1.000000
    155         -7.014962   1.000000
    156         -7.014955   1.000000
    157         -7.005300   1.000000
    158         -6.979509   1.000000
    159         -6.971975   1.000000
    160         -6.971943   1.000000
    161         -6.948960   1.000000
    162         -6.948389   1.000000
    163         -6.862500   1.000000
    164         -6.861982   1.000000
    165         -6.839798   1.000000
    166         -6.746073   1.000000
    167         -6.724676   1.000000
    168         -6.724293   1.000000
    169         -6.697750   1.000000
    170         -6.697376   1.000000
    171         -6.659746   1.000000
    172         -6.609603   1.000000
    173         -6.526862   1.000000
    174         -6.526418   1.000000
    175         -6.516008   1.000000
    176         -6.515967   1.000000
    177         -6.515940   1.000000
    178         -6.459276   1.000000
    179         -6.459232   1.000000
    180         -6.455241   1.000000
    181         -6.395897   1.000000
    182         -6.395442   1.000000
    183         -6.343398   1.000000
    184         -6.343351   1.000000
    185         -6.302773   1.000000
    186         -6.275002   1.000000
    187         -6.221118   1.000000
    188         -6.052176   1.000000
    189         -6.005981   1.000000
    190         -6.005390   1.000000
    191         -5.963517   1.000000
    192         -5.963450   1.000000
    193         -5.914095   1.000000
    194         -5.897126   1.000000
    195         -5.872859   1.000000
    196         -5.872333   1.000000
    197         -5.802986   1.000000
    198         -5.701331   1.000000
    199         -5.699152   1.000000
    200         -5.635056   0.999996
    201         -5.589894   0.999939
    202         -5.574028   0.999851
    203         -5.573681   0.999848
    204         -5.518694   0.997700
    205         -5.401122   0.879212
    206         -5.400900   0.878577
    207         -5.393303   0.855535
    208         -5.393044   0.854701
    209         -5.286437   0.326054
    210         -5.286254   0.325120
    211         -4.618923   0.000000
    212         -4.418126   0.000000
    213         -4.098249   0.000000
    214         -4.098169   0.000000
    215         -3.478735   0.000000
    216         -3.478655   0.000000
    217         -1.662668   0.000000
    218         -1.457062   0.000000
    219         -1.336783   0.000000
    220         -1.336731   0.000000
    221         -1.273693   0.000000
    222         -1.121229   0.000000
    223         -1.121177   0.000000
    224         -0.912860   0.000000
    225         -0.912776   0.000000
    226         -0.884586   0.000000
    227         -0.569698   0.000000
    228         -0.569600   0.000000
    229         -0.507433   0.000000
    230         -0.489666   0.000000
    231         -0.489632   0.000000
    232         -0.486699   0.000000
    233         -0.444187   0.000000
    234         -0.444155   0.000000
    235         -0.295815   0.000000
    236         -0.241642   0.000000
    237         -0.241601   0.000000
    238         -0.176672   0.000000
    239         -0.176546   0.000000
    240         -0.161482   0.000000
    241         -0.160761   0.000000
    242         -0.155818   0.000000
    243         -0.155792   0.000000
    244         -0.039925   0.000000
    245         -0.026793   0.000000
    246          0.113096   0.000000
    247          0.113215   0.000000
    248          0.161130   0.000000
    249          0.161201   0.000000
    250          0.317889   0.000000
    251          0.317977   0.000000
    252          0.383202   0.000000
    253          0.542440   0.000000
    254          0.567599   0.000000
    255          0.664013   0.000000
    256          0.744696   0.000000
    257          0.744856   0.000000
    258          0.775424   0.000000
    259          0.775487   0.000000
    260          0.804304   0.000000
    261          0.804500   0.000000
    262          0.842051   0.000000
    263          0.856774   0.000000
    264          0.934105   0.000000
    265          0.934294   0.000000
    266          0.937481   0.000000
    267          0.937615   0.000000
    268          0.954414   0.000000
    269          1.032846   0.000000
    270          1.143775   0.000000
    271          1.152785   0.000000
    272          1.152943   0.000000
    273          1.183861   0.000000
    274          1.204429   0.000000
    275          1.204496   0.000000
    276          1.252035   0.000000
    277          1.354406   0.000000
    278          1.354549   0.000000
    279          1.406194   0.000000
    280          1.406360   0.000000
    281          1.409508   0.000000
    282          1.452692   0.000000
    283          1.464717   0.000000
    284          1.464809   0.000000
    285          1.481530   0.000000
    286          1.481758   0.000000
    287          1.559019   0.000000
    288          1.567123   0.000000
    289          1.610106   0.000000
    290          1.698463   0.000000
    291          1.698994   0.000000
    292          1.733604   0.000000
    293          1.737032   0.000000
    294          1.781378   0.000000
 
  0.1250000E+00  0.3333333E+00  0.1276756E-14  0.1666667E+00
      1        -19.382742   1.000000
      2        -19.354118   1.000000
      3        -19.292763   1.000000
      4        -19.204932   1.000000
      5        -19.181647   1.000000
      6        -19.132444   1.000000
      7        -19.092638   1.000000
      8        -19.073500   1.000000
      9        -19.033692   1.000000
     10        -18.679305   1.000000
     11        -18.665713   1.000000
     12        -18.660517   1.000000
     13        -18.570895   1.000000
     14        -18.530944   1.000000
     15        -18.512993   1.000000
     16        -18.389938   1.000000
     17        -18.286417   1.000000
     18        -18.234664   1.000000
     19        -15.549271   1.000000
     20        -15.538916   1.000000
     21        -15.441767   1.000000
     22        -15.421823   1.000000
     23        -15.412346   1.000000
     24        -15.393752   1.000000
     25        -15.389585   1.000000
     26        -15.347794   1.000000
     27        -15.281637   1.000000
     28        -15.231565   1.000000
     29        -15.100027   1.000000
     30        -15.074732   1.000000
     31        -15.054569   1.000000
     32        -15.021419   1.000000
     33        -15.014349   1.000000
     34        -15.005927   1.000000
     35        -14.935505   1.000000
     36        -14.730473   1.000000
     37        -13.594167   1.000000
     38        -13.131104   1.000000
     39        -12.857011   1.000000
     40        -12.849767   1.000000
     41        -12.787427   1.000000
     42        -12.782275   1.000000
     43        -12.701266   1.000000
     44        -12.694962   1.000000
     45        -12.420537   1.000000
     46        -12.397680   1.000000
     47        -12.281205   1.000000
     48        -12.248552   1.000000
     49        -12.226965   1.000000
     50        -12.218267   1.000000
     51        -12.105279   1.000000
     52        -12.091884   1.000000
     53        -12.080933   1.000000
     54        -12.041541   1.000000
     55        -12.037580   1.000000
     56        -11.999481   1.000000
     57        -11.956888   1.000000
     58        -11.932514   1.000000
     59        -11.922095   1.000000
     60        -11.859196   1.000000
     61        -11.852062   1.000000
     62        -11.840434   1.000000
     63        -11.763095   1.000000
     64        -11.559581   1.000000
     65        -11.538213   1.000000
     66        -11.516280   1.000000
     67        -11.502041   1.000000
     68        -11.492388   1.000000
     69        -11.480902   1.000000
     70        -11.403128   1.000000
     71        -11.395164   1.000000
     72        -11.356995   1.000000
     73        -11.289333   1.000000
     74        -11.196229   1.000000
     75        -11.164071   1.000000
     76        -11.161694   1.000000
     77        -11.160216   1.000000
     78        -11.101660   1.000000
     79        -10.871469   1.000000
     80        -10.860229   1.000000
     81        -10.790239   1.000000
     82        -10.546688   1.000000
     83        -10.498841   1.000000
     84        -10.220276   1.000000
     85        -10.021326   1.000000
     86        -10.000648   1.000000
     87         -9.920391   1.000000
     88         -9.781322   1.000000
     89         -9.769218   1.000000
     90         -9.767555   1.000000
     91         -9.684431   1.000000
     92         -9.658729   1.000000
     93         -9.309222   1.000000
     94         -9.295700   1.000000
     95         -9.247977   1.000000
     96         -9.192883   1.000000
     97         -9.154961   1.000000
     98         -9.139532   1.000000
     99         -9.118206   1.000000
    100         -9.102912   1.000000
    101         -9.080931   1.000000
    102         -9.074213   1.000000
    103         -9.059043   1.000000
    104         -9.044528   1.000000
    105         -9.030624   1.000000
    106         -9.003352   1.000000
    107         -9.002135   1.000000
    108         -8.995544   1.000000
    109         -8.986217   1.000000
    110         -8.986012   1.000000
    111         -8.979523   1.000000
    112         -8.972118   1.000000
    113         -8.965085   1.000000
    114         -8.949692   1.000000
    115         -8.917219   1.000000
    116         -8.902073   1.000000
    117         -8.836810   1.000000
    118         -8.780926   1.000000
    119         -8.534372   1.000000
    120         -8.529024   1.000000
    121         -8.487312   1.000000
    122         -8.419233   1.000000
    123         -8.410914   1.000000
    124         -8.304083   1.000000
    125         -8.220971   1.000000
    126         -8.152006   1.000000
    127         -8.077342   1.000000
    128         -8.049809   1.000000
    129         -7.980119   1.000000
    130         -7.973344   1.000000
    131         -7.949746   1.000000
    132         -7.949213   1.000000
    133         -7.915286   1.000000
    134         -7.841606   1.000000
    135         -7.831383   1.000000
    136         -7.799294   1.000000
    137         -7.784270   1.000000
    138         -7.722177   1.000000
    139         -7.708200   1.000000
    140         -7.663688   1.000000
    141         -7.645128   1.000000
    142         -7.623692   1.000000
    143         -7.605881   1.000000
    144         -7.591429   1.000000
    145         -7.560430   1.000000
    146         -7.555721   1.000000
    147         -7.505766   1.000000
    148         -7.407873   1.000000
    149         -7.384111   1.000000
    150         -7.375083   1.000000
    151         -7.370413   1.000000
    152         -7.295864   1.000000
    153         -7.206781   1.000000
    154         -7.172973   1.000000
    155         -7.022639   1.000000
    156         -7.022036   1.000000
    157         -7.018219   1.000000
    158         -6.992818   1.000000
    159         -6.978004   1.000000
    160         -6.908647   1.000000
    161         -6.885058   1.000000
    162         -6.863932   1.000000
    163         -6.851268   1.000000
    164         -6.832321   1.000000
    165         -6.798225   1.000000
    166         -6.787201   1.000000
    167         -6.769919   1.000000
    168         -6.740177   1.000000
    169         -6.686746   1.000000
    170         -6.654659   1.000000
    171         -6.646407   1.000000
    172         -6.610567   1.000000
    173         -6.572236   1.000000
    174         -6.563691   1.000000
    175         -6.544468   1.000000
    176         -6.524336   1.000000
    177         -6.522262   1.000000
    178         -6.506096   1.000000
    179         -6.463566   1.000000
    180         -6.426789   1.000000
    181         -6.422186   1.000000
    182         -6.420542   1.000000
    183         -6.415570   1.000000
    184         -6.409773   1.000000
    185         -6.373889   1.000000
    186         -6.255321   1.000000
    187         -6.228009   1.000000
    188         -6.203389   1.000000
    189         -6.165253   1.000000
    190         -6.081784   1.000000
    191         -5.936232   1.000000
    192         -5.925365   1.000000
    193         -5.911440   1.000000
    194         -5.884609   1.000000
    195         -5.838864   1.000000
    196         -5.768387   1.000000
    197         -5.705014   1.000000
    198         -5.656304   0.999999
    199         -5.610084   0.999982
    200         -5.560421   0.999691
    201         -5.533740   0.998843
    202         -5.508064   0.996356
    203         -5.490988   0.992696
    204         -5.412165   0.907783
    205         -5.364382   0.742628
    206         -5.335351   0.595189
    207         -5.332905   0.581726
    208         -5.272174   0.257022
    209         -5.211805   0.065996
    210         -5.206695   0.057218
    211         -4.816457   0.000000
    212         -4.798919   0.000000
    213         -4.741254   0.000000
    214         -4.028075   0.000000
    215         -3.496183   0.000000
    216         -2.779163   0.000000
    217         -1.622208   0.000000
    218         -1.537801   0.000000
    219         -1.443465   0.000000
    220         -1.375006   0.000000
    221         -1.329686   0.000000
    222         -1.044822   0.000000
    223         -1.024188   0.000000
    224         -0.958724   0.000000
    225         -0.916538   0.000000
    226         -0.778818   0.000000
    227         -0.637668   0.000000
    228         -0.579057   0.000000
    229         -0.571166   0.000000
    230         -0.528746   0.000000
    231         -0.500101   0.000000
    232         -0.491330   0.000000
    233         -0.490688   0.000000
    234         -0.473150   0.000000
    235         -0.411532   0.000000
    236         -0.386614   0.000000
    237         -0.300220   0.000000
    238         -0.287947   0.000000
    239         -0.259643   0.000000
    240         -0.240935   0.000000
    241         -0.189535   0.000000
    242         -0.109385   0.000000
    243         -0.054752   0.000000
    244         -0.029696   0.000000
    245          0.121309   0.000000
    246          0.128103   0.000000
    247          0.186262   0.000000
    248          0.218458   0.000000
    249          0.359845   0.000000
    250          0.378689   0.000000
    251          0.381441   0.000000
    252          0.393832   0.000000
    253          0.394622   0.000000
    254          0.430989   0.000000
    255          0.504777   0.000000
    256          0.642568   0.000000
    257          0.642611   0.000000
    258          0.659238   0.000000
    259          0.682273   0.000000
    260          0.696610   0.000000
    261          0.791966   0.000000
    262          0.820706   0.000000
    263          0.874452   0.000000
    264          0.940370   0.000000
    265          0.942706   0.000000
    266          0.994609   0.000000
    267          1.054976   0.000000
    268          1.072112   0.000000
    269          1.073333   0.000000
    270          1.124674   0.000000
    271          1.185849   0.000000
    272          1.195000   0.000000
    273          1.206277   0.000000
    274          1.246606   0.000000
    275          1.266229   0.000000
    276          1.332572   0.000000
    277          1.349713   0.000000
    278          1.406412   0.000000
    279          1.408022   0.000000
    280          1.448775   0.000000
    281          1.528993   0.000000
    282          1.540144   0.000000
    283          1.557504   0.000000
    284          1.587155   0.000000
    285          1.593943   0.000000
    286          1.609167   0.000000
    287          1.616156   0.000000
    288          1.619876   0.000000
    289          1.632447   0.000000
    290          1.643456   0.000000
    291          1.692575   0.000000
    292          1.736103   0.000000
    293          1.751829   0.000000
    294          1.849025   0.000000
 
  0.1250000E+00 -0.3333333E+00  0.1276756E-14  0.1666667E+00
      1        -19.382743   1.000000
      2        -19.354118   1.000000
      3        -19.292763   1.000000
      4        -19.204932   1.000000
      5        -19.181647   1.000000
      6        -19.132444   1.000000
      7        -19.092638   1.000000
      8        -19.073500   1.000000
      9        -19.033693   1.000000
     10        -18.679305   1.000000
     11        -18.665714   1.000000
     12        -18.660516   1.000000
     13        -18.570895   1.000000
     14        -18.530944   1.000000
     15        -18.512993   1.000000
     16        -18.389938   1.000000
     17        -18.286418   1.000000
     18        -18.234663   1.000000
     19        -15.549272   1.000000
     20        -15.538915   1.000000
     21        -15.441763   1.000000
     22        -15.421823   1.000000
     23        -15.412348   1.000000
     24        -15.393757   1.000000
     25        -15.389585   1.000000
     26        -15.347798   1.000000
     27        -15.281631   1.000000
     28        -15.231567   1.000000
     29        -15.100018   1.000000
     30        -15.074730   1.000000
     31        -15.054578   1.000000
     32        -15.021421   1.000000
     33        -15.014340   1.000000
     34        -15.005937   1.000000
     35        -14.935502   1.000000
     36        -14.730475   1.000000
     37        -13.594165   1.000000
     38        -13.131111   1.000000
     39        -12.856980   1.000000
     40        -12.849761   1.000000
     41        -12.787458   1.000000
     42        -12.782246   1.000000
     43        -12.701294   1.000000
     44        -12.694973   1.000000
     45        -12.420562   1.000000
     46        -12.397681   1.000000
     47        -12.281204   1.000000
     48        -12.248536   1.000000
     49        -12.226964   1.000000
     50        -12.218241   1.000000
     51        -12.105274   1.000000
     52        -12.091885   1.000000
     53        -12.080932   1.000000
     54        -12.041517   1.000000
     55        -12.037583   1.000000
     56        -11.999472   1.000000
     57        -11.956889   1.000000
     58        -11.932513   1.000000
     59        -11.922094   1.000000
     60        -11.859200   1.000000
     61        -11.852091   1.000000
     62        -11.840434   1.000000
     63        -11.763111   1.000000
     64        -11.559580   1.000000
     65        -11.538216   1.000000
     66        -11.516281   1.000000
     67        -11.502040   1.000000
     68        -11.492389   1.000000
     69        -11.480898   1.000000
     70        -11.403128   1.000000
     71        -11.395163   1.000000
     72        -11.356996   1.000000
     73        -11.289323   1.000000
     74        -11.196230   1.000000
     75        -11.164077   1.000000
     76        -11.161706   1.000000
     77        -11.160221   1.000000
     78        -11.101660   1.000000
     79        -10.871465   1.000000
     80        -10.860219   1.000000
     81        -10.790229   1.000000
     82        -10.546698   1.000000
     83        -10.498837   1.000000
     84        -10.220276   1.000000
     85        -10.021329   1.000000
     86        -10.000644   1.000000
     87         -9.920388   1.000000
     88         -9.781327   1.000000
     89         -9.769226   1.000000
     90         -9.767553   1.000000
     91         -9.684423   1.000000
     92         -9.658730   1.000000
     93         -9.309237   1.000000
     94         -9.295677   1.000000
     95         -9.248031   1.000000
     96         -9.192833   1.000000
     97         -9.154971   1.000000
     98         -9.139513   1.000000
     99         -9.118227   1.000000
    100         -9.102908   1.000000
    101         -9.080940   1.000000
    102         -9.074138   1.000000
    103         -9.059108   1.000000
    104         -9.044526   1.000000
    105         -9.030608   1.000000
    106         -9.003343   1.000000
    107         -9.001998   1.000000
    108         -8.995645   1.000000
    109         -8.986295   1.000000
    110         -8.986009   1.000000
    111         -8.979563   1.000000
    112         -8.972054   1.000000
    113         -8.965202   1.000000
    114         -8.949642   1.000000
    115         -8.917218   1.000000
    116         -8.902073   1.000000
    117         -8.836785   1.000000
    118         -8.780879   1.000000
    119         -8.534363   1.000000
    120         -8.529035   1.000000
    121         -8.487305   1.000000
    122         -8.419248   1.000000
    123         -8.410907   1.000000
    124         -8.304101   1.000000
    125         -8.220977   1.000000
    126         -8.152004   1.000000
    127         -8.077242   1.000000
    128         -8.049809   1.000000
    129         -7.980243   1.000000
    130         -7.973465   1.000000
    131         -7.949619   1.000000
    132         -7.949348   1.000000
    133         -7.915283   1.000000
    134         -7.841441   1.000000
    135         -7.831631   1.000000
    136         -7.799026   1.000000
    137         -7.784151   1.000000
    138         -7.722356   1.000000
    139         -7.707884   1.000000
    140         -7.663683   1.000000
    141         -7.645287   1.000000
    142         -7.624090   1.000000
    143         -7.606278   1.000000
    144         -7.591008   1.000000
    145         -7.560339   1.000000
    146         -7.555424   1.000000
    147         -7.505763   1.000000
    148         -7.407870   1.000000
    149         -7.384307   1.000000
    150         -7.375086   1.000000
    151         -7.370416   1.000000
    152         -7.295845   1.000000
    153         -7.206787   1.000000
    154         -7.172985   1.000000
    155         -7.022698   1.000000
    156         -7.021971   1.000000
    157         -7.018183   1.000000
    158         -6.992816   1.000000
    159         -6.978006   1.000000
    160         -6.908834   1.000000
    161         -6.885074   1.000000
    162         -6.863927   1.000000
    163         -6.851040   1.000000
    164         -6.832184   1.000000
    165         -6.798215   1.000000
    166         -6.787348   1.000000
    167         -6.769971   1.000000
    168         -6.740143   1.000000
    169         -6.686744   1.000000
    170         -6.654675   1.000000
    171         -6.646409   1.000000
    172         -6.610670   1.000000
    173         -6.572246   1.000000
    174         -6.563702   1.000000
    175         -6.544469   1.000000
    176         -6.524087   1.000000
    177         -6.522137   1.000000
    178         -6.506092   1.000000
    179         -6.463561   1.000000
    180         -6.426804   1.000000
    181         -6.422162   1.000000
    182         -6.420521   1.000000
    183         -6.415576   1.000000
    184         -6.410037   1.000000
    185         -6.373824   1.000000
    186         -6.255273   1.000000
    187         -6.228161   1.000000
    188         -6.203402   1.000000
    189         -6.165251   1.000000
    190         -6.081908   1.000000
    191         -5.935763   1.000000
    192         -5.925118   1.000000
    193         -5.911863   1.000000
    194         -5.884963   1.000000
    195         -5.838813   1.000000
    196         -5.768107   1.000000
    197         -5.705165   1.000000
    198         -5.656055   0.999999
    199         -5.610176   0.999982
    200         -5.560620   0.999695
    201         -5.533641   0.998837
    202         -5.507943   0.996338
    203         -5.490987   0.992696
    204         -5.412313   0.908128
    205         -5.364255   0.742050
    206         -5.335444   0.595696
    207         -5.332997   0.582237
    208         -5.272176   0.257032
    209         -5.211724   0.065849
    210         -5.206692   0.057214
    211         -4.816457   0.000000
    212         -4.798918   0.000000
    213         -4.741255   0.000000
    214         -4.028076   0.000000
    215         -3.496181   0.000000
    216         -2.779165   0.000000
    217         -1.622204   0.000000
    218         -1.537803   0.000000
    219         -1.443468   0.000000
    220         -1.375005   0.000000
    221         -1.329680   0.000000
    222         -1.044826   0.000000
    223         -1.024187   0.000000
    224         -0.958737   0.000000
    225         -0.916531   0.000000
    226         -0.778819   0.000000
    227         -0.637658   0.000000
    228         -0.579062   0.000000
    229         -0.571161   0.000000
    230         -0.528763   0.000000
    231         -0.500102   0.000000
    232         -0.491340   0.000000
    233         -0.490683   0.000000
    234         -0.473118   0.000000
    235         -0.411536   0.000000
    236         -0.386600   0.000000
    237         -0.300210   0.000000
    238         -0.287940   0.000000
    239         -0.259651   0.000000
    240         -0.240964   0.000000
    241         -0.189523   0.000000
    242         -0.109398   0.000000
    243         -0.054761   0.000000
    244         -0.029747   0.000000
    245          0.121344   0.000000
    246          0.128091   0.000000
    247          0.186271   0.000000
    248          0.218498   0.000000
    249          0.359806   0.000000
    250          0.378690   0.000000
    251          0.381445   0.000000
    252          0.393873   0.000000
    253          0.394623   0.000000
    254          0.430969   0.000000
    255          0.504800   0.000000
    256          0.642565   0.000000
    257          0.642628   0.000000
    258          0.659258   0.000000
    259          0.682220   0.000000
    260          0.696577   0.000000
    261          0.791941   0.000000
    262          0.820755   0.000000
    263          0.874458   0.000000
    264          0.940358   0.000000
    265          0.942698   0.000000
    266          0.994613   0.000000
    267          1.055038   0.000000
    268          1.072124   0.000000
    269          1.073277   0.000000
    270          1.124639   0.000000
    271          1.185834   0.000000
    272          1.194982   0.000000
    273          1.206299   0.000000
    274          1.246606   0.000000
    275          1.266251   0.000000
    276          1.332608   0.000000
    277          1.349735   0.000000
    278          1.406532   0.000000
    279          1.408006   0.000000
    280          1.448774   0.000000
    281          1.529008   0.000000
    282          1.540141   0.000000
    283          1.557464   0.000000
    284          1.587111   0.000000
    285          1.593896   0.000000
    286          1.609130   0.000000
    287          1.616242   0.000000
    288          1.619895   0.000000
    289          1.632886   0.000000
    290          1.643431   0.000000
    291          1.701733   0.000000
    292          1.737904   0.000000
    293          1.781910   0.000000
    294          1.822804   0.000000
 
  0.3750000E+00  0.3333333E+00  0.1276756E-14  0.1666667E+00
      1        -19.352371   1.000000
      2        -19.324567   1.000000
      3        -19.292494   1.000000
      4        -19.266412   1.000000
      5        -19.265076   1.000000
      6        -19.210846   1.000000
      7        -18.959985   1.000000
      8        -18.946713   1.000000
      9        -18.920087   1.000000
     10        -18.813147   1.000000
     11        -18.807882   1.000000
     12        -18.798963   1.000000
     13        -18.482711   1.000000
     14        -18.421252   1.000000
     15        -18.415552   1.000000
     16        -18.383725   1.000000
     17        -18.331059   1.000000
     18        -18.286816   1.000000
     19        -15.511662   1.000000
     20        -15.477499   1.000000
     21        -15.453048   1.000000
     22        -15.445039   1.000000
     23        -15.435447   1.000000
     24        -15.414794   1.000000
     25        -15.392366   1.000000
     26        -15.371168   1.000000
     27        -15.312551   1.000000
     28        -15.209124   1.000000
     29        -15.201660   1.000000
     30        -15.120919   1.000000
     31        -15.010437   1.000000
     32        -15.002611   1.000000
     33        -14.946602   1.000000
     34        -14.929084   1.000000
     35        -14.921677   1.000000
     36        -14.798455   1.000000
     37        -13.415376   1.000000
     38        -13.099133   1.000000
     39        -13.078139   1.000000
     40        -12.983053   1.000000
     41        -12.809790   1.000000
     42        -12.780561   1.000000
     43        -12.722486   1.000000
     44        -12.598400   1.000000
     45        -12.512128   1.000000
     46        -12.323077   1.000000
     47        -12.289198   1.000000
     48        -12.246691   1.000000
     49        -12.194105   1.000000
     50        -12.186200   1.000000
     51        -12.179005   1.000000
     52        -12.129916   1.000000
     53        -12.069545   1.000000
     54        -12.063582   1.000000
     55        -12.061923   1.000000
     56        -12.009044   1.000000
     57        -11.962835   1.000000
     58        -11.961911   1.000000
     59        -11.822124   1.000000
     60        -11.813152   1.000000
     61        -11.790459   1.000000
     62        -11.741265   1.000000
     63        -11.658072   1.000000
     64        -11.651673   1.000000
     65        -11.644630   1.000000
     66        -11.567294   1.000000
     67        -11.506031   1.000000
     68        -11.445171   1.000000
     69        -11.416417   1.000000
     70        -11.400843   1.000000
     71        -11.397765   1.000000
     72        -11.352828   1.000000
     73        -11.297737   1.000000
     74        -11.235201   1.000000
     75        -11.230385   1.000000
     76        -11.147492   1.000000
     77        -11.052542   1.000000
     78        -10.997270   1.000000
     79        -10.868387   1.000000
     80        -10.730368   1.000000
     81        -10.597132   1.000000
     82        -10.548146   1.000000
     83        -10.390619   1.000000
     84        -10.363674   1.000000
     85        -10.346680   1.000000
     86        -10.243404   1.000000
     87        -10.155541   1.000000
     88        -10.061593   1.000000
     89         -9.761728   1.000000
     90         -9.604423   1.000000
     91         -9.591057   1.000000
     92         -9.454884   1.000000
     93         -9.403887   1.000000
     94         -9.398874   1.000000
     95         -9.214944   1.000000
     96         -9.167226   1.000000
     97         -9.092531   1.000000
     98         -9.072935   1.000000
     99         -9.071806   1.000000
    100         -9.069386   1.000000
    101         -9.069037   1.000000
    102         -9.052439   1.000000
    103         -9.050624   1.000000
    104         -9.037898   1.000000
    105         -9.022205   1.000000
    106         -9.019631   1.000000
    107         -9.019514   1.000000
    108         -8.995541   1.000000
    109         -8.995038   1.000000
    110         -8.988371   1.000000
    111         -8.951271   1.000000
    112         -8.924502   1.000000
    113         -8.921959   1.000000
    114         -8.908686   1.000000
    115         -8.871765   1.000000
    116         -8.806732   1.000000
    117         -8.688093   1.000000
    118         -8.647526   1.000000
    119         -8.587562   1.000000
    120         -8.572917   1.000000
    121         -8.538592   1.000000
    122         -8.489717   1.000000
    123         -8.451611   1.000000
    124         -8.337870   1.000000
    125         -8.301462   1.000000
    126         -8.249704   1.000000
    127         -8.146838   1.000000
    128         -8.105751   1.000000
    129         -8.069308   1.000000
    130         -8.067344   1.000000
    131         -7.901239   1.000000
    132         -7.900836   1.000000
    133         -7.835146   1.000000
    134         -7.825904   1.000000
    135         -7.814900   1.000000
    136         -7.814547   1.000000
    137         -7.813820   1.000000
    138         -7.744424   1.000000
    139         -7.694058   1.000000
    140         -7.679929   1.000000
    141         -7.656834   1.000000
    142         -7.613728   1.000000
    143         -7.589686   1.000000
    144         -7.559557   1.000000
    145         -7.542635   1.000000
    146         -7.536010   1.000000
    147         -7.520601   1.000000
    148         -7.442942   1.000000
    149         -7.410383   1.000000
    150         -7.318765   1.000000
    151         -7.238483   1.000000
    152         -7.231095   1.000000
    153         -7.192073   1.000000
    154         -7.064067   1.000000
    155         -7.014193   1.000000
    156         -7.001430   1.000000
    157         -6.998880   1.000000
    158         -6.985048   1.000000
    159         -6.965412   1.000000
    160         -6.931804   1.000000
    161         -6.921590   1.000000
    162         -6.908152   1.000000
    163         -6.870827   1.000000
    164         -6.821288   1.000000
    165         -6.816682   1.000000
    166         -6.793689   1.000000
    167         -6.740409   1.000000
    168         -6.730985   1.000000
    169         -6.721316   1.000000
    170         -6.705884   1.000000
    171         -6.675846   1.000000
    172         -6.636928   1.000000
    173         -6.626633   1.000000
    174         -6.596907   1.000000
    175         -6.580643   1.000000
    176         -6.552080   1.000000
    177         -6.524403   1.000000
    178         -6.500266   1.000000
    179         -6.419716   1.000000
    180         -6.405177   1.000000
    181         -6.391651   1.000000
    182         -6.368912   1.000000
    183         -6.346740   1.000000
    184         -6.317563   1.000000
    185         -6.284781   1.000000
    186         -6.270110   1.000000
    187         -6.217936   1.000000
    188         -6.173082   1.000000
    189         -6.081589   1.000000
    190         -5.992963   1.000000
    191         -5.969319   1.000000
    192         -5.922216   1.000000
    193         -5.908477   1.000000
    194         -5.905343   1.000000
    195         -5.848828   1.000000
    196         -5.813365   1.000000
    197         -5.763261   1.000000
    198         -5.759465   1.000000
    199         -5.708682   1.000000
    200         -5.707886   1.000000
    201         -5.637877   0.999997
    202         -5.584947   0.999919
    203         -5.513547   0.997119
    204         -5.511617   0.996868
    205         -5.498144   0.994507
    206         -5.490529   0.992564
    207         -5.483859   0.990387
    208         -5.388102   0.838158
    209         -5.216744   0.075437
    210         -5.172010   0.019269
    211         -4.457154   0.000000
    212         -4.217549   0.000000
    213         -4.179414   0.000000
    214         -4.072635   0.000000
    215         -3.769282   0.000000
    216         -3.358933   0.000000
    217         -1.582311   0.000000
    218         -1.441588   0.000000
    219         -1.391305   0.000000
    220         -1.270130   0.000000
    221         -1.238199   0.000000
    222         -1.217990   0.000000
    223         -1.064226   0.000000
    224         -0.958037   0.000000
    225         -0.888875   0.000000
    226         -0.861651   0.000000
    227         -0.843153   0.000000
    228         -0.810386   0.000000
    229         -0.688201   0.000000
    230         -0.654046   0.000000
    231         -0.621664   0.000000
    232         -0.349858   0.000000
    233         -0.346264   0.000000
    234         -0.271676   0.000000
    235         -0.257681   0.000000
    236         -0.213088   0.000000
    237         -0.106723   0.000000
    238         -0.105106   0.000000
    239         -0.067084   0.000000
    240         -0.044877   0.000000
    241         -0.032790   0.000000
    242         -0.030009   0.000000
    243         -0.015222   0.000000
    244         -0.007592   0.000000
    245          0.038386   0.000000
    246          0.081213   0.000000
    247          0.167624   0.000000
    248          0.210887   0.000000
    249          0.219590   0.000000
    250          0.227463   0.000000
    251          0.283687   0.000000
    252          0.308283   0.000000
    253          0.493178   0.000000
    254          0.697995   0.000000
    255          0.711983   0.000000
    256          0.741584   0.000000
    257          0.760028   0.000000
    258          0.777760   0.000000
    259          0.779430   0.000000
    260          0.792986   0.000000
    261          0.844272   0.000000
    262          0.846716   0.000000
    263          0.872551   0.000000
    264          0.882590   0.000000
    265          0.897256   0.000000
    266          0.907154   0.000000
    267          0.918548   0.000000
    268          0.919875   0.000000
    269          0.923000   0.000000
    270          0.928169   0.000000
    271          0.980266   0.000000
    272          1.009223   0.000000
    273          1.019341   0.000000
    274          1.089697   0.000000
    275          1.153415   0.000000
    276          1.243400   0.000000
    277          1.266924   0.000000
    278          1.268006   0.000000
    279          1.343635   0.000000
    280          1.398690   0.000000
    281          1.467953   0.000000
    282          1.485762   0.000000
    283          1.501544   0.000000
    284          1.511707   0.000000
    285          1.520077   0.000000
    286          1.542893   0.000000
    287          1.553729   0.000000
    288          1.572202   0.000000
    289          1.620275   0.000000
    290          1.641158   0.000000
    291          1.688537   0.000000
    292          1.731054   0.000000
    293          1.745782   0.000000
    294          1.781759   0.000000
 
  0.3750000E+00 -0.3333333E+00  0.1276756E-14  0.1666667E+00
      1        -19.352371   1.000000
      2        -19.324567   1.000000
      3        -19.292494   1.000000
      4        -19.266412   1.000000
      5        -19.265076   1.000000
      6        -19.210846   1.000000
      7        -18.959985   1.000000
      8        -18.946712   1.000000
      9        -18.920087   1.000000
     10        -18.813147   1.000000
     11        -18.807882   1.000000
     12        -18.798963   1.000000
     13        -18.482711   1.000000
     14        -18.421251   1.000000
     15        -18.415552   1.000000
     16        -18.383725   1.000000
     17        -18.331059   1.000000
     18        -18.286815   1.000000
     19        -15.511663   1.000000
     20        -15.477498   1.000000
     21        -15.453044   1.000000
     22        -15.445039   1.000000
     23        -15.435450   1.000000
     24        -15.414792   1.000000
     25        -15.392369   1.000000
     26        -15.371169   1.000000
     27        -15.312557   1.000000
     28        -15.209116   1.000000
     29        -15.201653   1.000000
     30        -15.120927   1.000000
     31        -15.010442   1.000000
     32        -15.002604   1.000000
     33        -14.946613   1.000000
     34        -14.929076   1.000000
     35        -14.921674   1.000000
     36        -14.798459   1.000000
     37        -13.415369   1.000000
     38        -13.099142   1.000000
     39        -13.078159   1.000000
     40        -12.983025   1.000000
     41        -12.809772   1.000000
     42        -12.780588   1.000000
     43        -12.722460   1.000000
     44        -12.598425   1.000000
     45        -12.512153   1.000000
     46        -12.323080   1.000000
     47        -12.289175   1.000000
     48        -12.246692   1.000000
     49        -12.194104   1.000000
     50        -12.186194   1.000000
     51        -12.179005   1.000000
     52        -12.129917   1.000000
     53        -12.069530   1.000000
     54        -12.063579   1.000000
     55        -12.061900   1.000000
     56        -12.009044   1.000000
     57        -11.962860   1.000000
     58        -11.961923   1.000000
     59        -11.822103   1.000000
     60        -11.813153   1.000000
     61        -11.790458   1.000000
     62        -11.741266   1.000000
     63        -11.658071   1.000000
     64        -11.651674   1.000000
     65        -11.644630   1.000000
     66        -11.567292   1.000000
     67        -11.506060   1.000000
     68        -11.445171   1.000000
     69        -11.416416   1.000000
     70        -11.400845   1.000000
     71        -11.397772   1.000000
     72        -11.352834   1.000000
     73        -11.297736   1.000000
     74        -11.235201   1.000000
     75        -11.230386   1.000000
     76        -11.147491   1.000000
     77        -11.052534   1.000000
     78        -10.997260   1.000000
     79        -10.868377   1.000000
     80        -10.730373   1.000000
     81        -10.597130   1.000000
     82        -10.548139   1.000000
     83        -10.390625   1.000000
     84        -10.363674   1.000000
     85        -10.346688   1.000000
     86        -10.243401   1.000000
     87        -10.155545   1.000000
     88        -10.061589   1.000000
     89         -9.761737   1.000000
     90         -9.604427   1.000000
     91         -9.591034   1.000000
     92         -9.454851   1.000000
     93         -9.403904   1.000000
     94         -9.398847   1.000000
     95         -9.215043   1.000000
     96         -9.167278   1.000000
     97         -9.092518   1.000000
     98         -9.072963   1.000000
     99         -9.071846   1.000000
    100         -9.069381   1.000000
    101         -9.069063   1.000000
    102         -9.052336   1.000000
    103         -9.050637   1.000000
    104         -9.037920   1.000000
    105         -9.022162   1.000000
    106         -9.019639   1.000000
    107         -9.019515   1.000000
    108         -8.995466   1.000000
    109         -8.995048   1.000000
    110         -8.988372   1.000000
    111         -8.951232   1.000000
    112         -8.924505   1.000000
    113         -8.921961   1.000000
    114         -8.908687   1.000000
    115         -8.871797   1.000000
    116         -8.806680   1.000000
    117         -8.688119   1.000000
    118         -8.647514   1.000000
    119         -8.587547   1.000000
    120         -8.572953   1.000000
    121         -8.538621   1.000000
    122         -8.489717   1.000000
    123         -8.451591   1.000000
    124         -8.337859   1.000000
    125         -8.301469   1.000000
    126         -8.249707   1.000000
    127         -8.146854   1.000000
    128         -8.105659   1.000000
    129         -8.069295   1.000000
    130         -8.067442   1.000000
    131         -7.901200   1.000000
    132         -7.900891   1.000000
    133         -7.835371   1.000000
    134         -7.826096   1.000000
    135         -7.814986   1.000000
    136         -7.814490   1.000000
    137         -7.813561   1.000000
    138         -7.744115   1.000000
    139         -7.693799   1.000000
    140         -7.680286   1.000000
    141         -7.656547   1.000000
    142         -7.614062   1.000000
    143         -7.589280   1.000000
    144         -7.559547   1.000000
    145         -7.543002   1.000000
    146         -7.536482   1.000000
    147         -7.520143   1.000000
    148         -7.442947   1.000000
    149         -7.410391   1.000000
    150         -7.318775   1.000000
    151         -7.238477   1.000000
    152         -7.231069   1.000000
    153         -7.192067   1.000000
    154         -7.064063   1.000000
    155         -7.014203   1.000000
    156         -7.001298   1.000000
    157         -6.998897   1.000000
    158         -6.985297   1.000000
    159         -6.965590   1.000000
    160         -6.931830   1.000000
    161         -6.921307   1.000000
    162         -6.908048   1.000000
    163         -6.870828   1.000000
    164         -6.821375   1.000000
    165         -6.816678   1.000000
    166         -6.793651   1.000000
    167         -6.740356   1.000000
    168         -6.731042   1.000000
    169         -6.721298   1.000000
    170         -6.705891   1.000000
    171         -6.675868   1.000000
    172         -6.636870   1.000000
    173         -6.626673   1.000000
    174         -6.596937   1.000000
    175         -6.580616   1.000000
    176         -6.552082   1.000000
    177         -6.524398   1.000000
    178         -6.500210   1.000000
    179         -6.419708   1.000000
    180         -6.404871   1.000000
    181         -6.391659   1.000000
    182         -6.368919   1.000000
    183         -6.346743   1.000000
    184         -6.317836   1.000000
    185         -6.285151   1.000000
    186         -6.269946   1.000000
    187         -6.217932   1.000000
    188         -6.173068   1.000000
    189         -6.081585   1.000000
    190         -5.992464   1.000000
    191         -5.969761   1.000000
    192         -5.922225   1.000000
    193         -5.908654   1.000000
    194         -5.904911   1.000000
    195         -5.849199   1.000000
    196         -5.813675   1.000000
    197         -5.763268   1.000000
    198         -5.759159   1.000000
    199         -5.708643   1.000000
    200         -5.707663   1.000000
    201         -5.637652   0.999997
    202         -5.584941   0.999919
    203         -5.513640   0.997130
    204         -5.511800   0.996893
    205         -5.498310   0.994544
    206         -5.490388   0.992523
    207         -5.483979   0.990431
    208         -5.387985   0.837753
    209         -5.216830   0.075611
    210         -5.171929   0.019216
    211         -4.457153   0.000000
    212         -4.217552   0.000000
    213         -4.179415   0.000000
    214         -4.072634   0.000000
    215         -3.769278   0.000000
    216         -3.358935   0.000000
    217         -1.582306   0.000000
    218         -1.441593   0.000000
    219         -1.391309   0.000000
    220         -1.270129   0.000000
    221         -1.238193   0.000000
    222         -1.217995   0.000000
    223         -1.064227   0.000000
    224         -0.958034   0.000000
    225         -0.888871   0.000000
    226         -0.861680   0.000000
    227         -0.843134   0.000000
    228         -0.810390   0.000000
    229         -0.688168   0.000000
    230         -0.654027   0.000000
    231         -0.621684   0.000000
    232         -0.349859   0.000000
    233         -0.346309   0.000000
    234         -0.271693   0.000000
    235         -0.257676   0.000000
    236         -0.213075   0.000000
    237         -0.106737   0.000000
    238         -0.105086   0.000000
    239         -0.067101   0.000000
    240         -0.044837   0.000000
    241         -0.032780   0.000000
    242         -0.030021   0.000000
    243         -0.015210   0.000000
    244         -0.007623   0.000000
    245          0.038374   0.000000
    246          0.081224   0.000000
    247          0.167610   0.000000
    248          0.210927   0.000000
    249          0.219623   0.000000
    250          0.227472   0.000000
    251          0.283668   0.000000
    252          0.308242   0.000000
    253          0.493181   0.000000
    254          0.697990   0.000000
    255          0.711973   0.000000
    256          0.741605   0.000000
    257          0.760081   0.000000
    258          0.777771   0.000000
    259          0.779425   0.000000
    260          0.792881   0.000000
    261          0.844267   0.000000
    262          0.846695   0.000000
    263          0.872567   0.000000
    264          0.882608   0.000000
    265          0.897332   0.000000
    266          0.907156   0.000000
    267          0.918654   0.000000
    268          0.919820   0.000000
    269          0.923034   0.000000
    270          0.928146   0.000000
    271          0.980186   0.000000
    272          1.009234   0.000000
    273          1.019324   0.000000
    274          1.089672   0.000000
    275          1.153408   0.000000
    276          1.243278   0.000000
    277          1.266930   0.000000
    278          1.268081   0.000000
    279          1.343578   0.000000
    280          1.398924   0.000000
    281          1.467936   0.000000
    282          1.485795   0.000000
    283          1.501662   0.000000
    284          1.511703   0.000000
    285          1.519851   0.000000
    286          1.542831   0.000000
    287          1.553727   0.000000
    288          1.572099   0.000000
    289          1.620282   0.000000
    290          1.640996   0.000000
    291          1.688543   0.000000
    292          1.730846   0.000000
    293          1.744167   0.000000
    294          1.783117   0.000000
