 running   42 mpi-ranks, on    1 nodes
 distrk:  each k-point on   42 cores,    1 groups
 distr:  one band on    7 cores,    6 groups
 vasp.6.5.0 16Dec24 (build Jan 08 2025 16:17:04) complex                        
  
 POSCAR found type information on POSCAR B H 
 POSCAR found :  2 types and     162 ions
 Reading from existing POTCAR
 scaLAPACK will be used
 Reading from existing POTCAR
 LDA part: xc-table for (Slater+PW92), standard interpolation
 POSCAR, INCAR and KPOINTS ok, starting setup
 FFT: planning ... GRIDC
 FFT: planning ... GRID_SOFT
 FFT: planning ... GRID
 WAVECAR not read
 entering main loop
       N       E                     dE             d eps       ncg     rms          rms(c)
DAV:   1     0.331499872591E+04    0.33150E+04   -0.13792E+05  3744   0.108E+03
DAV:   2    -0.408974034504E+03   -0.37240E+04   -0.36001E+04  5244   0.229E+02
DAV:   3    -0.100412599073E+04   -0.59515E+03   -0.58981E+03  4404   0.986E+01
DAV:   4    -0.102328728786E+04   -0.19161E+02   -0.19031E+02  4416   0.198E+01
DAV:   5    -0.102380742591E+04   -0.52014E+00   -0.51885E+00  4740   0.292E+00    0.423E+01
DAV:   6    -0.963725286942E+03    0.60082E+02   -0.60136E+01  3972   0.106E+01    0.237E+01
DAV:   7    -0.940420641780E+03    0.23305E+02   -0.71143E+01  4188   0.108E+01    0.485E+00
DAV:   8    -0.940145139616E+03    0.27550E+00   -0.53428E+00  4404   0.344E+00    0.217E+00
DAV:   9    -0.939822278492E+03    0.32286E+00   -0.69129E-01  4392   0.113E+00    0.875E-01
DAV:  10    -0.939793395730E+03    0.28883E-01   -0.13514E-01  4476   0.699E-01    0.641E-01
DAV:  11    -0.939762753690E+03    0.30642E-01   -0.48479E-02  4512   0.510E-01    0.403E-01
DAV:  12    -0.939725647370E+03    0.37106E-01   -0.12409E-01  4344   0.481E-01    0.270E-01
DAV:  13    -0.939727439007E+03   -0.17916E-02   -0.25073E-02  4260   0.287E-01    0.188E-01
DAV:  14    -0.939744632588E+03   -0.17194E-01   -0.12488E-02  3876   0.176E-01    0.115E-01
DAV:  15    -0.939749937416E+03   -0.53048E-02   -0.45282E-03  4140   0.109E-01    0.806E-02
DAV:  16    -0.939756540900E+03   -0.66035E-02   -0.11177E-03  4122   0.596E-02    0.584E-02
DAV:  17    -0.939768279702E+03   -0.11739E-01   -0.11576E-03  3960   0.618E-02    0.468E-02
DAV:  18    -0.939774533911E+03   -0.62542E-02   -0.67066E-04  3990   0.465E-02    0.262E-02
DAV:  19    -0.939781017241E+03   -0.64833E-02   -0.45230E-04  3984   0.256E-02    0.165E-02
DAV:  20    -0.939785472624E+03   -0.44554E-02   -0.27128E-04  3996   0.171E-02    0.974E-03
DAV:  21    -0.939787262759E+03   -0.17901E-02   -0.71072E-05  4284   0.905E-03    0.604E-03
DAV:  22    -0.939788361850E+03   -0.10991E-02   -0.38401E-05  4032   0.649E-03    0.369E-03
DAV:  23    -0.939788742613E+03   -0.38076E-03   -0.86702E-06  3828   0.358E-03    0.241E-03
DAV:  24    -0.939789010361E+03   -0.26775E-03   -0.58320E-06  3498   0.262E-03    0.129E-03
DAV:  25    -0.939789102591E+03   -0.92230E-04   -0.14907E-06  3264   0.153E-03    0.754E-04
DAV:  26    -0.939789157803E+03   -0.55212E-04   -0.87057E-07  3006   0.952E-04    0.400E-04
DAV:  27    -0.939789178200E+03   -0.20397E-04   -0.20177E-07  2820   0.461E-04    0.195E-04
DAV:  28    -0.939789186735E+03   -0.85350E-05   -0.10444E-07  2724   0.280E-04    0.786E-05
DAV:  29    -0.939789188760E+03   -0.20245E-05   -0.12916E-08  2856   0.144E-04    0.426E-05
DAV:  30    -0.939789189356E+03   -0.59584E-06    0.49753E-09  2484   0.931E-05
   1 F= -.95251757E+03 E0= -.95242246E+03  d E =-.190225E+00
