k-points
0
Monkhorst-pack
7   10  6
0   0   0