o-B14 3 times 3                         
   1.00000000000000     
    17.1584777831999986    0.0000000000000000    0.0000000000000000
     0.0000000000000000   19.0472869873000015    0.0000000000000000
     0.0000000000000000    0.0000000000000000   28.0881175994999985
  B             
   252
Direct
     0.1699749093043437    0.2149807745706909    0.0755303457230525
     0.1699749093043437    0.5483141079337770    0.0755303457230525
     0.1699749093043437    0.8816474412443611    0.0755303457230525
     0.5033082426143665    0.2149807745706909    0.0755303457230525
     0.5033082426143665    0.5483141079337770    0.0755303457230525
     0.5033082426143665    0.8816474412443611    0.0755303457230525
     0.8366415759826680    0.2149807745706909    0.0755303457230525
     0.8366415759826680    0.5483141079337770    0.0755303457230525
     0.8366415759826680    0.8816474412443611    0.0755303457230525
     0.1699749093043437    0.2149807745706909    0.2124247616403565
     0.1699749093043437    0.5483141079337770    0.2124247616403565
     0.1699749093043437    0.8816474412443611    0.2124247616403565
     0.5033082426143665    0.2149807745706909    0.2124247616403565
     0.5033082426143665    0.5483141079337770    0.2124247616403565
     0.5033082426143665    0.8816474412443611    0.2124247616403565
     0.8366415759826680    0.2149807745706909    0.2124247616403565
     0.8366415759826680    0.5483141079337770    0.2124247616403565
     0.8366415759826680    0.8816474412443611    0.2124247616403565
     0.1633584240639578    0.1183525587398933    0.0755303457230525
     0.1633584240639578    0.4516858921029723    0.0755303457230525
     0.1633584240639578    0.7850192254135564    0.0755303457230525
     0.4966917573739806    0.1183525587398933    0.0755303457230525
     0.4966917573739806    0.4516858921029723    0.0755303457230525
     0.4966917573739806    0.7850192254135564    0.0755303457230525
     0.8300250907422821    0.1183525587398933    0.0755303457230525
     0.8300250907422821    0.4516858921029723    0.0755303457230525
     0.8300250907422821    0.7850192254135564    0.0755303457230525
     0.1633584240639578    0.1183525587398933    0.2124247616403565
     0.1633584240639578    0.4516858921029723    0.2124247616403565
     0.1633584240639578    0.7850192254135564    0.2124247616403565
     0.4966917573739806    0.1183525587398933    0.2124247616403565
     0.4966917573739806    0.4516858921029723    0.2124247616403565
     0.4966917573739806    0.7850192254135564    0.2124247616403565
     0.8300250907422821    0.1183525587398933    0.2124247616403565
     0.8300250907422821    0.4516858921029723    0.2124247616403565
     0.8300250907422821    0.7850192254135564    0.2124247616403565
     0.3300250907189692    0.2149807745706909    0.0755303457230525
     0.3300250907189692    0.5483141079337770    0.0755303457230525
     0.3300250907189692    0.8816474412443611    0.0755303457230525
     0.6633584240872707    0.2149807745706909    0.0755303457230525
     0.6633584240872707    0.5483141079337770    0.0755303457230525
     0.6633584240872707    0.8816474412443611    0.0755303457230525
     0.9966917573972935    0.2149807745706909    0.0755303457230525
     0.9966917573972935    0.5483141079337770    0.0755303457230525
     0.9966917573972935    0.8816474412443611    0.0755303457230525
     0.3300250907189692    0.2149807745706909    0.2124247616403565
     0.3300250907189692    0.5483141079337770    0.2124247616403565
     0.3300250907189692    0.8816474412443611    0.2124247616403565
     0.6633584240872707    0.2149807745706909    0.2124247616403565
     0.6633584240872707    0.5483141079337770    0.2124247616403565
     0.6633584240872707    0.8816474412443611    0.2124247616403565
     0.9966917573972935    0.2149807745706909    0.2124247616403565
     0.9966917573972935    0.5483141079337770    0.2124247616403565
     0.9966917573972935    0.8816474412443611    0.2124247616403565
     0.0033082426493323    0.1183525587398933    0.0755303457230525
     0.0033082426493323    0.4516858921029723    0.0755303457230525
     0.0033082426493323    0.7850192254135564    0.0755303457230525
     0.3366415759593551    0.1183525587398933    0.0755303457230525
     0.3366415759593551    0.4516858921029723    0.0755303457230525
     0.3366415759593551    0.7850192254135564    0.0755303457230525
     0.6699749092693779    0.1183525587398933    0.0755303457230525
     0.6699749092693779    0.4516858921029723    0.0755303457230525
     0.6699749092693779    0.7850192254135564    0.0755303457230525
     0.0033082426493323    0.1183525587398933    0.2124247616403565
     0.0033082426493323    0.4516858921029723    0.2124247616403565
     0.0033082426493323    0.7850192254135564    0.2124247616403565
     0.3366415759593551    0.1183525587398933    0.2124247616403565
     0.3366415759593551    0.4516858921029723    0.2124247616403565
     0.3366415759593551    0.7850192254135564    0.2124247616403565
     0.6699749092693779    0.1183525587398933    0.2124247616403565
     0.6699749092693779    0.4516858921029723    0.2124247616403565
     0.6699749092693779    0.7850192254135564    0.2124247616403565
     0.1993191233052514    0.3010789851501556    0.0757887978950151
     0.1993191233052514    0.6344123185132347    0.0757887978950151
     0.1993191233052514    0.9677456518238188    0.0757887978950151
     0.5326524566152671    0.3010789851501556    0.0757887978950151
     0.5326524566152671    0.6344123185132347    0.0757887978950151
     0.5326524566152671    0.9677456518238188    0.0757887978950151
     0.8659857899835686    0.3010789851501556    0.0757887978950151
     0.8659857899835686    0.6344123185132347    0.0757887978950151
     0.8659857899835686    0.9677456518238188    0.0757887978950151
     0.1993191233052514    0.3010789851501556    0.2121663095039921
     0.1993191233052514    0.6344123185132347    0.2121663095039921
     0.1993191233052514    0.9677456518238188    0.2121663095039921
     0.5326524566152671    0.3010789851501556    0.2121663095039921
     0.5326524566152671    0.6344123185132347    0.2121663095039921
     0.5326524566152671    0.9677456518238188    0.2121663095039921
     0.8659857899835686    0.3010789851501556    0.2121663095039921
     0.8659857899835686    0.6344123185132347    0.2121663095039921
     0.8659857899835686    0.9677456518238188    0.2121663095039921
     0.1340142100630501    0.0322543456928841    0.0757887978950151
     0.1340142100630501    0.3655876790034682    0.0757887978950151
     0.1340142100630501    0.6989210123665544    0.0757887978950151
     0.4673475433730729    0.0322543456928841    0.0757887978950151
     0.4673475433730729    0.3655876790034682    0.0757887978950151
     0.4673475433730729    0.6989210123665544    0.0757887978950151
     0.8006808767413744    0.0322543456928841    0.0757887978950151
     0.8006808767413744    0.3655876790034682    0.0757887978950151
     0.8006808767413744    0.6989210123665544    0.0757887978950151
     0.1340142100630501    0.0322543456928841    0.2121663095039921
     0.1340142100630501    0.3655876790034682    0.2121663095039921
     0.1340142100630501    0.6989210123665544    0.2121663095039921
     0.4673475433730729    0.0322543456928841    0.2121663095039921
     0.4673475433730729    0.3655876790034682    0.2121663095039921
     0.4673475433730729    0.6989210123665544    0.2121663095039921
     0.8006808767413744    0.0322543456928841    0.2121663095039921
     0.8006808767413744    0.3655876790034682    0.2121663095039921
     0.8006808767413744    0.6989210123665544    0.2121663095039921
     0.3006808767180615    0.3010789851501556    0.0757887978950151
     0.3006808767180615    0.6344123185132347    0.0757887978950151
     0.3006808767180615    0.9677456518238188    0.0757887978950151
     0.6340142100863631    0.3010789851501556    0.0757887978950151
     0.6340142100863631    0.6344123185132347    0.0757887978950151
     0.6340142100863631    0.9677456518238188    0.0757887978950151
     0.9673475433963858    0.3010789851501556    0.0757887978950151
     0.9673475433963858    0.6344123185132347    0.0757887978950151
     0.9673475433963858    0.9677456518238188    0.0757887978950151
     0.3006808767180615    0.3010789851501556    0.2121663095039921
     0.3006808767180615    0.6344123185132347    0.2121663095039921
     0.3006808767180615    0.9677456518238188    0.2121663095039921
     0.6340142100863631    0.3010789851501556    0.2121663095039921
     0.6340142100863631    0.6344123185132347    0.2121663095039921
     0.6340142100863631    0.9677456518238188    0.2121663095039921
     0.9673475433963858    0.3010789851501556    0.2121663095039921
     0.9673475433963858    0.6344123185132347    0.2121663095039921
     0.9673475433963858    0.9677456518238188    0.2121663095039921
     0.0326524566502400    0.0322543456928841    0.0757887978950151
     0.0326524566502400    0.3655876790034682    0.0757887978950151
     0.0326524566502400    0.6989210123665544    0.0757887978950151
     0.3659857899602557    0.0322543456928841    0.0757887978950151
     0.3659857899602557    0.3655876790034682    0.0757887978950151
     0.3659857899602557    0.6989210123665544    0.0757887978950151
     0.6993191232702785    0.0322543456928841    0.0757887978950151
     0.6993191232702785    0.3655876790034682    0.0757887978950151
     0.6993191232702785    0.6989210123665544    0.0757887978950151
     0.0326524566502400    0.0322543456928841    0.2121663095039921
     0.0326524566502400    0.3655876790034682    0.2121663095039921
     0.0326524566502400    0.6989210123665544    0.2121663095039921
     0.3659857899602557    0.0322543456928841    0.2121663095039921
     0.3659857899602557    0.3655876790034682    0.2121663095039921
     0.3659857899602557    0.6989210123665544    0.2121663095039921
     0.6993191232702785    0.0322543456928841    0.2121663095039921
     0.6993191232702785    0.3655876790034682    0.2121663095039921
     0.6993191232702785    0.6989210123665544    0.2121663095039921
     0.2500000000116529    0.2411556681044758    0.1138365850140488
     0.2500000000116529    0.5744890014675619    0.1138365850140488
     0.2500000000116529    0.9078223347781389    0.1138365850140488
     0.5833333333216757    0.2411556681044758    0.1138365850140488
     0.5833333333216757    0.5744890014675619    0.1138365850140488
     0.5833333333216757    0.9078223347781389    0.1138365850140488
     0.9166666666316985    0.2411556681044758    0.1138365850140488
     0.9166666666316985    0.5744890014675619    0.1138365850140488
     0.9166666666316985    0.9078223347781389    0.1138365850140488
     0.2500000000116529    0.2410450850066610    0.2435137522751560
     0.2500000000116529    0.5743784183697471    0.2435137522751560
     0.2500000000116529    0.9077117516803312    0.2435137522751560
     0.5833333333216757    0.2410450850066610    0.2435137522751560
     0.5833333333216757    0.5743784183697471    0.2435137522751560
     0.5833333333216757    0.9077117516803312    0.2435137522751560
     0.9166666666316985    0.2410450850066610    0.2435137522751560
     0.9166666666316985    0.5743784183697471    0.2435137522751560
     0.9166666666316985    0.9077117516803312    0.2435137522751560
     0.0833333332983628    0.0922882483039231    0.0444413572599913
     0.0833333332983628    0.4256215816670021    0.0444413572599913
     0.0833333332983628    0.7589549149775863    0.0444413572599913
     0.4166666666666643    0.0922882483039231    0.0444413572599913
     0.4166666666666643    0.4256215816670021    0.0444413572599913
     0.4166666666666643    0.7589549149775863    0.0444413572599913
     0.7499999999766871    0.0922882483039231    0.0444413572599913
     0.7499999999766871    0.4256215816670021    0.0444413572599913
     0.7499999999766871    0.7589549149775863    0.0444413572599913
     0.0833333332983628    0.0921776652061084    0.1741185245566967
     0.0833333332983628    0.4255109985691945    0.1741185245566967
     0.0833333332983628    0.7588443318797715    0.1741185245566967
     0.4166666666666643    0.0921776652061084    0.1741185245566967
     0.4166666666666643    0.4255109985691945    0.1741185245566967
     0.4166666666666643    0.7588443318797715    0.1741185245566967
     0.7499999999766871    0.0921776652061084    0.1741185245566967
     0.7499999999766871    0.4255109985691945    0.1741185245566967
     0.7499999999766871    0.7588443318797715    0.1741185245566967
     0.2500000000116529    0.2410450850066610    0.0444413572599913
     0.2500000000116529    0.5743784183697471    0.0444413572599913
     0.2500000000116529    0.9077117516803312    0.0444413572599913
     0.5833333333216757    0.2410450850066610    0.0444413572599913
     0.5833333333216757    0.5743784183697471    0.0444413572599913
     0.5833333333216757    0.9077117516803312    0.0444413572599913
     0.9166666666316985    0.2410450850066610    0.0444413572599913
     0.9166666666316985    0.5743784183697471    0.0444413572599913
     0.9166666666316985    0.9077117516803312    0.0444413572599913
     0.2500000000116529    0.2411556681044758    0.1741185245566967
     0.2500000000116529    0.5744890014675619    0.1741185245566967
     0.2500000000116529    0.9078223347781389    0.1741185245566967
     0.5833333333216757    0.2411556681044758    0.1741185245566967
     0.5833333333216757    0.5744890014675619    0.1741185245566967
     0.5833333333216757    0.9078223347781389    0.1741185245566967
     0.9166666666316985    0.2411556681044758    0.1741185245566967
     0.9166666666316985    0.5744890014675619    0.1741185245566967
     0.9166666666316985    0.9078223347781389    0.1741185245566967
     0.0833333332983628    0.0921776652061084    0.1138365850140488
     0.0833333332983628    0.4255109985691945    0.1138365850140488
     0.0833333332983628    0.7588443318797715    0.1138365850140488
     0.4166666666666643    0.0921776652061084    0.1138365850140488
     0.4166666666666643    0.4255109985691945    0.1138365850140488
     0.4166666666666643    0.7588443318797715    0.1138365850140488
     0.7499999999766871    0.0921776652061084    0.1138365850140488
     0.7499999999766871    0.4255109985691945    0.1138365850140488
     0.7499999999766871    0.7588443318797715    0.1138365850140488
     0.0833333332983628    0.0922882483039231    0.2435137522751560
     0.0833333332983628    0.4256215816670021    0.2435137522751560
     0.0833333332983628    0.7589549149775863    0.2435137522751560
     0.4166666666666643    0.0922882483039231    0.2435137522751560
     0.4166666666666643    0.4256215816670021    0.2435137522751560
     0.4166666666666643    0.7589549149775863    0.2435137522751560
     0.7499999999766871    0.0922882483039231    0.2435137522751560
     0.7499999999766871    0.4256215816670021    0.2435137522751560
     0.7499999999766871    0.7589549149775863    0.2435137522751560
     0.0833333332983628    0.1722130908820318    0.0734427359787435
     0.0833333332983628    0.5055464241926160    0.0739767696300504
     0.0833333332983628    0.8388797575031930    0.0739767696300504
     0.4166666666666643    0.1722130908820318    0.0739767696300504
     0.4166666666666643    0.5055464241926160    0.0739767696300504
     0.4166666666666643    0.8388797575031930    0.0739767696300504
     0.7499999999766871    0.1722130908820318    0.0739767696300504
     0.7499999999766871    0.5055464241926160    0.0739767696300504
     0.7499999999766871    0.8388797575031930    0.0739767696300504
     0.0833333332983628    0.1722130908820318    0.2139783377689568
     0.0833333332983628    0.5055464241926160    0.2139783377689568
     0.0833333332983628    0.8388797575031930    0.2139783377689568
     0.4166666666666643    0.1722130908820318    0.2139783377689568
     0.4166666666666643    0.5055464241926160    0.2139783377689568
     0.4166666666666643    0.8388797575031930    0.2139783377689568
     0.7499999999766871    0.1722130908820318    0.2139783377689568
     0.7499999999766871    0.5055464241926160    0.2139783377689568
     0.7499999999766871    0.8388797575031930    0.2139783377689568
     0.2500000000116529    0.1611202325583818    0.0739767696300504
     0.2500000000116529    0.4944535659214679    0.0739767696300504
     0.2500000000116529    0.8277868992320450    0.0739767696300504
     0.5833333333216757    0.1611202325583818    0.0739767696300504
     0.5833333333216757    0.4944535659214679    0.0739767696300504
     0.5833333333216757    0.8277868992320450    0.0739767696300504
     0.9166666666316985    0.1611202325583818    0.0739767696300504
     0.9166666666316985    0.4944535659214679    0.0739767696300504
     0.9166666666316985    0.8277868992320450    0.0739767696300504
     0.2500000000116529    0.1611202325583818    0.2139783377689568
     0.2500000000116529    0.4944535659214679    0.2139783377689568
     0.2500000000116529    0.8277868992320450    0.2139783377689568
     0.5833333333216757    0.1611202325583818    0.2139783377689568
     0.5833333333216757    0.4944535659214679    0.2139783377689568
     0.5833333333216757    0.8277868992320450    0.2139783377689568
     0.9166666666316985    0.1611202325583818    0.2139783377689568
     0.9166666666316985    0.4944535659214679    0.2139783377689568
     0.9166666666316985    0.8277868992320450    0.2139783377689568
 
  0.00000000E+00  0.00000000E+00  0.00000000E+00
  0.00000000E+00  0.00000000E+00  0.00000000E+00
  0.00000000E+00  0.00000000E+00  0.00000000E+00
  0.00000000E+00  0.00000000E+00  0.00000000E+00
  0.00000000E+00  0.00000000E+00  0.00000000E+00
  0.00000000E+00  0.00000000E+00  0.00000000E+00
  0.00000000E+00  0.00000000E+00  0.00000000E+00
  0.00000000E+00  0.00000000E+00  0.00000000E+00
  0.00000000E+00  0.00000000E+00  0.00000000E+00
  0.00000000E+00  0.00000000E+00  0.00000000E+00
  0.00000000E+00  0.00000000E+00  0.00000000E+00
  0.00000000E+00  0.00000000E+00  0.00000000E+00
  0.00000000E+00  0.00000000E+00  0.00000000E+00
  0.00000000E+00  0.00000000E+00  0.00000000E+00
  0.00000000E+00  0.00000000E+00  0.00000000E+00
  0.00000000E+00  0.00000000E+00  0.00000000E+00
  0.00000000E+00  0.00000000E+00  0.00000000E+00
  0.00000000E+00  0.00000000E+00  0.00000000E+00
  0.00000000E+00  0.00000000E+00  0.00000000E+00
  0.00000000E+00  0.00000000E+00  0.00000000E+00
  0.00000000E+00  0.00000000E+00  0.00000000E+00
  0.00000000E+00  0.00000000E+00  0.00000000E+00
  0.00000000E+00  0.00000000E+00  0.00000000E+00
  0.00000000E+00  0.00000000E+00  0.00000000E+00
  0.00000000E+00  0.00000000E+00  0.00000000E+00
  0.00000000E+00  0.00000000E+00  0.00000000E+00
  0.00000000E+00  0.00000000E+00  0.00000000E+00
  0.00000000E+00  0.00000000E+00  0.00000000E+00
  0.00000000E+00  0.00000000E+00  0.00000000E+00
  0.00000000E+00  0.00000000E+00  0.00000000E+00
  0.00000000E+00  0.00000000E+00  0.00000000E+00
  0.00000000E+00  0.00000000E+00  0.00000000E+00
  0.00000000E+00  0.00000000E+00  0.00000000E+00
  0.00000000E+00  0.00000000E+00  0.00000000E+00
  0.00000000E+00  0.00000000E+00  0.00000000E+00
  0.00000000E+00  0.00000000E+00  0.00000000E+00
  0.00000000E+00  0.00000000E+00  0.00000000E+00
  0.00000000E+00  0.00000000E+00  0.00000000E+00
  0.00000000E+00  0.00000000E+00  0.00000000E+00
  0.00000000E+00  0.00000000E+00  0.00000000E+00
  0.00000000E+00  0.00000000E+00  0.00000000E+00
  0.00000000E+00  0.00000000E+00  0.00000000E+00
  0.00000000E+00  0.00000000E+00  0.00000000E+00
  0.00000000E+00  0.00000000E+00  0.00000000E+00
  0.00000000E+00  0.00000000E+00  0.00000000E+00
  0.00000000E+00  0.00000000E+00  0.00000000E+00
  0.00000000E+00  0.00000000E+00  0.00000000E+00
  0.00000000E+00  0.00000000E+00  0.00000000E+00
  0.00000000E+00  0.00000000E+00  0.00000000E+00
  0.00000000E+00  0.00000000E+00  0.00000000E+00
  0.00000000E+00  0.00000000E+00  0.00000000E+00
  0.00000000E+00  0.00000000E+00  0.00000000E+00
  0.00000000E+00  0.00000000E+00  0.00000000E+00
  0.00000000E+00  0.00000000E+00  0.00000000E+00
  0.00000000E+00  0.00000000E+00  0.00000000E+00
  0.00000000E+00  0.00000000E+00  0.00000000E+00
  0.00000000E+00  0.00000000E+00  0.00000000E+00
  0.00000000E+00  0.00000000E+00  0.00000000E+00
  0.00000000E+00  0.00000000E+00  0.00000000E+00
  0.00000000E+00  0.00000000E+00  0.00000000E+00
  0.00000000E+00  0.00000000E+00  0.00000000E+00
  0.00000000E+00  0.00000000E+00  0.00000000E+00
  0.00000000E+00  0.00000000E+00  0.00000000E+00
  0.00000000E+00  0.00000000E+00  0.00000000E+00
  0.00000000E+00  0.00000000E+00  0.00000000E+00
  0.00000000E+00  0.00000000E+00  0.00000000E+00
  0.00000000E+00  0.00000000E+00  0.00000000E+00
  0.00000000E+00  0.00000000E+00  0.00000000E+00
  0.00000000E+00  0.00000000E+00  0.00000000E+00
  0.00000000E+00  0.00000000E+00  0.00000000E+00
  0.00000000E+00  0.00000000E+00  0.00000000E+00
  0.00000000E+00  0.00000000E+00  0.00000000E+00
  0.00000000E+00  0.00000000E+00  0.00000000E+00
  0.00000000E+00  0.00000000E+00  0.00000000E+00
  0.00000000E+00  0.00000000E+00  0.00000000E+00
  0.00000000E+00  0.00000000E+00  0.00000000E+00
  0.00000000E+00  0.00000000E+00  0.00000000E+00
  0.00000000E+00  0.00000000E+00  0.00000000E+00
  0.00000000E+00  0.00000000E+00  0.00000000E+00
  0.00000000E+00  0.00000000E+00  0.00000000E+00
  0.00000000E+00  0.00000000E+00  0.00000000E+00
  0.00000000E+00  0.00000000E+00  0.00000000E+00
  0.00000000E+00  0.00000000E+00  0.00000000E+00
  0.00000000E+00  0.00000000E+00  0.00000000E+00
  0.00000000E+00  0.00000000E+00  0.00000000E+00
  0.00000000E+00  0.00000000E+00  0.00000000E+00
  0.00000000E+00  0.00000000E+00  0.00000000E+00
  0.00000000E+00  0.00000000E+00  0.00000000E+00
  0.00000000E+00  0.00000000E+00  0.00000000E+00
  0.00000000E+00  0.00000000E+00  0.00000000E+00
  0.00000000E+00  0.00000000E+00  0.00000000E+00
  0.00000000E+00  0.00000000E+00  0.00000000E+00
  0.00000000E+00  0.00000000E+00  0.00000000E+00
  0.00000000E+00  0.00000000E+00  0.00000000E+00
  0.00000000E+00  0.00000000E+00  0.00000000E+00
  0.00000000E+00  0.00000000E+00  0.00000000E+00
  0.00000000E+00  0.00000000E+00  0.00000000E+00
  0.00000000E+00  0.00000000E+00  0.00000000E+00
  0.00000000E+00  0.00000000E+00  0.00000000E+00
  0.00000000E+00  0.00000000E+00  0.00000000E+00
  0.00000000E+00  0.00000000E+00  0.00000000E+00
  0.00000000E+00  0.00000000E+00  0.00000000E+00
  0.00000000E+00  0.00000000E+00  0.00000000E+00
  0.00000000E+00  0.00000000E+00  0.00000000E+00
  0.00000000E+00  0.00000000E+00  0.00000000E+00
  0.00000000E+00  0.00000000E+00  0.00000000E+00
  0.00000000E+00  0.00000000E+00  0.00000000E+00
  0.00000000E+00  0.00000000E+00  0.00000000E+00
  0.00000000E+00  0.00000000E+00  0.00000000E+00
  0.00000000E+00  0.00000000E+00  0.00000000E+00
  0.00000000E+00  0.00000000E+00  0.00000000E+00
  0.00000000E+00  0.00000000E+00  0.00000000E+00
  0.00000000E+00  0.00000000E+00  0.00000000E+00
  0.00000000E+00  0.00000000E+00  0.00000000E+00
  0.00000000E+00  0.00000000E+00  0.00000000E+00
  0.00000000E+00  0.00000000E+00  0.00000000E+00
  0.00000000E+00  0.00000000E+00  0.00000000E+00
  0.00000000E+00  0.00000000E+00  0.00000000E+00
  0.00000000E+00  0.00000000E+00  0.00000000E+00
  0.00000000E+00  0.00000000E+00  0.00000000E+00
  0.00000000E+00  0.00000000E+00  0.00000000E+00
  0.00000000E+00  0.00000000E+00  0.00000000E+00
  0.00000000E+00  0.00000000E+00  0.00000000E+00
  0.00000000E+00  0.00000000E+00  0.00000000E+00
  0.00000000E+00  0.00000000E+00  0.00000000E+00
  0.00000000E+00  0.00000000E+00  0.00000000E+00
  0.00000000E+00  0.00000000E+00  0.00000000E+00
  0.00000000E+00  0.00000000E+00  0.00000000E+00
  0.00000000E+00  0.00000000E+00  0.00000000E+00
  0.00000000E+00  0.00000000E+00  0.00000000E+00
  0.00000000E+00  0.00000000E+00  0.00000000E+00
  0.00000000E+00  0.00000000E+00  0.00000000E+00
  0.00000000E+00  0.00000000E+00  0.00000000E+00
  0.00000000E+00  0.00000000E+00  0.00000000E+00
  0.00000000E+00  0.00000000E+00  0.00000000E+00
  0.00000000E+00  0.00000000E+00  0.00000000E+00
  0.00000000E+00  0.00000000E+00  0.00000000E+00
  0.00000000E+00  0.00000000E+00  0.00000000E+00
  0.00000000E+00  0.00000000E+00  0.00000000E+00
  0.00000000E+00  0.00000000E+00  0.00000000E+00
  0.00000000E+00  0.00000000E+00  0.00000000E+00
  0.00000000E+00  0.00000000E+00  0.00000000E+00
  0.00000000E+00  0.00000000E+00  0.00000000E+00
  0.00000000E+00  0.00000000E+00  0.00000000E+00
  0.00000000E+00  0.00000000E+00  0.00000000E+00
  0.00000000E+00  0.00000000E+00  0.00000000E+00
  0.00000000E+00  0.00000000E+00  0.00000000E+00
  0.00000000E+00  0.00000000E+00  0.00000000E+00
  0.00000000E+00  0.00000000E+00  0.00000000E+00
  0.00000000E+00  0.00000000E+00  0.00000000E+00
  0.00000000E+00  0.00000000E+00  0.00000000E+00
  0.00000000E+00  0.00000000E+00  0.00000000E+00
  0.00000000E+00  0.00000000E+00  0.00000000E+00
  0.00000000E+00  0.00000000E+00  0.00000000E+00
  0.00000000E+00  0.00000000E+00  0.00000000E+00
  0.00000000E+00  0.00000000E+00  0.00000000E+00
  0.00000000E+00  0.00000000E+00  0.00000000E+00
  0.00000000E+00  0.00000000E+00  0.00000000E+00
  0.00000000E+00  0.00000000E+00  0.00000000E+00
  0.00000000E+00  0.00000000E+00  0.00000000E+00
  0.00000000E+00  0.00000000E+00  0.00000000E+00
  0.00000000E+00  0.00000000E+00  0.00000000E+00
  0.00000000E+00  0.00000000E+00  0.00000000E+00
  0.00000000E+00  0.00000000E+00  0.00000000E+00
  0.00000000E+00  0.00000000E+00  0.00000000E+00
  0.00000000E+00  0.00000000E+00  0.00000000E+00
  0.00000000E+00  0.00000000E+00  0.00000000E+00
  0.00000000E+00  0.00000000E+00  0.00000000E+00
  0.00000000E+00  0.00000000E+00  0.00000000E+00
  0.00000000E+00  0.00000000E+00  0.00000000E+00
  0.00000000E+00  0.00000000E+00  0.00000000E+00
  0.00000000E+00  0.00000000E+00  0.00000000E+00
  0.00000000E+00  0.00000000E+00  0.00000000E+00
  0.00000000E+00  0.00000000E+00  0.00000000E+00
  0.00000000E+00  0.00000000E+00  0.00000000E+00
  0.00000000E+00  0.00000000E+00  0.00000000E+00
  0.00000000E+00  0.00000000E+00  0.00000000E+00
  0.00000000E+00  0.00000000E+00  0.00000000E+00
  0.00000000E+00  0.00000000E+00  0.00000000E+00
  0.00000000E+00  0.00000000E+00  0.00000000E+00
  0.00000000E+00  0.00000000E+00  0.00000000E+00
  0.00000000E+00  0.00000000E+00  0.00000000E+00
  0.00000000E+00  0.00000000E+00  0.00000000E+00
  0.00000000E+00  0.00000000E+00  0.00000000E+00
  0.00000000E+00  0.00000000E+00  0.00000000E+00
  0.00000000E+00  0.00000000E+00  0.00000000E+00
  0.00000000E+00  0.00000000E+00  0.00000000E+00
  0.00000000E+00  0.00000000E+00  0.00000000E+00
  0.00000000E+00  0.00000000E+00  0.00000000E+00
  0.00000000E+00  0.00000000E+00  0.00000000E+00
  0.00000000E+00  0.00000000E+00  0.00000000E+00
  0.00000000E+00  0.00000000E+00  0.00000000E+00
  0.00000000E+00  0.00000000E+00  0.00000000E+00
  0.00000000E+00  0.00000000E+00  0.00000000E+00
  0.00000000E+00  0.00000000E+00  0.00000000E+00
  0.00000000E+00  0.00000000E+00  0.00000000E+00
  0.00000000E+00  0.00000000E+00  0.00000000E+00
  0.00000000E+00  0.00000000E+00  0.00000000E+00
  0.00000000E+00  0.00000000E+00  0.00000000E+00
  0.00000000E+00  0.00000000E+00  0.00000000E+00
  0.00000000E+00  0.00000000E+00  0.00000000E+00
  0.00000000E+00  0.00000000E+00  0.00000000E+00
  0.00000000E+00  0.00000000E+00  0.00000000E+00
  0.00000000E+00  0.00000000E+00  0.00000000E+00
  0.00000000E+00  0.00000000E+00  0.00000000E+00
  0.00000000E+00  0.00000000E+00  0.00000000E+00
  0.00000000E+00  0.00000000E+00  0.00000000E+00
  0.00000000E+00  0.00000000E+00  0.00000000E+00
  0.00000000E+00  0.00000000E+00  0.00000000E+00
  0.00000000E+00  0.00000000E+00  0.00000000E+00
  0.00000000E+00  0.00000000E+00  0.00000000E+00
  0.00000000E+00  0.00000000E+00  0.00000000E+00
  0.00000000E+00  0.00000000E+00  0.00000000E+00
  0.00000000E+00  0.00000000E+00  0.00000000E+00
  0.00000000E+00  0.00000000E+00  0.00000000E+00
  0.00000000E+00  0.00000000E+00  0.00000000E+00
  0.00000000E+00  0.00000000E+00  0.00000000E+00
  0.00000000E+00  0.00000000E+00  0.00000000E+00
  0.00000000E+00  0.00000000E+00  0.00000000E+00
  0.00000000E+00  0.00000000E+00  0.00000000E+00
  0.00000000E+00  0.00000000E+00  0.00000000E+00
  0.00000000E+00  0.00000000E+00  0.00000000E+00
  0.00000000E+00  0.00000000E+00  0.00000000E+00
  0.00000000E+00  0.00000000E+00  0.00000000E+00
  0.00000000E+00  0.00000000E+00  0.00000000E+00
  0.00000000E+00  0.00000000E+00  0.00000000E+00
  0.00000000E+00  0.00000000E+00  0.00000000E+00
  0.00000000E+00  0.00000000E+00  0.00000000E+00
  0.00000000E+00  0.00000000E+00  0.00000000E+00
  0.00000000E+00  0.00000000E+00  0.00000000E+00
  0.00000000E+00  0.00000000E+00  0.00000000E+00
  0.00000000E+00  0.00000000E+00  0.00000000E+00
  0.00000000E+00  0.00000000E+00  0.00000000E+00
  0.00000000E+00  0.00000000E+00  0.00000000E+00
  0.00000000E+00  0.00000000E+00  0.00000000E+00
  0.00000000E+00  0.00000000E+00  0.00000000E+00
  0.00000000E+00  0.00000000E+00  0.00000000E+00
  0.00000000E+00  0.00000000E+00  0.00000000E+00
  0.00000000E+00  0.00000000E+00  0.00000000E+00
  0.00000000E+00  0.00000000E+00  0.00000000E+00
  0.00000000E+00  0.00000000E+00  0.00000000E+00
  0.00000000E+00  0.00000000E+00  0.00000000E+00
  0.00000000E+00  0.00000000E+00  0.00000000E+00
  0.00000000E+00  0.00000000E+00  0.00000000E+00
  0.00000000E+00  0.00000000E+00  0.00000000E+00
  0.00000000E+00  0.00000000E+00  0.00000000E+00
  0.00000000E+00  0.00000000E+00  0.00000000E+00
  0.00000000E+00  0.00000000E+00  0.00000000E+00
  0.00000000E+00  0.00000000E+00  0.00000000E+00
  0.00000000E+00  0.00000000E+00  0.00000000E+00
  0.00000000E+00  0.00000000E+00  0.00000000E+00
  0.00000000E+00  0.00000000E+00  0.00000000E+00
