 252 252   0   0
  0.3642789E+02  0.1715848E-08  0.1904729E-08  0.2808812E-08  0.1500000E-16
  1.000000000000000E-004
  CAR 
 phonon_dispersion                       
      4.32114543    -19.38354861  301     -1.55723721      1.00000000
    -19.384  0.0000E+00  0.0000E+00
    -19.305  0.0000E+00  0.0000E+00
    -19.226  0.0000E+00  0.0000E+00
    -19.147  0.0000E+00  0.0000E+00
    -19.067  0.0000E+00  0.0000E+00
    -18.988  0.0000E+00  0.0000E+00
    -18.909  0.0000E+00  0.0000E+00
    -18.830  0.0000E+00  0.0000E+00
    -18.751  0.0000E+00  0.0000E+00
    -18.672  0.0000E+00  0.0000E+00
    -18.593  0.1836E-17  0.1451E-18
    -18.514  0.1577E-10  0.1246E-11
    -18.435  0.1055E-05  0.8339E-07
    -18.356  0.6552E-03  0.5186E-04
    -18.277  0.9058E-02  0.7676E-03
    -18.198  0.1533E-01  0.1979E-02
    -18.119  0.2913E-01  0.4280E-02
    -18.040  0.4296E-01  0.7675E-02
    -17.961  0.2779E-01  0.9871E-02
    -17.882  0.2308E-01  0.1169E-01
    -17.803  0.6060E-02  0.1217E-01
    -17.724  0.3453E-01  0.1490E-01
    -17.645  0.2722E-01  0.1705E-01
    -17.566  0.4479E-01  0.2059E-01
    -17.487  0.1753E-01  0.2198E-01
    -17.408  0.1408E-01  0.2309E-01
    -17.329  0.5260E-02  0.2350E-01
    -17.250  0.2159E-03  0.2352E-01
    -17.171  0.1225E-06  0.2352E-01
    -17.092  0.5967E-12  0.2352E-01
    -17.013  0.0000E+00  0.2352E-01
    -16.934  0.0000E+00  0.2352E-01
    -16.855  0.0000E+00  0.2352E-01
    -16.776  0.0000E+00  0.2352E-01
    -16.697  0.0000E+00  0.2352E-01
    -16.618  0.0000E+00  0.2352E-01
    -16.539  0.0000E+00  0.2352E-01
    -16.460  0.0000E+00  0.2352E-01
    -16.381  0.0000E+00  0.2352E-01
    -16.302  0.0000E+00  0.2352E-01
    -16.223  0.0000E+00  0.2352E-01
    -16.144  0.0000E+00  0.2352E-01
    -16.065  0.0000E+00  0.2352E-01
    -15.986  0.0000E+00  0.2352E-01
    -15.907  0.0000E+00  0.2352E-01
    -15.828  0.0000E+00  0.2352E-01
    -15.749  0.0000E+00  0.2352E-01
    -15.670  0.0000E+00  0.2352E-01
    -15.591  0.0000E+00  0.2352E-01
    -15.512  0.0000E+00  0.2352E-01
    -15.433  0.0000E+00  0.2352E-01
    -15.354  0.0000E+00  0.2352E-01
    -15.275  0.0000E+00  0.2352E-01
    -15.196  0.0000E+00  0.2352E-01
    -15.117  0.0000E+00  0.2352E-01
    -15.038  0.0000E+00  0.2352E-01
    -14.959  0.0000E+00  0.2352E-01
    -14.880  0.0000E+00  0.2352E-01
    -14.801  0.0000E+00  0.2352E-01
    -14.722  0.0000E+00  0.2352E-01
    -14.643  0.0000E+00  0.2352E-01
    -14.564  0.0000E+00  0.2352E-01
    -14.485  0.0000E+00  0.2352E-01
    -14.406  0.0000E+00  0.2352E-01
    -14.327  0.0000E+00  0.2352E-01
    -14.248  0.0000E+00  0.2352E-01
    -14.169  0.0000E+00  0.2352E-01
    -14.090  0.3489E-16  0.2352E-01
    -14.010  0.1983E-09  0.2352E-01
    -13.931  0.8771E-05  0.2352E-01
    -13.852  0.3608E-02  0.2381E-01
    -13.773  0.2425E-01  0.2572E-01
    -13.694  0.7801E-02  0.2634E-01
    -13.615  0.3984E-01  0.2949E-01
    -13.536  0.6750E-01  0.3482E-01
    -13.457  0.4180E-01  0.3813E-01
    -13.378  0.7380E-01  0.4396E-01
    -13.299  0.2386E-01  0.4584E-01
    -13.220  0.1241E-01  0.4682E-01
    -13.141  0.2791E-02  0.4704E-01
    -13.062  0.1172E-04  0.4704E-01
    -12.983  0.4766E-09  0.4704E-01
    -12.904  0.1533E-15  0.4704E-01
    -12.825  0.0000E+00  0.4704E-01
    -12.746  0.0000E+00  0.4704E-01
    -12.667  0.0000E+00  0.4704E-01
    -12.588  0.0000E+00  0.4704E-01
    -12.509  0.0000E+00  0.4704E-01
    -12.430  0.0000E+00  0.4704E-01
    -12.351  0.0000E+00  0.4704E-01
    -12.272  0.0000E+00  0.4704E-01
    -12.193  0.6310E-11  0.4704E-01
    -12.114  0.7398E-06  0.4704E-01
    -12.035  0.7637E-03  0.4710E-01
    -11.956  0.1097E-01  0.4797E-01
    -11.877  0.4786E-02  0.4835E-01
    -11.798  0.4027E-02  0.4867E-01
    -11.719  0.1159E-01  0.4958E-01
    -11.640  0.7316E-02  0.5016E-01
    -11.561  0.1899E-01  0.5166E-01
    -11.482  0.2871E-01  0.5393E-01
    -11.403  0.2816E-01  0.5616E-01
    -11.324  0.3916E-01  0.5925E-01
    -11.245  0.3150E-01  0.6174E-01
    -11.166  0.1535E-01  0.6295E-01
    -11.087  0.1337E-01  0.6401E-01
    -11.008  0.5549E-02  0.6445E-01
    -10.929  0.2084E-01  0.6609E-01
    -10.850  0.1562E-01  0.6733E-01
    -10.771  0.1085E-01  0.6819E-01
    -10.692  0.3175E-01  0.7069E-01
    -10.613  0.1162E-01  0.7161E-01
    -10.534  0.1141E-01  0.7251E-01
    -10.455  0.1151E-01  0.7342E-01
    -10.376  0.2232E-01  0.7519E-01
    -10.297  0.1556E-01  0.7642E-01
    -10.218  0.3680E-03  0.7645E-01
    -10.139  0.1129E-06  0.7645E-01
    -10.060  0.1028E-03  0.7645E-01
     -9.981  0.1018E-01  0.7726E-01
     -9.902  0.2767E-01  0.7944E-01
     -9.823  0.1575E-01  0.8069E-01
     -9.744  0.1258E-01  0.8168E-01
     -9.665  0.1612E-01  0.8296E-01
     -9.586  0.3865E-01  0.8601E-01
     -9.507  0.3944E-01  0.8913E-01
     -9.428  0.1300E-01  0.9015E-01
     -9.349  0.1666E-03  0.9017E-01
     -9.270  0.3874E-05  0.9017E-01
     -9.191  0.1703E-02  0.9030E-01
     -9.112  0.1410E-01  0.9142E-01
     -9.032  0.2338E-01  0.9326E-01
     -8.953  0.2287E-01  0.9507E-01
     -8.874  0.2533E-01  0.9707E-01
     -8.795  0.4968E-02  0.9746E-01
     -8.716  0.1444E-01  0.9860E-01
     -8.637  0.1876E-01  0.1001E+00
     -8.558  0.3803E-01  0.1031E+00
     -8.479  0.1531E-01  0.1043E+00
     -8.400  0.3151E-01  0.1068E+00
     -8.321  0.2784E-01  0.1090E+00
     -8.242  0.2430E-01  0.1109E+00
     -8.163  0.2790E-01  0.1131E+00
     -8.084  0.1326E-01  0.1142E+00
     -8.005  0.2085E-01  0.1158E+00
     -7.926  0.3999E-01  0.1190E+00
     -7.847  0.8254E-02  0.1196E+00
     -7.768  0.2365E-01  0.1215E+00
     -7.689  0.3881E-01  0.1246E+00
     -7.610  0.3208E-01  0.1271E+00
     -7.531  0.1743E-01  0.1285E+00
     -7.452  0.3252E-02  0.1287E+00
     -7.373  0.4390E-02  0.1291E+00
     -7.294  0.3675E-02  0.1294E+00
     -7.215  0.7966E-04  0.1294E+00
     -7.136  0.1320E-02  0.1295E+00
     -7.057  0.1328E-01  0.1305E+00
     -6.978  0.2965E-01  0.1329E+00
     -6.899  0.2616E-01  0.1349E+00
     -6.820  0.2892E-01  0.1372E+00
     -6.741  0.2842E-01  0.1395E+00
     -6.662  0.1273E-01  0.1405E+00
     -6.583  0.2007E-01  0.1421E+00
     -6.504  0.4392E-01  0.1455E+00
     -6.425  0.6361E-01  0.1506E+00
     -6.346  0.1612E-01  0.1518E+00
     -6.267  0.1466E-01  0.1530E+00
     -6.188  0.2391E-01  0.1549E+00
     -6.109  0.4368E-01  0.1583E+00
     -6.030  0.3444E-01  0.1610E+00
     -5.951  0.3725E-01  0.1640E+00
     -5.872  0.8862E-02  0.1647E+00
     -5.793  0.1151E-01  0.1656E+00
     -5.714  0.3095E-01  0.1680E+00
     -5.635  0.5484E-01  0.1724E+00
     -5.556  0.4740E-01  0.1761E+00
     -5.477  0.5949E-01  0.1808E+00
     -5.398  0.4805E-01  0.1846E+00
     -5.319  0.1032E-01  0.1854E+00
     -5.240  0.4763E-01  0.1892E+00
     -5.161  0.5589E-01  0.1936E+00
     -5.082  0.3851E-01  0.1967E+00
     -5.003  0.5897E-01  0.2013E+00
     -4.924  0.4857E-01  0.2052E+00
     -4.845  0.2216E-01  0.2069E+00
     -4.766  0.1971E-01  0.2085E+00
     -4.687  0.1869E-01  0.2099E+00
     -4.608  0.4448E-01  0.2135E+00
     -4.529  0.2547E-01  0.2155E+00
     -4.450  0.1625E-01  0.2168E+00
     -4.371  0.3699E-01  0.2197E+00
     -4.292  0.3843E-01  0.2227E+00
     -4.213  0.7962E-02  0.2233E+00
     -4.134  0.1469E-02  0.2235E+00
     -4.055  0.7817E-05  0.2235E+00
     -3.975  0.1245E-02  0.2236E+00
     -3.896  0.2092E-01  0.2252E+00
     -3.817  0.2514E-01  0.2272E+00
     -3.738  0.3424E-01  0.2299E+00
     -3.659  0.3785E-01  0.2329E+00
     -3.580  0.5074E-01  0.2369E+00
     -3.501  0.3527E-01  0.2397E+00
     -3.422  0.1212E-01  0.2406E+00
     -3.343  0.5655E-02  0.2411E+00
     -3.264  0.9214E-04  0.2411E+00
     -3.185  0.5124E-03  0.2411E+00
     -3.106  0.1999E-01  0.2427E+00
     -3.027  0.2030E-01  0.2443E+00
     -2.948  0.5402E-03  0.2444E+00
     -2.869  0.1707E-06  0.2444E+00
     -2.790  0.4528E-12  0.2444E+00
     -2.711  0.0000E+00  0.2444E+00
     -2.632  0.0000E+00  0.2444E+00
     -2.553  0.0000E+00  0.2444E+00
     -2.474  0.0000E+00  0.2444E+00
     -2.395  0.0000E+00  0.2444E+00
     -2.316  0.0000E+00  0.2444E+00
     -2.237  0.0000E+00  0.2444E+00
     -2.158  0.0000E+00  0.2444E+00
     -2.079  0.3539E-14  0.2444E+00
     -2.000  0.4465E-08  0.2444E+00
     -1.921  0.4543E-04  0.2444E+00
     -1.842  0.4908E-02  0.2448E+00
     -1.763  0.1712E-01  0.2461E+00
     -1.684  0.1056E-01  0.2469E+00
     -1.605  0.4446E-03  0.2470E+00
     -1.526  0.2854E-06  0.2470E+00
     -1.447  0.9476E-04  0.2470E+00
     -1.368  0.3909E-02  0.2473E+00
     -1.289  0.4593E-02  0.2477E+00
     -1.210  0.1360E-01  0.2487E+00
     -1.131  0.3854E-01  0.2518E+00
     -1.052  0.1346E-01  0.2528E+00
     -0.973  0.3140E-03  0.2529E+00
     -0.894  0.9540E-02  0.2536E+00
     -0.815  0.3019E-01  0.2560E+00
     -0.736  0.2331E-01  0.2578E+00
     -0.657  0.1844E-01  0.2593E+00
     -0.578  0.2543E-02  0.2595E+00
     -0.499  0.1982E-01  0.2611E+00
     -0.420  0.3127E-01  0.2635E+00
     -0.341  0.6060E-02  0.2640E+00
     -0.262  0.1651E-01  0.2653E+00
     -0.183  0.2826E-01  0.2676E+00
     -0.104  0.1197E-01  0.2685E+00
     -0.025  0.6639E-02  0.2690E+00
      0.054  0.1361E-01  0.2701E+00
      0.133  0.2474E-01  0.2721E+00
      0.212  0.5425E-02  0.2725E+00
      0.291  0.9341E-02  0.2732E+00
      0.370  0.7126E-02  0.2738E+00
      0.449  0.1112E-01  0.2747E+00
      0.528  0.3154E-01  0.2772E+00
      0.607  0.4585E-01  0.2808E+00
      0.686  0.1005E-01  0.2816E+00
      0.765  0.2798E-02  0.2818E+00
      0.844  0.1691E-01  0.2831E+00
      0.923  0.2441E-01  0.2851E+00
      1.002  0.3155E-01  0.2876E+00
      1.082  0.3984E-01  0.2907E+00
      1.161  0.1440E-01  0.2918E+00
      1.240  0.3675E-01  0.2947E+00
      1.319  0.3555E-01  0.2976E+00
      1.398  0.4696E-01  0.3013E+00
      1.477  0.2988E-01  0.3036E+00
      1.556  0.2498E-02  0.3038E+00
      1.635  0.2659E-03  0.3038E+00
      1.714  0.1792E-01  0.3053E+00
      1.793  0.5104E-01  0.3093E+00
      1.872  0.1287E-01  0.3103E+00
      1.951  0.6651E-02  0.3108E+00
      2.030  0.3911E-01  0.3139E+00
      2.109  0.4058E-01  0.3171E+00
      2.188  0.4728E-01  0.3209E+00
      2.267  0.2782E-01  0.3231E+00
      2.346  0.5130E-01  0.3271E+00
      2.425  0.2273E-01  0.3289E+00
      2.504  0.3667E-01  0.3318E+00
      2.583  0.2388E-01  0.3337E+00
      2.662  0.1880E-01  0.3352E+00
      2.741  0.3557E-01  0.3380E+00
      2.820  0.3384E-01  0.3407E+00
      2.899  0.2067E-01  0.3423E+00
      2.978  0.2176E-01  0.3440E+00
      3.057  0.3869E-01  0.3471E+00
      3.136  0.6817E-01  0.3525E+00
      3.215  0.4529E-01  0.3560E+00
      3.294  0.8246E-02  0.3567E+00
      3.373  0.6426E-03  0.3567E+00
      3.452  0.1055E-05  0.3567E+00
      3.531  0.1577E-10  0.3567E+00
      3.610  0.1836E-17  0.3567E+00
      3.689  0.0000E+00  0.3567E+00
      3.768  0.0000E+00  0.3567E+00
      3.847  0.0000E+00  0.3567E+00
      3.926  0.0000E+00  0.3567E+00
      4.005  0.0000E+00  0.3567E+00
      4.084  0.0000E+00  0.3567E+00
      4.163  0.0000E+00  0.3567E+00
      4.242  0.0000E+00  0.3567E+00
      4.321  0.0000E+00  0.3567E+00
