o-B14 3 times 3                      
1.0
       17.1584777832         0.0000000000         0.0000000000
        0.0000000000        19.0472869873         0.0000000000
        0.0000000000         0.0000000000        28.0881175995
    B
  252
Cartesian
     2.916510705         4.094800510         2.121505233
     2.916510705        10.443896173         2.121505233
     2.916510705        16.792991835         2.121505233
     8.636003299         4.094800510         2.121505233
     8.636003299        10.443896173         2.121505233
     8.636003299        16.792991835         2.121505233
    14.355495894         4.094800510         2.121505233
    14.355495894        10.443896173         2.121505233
    14.355495894        16.792991835         2.121505233
     2.916510705         4.094800510         5.966611686
     2.916510705        10.443896173         5.966611686
     2.916510705        16.792991835         5.966611686
     8.636003299         4.094800510         5.966611686
     8.636003299        10.443896173         5.966611686
     8.636003299        16.792991835         5.966611686
    14.355495894         4.094800510         5.966611686
    14.355495894        10.443896173         5.966611686
    14.355495894        16.792991835         5.966611686
     2.802981890         2.254295152         2.121505233
     2.802981890         8.603390815         2.121505233
     2.802981890        14.952486477         2.121505233
     8.522474484         2.254295152         2.121505233
     8.522474484         8.603390815         2.121505233
     8.522474484        14.952486477         2.121505233
    14.241967079         2.254295152         2.121505233
    14.241967079         8.603390815         2.121505233
    14.241967079        14.952486477         2.121505233
     2.802981890         2.254295152         5.966611686
     2.802981890         8.603390815         5.966611686
     2.802981890        14.952486477         5.966611686
     8.522474484         2.254295152         5.966611686
     8.522474484         8.603390815         5.966611686
     8.522474484        14.952486477         5.966611686
    14.241967079         2.254295152         5.966611686
    14.241967079         8.603390815         5.966611686
    14.241967079        14.952486477         5.966611686
     5.662728187         4.094800510         2.121505233
     5.662728187        10.443896173         2.121505233
     5.662728187        16.792991835         2.121505233
    11.382220782         4.094800510         2.121505233
    11.382220782        10.443896173         2.121505233
    11.382220782        16.792991835         2.121505233
    17.101713376         4.094800510         2.121505233
    17.101713376        10.443896173         2.121505233
    17.101713376        16.792991835         2.121505233
     5.662728187         4.094800510         5.966611686
     5.662728187        10.443896173         5.966611686
     5.662728187        16.792991835         5.966611686
    11.382220782         4.094800510         5.966611686
    11.382220782        10.443896173         5.966611686
    11.382220782        16.792991835         5.966611686
    17.101713376         4.094800510         5.966611686
    17.101713376        10.443896173         5.966611686
    17.101713376        16.792991835         5.966611686
     0.056764408         2.254295152         2.121505233
     0.056764408         8.603390815         2.121505233
     0.056764408        14.952486477         2.121505233
     5.776257002         2.254295152         2.121505233
     5.776257002         8.603390815         2.121505233
     5.776257002        14.952486477         2.121505233
    11.495749596         2.254295152         2.121505233
    11.495749596         8.603390815         2.121505233
    11.495749596        14.952486477         2.121505233
     0.056764408         2.254295152         5.966611686
     0.056764408         8.603390815         5.966611686
     0.056764408        14.952486477         5.966611686
     5.776257002         2.254295152         5.966611686
     5.776257002         8.603390815         5.966611686
     5.776257002        14.952486477         5.966611686
    11.495749596         2.254295152         5.966611686
    11.495749596         8.603390815         5.966611686
    11.495749596        14.952486477         5.966611686
     3.420012749         5.734737836         2.128764668
     3.420012749        12.083833499         2.128764668
     3.420012749        18.432929161         2.128764668
     9.139505343         5.734737836         2.128764668
     9.139505343        12.083833499         2.128764668
     9.139505343        18.432929161         2.128764668
    14.858997938         5.734737836         2.128764668
    14.858997938        12.083833499         2.128764668
    14.858997938        18.432929161         2.128764668
     3.420012749         5.734737836         5.959352252
     3.420012749        12.083833499         5.959352252
     3.420012749        18.432929161         5.959352252
     9.139505343         5.734737836         5.959352252
     9.139505343        12.083833499         5.959352252
     9.139505343        18.432929161         5.959352252
    14.858997938         5.734737836         5.959352252
    14.858997938        12.083833499         5.959352252
    14.858997938        18.432929161         5.959352252
     2.299479846         0.614357779         2.128764668
     2.299479846         6.963453441         2.128764668
     2.299479846        13.312549104         2.128764668
     8.018972440         0.614357779         2.128764668
     8.018972440         6.963453441         2.128764668
     8.018972440        13.312549104         2.128764668
    13.738465035         0.614357779         2.128764668
    13.738465035         6.963453441         2.128764668
    13.738465035        13.312549104         2.128764668
     2.299479846         0.614357779         5.959352252
     2.299479846         6.963453441         5.959352252
     2.299479846        13.312549104         5.959352252
     8.018972440         0.614357779         5.959352252
     8.018972440         6.963453441         5.959352252
     8.018972440        13.312549104         5.959352252
    13.738465035         0.614357779         5.959352252
    13.738465035         6.963453441         5.959352252
    13.738465035        13.312549104         5.959352252
     5.159226143         5.734737836         2.128764668
     5.159226143        12.083833499         2.128764668
     5.159226143        18.432929161         2.128764668
    10.878718738         5.734737836         2.128764668
    10.878718738        12.083833499         2.128764668
    10.878718738        18.432929161         2.128764668
    16.598211332         5.734737836         2.128764668
    16.598211332        12.083833499         2.128764668
    16.598211332        18.432929161         2.128764668
     5.159226143         5.734737836         5.959352252
     5.159226143        12.083833499         5.959352252
     5.159226143        18.432929161         5.959352252
    10.878718738         5.734737836         5.959352252
    10.878718738        12.083833499         5.959352252
    10.878718738        18.432929161         5.959352252
    16.598211332         5.734737836         5.959352252
    16.598211332        12.083833499         5.959352252
    16.598211332        18.432929161         5.959352252
     0.560266452         0.614357779         2.128764668
     0.560266452         6.963453441         2.128764668
     0.560266452        13.312549104         2.128764668
     6.279759046         0.614357779         2.128764668
     6.279759046         6.963453441         2.128764668
     6.279759046        13.312549104         2.128764668
    11.999251640         0.614357779         2.128764668
    11.999251640         6.963453441         2.128764668
    11.999251640        13.312549104         2.128764668
     0.560266452         0.614357779         5.959352252
     0.560266452         6.963453441         5.959352252
     0.560266452        13.312549104         5.959352252
     6.279759046         0.614357779         5.959352252
     6.279759046         6.963453441         5.959352252
     6.279759046        13.312549104         5.959352252
    11.999251640         0.614357779         5.959352252
    11.999251640         6.963453441         5.959352252
    11.999251640        13.312549104         5.959352252
     4.289619446         4.593361219         3.197455387
     4.289619446        10.942456882         3.197455387
     4.289619446        17.291552544         3.197455387
    10.009112040         4.593361219         3.197455387
    10.009112040        10.942456882         3.197455387
    10.009112040        17.291552544         3.197455387
    15.728604634         4.593361219         3.197455387
    15.728604634        10.942456882         3.197455387
    15.728604634        17.291552544         3.197455387
     4.289619446         4.591254911         6.839842911
     4.289619446        10.940350574         6.839842911
     4.289619446        17.289446236         6.839842911
    10.009112040         4.591254911         6.839842911
    10.009112040        10.940350574         6.839842911
    10.009112040        17.289446236         6.839842911
    15.728604634         4.591254911         6.839842911
    15.728604634        10.940350574         6.839842911
    15.728604634        17.289446236         6.839842911
     1.429873148         1.757840751         1.248274069
     1.429873148         8.106936414         1.248274069
     1.429873148        14.456032076         1.248274069
     7.149365743         1.757840751         1.248274069
     7.149365743         8.106936414         1.248274069
     7.149365743        14.456032076         1.248274069
    12.868858337         1.757840751         1.248274069
    12.868858337         8.106936414         1.248274069
    12.868858337        14.456032076         1.248274069
     1.429873148         1.755734443         4.890661594
     1.429873148         8.104830106         4.890661594
     1.429873148        14.453925768         4.890661594
     7.149365743         1.755734443         4.890661594
     7.149365743         8.104830106         4.890661594
     7.149365743        14.453925768         4.890661594
    12.868858337         1.755734443         4.890661594
    12.868858337         8.104830106         4.890661594
    12.868858337        14.453925768         4.890661594
     4.289619446         4.591254911         1.248274069
     4.289619446        10.940350574         1.248274069
     4.289619446        17.289446236         1.248274069
    10.009112040         4.591254911         1.248274069
    10.009112040        10.940350574         1.248274069
    10.009112040        17.289446236         1.248274069
    15.728604634         4.591254911         1.248274069
    15.728604634        10.940350574         1.248274069
    15.728604634        17.289446236         1.248274069
     4.289619446         4.593361219         4.890661594
     4.289619446        10.942456882         4.890661594
     4.289619446        17.291552544         4.890661594
    10.009112040         4.593361219         4.890661594
    10.009112040        10.942456882         4.890661594
    10.009112040        17.291552544         4.890661594
    15.728604634         4.593361219         4.890661594
    15.728604634        10.942456882         4.890661594
    15.728604634        17.291552544         4.890661594
     1.429873148         1.755734443         3.197455387
     1.429873148         8.104830106         3.197455387
     1.429873148        14.453925768         3.197455387
     7.149365743         1.755734443         3.197455387
     7.149365743         8.104830106         3.197455387
     7.149365743        14.453925768         3.197455387
    12.868858337         1.755734443         3.197455387
    12.868858337         8.104830106         3.197455387
    12.868858337        14.453925768         3.197455387
     1.429873148         1.757840751         6.839842911
     1.429873148         8.106936414         6.839842911
     1.429873148        14.456032076         6.839842911
     7.149365743         1.757840751         6.839842911
     7.149365743         8.106936414         6.839842911
     7.149365743        14.456032076         6.839842911
    12.868858337         1.757840751         6.839842911
    12.868858337         8.106936414         6.839842911
    12.868858337        14.456032076         6.839842911
     1.429873148         3.280192165         2.077868205
     1.429873148         9.629287827         2.077868205
     1.429873148        15.978383489         2.077868205
     7.149365743         3.280192165         2.077868205
     7.149365743         9.629287827         2.077868205
     7.149365743        15.978383489         2.077868205
    12.868858337         3.280192165         2.077868205
    12.868858337         9.629287827         2.077868205
    12.868858337        15.978383489         2.077868205
     1.429873148         3.280192165         6.010248715
     1.429873148         9.629287827         6.010248715
     1.429873148        15.978383489         6.010248715
     7.149365743         3.280192165         6.010248715
     7.149365743         9.629287827         6.010248715
     7.149365743        15.978383489         6.010248715
    12.868858337         3.280192165         6.010248715
    12.868858337         9.629287827         6.010248715
    12.868858337        15.978383489         6.010248715
     4.289619446         3.068903309         2.077868205
     4.289619446         9.417998972         2.077868205
     4.289619446        15.767094634         2.077868205
    10.009112040         3.068903309         2.077868205
    10.009112040         9.417998972         2.077868205
    10.009112040        15.767094634         2.077868205
    15.728604634         3.068903309         2.077868205
    15.728604634         9.417998972         2.077868205
    15.728604634        15.767094634         2.077868205
     4.289619446         3.068903309         6.010248715
     4.289619446         9.417998972         6.010248715
     4.289619446        15.767094634         6.010248715
    10.009112040         3.068903309         6.010248715
    10.009112040         9.417998972         6.010248715
    10.009112040        15.767094634         6.010248715
    15.728604634         3.068903309         6.010248715
    15.728604634         9.417998972         6.010248715
    15.728604634        15.767094634         6.010248715
