o-B14 monolayer                         
   1.00000000000000     
     5.6997579760202353    0.0000000000000000    0.0000000000000000
     0.0000000000000000    6.3141337783986620    0.0000000000000000
     0.0000000000000000    0.0000000000000000   24.0440583230000016
  B             
    14
Direct
     0.5117150711218563    0.6435024879963923    0.0840968331484078
     0.4882849289307666    0.3564975119874857    0.0840968331484078
     0.9882849289570779    0.6435024879963923    0.0840968331484078
     0.0117150710955449    0.3564975119874857    0.0840968331484078
     0.5972680702906144    0.9026809073877567    0.0840968331484078
     0.4027319297620084    0.0973190851790069    0.0840968331484078
     0.9027319297883198    0.9026809073877567    0.0840968331484078
     0.0972680702643030    0.0973190851790069    0.0840968331484078
     0.7499999999517613    0.7236277010941633    0.1246964280287879
     0.2499999999254499    0.2763722988897146    0.0434972408050489
     0.7499999999517613    0.7236277010941633    0.0434972408050489
     0.2499999999254499    0.2763722988897146    0.1246964280287879
     0.2499999999254499    0.5161253341259301    0.0840968331484078
     0.7499999999517613    0.4838746361894843    0.0840968331484078
 
  0.00000000E+00  0.00000000E+00  0.00000000E+00
  0.00000000E+00  0.00000000E+00  0.00000000E+00
  0.00000000E+00  0.00000000E+00  0.00000000E+00
  0.00000000E+00  0.00000000E+00  0.00000000E+00
  0.00000000E+00  0.00000000E+00  0.00000000E+00
  0.00000000E+00  0.00000000E+00  0.00000000E+00
  0.00000000E+00  0.00000000E+00  0.00000000E+00
  0.00000000E+00  0.00000000E+00  0.00000000E+00
  0.00000000E+00  0.00000000E+00  0.00000000E+00
  0.00000000E+00  0.00000000E+00  0.00000000E+00
  0.00000000E+00  0.00000000E+00  0.00000000E+00
  0.00000000E+00  0.00000000E+00  0.00000000E+00
  0.00000000E+00  0.00000000E+00  0.00000000E+00
  0.00000000E+00  0.00000000E+00  0.00000000E+00
