 running   64 mpi-ranks, on    1 nodes
 distrk:  each k-point on   16 cores,    4 groups
 distr:  one band on    1 cores,   16 groups
 vasp.6.5.1 10Mar25 (build Mar 14 2025 17:12:02) complex                        
  
 POSCAR found type information on POSCAR B 
 POSCAR found :  1 types and      14 ions
 Reading from existing POTCAR
 scaLAPACK will be used
 -----------------------------------------------------------------------------
|                                                                             |
|           W    W    AA    RRRRR   N    N  II  N    N   GGGG   !!!           |
|           W    W   A  A   R    R  NN   N  II  NN   N  G    G  !!!           |
|           W    W  A    A  R    R  N N  N  II  N N  N  G       !!!           |
|           W WW W  AAAAAA  RRRRR   N  N N  II  N  N N  G  GGG   !            |
|           WW  WW  A    A  R   R   N   NN  II  N   NN  G    G                |
|           W    W  A    A  R    R  N    N  II  N    N   GGGG   !!!           |
|                                                                             |
|     For optimal performance we recommend to set                             |
|       NCORE = 2 up to number-of-cores-per-socket                            |
|     NCORE specifies how many cores store one orbital (NPAR=cpu/NCORE).      |
|     This setting can greatly improve the performance of VASP for DFT.       |
|     The default, NCORE=1 might be grossly inefficient on modern             |
|     multi-core architectures or massively parallel machines. Do your        |
|     own testing! More info at https://www.vasp.at/wiki/index.php/NCORE      |
|     Unfortunately you need to use the default for GW and RPA                |
|     calculations (for HF NCORE is supported but not extensively tested      |
|     yet).                                                                   |
|                                                                             |
 -----------------------------------------------------------------------------

 Reading from existing POTCAR
 LDA part: xc-table for (Slater+PW92), standard interpolation
 POSCAR, INCAR and KPOINTS ok, starting setup
 FFT: planning ... GRIDC
 FFT: planning ... GRID_SOFT
 FFT: planning ... GRID
 HFRCUT set to (new)   26.4917484340347     
 WAVECAR not read
 entering main loop
       N       E                     dE             d eps       ncg     rms           ort
DAV:   1     0.378971021454E+03    0.37897E+03   -0.12006E+04   800   0.105E+03  
DAV:   2    -0.434249583375E+01   -0.38331E+03   -0.36263E+03   800   0.259E+02  
DAV:   3    -0.226747221259E+03   -0.22240E+03   -0.21683E+03   800   0.206E+02  
DAV:   4    -0.325626256814E+03   -0.98879E+02   -0.97986E+02   800   0.175E+02  
DAV:   5    -0.865795290074E+02    0.23905E+03   -0.34774E+02   800   0.916E+01  
SDA:   6    -0.752962322236E+02    0.11283E+02   -0.21359E+02   800   0.534E+02   0.000E+00
DMP:   7    -0.886375518933E+02   -0.13341E+02   -0.55152E+01   800   0.871E+01   0.133E+02
DMP:   8    -0.913996065721E+02   -0.27621E+01   -0.20984E+01   800   0.546E+01  -0.573E+00
DMP:   9    -0.927685885243E+02   -0.13690E+01   -0.11058E+01   800   0.228E+01   0.127E+01
DMP:  10    -0.935732727832E+02   -0.80468E+00   -0.74967E+00   800   0.142E+01   0.120E+01
DMP:  11    -0.941686709634E+02   -0.59540E+00   -0.65065E+00   800   0.110E+01   0.139E+01
DMP:  12    -0.947222956286E+02   -0.55362E+00   -0.29385E+00   800   0.491E+00   0.638E+00
DMP:  13    -0.948898628587E+02   -0.16757E+00   -0.14033E+00   800   0.217E+00   0.349E+00
DMP:  14    -0.950146283856E+02   -0.12477E+00   -0.95518E-01   800   0.137E+00   0.266E+00
DMP:  15    -0.950835647660E+02   -0.68936E-01   -0.34077E-01   800   0.482E-01   0.968E-01
DMP:  16    -0.951113398075E+02   -0.27775E-01   -0.17686E-01   800   0.239E-01   0.532E-01
DMP:  17    -0.951298249970E+02   -0.18485E-01   -0.19117E-01   800   0.249E-01   0.599E-01
DMP:  18    -0.951457089254E+02   -0.15884E-01   -0.76784E-02   800   0.106E-01   0.224E-01
DMP:  19    -0.951513017802E+02   -0.55929E-02   -0.32184E-02   800   0.404E-02   0.105E-01
DMP:  20    -0.951541103219E+02   -0.28085E-02   -0.19048E-02   800   0.241E-02   0.617E-02
DMP:  21    -0.951559980870E+02   -0.18878E-02   -0.14264E-02   800   0.177E-02   0.470E-02
DMP:  22    -0.951573851141E+02   -0.13870E-02   -0.10339E-02   800   0.135E-02   0.323E-02
DMP:  23    -0.951583388413E+02   -0.95373E-03   -0.72672E-03   800   0.998E-03   0.214E-02
DMP:  24    -0.951589920945E+02   -0.65325E-03   -0.48862E-03   800   0.671E-03   0.144E-02
DMP:  25    -0.951594253725E+02   -0.43328E-03   -0.31661E-03   800   0.431E-03   0.944E-03
DMP:  26    -0.951597048729E+02   -0.27950E-03   -0.20256E-03   800   0.274E-03   0.608E-03
DMP:  27    -0.951598838209E+02   -0.17895E-03   -0.13101E-03   800   0.178E-03   0.391E-03
DMP:  28    -0.951600000023E+02   -0.11618E-03   -0.88463E-04   800   0.124E-03   0.255E-03
DMP:  29    -0.951600778409E+02   -0.77839E-04   -0.63607E-04   800   0.943E-04   0.169E-03
DMP:  30    -0.951601316695E+02   -0.53829E-04   -0.49619E-04   800   0.816E-04   0.111E-03
DMP:  31    -0.951601700916E+02   -0.38422E-04   -0.42156E-04   800   0.791E-04   0.688E-04
DMP:  32    -0.951601981632E+02   -0.28072E-04   -0.38463E-04   800   0.826E-04   0.356E-04
DMP:  33    -0.951602194441E+02   -0.21281E-04   -0.35778E-04   800   0.853E-04   0.108E-04
DMP:  34    -0.951602355278E+02   -0.16084E-04   -0.37767E-04   800   0.977E-04  -0.857E-05
DMP:  35    -0.951602429080E+02   -0.73802E-05   -0.71882E-04   800   0.202E-03  -0.571E-04
DMP:  36    -0.951602265725E+02    0.16335E-04   -0.21111E-03   800   0.627E-03  -0.261E-03
DMP:  37    -0.951601618983E+02    0.64674E-04   -0.54867E-03   800   0.170E-02  -0.850E-03
DMP:  38    -0.951600381382E+02    0.12376E-03   -0.10700E-02   800   0.343E-02  -0.199E-02
DMP:  39    -0.951599106961E+02    0.12744E-03   -0.15156E-02   800   0.505E-02  -0.331E-02
DMP:  40    -0.951598516159E+02    0.59080E-04   -0.16887E-02   800   0.578E-02  -0.408E-02
DMP:  41    -0.951598190232E+02    0.32593E-04   -0.19068E-02   800   0.644E-02  -0.438E-02
DMP:  42    -0.951596648003E+02    0.15422E-03   -0.26907E-02   800   0.884E-02  -0.554E-02
DMP:  43    -0.951593269381E+02    0.33786E-03   -0.41141E-02   800   0.135E-01  -0.841E-02
DMP:  44    -0.951589212726E+02    0.40567E-03   -0.55058E-02   800   0.185E-01  -0.123E-01
DMP:  45    -0.951587917011E+02    0.12957E-03   -0.54679E-02   800   0.192E-01  -0.144E-01
DMP:  46    -0.951591801662E+02   -0.38847E-03   -0.36395E-02   800   0.136E-01  -0.117E-01
DMP:  47    -0.951597419100E+02   -0.56174E-03   -0.16915E-02   800   0.663E-02  -0.630E-02
DMP:  48    -0.951600500157E+02   -0.30811E-03   -0.75935E-03   800   0.293E-02  -0.269E-02
DMP:  49    -0.951601674719E+02   -0.11746E-03   -0.41601E-03   800   0.154E-02  -0.131E-02
DMP:  50    -0.951602125614E+02   -0.45089E-04   -0.29439E-03   800   0.105E-02  -0.814E-03
DMP:  51    -0.951602327333E+02   -0.20172E-04   -0.21882E-03   800   0.790E-03  -0.635E-03
DMP:  52    -0.951602591767E+02   -0.26443E-04   -0.12079E-03   800   0.460E-03  -0.415E-03
DMP:  53    -0.951602806529E+02   -0.21476E-04   -0.52973E-04   800   0.207E-03  -0.195E-03
DMP:  54    -0.951602903162E+02   -0.96633E-05   -0.25444E-04   800   0.957E-04  -0.841E-04
DMP:  55    -0.951602942691E+02   -0.39529E-05   -0.12079E-04   800   0.469E-04  -0.438E-04
DMP:  56    -0.951602971915E+02   -0.29224E-05   -0.36569E-05   800   0.151E-04  -0.156E-04
DMP:  57    -0.951602980960E+02   -0.90452E-06   -0.15764E-05   800   0.570E-05  -0.461E-05
DMP:  58    -0.951602983050E+02   -0.20902E-06   -0.10809E-05   800   0.380E-05  -0.288E-05
DMP:  59    -0.951602984510E+02   -0.14599E-06   -0.74318E-06   800   0.261E-05  -0.196E-05
 final diagonalization occupied
   1 F= -.95160298E+02 E0= -.95159537E+02  d E =-.152371E-02  mag=     1.9720
 Start KPOINTS_OPT (optional k-point list driver)
k-point batch [1-25\90]
       N       E                     dE             ncg
DAV:   1     0.414857237473E+04   -0.48818E+04     4576
DAV:   2    -0.340976978313E+04   -0.75583E+04     6400
DAV:   3    -0.730887089650E+04   -0.38991E+04     6400
DAV:   4    -0.940017473595E+04   -0.20913E+04     6400
DAV:   5    -0.104888379524E+05   -0.10887E+04     6400
DAV:   6    -0.109883608034E+05   -0.49952E+03     6400
DAV:   7    -0.111990509866E+05   -0.21069E+03     6400
DAV:   8    -0.112850836331E+05   -0.86033E+02     6400
DAV:   9    -0.113201512659E+05   -0.35068E+02     6400
DAV:  10    -0.113345419773E+05   -0.14391E+02     6400
DAV:  11    -0.113405233034E+05   -0.59813E+01     6400
DAV:  12    -0.113430587786E+05   -0.25355E+01     6400
DAV:  13    -0.113441566458E+05   -0.10979E+01     6400
DAV:  14    -0.113446438980E+05   -0.48725E+00     6400
DAV:  15    -0.113448654961E+05   -0.22160E+00     6400
DAV:  16    -0.113449689510E+05   -0.10345E+00     6400
DAV:  17    -0.113450184450E+05   -0.49494E-01     6400
DAV:  18    -0.113450427241E+05   -0.24279E-01     6400
DAV:  19    -0.113450548976E+05   -0.12173E-01     6400
DAV:  20    -0.113450611387E+05   -0.62410E-02     6400
DAV:  21    -0.113450643967E+05   -0.32580E-02     6400
DAV:  22    -0.113450661292E+05   -0.17325E-02     6384
DAV:  23    -0.113450670627E+05   -0.93355E-03     6256
DAV:  24    -0.113450675726E+05   -0.50983E-03     5312
DAV:  25    -0.113450678535E+05   -0.28089E-03     4160
DAV:  26    -0.113450680102E+05   -0.15677E-03     4048
DAV:  27    -0.113450680982E+05   -0.88021E-04     4000
DAV:  28    -0.113450681480E+05   -0.49797E-04     4000
DAV:  29    -0.113450681763E+05   -0.28286E-04     4000
DAV:  30    -0.113450681925E+05   -0.16161E-04     4000
DAV:  31    -0.113450682018E+05   -0.92718E-05     4000
DAV:  32    -0.113450682071E+05   -0.53523E-05     4000
DAV:  33    -0.113450682102E+05   -0.31081E-05     4000
DAV:  34    -0.113450682120E+05   -0.18219E-05     4000
DAV:  35    -0.113450682131E+05   -0.10805E-05     4000
DAV:  36    -0.113450682138E+05   -0.65267E-06     4000
k-point batch [26-50\90]
       N       E                     dE             ncg
DAV:   1     0.409907395675E+04   -0.10467E+05     4576
DAV:   2    -0.325600752824E+04   -0.73551E+04     6400
DAV:   3    -0.721815554129E+04   -0.39621E+04     6400
DAV:   4    -0.939212652642E+04   -0.21740E+04     6400
DAV:   5    -0.104973640644E+05   -0.11052E+04     6400
DAV:   6    -0.110001842933E+05   -0.50282E+03     6400
DAV:   7    -0.112133156009E+05   -0.21313E+03     6400
DAV:   8    -0.113016120653E+05   -0.88296E+02     6400
DAV:   9    -0.113384433400E+05   -0.36831E+02     6400
DAV:  10    -0.113537252066E+05   -0.15282E+02     6400
DAV:  11    -0.113601185013E+05   -0.63933E+01     6400
DAV:  12    -0.113628547168E+05   -0.27362E+01     6400
DAV:  13    -0.113640545753E+05   -0.11999E+01     6400
DAV:  14    -0.113645948560E+05   -0.54028E+00     6400
DAV:  15    -0.113648442213E+05   -0.24937E+00     6400
DAV:  16    -0.113649621948E+05   -0.11797E+00     6400
DAV:  17    -0.113650193156E+05   -0.57121E-01     6400
DAV:  18    -0.113650475957E+05   -0.28280E-01     6400
DAV:  19    -0.113650618797E+05   -0.14284E-01     6400
DAV:  20    -0.113650692281E+05   -0.73484E-02     6400
DAV:  21    -0.113650730693E+05   -0.38413E-02     6400
DAV:  22    -0.113650751063E+05   -0.20370E-02     6400
DAV:  23    -0.113650761997E+05   -0.10934E-02     6240
DAV:  24    -0.113650767925E+05   -0.59274E-03     5088
DAV:  25    -0.113650771170E+05   -0.32459E-03     4192
DAV:  26    -0.113650772966E+05   -0.17954E-03     4032
DAV:  27    -0.113650773966E+05   -0.10006E-03     4000
DAV:  28    -0.113650774528E+05   -0.56130E-04     4000
DAV:  29    -0.113650774844E+05   -0.31659E-04     4000
DAV:  30    -0.113650775024E+05   -0.17954E-04     4000
DAV:  31    -0.113650775126E+05   -0.10233E-04     4000
DAV:  32    -0.113650775185E+05   -0.58618E-05     4000
DAV:  33    -0.113650775219E+05   -0.33815E-05     4000
DAV:  34    -0.113650775238E+05   -0.19669E-05     4000
DAV:  35    -0.113650775250E+05   -0.11536E-05     4000
DAV:  36    -0.113650775257E+05   -0.69043E-06     4000
k-point batch [51-75\90]
       N       E                     dE             ncg
DAV:   1     0.412588770904E+04   -0.13668E+05     4512
DAV:   2    -0.316140436353E+04   -0.72873E+04     6400
DAV:   3    -0.718760427157E+04   -0.40262E+04     6400
DAV:   4    -0.941231492165E+04   -0.22247E+04     6400
DAV:   5    -0.105156438108E+05   -0.11033E+04     6400
DAV:   6    -0.110097375937E+05   -0.49409E+03     6400
DAV:   7    -0.112173246761E+05   -0.20759E+03     6400
DAV:   8    -0.113032157350E+05   -0.85891E+02     6400
DAV:   9    -0.113398948895E+05   -0.36679E+02     6400
DAV:  10    -0.113560878648E+05   -0.16193E+02     6400
DAV:  11    -0.113634102348E+05   -0.73224E+01     6400
