generated by phonopy                    
   1.00000000000000     
    17.0988253200774736   -0.1078979225797221    0.0000000000000000
    -0.1275861832207752   18.8528554762286937    0.0000000000000000
     0.0000000000000000    0.0000000000000000   26.0440578460999994
  B               H             
   126    18
Direct
     0.1661917119095477    0.2191195295208956    0.1544317381249485
     0.4995250452428834    0.2191195295208956    0.1544317381249485
     0.8328583785762120    0.2191195295208956    0.1544317381249485
     0.1661917119095477    0.5524528628542313    0.1544317381249485
     0.4995250452428834    0.5524528628542313    0.1544317381249485
     0.8328583785762120    0.5524528628542313    0.1544317381249485
     0.1661917119095477    0.8857861961875599    0.1544317381249485
     0.4995250452428834    0.8857861961875599    0.1544317381249485
     0.8328583785762120    0.8857861961875599    0.1544317381249485
     0.1671416214939612    0.1142138038071607    0.1544317381249485
     0.5004749548272969    0.1142138038071607    0.1544317381249485
     0.8338082881606326    0.1142138038071607    0.1544317381249485
     0.1671416214939612    0.4475471371404893    0.1544317381249485
     0.5004749548272969    0.4475471371404893    0.1544317381249485
     0.8338082881606326    0.4475471371404893    0.1544317381249485
     0.1671416214939612    0.7808804704738250    0.1544317381249485
     0.5004749548272969    0.7808804704738250    0.1544317381249485
     0.8338082881606326    0.7808804704738250    0.1544317381249485
     0.3268373031354770    0.2137571572800709    0.1544317381249485
     0.6601706364688127    0.2137571572800709    0.1544317381249485
     0.9935039698021484    0.2137571572800709    0.1544317381249485
     0.3268373031354770    0.5470904906134066    0.1544317381249485
     0.6601706364688127    0.5470904906134066    0.1544317381249485
     0.9935039698021484    0.5470904906134066    0.1544317381249485
     0.3268373031354770    0.8804238239467423    0.1544317381249485
     0.6601706364688127    0.8804238239467423    0.1544317381249485
     0.9935039698021484    0.8804238239467423    0.1544317381249485
     0.0064960302095471    0.1195761760479783    0.1544317381249485
     0.3398293635428828    0.1195761760479783    0.1544317381249485
     0.6731626968762185    0.1195761760479783    0.1544317381249485
     0.0064960302095471    0.4529095093813140    0.1544317381249485
     0.3398293635428828    0.4529095093813140    0.1544317381249485
     0.6731626968762185    0.4529095093813140    0.1544317381249485
     0.0064960302095471    0.7862428427146497    0.1544317381249485
     0.3398293635428828    0.7862428427146497    0.1544317381249485
     0.6731626968762185    0.7862428427146497    0.1544317381249485
     0.2013397460475659    0.3027702686854923    0.1544317381249485
     0.5346730793809016    0.3027702686854923    0.1544317381249485
     0.8680064127142373    0.3027702686854923    0.1544317381249485
     0.2013397460475659    0.6361036020188280    0.1544317381249485
     0.5346730793809016    0.6361036020188280    0.1544317381249485
     0.8680064127142373    0.6361036020188280    0.1544317381249485
     0.2013397460475659    0.9694369353521637    0.1544317381249485
     0.5346730793809016    0.9694369353521637    0.1544317381249485
     0.8680064127142373    0.9694369353521637    0.1544317381249485
     0.1319935872974582    0.0305630621613560    0.1544317381249485
     0.4653269206307939    0.0305630621613560    0.1544317381249485
     0.7986602539641297    0.0305630621613560    0.1544317381249485
     0.1319935872974582    0.3638963954946846    0.1544317381249485
     0.4653269206307939    0.3638963954946846    0.1544317381249485
     0.7986602539641297    0.3638963954946846    0.1544317381249485
     0.1319935872974582    0.6972297288280203    0.1544317381249485
     0.4653269206307939    0.6972297288280203    0.1544317381249485
     0.7986602539641297    0.6972297288280203    0.1544317381249485
     0.2997120856430158    0.3004640124505258    0.1544317381249485
     0.6330454189763515    0.3004640124505258    0.1544317381249485
     0.9663787523096801    0.3004640124505258    0.1544317381249485
     0.2997120856430158    0.6337973457838544    0.1544317381249485
     0.6330454189763515    0.6337973457838544    0.1544317381249485
     0.9663787523096801    0.6337973457838544    0.1544317381249485
     0.2997120856430158    0.9671306791171901    0.1544317381249485
     0.6330454189763515    0.9671306791171901    0.1544317381249485
     0.9663787523096801    0.9671306791171901    0.1544317381249485
     0.0336212477020155    0.0328693183963225    0.1544317381249485
     0.3669545810353441    0.0328693183963225    0.1544317381249485
     0.7002879143686798    0.0328693183963225    0.1544317381249485
     0.0336212477020155    0.3662026517296582    0.1544317381249485
     0.3669545810353441    0.3662026517296582    0.1544317381249485
     0.7002879143686798    0.3662026517296582    0.1544317381249485
     0.0336212477020155    0.6995359850629939    0.1544317381249485
     0.3669545810353441    0.6995359850629939    0.1544317381249485
     0.7002879143686798    0.6995359850629939    0.1544317381249485
     0.2457867327660850    0.2382117566820980    0.1930227145010122
     0.5785352422461827    0.2382117566820980    0.1930227145010122
     0.9118685755795184    0.2382117566820980    0.1930227145010122
     0.2452019089128470    0.5715450900154337    0.1930227145010122
     0.5785352422461827    0.5715450900154337    0.1930227145010122
     0.9118685755795184    0.5715450900154337    0.1930227145010122
     0.2452019089128470    0.9048784233487623    0.1930227145010122
     0.5785352422461827    0.9048784233487623    0.1930227145010122
     0.9118685755795184    0.9048784233487623    0.1930227145010122
     0.0881314243736995    0.0951215766459512    0.1158407640910752
     0.4214647577070352    0.0951215766459512    0.1158407640910752
     0.7547980910403638    0.0951215766459512    0.1158407640910752
     0.0881314243736995    0.4284549099792869    0.1158407640910752
     0.4214647577070352    0.4284549099792869    0.1158407640910752
     0.7547980910403638    0.4284549099792869    0.1158407640910752
     0.0881314243736995    0.7617882433126226    0.1158407640910752
     0.4214647577070352    0.7617882433126226    0.1158407640910752
     0.7547980910403638    0.7617882433126226    0.1158407640910752
     0.2452019089128470    0.2382117566820980    0.1158407640910752
     0.5785352422461827    0.2382117566820980    0.1158407640910752
     0.9118685755795184    0.2382117566820980    0.1158407640910752
     0.2452019089128470    0.5715450900154337    0.1158407640910752
     0.5785352422461827    0.5715450900154337    0.1158407640910752
     0.9118685755795184    0.5715450900154337    0.1158407640910752
     0.2452019089128470    0.9048784233487623    0.1158407640910752
     0.5785352422461827    0.9048784233487623    0.1158407640910752
     0.9118685755795184    0.9048784233487623    0.1158407640910752
     0.0881314243736995    0.0951215766459512    0.1930227145010122
     0.4214647577070352    0.0951215766459512    0.1930227145010122
     0.7547980910403638    0.0951215766459512    0.1930227145010122
     0.0881314243736995    0.4284549099792869    0.1930227145010122
     0.4214647577070352    0.4284549099792869    0.1930227145010122
     0.7547980910403638    0.4284549099792869    0.1930227145010122
     0.0881314243736995    0.7617882433126226    0.1930227145010122
     0.4214647577070352    0.7617882433126226    0.1930227145010122
     0.7547980910403638    0.7617882433126226    0.1930227145010122
     0.0838683291858828    0.1734488866297070    0.1544317381249485
     0.4172016625192185    0.1734488866297070    0.1544317381249485
     0.7505349958525471    0.1734488866297070    0.1544317381249485
     0.0838683291858828    0.5067822199630356    0.1544317381249485
     0.4172016625192185    0.5067822199630356    0.1544317381249485
     0.7505349958525471    0.5067822199630356    0.1544317381249485
     0.0838683291858828    0.8401155532963713    0.1544317381249485
     0.4172016625192185    0.8401155532963713    0.1544317381249485
     0.7505349958525471    0.8401155532963713    0.1544317381249485
     0.2494650041006636    0.1598844367735239    0.1544317381249485
     0.5827983374339993    0.1598844367735239    0.1544317381249485
     0.9161316707673350    0.1598844367735239    0.1544317381249485
     0.2494650041006636    0.4932177701068596    0.1544317381249485
     0.5827983374339993    0.4932177701068596    0.1544317381249485
     0.9161316707673350    0.4932177701068596    0.1544317381249485
     0.2494650041006636    0.8265511034401953    0.1544317381249485
     0.5827983374339993    0.8265511034401953    0.1544317381249485
     0.9161316707673350    0.8265511034401953    0.1544317381249485
     0.1666666666666643    0.1666666666666643    0.0936683262053961
     0.5000000000000000    0.1666666666666643    0.0936683262053961
     0.8333333333333357    0.1666666666666643    0.0936683262053961
     0.1666666666666643    0.5000000000000000    0.0936683262053961
     0.5000000000000000    0.5000000000000000    0.0936683262053961
     0.8333333333333357    0.5000000000000000    0.0936683262053961
     0.1666666666666643    0.8333333333333357    0.0936683262053961
     0.5000000000000000    0.8333333333333357    0.0936683262053961
     0.8333333333333357    0.8333333333333357    0.0936683262053961
     0.1666666666666643    0.1666666666666643    0.2151951523866913
     0.5000000000000000    0.1666666666666643    0.2151951523866913
     0.8333333333333357    0.1666666666666643    0.2151951523866913
     0.1666666666666643    0.5000000000000000    0.2151951523866913
     0.5000000000000000    0.5000000000000000    0.2151951523866913
     0.8333333333333357    0.5000000000000000    0.2151951523866913
     0.1666666666666643    0.8333333333333357    0.2151951523866913
     0.5000000000000000    0.8333333333333357    0.2151951523866913
     0.8333333333333357    0.8333333333333357    0.2151951523866913
 
  0.00000000E+00  0.00000000E+00  0.00000000E+00
  0.00000000E+00  0.00000000E+00  0.00000000E+00
  0.00000000E+00  0.00000000E+00  0.00000000E+00
  0.00000000E+00  0.00000000E+00  0.00000000E+00
  0.00000000E+00  0.00000000E+00  0.00000000E+00
  0.00000000E+00  0.00000000E+00  0.00000000E+00
  0.00000000E+00  0.00000000E+00  0.00000000E+00
  0.00000000E+00  0.00000000E+00  0.00000000E+00
  0.00000000E+00  0.00000000E+00  0.00000000E+00
  0.00000000E+00  0.00000000E+00  0.00000000E+00
  0.00000000E+00  0.00000000E+00  0.00000000E+00
  0.00000000E+00  0.00000000E+00  0.00000000E+00
  0.00000000E+00  0.00000000E+00  0.00000000E+00
  0.00000000E+00  0.00000000E+00  0.00000000E+00
  0.00000000E+00  0.00000000E+00  0.00000000E+00
  0.00000000E+00  0.00000000E+00  0.00000000E+00
  0.00000000E+00  0.00000000E+00  0.00000000E+00
  0.00000000E+00  0.00000000E+00  0.00000000E+00
  0.00000000E+00  0.00000000E+00  0.00000000E+00
  0.00000000E+00  0.00000000E+00  0.00000000E+00
  0.00000000E+00  0.00000000E+00  0.00000000E+00
  0.00000000E+00  0.00000000E+00  0.00000000E+00
  0.00000000E+00  0.00000000E+00  0.00000000E+00
  0.00000000E+00  0.00000000E+00  0.00000000E+00
  0.00000000E+00  0.00000000E+00  0.00000000E+00
  0.00000000E+00  0.00000000E+00  0.00000000E+00
  0.00000000E+00  0.00000000E+00  0.00000000E+00
  0.00000000E+00  0.00000000E+00  0.00000000E+00
  0.00000000E+00  0.00000000E+00  0.00000000E+00
  0.00000000E+00  0.00000000E+00  0.00000000E+00
  0.00000000E+00  0.00000000E+00  0.00000000E+00
  0.00000000E+00  0.00000000E+00  0.00000000E+00
  0.00000000E+00  0.00000000E+00  0.00000000E+00
  0.00000000E+00  0.00000000E+00  0.00000000E+00
  0.00000000E+00  0.00000000E+00  0.00000000E+00
  0.00000000E+00  0.00000000E+00  0.00000000E+00
  0.00000000E+00  0.00000000E+00  0.00000000E+00
  0.00000000E+00  0.00000000E+00  0.00000000E+00
  0.00000000E+00  0.00000000E+00  0.00000000E+00
  0.00000000E+00  0.00000000E+00  0.00000000E+00
  0.00000000E+00  0.00000000E+00  0.00000000E+00
  0.00000000E+00  0.00000000E+00  0.00000000E+00
  0.00000000E+00  0.00000000E+00  0.00000000E+00
  0.00000000E+00  0.00000000E+00  0.00000000E+00
  0.00000000E+00  0.00000000E+00  0.00000000E+00
  0.00000000E+00  0.00000000E+00  0.00000000E+00
  0.00000000E+00  0.00000000E+00  0.00000000E+00
  0.00000000E+00  0.00000000E+00  0.00000000E+00
  0.00000000E+00  0.00000000E+00  0.00000000E+00
  0.00000000E+00  0.00000000E+00  0.00000000E+00
  0.00000000E+00  0.00000000E+00  0.00000000E+00
  0.00000000E+00  0.00000000E+00  0.00000000E+00
  0.00000000E+00  0.00000000E+00  0.00000000E+00
  0.00000000E+00  0.00000000E+00  0.00000000E+00
  0.00000000E+00  0.00000000E+00  0.00000000E+00
  0.00000000E+00  0.00000000E+00  0.00000000E+00
  0.00000000E+00  0.00000000E+00  0.00000000E+00
  0.00000000E+00  0.00000000E+00  0.00000000E+00
  0.00000000E+00  0.00000000E+00  0.00000000E+00
  0.00000000E+00  0.00000000E+00  0.00000000E+00
  0.00000000E+00  0.00000000E+00  0.00000000E+00
  0.00000000E+00  0.00000000E+00  0.00000000E+00
  0.00000000E+00  0.00000000E+00  0.00000000E+00
  0.00000000E+00  0.00000000E+00  0.00000000E+00
  0.00000000E+00  0.00000000E+00  0.00000000E+00
  0.00000000E+00  0.00000000E+00  0.00000000E+00
  0.00000000E+00  0.00000000E+00  0.00000000E+00
  0.00000000E+00  0.00000000E+00  0.00000000E+00
  0.00000000E+00  0.00000000E+00  0.00000000E+00
  0.00000000E+00  0.00000000E+00  0.00000000E+00
  0.00000000E+00  0.00000000E+00  0.00000000E+00
  0.00000000E+00  0.00000000E+00  0.00000000E+00
  0.00000000E+00  0.00000000E+00  0.00000000E+00
  0.00000000E+00  0.00000000E+00  0.00000000E+00
  0.00000000E+00  0.00000000E+00  0.00000000E+00
  0.00000000E+00  0.00000000E+00  0.00000000E+00
  0.00000000E+00  0.00000000E+00  0.00000000E+00
  0.00000000E+00  0.00000000E+00  0.00000000E+00
  0.00000000E+00  0.00000000E+00  0.00000000E+00
  0.00000000E+00  0.00000000E+00  0.00000000E+00
  0.00000000E+00  0.00000000E+00  0.00000000E+00
  0.00000000E+00  0.00000000E+00  0.00000000E+00
  0.00000000E+00  0.00000000E+00  0.00000000E+00
  0.00000000E+00  0.00000000E+00  0.00000000E+00
  0.00000000E+00  0.00000000E+00  0.00000000E+00
  0.00000000E+00  0.00000000E+00  0.00000000E+00
  0.00000000E+00  0.00000000E+00  0.00000000E+00
  0.00000000E+00  0.00000000E+00  0.00000000E+00
  0.00000000E+00  0.00000000E+00  0.00000000E+00
  0.00000000E+00  0.00000000E+00  0.00000000E+00
  0.00000000E+00  0.00000000E+00  0.00000000E+00
  0.00000000E+00  0.00000000E+00  0.00000000E+00
  0.00000000E+00  0.00000000E+00  0.00000000E+00
  0.00000000E+00  0.00000000E+00  0.00000000E+00
  0.00000000E+00  0.00000000E+00  0.00000000E+00
  0.00000000E+00  0.00000000E+00  0.00000000E+00
  0.00000000E+00  0.00000000E+00  0.00000000E+00
  0.00000000E+00  0.00000000E+00  0.00000000E+00
  0.00000000E+00  0.00000000E+00  0.00000000E+00
  0.00000000E+00  0.00000000E+00  0.00000000E+00
  0.00000000E+00  0.00000000E+00  0.00000000E+00
  0.00000000E+00  0.00000000E+00  0.00000000E+00
  0.00000000E+00  0.00000000E+00  0.00000000E+00
  0.00000000E+00  0.00000000E+00  0.00000000E+00
  0.00000000E+00  0.00000000E+00  0.00000000E+00
  0.00000000E+00  0.00000000E+00  0.00000000E+00
  0.00000000E+00  0.00000000E+00  0.00000000E+00
  0.00000000E+00  0.00000000E+00  0.00000000E+00
  0.00000000E+00  0.00000000E+00  0.00000000E+00
  0.00000000E+00  0.00000000E+00  0.00000000E+00
  0.00000000E+00  0.00000000E+00  0.00000000E+00
  0.00000000E+00  0.00000000E+00  0.00000000E+00
  0.00000000E+00  0.00000000E+00  0.00000000E+00
  0.00000000E+00  0.00000000E+00  0.00000000E+00
  0.00000000E+00  0.00000000E+00  0.00000000E+00
  0.00000000E+00  0.00000000E+00  0.00000000E+00
  0.00000000E+00  0.00000000E+00  0.00000000E+00
  0.00000000E+00  0.00000000E+00  0.00000000E+00
  0.00000000E+00  0.00000000E+00  0.00000000E+00
  0.00000000E+00  0.00000000E+00  0.00000000E+00
  0.00000000E+00  0.00000000E+00  0.00000000E+00
  0.00000000E+00  0.00000000E+00  0.00000000E+00
  0.00000000E+00  0.00000000E+00  0.00000000E+00
  0.00000000E+00  0.00000000E+00  0.00000000E+00
  0.00000000E+00  0.00000000E+00  0.00000000E+00
  0.00000000E+00  0.00000000E+00  0.00000000E+00
  0.00000000E+00  0.00000000E+00  0.00000000E+00
  0.00000000E+00  0.00000000E+00  0.00000000E+00
  0.00000000E+00  0.00000000E+00  0.00000000E+00
  0.00000000E+00  0.00000000E+00  0.00000000E+00
  0.00000000E+00  0.00000000E+00  0.00000000E+00
  0.00000000E+00  0.00000000E+00  0.00000000E+00
  0.00000000E+00  0.00000000E+00  0.00000000E+00
  0.00000000E+00  0.00000000E+00  0.00000000E+00
  0.00000000E+00  0.00000000E+00  0.00000000E+00
  0.00000000E+00  0.00000000E+00  0.00000000E+00
  0.00000000E+00  0.00000000E+00  0.00000000E+00
  0.00000000E+00  0.00000000E+00  0.00000000E+00
  0.00000000E+00  0.00000000E+00  0.00000000E+00
  0.00000000E+00  0.00000000E+00  0.00000000E+00
  0.00000000E+00  0.00000000E+00  0.00000000E+00
  0.00000000E+00  0.00000000E+00  0.00000000E+00
  0.00000000E+00  0.00000000E+00  0.00000000E+00
  0.00000000E+00  0.00000000E+00  0.00000000E+00
