 vasp.6.5.0 16Dec24 (build Jan 08 2025 16:17:04) complex                        
  
 executed on             LinuxIFC date 2026.02.02  01:20:02
 running   42 mpi-ranks, on    1 nodes
 distrk:  each k-point on   42 cores,    1 groups
 distr:  one band on NCORE=   7 cores,    6 groups


--------------------------------------------------------------------------------------------------------


 INCAR:
   SYSTEM = SCF
   PREC = Accurate
   LORBIT = 11
   ENCUT = 600
   LCHARG = .FALSE.
   LWAVE = .FALSE.
   ALGO = Normal
   NELM = 150
   EDIFF = 1E-6
   EDIFFG = -1E-3
   SIGMA = 0.1
   ISMEAR = 0
   NSW = 0
   IBRION = -1
   NCORE = 7
   LREAL = Auto
   GGA = PE
   IVDW = 12
   LDIPOL = .TRUE.
   IDIPOL = 3
   DIPOL = 0.5 0.5 0.154432

 POTCAR:    PAW_PBE B 06Sep2000                   
 POTCAR:    PAW_PBE H 15Jun2001                   
 POTCAR:    PAW_PBE B 06Sep2000                   
   SHA256 =  a32ced30f5ae56fd4d10b4325ff17eb3e4e38ee0f4288bc219fb012fddfa6e97 B/POTCAR              
   COPYR  = (c) Copyright 06Sep2000 Georg Kresse                                                    
   COPYR  = This file is part of the software VASP. Any use, copying, and all other rights are regul
   COPYR  = If you do not have a valid VASP license, you may not use, copy or distribute this file. 
   VRHFIN =B: s2p1                                                                                  
   LEXCH  = PE                                                                                      
   EATOM  =    71.1703 eV,    5.2309 Ry                                                             
                                                                                                    
   TITEL  = PAW_PBE B 06Sep2000                                                                     
   LULTRA =        F    use ultrasoft PP ?                                                          
   IUNSCR =        1    unscreen: 0-lin 1-nonlin 2-no                                               
   RPACOR =    1.200    partial core radius                                                         
   POMASS =   10.811; ZVAL   =    3.000    mass and valenz                                          
   RCORE  =    1.700    outmost cutoff radius                                                       
   RWIGS  =    1.710; RWIGS  =    0.905    wigner-seitz radius (au A)                               
   ENMAX  =  318.614; ENMIN  =  238.960 eV                                                          
   ICORE  =        2    local potential                                                             
   LCOR   =        T    correct aug charges                                                         
   LPAW   =        T    paw PP                                                                      
   EAUG   =  535.514                                                                                
   DEXC   =    0.000                                                                                
   RMAX   =    1.732    core radius for proj-oper                                                   
   RAUG   =    1.300    factor for augmentation sphere                                              
   RDEP   =    1.757    radius for radial grids                                                     
   RDEPT  =    1.436    core radius for aug-charge                                                  
                                                                                                    
   Atomic configuration                                                                             
    4 entries                                                                                       
     n  l   j            E        occ.                                                              
     1  0  0.50      -180.5896   2.0000                                                             
     2  0  0.50        -9.4431   2.0000                                                             
     2  1  0.50        -3.6068   1.0000                                                             
     3  2  1.50        -4.0817   0.0000                                                             
   Description                                                                                      
     l       E           TYP  RCUT    TYP  RCUT                                                     
     0     -9.4430752     23  1.500                                                                 
     0      0.8675899     23  1.500                                                                 
     1     -3.6067955     23  1.700                                                                 
     1      6.1086146     23  1.700                                                                 
     2     -4.0817478      7  1.700                                                                 
  local pseudopotential read in
  partial core-charges read in
  partial kinetic energy density read in
  atomic valenz-charges read in
  non local Contribution for L=           0  read in
    real space projection operators read in
  non local Contribution for L=           0  read in
    real space projection operators read in
  non local Contribution for L=           1  read in
    real space projection operators read in
  non local Contribution for L=           1  read in
    real space projection operators read in
    PAW grid and wavefunctions read in
 
   number of l-projection  operators is LMAX  =           4
   number of lm-projection operators is LMMAX =           8
 
 POTCAR:    PAW_PBE H 15Jun2001                   
   SHA256 =  030f79b5d3ab3cf0e668861823c8fb652ff669f3e15e46930bd03bfd63a607b6 H/POTCAR              
   COPYR  = (c) Copyright 15Jun2001 Georg Kresse                                                    
   COPYR  = This file is part of the software VASP. Any use, copying, and all other rights are regul
   COPYR  = If you do not have a valid VASP license, you may not use, copy or distribute this file. 
   VRHFIN =H: ultrasoft test                                                                        
   LEXCH  = PE                                                                                      
   EATOM  =    12.4884 eV,    0.9179 Ry                                                             
                                                                                                    
   TITEL  = PAW_PBE H 15Jun2001                                                                     
   LULTRA =        F    use ultrasoft PP ?                                                          
   IUNSCR =        0    unscreen: 0-lin 1-nonlin 2-no                                               
   RPACOR =    0.000    partial core radius                                                         
   POMASS =    1.000; ZVAL   =    1.000    mass and valenz                                          
   RCORE  =    1.100    outmost cutoff radius                                                       
   RWIGS  =    0.700; RWIGS  =    0.370    wigner-seitz radius (au A)                               
   ENMAX  =  250.000; ENMIN  =  200.000 eV                                                          
   RCLOC  =    0.701    cutoff for local pot                                                        
   LCOR   =        T    correct aug charges                                                         
   LPAW   =        T    paw PP                                                                      
   EAUG   =  400.000                                                                                
   RMAX   =    1.123    core radius for proj-oper                                                   
   RAUG   =    1.200    factor for augmentation sphere                                              
   RDEP   =    1.112    radius for radial grids                                                     
   RDEPT  =    0.926    core radius for aug-charge                                                  
                                                                                                    
   Atomic configuration                                                                             
    2 entries                                                                                       
     n  l   j            E        occ.                                                              
     1  0  0.50        -6.4927   1.0000                                                             
     2  1  0.50        -3.4015   0.0000                                                             
   Description                                                                                      
     l       E           TYP  RCUT    TYP  RCUT                                                     
     0     -6.4927494     23  1.100                                                                 
     0      6.8029130     23  1.100                                                                 
     1     -4.0817478     23  1.100                                                                 
  local pseudopotential read in
  atomic valenz-charges read in
  non local Contribution for L=           0  read in
    real space projection operators read in
  non local Contribution for L=           0  read in
    real space projection operators read in
  non local Contribution for L=           1  read in
    real space projection operators read in
    PAW grid and wavefunctions read in
 
   number of l-projection  operators is LMAX  =           3
   number of lm-projection operators is LMMAX =           5
 
 Optimization of the real space projectors (new method)

 maximal supplied QI-value         = 22.11
 optimisation between [QCUT,QGAM] = [ 12.38, 24.98] = [ 42.93,174.79] Ry 
 Optimized for a Real-space Cutoff    1.03 Angstroem

   l    n(q)    QCUT    max X(q) W(low)/X(q) W(high)/X(q)  e(spline) 
   0      8    12.381    53.033    0.22E-03    0.47E-03    0.92E-07
   0      8    12.381    34.740    0.21E-03    0.46E-03    0.93E-07
   1      7    12.381    30.949    0.11E-03    0.42E-03    0.70E-07
   1      7    12.381    19.518    0.10E-03    0.38E-03    0.67E-07
 Optimization of the real space projectors (new method)

 maximal supplied QI-value         = 34.20
 optimisation between [QCUT,QGAM] = [ 12.31, 24.97] = [ 42.46,174.58] Ry 
 Optimized for a Real-space Cutoff    1.13 Angstroem

   l    n(q)    QCUT    max X(q) W(low)/X(q) W(high)/X(q)  e(spline) 
   0      8    12.313    19.460    0.10E-03    0.25E-03    0.27E-06
   0      8    12.313    12.209    0.92E-04    0.23E-03    0.26E-06
   1      8    12.313     4.655    0.24E-03    0.28E-03    0.15E-06
  PAW_PBE B 06Sep2000                   :
 energy of atom  1       EATOM=  -71.1703
 kinetic energy error for atom=    0.0007 (will be added to EATOM!!)
  PAW_PBE H 15Jun2001                   :
 energy of atom  2       EATOM=  -12.4884
 kinetic energy error for atom=    0.0004 (will be added to EATOM!!)
 
 
 POSCAR: generated by phonopy
  positions in direct lattice
  No initial velocities read in
 IVDW         = 12
 VDW_S6       =    1.0000
 VDW_S8       =    0.7875
 VDW_A1       =    0.4289
 VDW_A2       =    4.4407
 VDW_RADIUS   =   50.2022 A
 VDW_CNRADIUS =   21.1671 A


 exchange-correlation table for PE
   RHO(1)=    0.500       N(1)  =     2000
   RHO(2)=  100.500       N(2)  =     4000
 


--------------------------------------------------------------------------------------------------------


 ion  position               nearest neighbor table
   1  0.166  0.219  0.154- 109 1.64  37 1.68  91 1.72  73 1.73 118 1.82  10 1.98
   2  0.500  0.219  0.154- 110 1.64  38 1.68  92 1.72  74 1.72 119 1.82  11 1.98
   3  0.833  0.219  0.154- 111 1.64  39 1.68  93 1.72  75 1.72 120 1.82  12 1.98
   4  0.166  0.552  0.154- 112 1.64  40 1.68  94 1.72  76 1.72 121 1.82  13 1.98
   5  0.500  0.552  0.154- 113 1.64  41 1.68  95 1.72  77 1.72 122 1.82  14 1.98
   6  0.833  0.552  0.154- 114 1.64  42 1.68  96 1.72  78 1.72 123 1.82  15 1.98
   7  0.166  0.886  0.154- 115 1.64  43 1.68  97 1.72  79 1.72 124 1.82  16 1.98
   8  0.500  0.886  0.154- 116 1.64  44 1.68  98 1.72  80 1.72 125 1.82  17 1.98
   9  0.833  0.886  0.154- 117 1.64  45 1.68  99 1.72  81 1.72 126 1.82  18 1.98
  10  0.167  0.114  0.154- 118 1.64  46 1.68  82 1.72 100 1.72 109 1.82   1 1.98
  11  0.500  0.114  0.154- 119 1.64  47 1.68  83 1.72 101 1.72 110 1.82   2 1.98
  12  0.834  0.114  0.154- 120 1.64  48 1.68  84 1.72 102 1.72 111 1.82   3 1.98
  13  0.167  0.448  0.154- 121 1.64  49 1.68  85 1.72 103 1.72 112 1.82   4 1.98
  14  0.500  0.448  0.154- 122 1.64  50 1.68  86 1.72 104 1.72 113 1.82   5 1.98
  15  0.834  0.448  0.154- 123 1.64  51 1.68  87 1.72 105 1.72 114 1.82   6 1.98
  16  0.167  0.781  0.154- 124 1.64  52 1.68  88 1.72 106 1.72 115 1.82   7 1.98
  17  0.500  0.781  0.154- 125 1.64  53 1.68  89 1.72 107 1.72 116 1.82   8 1.98
  18  0.834  0.781  0.154- 126 1.64  54 1.68  90 1.72 108 1.72 117 1.82   9 1.98
  19  0.327  0.214  0.154- 118 1.66  55 1.71 110 1.73  73 1.78  91 1.79  29 1.79
  20  0.660  0.214  0.154- 119 1.66  56 1.71 111 1.73  92 1.79  74 1.79  30 1.79
  21  0.994  0.214  0.154- 120 1.66  57 1.71 109 1.73  93 1.79  75 1.79  28 1.79
  22  0.327  0.547  0.154- 121 1.66  58 1.71 113 1.73  94 1.79  76 1.79  32 1.79
  23  0.660  0.547  0.154- 122 1.66  59 1.71 114 1.73  95 1.79  77 1.79  33 1.79
  24  0.994  0.547  0.154- 123 1.66  60 1.71 112 1.73  96 1.79  78 1.79  31 1.79
  25  0.327  0.880  0.154- 124 1.66  61 1.71 116 1.73  97 1.79  79 1.79  35 1.79
  26  0.660  0.880  0.154- 125 1.66  62 1.71 117 1.73  98 1.79  80 1.79  36 1.79
  27  0.994  0.880  0.154- 126 1.66  63 1.71 115 1.73  99 1.79  81 1.79  34 1.79
  28  0.006  0.120  0.154- 109 1.66  64 1.71 120 1.73  82 1.79 100 1.79  21 1.79
  29  0.340  0.120  0.154- 110 1.66  65 1.71 118 1.73  83 1.79 101 1.79  19 1.79
  30  0.673  0.120  0.154- 111 1.66  66 1.71 119 1.73  84 1.79 102 1.79  20 1.79
  31  0.006  0.453  0.154- 112 1.66  67 1.71 123 1.73  85 1.79 103 1.79  24 1.79
  32  0.340  0.453  0.154- 113 1.66  68 1.71 121 1.73  86 1.79 104 1.79  22 1.79
  33  0.673  0.453  0.154- 114 1.66  69 1.71 122 1.73  87 1.79 105 1.79  23 1.79
  34  0.006  0.786  0.154- 115 1.66  70 1.71 126 1.73  88 1.79 106 1.79  27 1.79
  35  0.340  0.786  0.154- 116 1.66  71 1.71 124 1.73  89 1.79 107 1.79  25 1.79
  36  0.673  0.786  0.154- 117 1.66  72 1.71 125 1.73  90 1.79 108 1.79  26 1.79
  37  0.201  0.303  0.154-  49 1.66   1 1.68  55 1.68  91 1.75  73 1.76
  38  0.535  0.303  0.154-  50 1.66   2 1.68  56 1.68  92 1.75  74 1.75
  39  0.868  0.303  0.154-  51 1.66   3 1.68  57 1.68  93 1.75  75 1.75
  40  0.201  0.636  0.154-  52 1.66   4 1.68  58 1.68  94 1.75  76 1.75
  41  0.535  0.636  0.154-  53 1.66   5 1.68  59 1.68  95 1.75  77 1.75
  42  0.868  0.636  0.154-  54 1.66   6 1.68  60 1.68  96 1.75  78 1.75
  43  0.201  0.969  0.154-  46 1.66   7 1.68  61 1.68  97 1.75  79 1.75
  44  0.535  0.969  0.154-  47 1.66   8 1.68  62 1.68  98 1.75  80 1.75
  45  0.868  0.969  0.154-  48 1.66   9 1.68  63 1.68  99 1.75  81 1.75
  46  0.132  0.031  0.154-  43 1.66  10 1.68  64 1.68  82 1.75 100 1.75
  47  0.465  0.031  0.154-  44 1.66  11 1.68  65 1.68  83 1.75 101 1.75
  48  0.799  0.031  0.154-  45 1.66  12 1.68  66 1.68  84 1.75 102 1.75
  49  0.132  0.364  0.154-  37 1.66  13 1.68  67 1.68  85 1.75 103 1.75
  50  0.465  0.364  0.154-  38 1.66  14 1.68  68 1.68  86 1.75 104 1.75
  51  0.799  0.364  0.154-  39 1.66  15 1.68  69 1.68  87 1.75 105 1.75
  52  0.132  0.697  0.154-  40 1.66  16 1.68  70 1.68  88 1.75 106 1.75
  53  0.465  0.697  0.154-  41 1.66  17 1.68  71 1.68  89 1.75 107 1.75
  54  0.799  0.697  0.154-  42 1.66  18 1.68  72 1.68  90 1.75 108 1.75
  55  0.300  0.300  0.154-  68 1.68  37 1.68  19 1.71  73 1.79  91 1.80
  56  0.633  0.300  0.154-  69 1.68  38 1.68  20 1.71  92 1.80  74 1.80
  57  0.966  0.300  0.154-  67 1.68  39 1.68  21 1.71  93 1.80  75 1.80
  58  0.300  0.634  0.154-  71 1.68  40 1.68  22 1.71  94 1.80  76 1.80
  59  0.633  0.634  0.154-  72 1.68  41 1.68  23 1.71  95 1.80  77 1.80
  60  0.966  0.634  0.154-  70 1.68  42 1.68  24 1.71  96 1.80  78 1.80
  61  0.300  0.967  0.154-  65 1.68  43 1.68  25 1.71  97 1.80  79 1.80
  62  0.633  0.967  0.154-  66 1.68  44 1.68  26 1.71  98 1.80  80 1.80
  63  0.966  0.967  0.154-  64 1.68  45 1.68  27 1.71  99 1.80  81 1.80
  64  0.034  0.033  0.154-  63 1.68  46 1.68  28 1.71  82 1.80 100 1.80
  65  0.367  0.033  0.154-  61 1.68  47 1.68  29 1.71  83 1.80 101 1.80
  66  0.700  0.033  0.154-  62 1.68  48 1.68  30 1.71  84 1.80 102 1.80
  67  0.034  0.366  0.154-  57 1.68  49 1.68  31 1.71  85 1.80 103 1.80
  68  0.367  0.366  0.154-  55 1.68  50 1.68  32 1.71  86 1.80 104 1.80
  69  0.700  0.366  0.154-  56 1.68  51 1.68  33 1.71  87 1.80 105 1.80
  70  0.034  0.700  0.154-  60 1.68  52 1.68  34 1.71  88 1.80 106 1.80
  71  0.367  0.700  0.154-  58 1.68  53 1.68  35 1.71  89 1.80 107 1.80
  72  0.700  0.700  0.154-  59 1.68  54 1.68  36 1.71  90 1.80 108 1.80
  73  0.246  0.238  0.193-   1 1.73  37 1.76  19 1.78 118 1.79  55 1.79  91 2.01
  74  0.579  0.238  0.193-   2 1.72  38 1.75  20 1.79 119 1.79  56 1.80  92 2.01
  75  0.912  0.238  0.193-   3 1.72  39 1.75  21 1.79 120 1.79  57 1.80  93 2.01
  76  0.245  0.572  0.193-   4 1.72  40 1.75  22 1.79 121 1.79  58 1.80  94 2.01
  77  0.579  0.572  0.193-   5 1.72  41 1.75  23 1.79 122 1.79  59 1.80  95 2.01
  78  0.912  0.572  0.193-   6 1.72  42 1.75  24 1.79 123 1.79  60 1.80  96 2.01
  79  0.245  0.905  0.193-   7 1.72  43 1.75  25 1.79 124 1.79  61 1.80  97 2.01
  80  0.579  0.905  0.193-   8 1.72  44 1.75  26 1.79 125 1.79  62 1.80  98 2.01
  81  0.912  0.905  0.193-   9 1.72  45 1.75  27 1.79 126 1.79  63 1.80  99 2.01
  82  0.088  0.095  0.116-  10 1.72  46 1.75  28 1.79 109 1.79  64 1.80 100 2.01
  83  0.421  0.095  0.116-  11 1.72  47 1.75  29 1.79 110 1.79  65 1.80 101 2.01
  84  0.755  0.095  0.116-  12 1.72  48 1.75  30 1.79 111 1.79  66 1.80 102 2.01
  85  0.088  0.428  0.116-  13 1.72  49 1.75  31 1.79 112 1.79  67 1.80 103 2.01
  86  0.421  0.428  0.116-  14 1.72  50 1.75  32 1.79 113 1.79  68 1.80 104 2.01
  87  0.755  0.428  0.116-  15 1.72  51 1.75  33 1.79 114 1.79  69 1.80 105 2.01
  88  0.088  0.762  0.116-  16 1.72  52 1.75  34 1.79 115 1.79  70 1.80 106 2.01
  89  0.421  0.762  0.116-  17 1.72  53 1.75  35 1.79 116 1.79  71 1.80 107 2.01
  90  0.755  0.762  0.116-  18 1.72  54 1.75  36 1.79 117 1.79  72 1.80 108 2.01
  91  0.245  0.238  0.116-   1 1.72  37 1.75  19 1.79 118 1.79  55 1.80  73 2.01
  92  0.579  0.238  0.116-   2 1.72  38 1.75  20 1.79 119 1.79  56 1.80  74 2.01
  93  0.912  0.238  0.116-   3 1.72  39 1.75  21 1.79 120 1.79  57 1.80  75 2.01
  94  0.245  0.572  0.116-   4 1.72  40 1.75  22 1.79 121 1.79  58 1.80  76 2.01
  95  0.579  0.572  0.116-   5 1.72  41 1.75  23 1.79 122 1.79  59 1.80  77 2.01
  96  0.912  0.572  0.116-   6 1.72  42 1.75  24 1.79 123 1.79  60 1.80  78 2.01
  97  0.245  0.905  0.116-   7 1.72  43 1.75  25 1.79 124 1.79  61 1.80  79 2.01
  98  0.579  0.905  0.116-   8 1.72  44 1.75  26 1.79 125 1.79  62 1.80  80 2.01
  99  0.912  0.905  0.116-   9 1.72  45 1.75  27 1.79 126 1.79  63 1.80  81 2.01
 100  0.088  0.095  0.193-  10 1.72  46 1.75  28 1.79 109 1.79  64 1.80  82 2.01
 101  0.421  0.095  0.193-  11 1.72  47 1.75  29 1.79 110 1.79  65 1.80  83 2.01
 102  0.755  0.095  0.193-  12 1.72  48 1.75  30 1.79 111 1.79  66 1.80  84 2.01
 103  0.088  0.428  0.193-  13 1.72  49 1.75  31 1.79 112 1.79  67 1.80  85 2.01
 104  0.421  0.428  0.193-  14 1.72  50 1.75  32 1.79 113 1.79  68 1.80  86 2.01
 105  0.755  0.428  0.193-  15 1.72  51 1.75  33 1.79 114 1.79  69 1.80  87 2.01
 106  0.088  0.762  0.193-  16 1.72  52 1.75  34 1.79 115 1.79  70 1.80  88 2.01
 107  0.421  0.762  0.193-  17 1.72  53 1.75  35 1.79 116 1.79  71 1.80  89 2.01
 108  0.755  0.762  0.193-  18 1.72  54 1.75  36 1.79 117 1.79  72 1.80  90 2.01
 109  0.084  0.173  0.154-   1 1.64  28 1.66  21 1.73  82 1.79 100 1.79  10 1.82
 110  0.417  0.173  0.154-   2 1.64  29 1.66  19 1.73  83 1.79 101 1.79  11 1.82
 111  0.751  0.173  0.154-   3 1.64  30 1.66  20 1.73  84 1.79 102 1.79  12 1.82
 112  0.084  0.507  0.154-   4 1.64  31 1.66  24 1.73  85 1.79 103 1.79  13 1.82
 113  0.417  0.507  0.154-   5 1.64  32 1.66  22 1.73  86 1.79 104 1.79  14 1.82
 114  0.751  0.507  0.154-   6 1.64  33 1.66  23 1.73  87 1.79 105 1.79  15 1.82
 115  0.084  0.840  0.154-   7 1.64  34 1.66  27 1.73  88 1.79 106 1.79  16 1.82
 116  0.417  0.840  0.154-   8 1.64  35 1.66  25 1.73  89 1.79 107 1.79  17 1.82
 117  0.751  0.840  0.154-   9 1.64  36 1.66  26 1.73  90 1.79 108 1.79  18 1.82
 118  0.249  0.160  0.154-  10 1.64  19 1.66  29 1.73  73 1.79  91 1.79   1 1.82
 119  0.583  0.160  0.154-  11 1.64  20 1.66  30 1.73  92 1.79  74 1.79   2 1.82
 120  0.916  0.160  0.154-  12 1.64  21 1.66  28 1.73  93 1.79  75 1.79   3 1.82
 121  0.249  0.493  0.154-  13 1.64  22 1.66  32 1.73  94 1.79  76 1.79   4 1.82
 122  0.583  0.493  0.154-  14 1.64  23 1.66  33 1.73  95 1.79  77 1.79   5 1.82
 123  0.916  0.493  0.154-  15 1.64  24 1.66  31 1.73  96 1.79  78 1.79   6 1.82
 124  0.249  0.827  0.154-  16 1.64  25 1.66  35 1.73  97 1.79  79 1.79   7 1.82
 125  0.583  0.827  0.154-  17 1.64  26 1.66  36 1.73  98 1.79  80 1.79   8 1.82
 126  0.916  0.827  0.154-  18 1.64  27 1.66  34 1.73  99 1.79  81 1.79   9 1.82
 127  0.167  0.167  0.094-
 128  0.500  0.167  0.094-
 129  0.833  0.167  0.094-
 130  0.167  0.500  0.094-
 131  0.500  0.500  0.094-
 132  0.833  0.500  0.094-
 133  0.167  0.833  0.094-
 134  0.500  0.833  0.094-
 135  0.833  0.833  0.094-
 136  0.167  0.167  0.215-
 137  0.500  0.167  0.215-
 138  0.833  0.167  0.215-
 139  0.167  0.500  0.215-
 140  0.500  0.500  0.215-
 141  0.833  0.500  0.215-
 142  0.167  0.833  0.215-
 143  0.500  0.833  0.215-
 144  0.833  0.833  0.215-
 
  LATTYP: Found a simple monoclinic cell.
 ALAT       =    17.0991657483
 B/A-ratio  =     1.5231186263
 C/A-ratio  =     1.1025852060
 COS(beta)  =    -0.0130771663
  
  Lattice vectors:
  
 A1 = (  17.0988253201,  -0.1078979226,   0.0000000000)
 A2 = (   0.0000000000,   0.0000000000, -26.0440578461)
 A3 = (  -0.1275861832,  18.8528554762,   0.0000000000)


Analysis of symmetry for initial positions (statically):
=====================================================================
 Subroutine PRICEL returns:
 Original cell was already a primitive cell.
 

 Routine SETGRP: Setting up the symmetry group for a 
 simple monoclinic supercell.


 Subroutine GETGRP returns: Found  1 space group operations
 (whereof  1 operations were pure point group operations)
 out of a pool of  4 trial point group operations.


The static configuration has the point symmetry C_1 .


Analysis of symmetry for dynamics (positions and initial velocities):
=====================================================================
 Subroutine PRICEL returns:
 Original cell was already a primitive cell.
 

 Routine SETGRP: Setting up the symmetry group for a 
 simple monoclinic supercell.


 Subroutine GETGRP returns: Found  1 space group operations
 (whereof  1 operations were pure point group operations)
 out of a pool of  4 trial point group operations.


The dynamic configuration has the point symmetry C_1 .


 Subroutine INISYM returns: Found  1 space group operations
 (whereof  1 operations are pure point group operations),
 and found     1 'primitive' translations


----------------------------------------------------------------------------------------

                                     Primitive cell                                     

  volume of cell :    8395.2478

  direct lattice vectors                    reciprocal lattice vectors
    17.098825320 -0.107897923  0.000000000     0.058486047  0.000395803  0.000000000
    -0.127586183 18.852855476  0.000000000     0.000334725  0.053044628  0.000000000
     0.000000000  0.000000000 26.044057846     0.000000000  0.000000000  0.038396474

  length of vectors
    17.099165748 18.853287189 26.044057846     0.058487387  0.053045684  0.038396474

  position of ions in fractional coordinates (direct lattice)
     0.166191712  0.219119530  0.154431738
     0.499525045  0.219119530  0.154431738
     0.832858379  0.219119530  0.154431738
     0.166191712  0.552452863  0.154431738
     0.499525045  0.552452863  0.154431738
     0.832858379  0.552452863  0.154431738
     0.166191712  0.885786196  0.154431738
     0.499525045  0.885786196  0.154431738
     0.832858379  0.885786196  0.154431738
     0.167141621  0.114213804  0.154431738
     0.500474955  0.114213804  0.154431738
     0.833808288  0.114213804  0.154431738
     0.167141621  0.447547137  0.154431738
     0.500474955  0.447547137  0.154431738
     0.833808288  0.447547137  0.154431738
     0.167141621  0.780880470  0.154431738
     0.500474955  0.780880470  0.154431738
     0.833808288  0.780880470  0.154431738
     0.326837303  0.213757157  0.154431738
     0.660170636  0.213757157  0.154431738
     0.993503970  0.213757157  0.154431738
     0.326837303  0.547090491  0.154431738
     0.660170636  0.547090491  0.154431738
     0.993503970  0.547090491  0.154431738
     0.326837303  0.880423824  0.154431738
     0.660170636  0.880423824  0.154431738
     0.993503970  0.880423824  0.154431738
     0.006496030  0.119576176  0.154431738
     0.339829364  0.119576176  0.154431738
     0.673162697  0.119576176  0.154431738
     0.006496030  0.452909509  0.154431738
     0.339829364  0.452909509  0.154431738
     0.673162697  0.452909509  0.154431738
     0.006496030  0.786242843  0.154431738
     0.339829364  0.786242843  0.154431738
     0.673162697  0.786242843  0.154431738
     0.201339746  0.302770269  0.154431738
     0.534673079  0.302770269  0.154431738
     0.868006413  0.302770269  0.154431738
     0.201339746  0.636103602  0.154431738
     0.534673079  0.636103602  0.154431738
     0.868006413  0.636103602  0.154431738
     0.201339746  0.969436935  0.154431738
     0.534673079  0.969436935  0.154431738
     0.868006413  0.969436935  0.154431738
     0.131993587  0.030563062  0.154431738
     0.465326921  0.030563062  0.154431738
     0.798660254  0.030563062  0.154431738
     0.131993587  0.363896395  0.154431738
     0.465326921  0.363896395  0.154431738
     0.798660254  0.363896395  0.154431738
     0.131993587  0.697229729  0.154431738
     0.465326921  0.697229729  0.154431738
     0.798660254  0.697229729  0.154431738
     0.299712086  0.300464012  0.154431738
     0.633045419  0.300464012  0.154431738
     0.966378752  0.300464012  0.154431738
     0.299712086  0.633797346  0.154431738
     0.633045419  0.633797346  0.154431738
     0.966378752  0.633797346  0.154431738
     0.299712086  0.967130679  0.154431738
     0.633045419  0.967130679  0.154431738
     0.966378752  0.967130679  0.154431738
     0.033621248  0.032869318  0.154431738
     0.366954581  0.032869318  0.154431738
     0.700287914  0.032869318  0.154431738
     0.033621248  0.366202652  0.154431738
     0.366954581  0.366202652  0.154431738
     0.700287914  0.366202652  0.154431738
     0.033621248  0.699535985  0.154431738
     0.366954581  0.699535985  0.154431738
     0.700287914  0.699535985  0.154431738
     0.245786733  0.238211757  0.193022715
     0.578535242  0.238211757  0.193022715
     0.911868576  0.238211757  0.193022715
     0.245201909  0.571545090  0.193022715
     0.578535242  0.571545090  0.193022715
     0.911868576  0.571545090  0.193022715
     0.245201909  0.904878423  0.193022715
     0.578535242  0.904878423  0.193022715
     0.911868576  0.904878423  0.193022715
     0.088131424  0.095121577  0.115840764
     0.421464758  0.095121577  0.115840764
     0.754798091  0.095121577  0.115840764
     0.088131424  0.428454910  0.115840764
     0.421464758  0.428454910  0.115840764
     0.754798091  0.428454910  0.115840764
     0.088131424  0.761788243  0.115840764
     0.421464758  0.761788243  0.115840764
     0.754798091  0.761788243  0.115840764
     0.245201909  0.238211757  0.115840764
     0.578535242  0.238211757  0.115840764
     0.911868576  0.238211757  0.115840764
     0.245201909  0.571545090  0.115840764
     0.578535242  0.571545090  0.115840764
     0.911868576  0.571545090  0.115840764
     0.245201909  0.904878423  0.115840764
     0.578535242  0.904878423  0.115840764
     0.911868576  0.904878423  0.115840764
     0.088131424  0.095121577  0.193022715
     0.421464758  0.095121577  0.193022715
     0.754798091  0.095121577  0.193022715
     0.088131424  0.428454910  0.193022715
     0.421464758  0.428454910  0.193022715
     0.754798091  0.428454910  0.193022715
     0.088131424  0.761788243  0.193022715
     0.421464758  0.761788243  0.193022715
     0.754798091  0.761788243  0.193022715
     0.083868329  0.173448887  0.154431738
     0.417201663  0.173448887  0.154431738
     0.750534996  0.173448887  0.154431738
     0.083868329  0.506782220  0.154431738
     0.417201663  0.506782220  0.154431738
     0.750534996  0.506782220  0.154431738
     0.083868329  0.840115553  0.154431738
     0.417201663  0.840115553  0.154431738
     0.750534996  0.840115553  0.154431738
     0.249465004  0.159884437  0.154431738
     0.582798337  0.159884437  0.154431738
     0.916131671  0.159884437  0.154431738
     0.249465004  0.493217770  0.154431738
     0.582798337  0.493217770  0.154431738
     0.916131671  0.493217770  0.154431738
     0.249465004  0.826551103  0.154431738
     0.582798337  0.826551103  0.154431738
     0.916131671  0.826551103  0.154431738
     0.166666667  0.166666667  0.093668326
     0.500000000  0.166666667  0.093668326
     0.833333333  0.166666667  0.093668326
     0.166666667  0.500000000  0.093668326
     0.500000000  0.500000000  0.093668326
     0.833333333  0.500000000  0.093668326
     0.166666667  0.833333333  0.093668326
     0.500000000  0.833333333  0.093668326
     0.833333333  0.833333333  0.093668326
     0.166666667  0.166666667  0.215195152
     0.500000000  0.166666667  0.215195152
     0.833333333  0.166666667  0.215195152
     0.166666667  0.500000000  0.215195152
     0.500000000  0.500000000  0.215195152
     0.833333333  0.500000000  0.215195152
     0.166666667  0.833333333  0.215195152
     0.500000000  0.833333333  0.215195152
     0.833333333  0.833333333  0.215195152

  ion indices of the primitive-cell ions
   primitive index   ion index
                 1           1
                 2           2
                 3           3
                 4           4
                 5           5
                 6           6
                 7           7
                 8           8
                 9           9
                10          10
                11          11
                12          12
                13          13
                14          14
                15          15
                16          16
                17          17
                18          18
                19          19
                20          20
                21          21
                22          22
                23          23
                24          24
                25          25
                26          26
                27          27
                28          28
                29          29
                30          30
                31          31
                32          32
                33          33
                34          34
                35          35
                36          36
                37          37
                38          38
                39          39
                40          40
                41          41
                42          42
                43          43
                44          44
                45          45
                46          46
                47          47
                48          48
                49          49
                50          50
                51          51
                52          52
                53          53
                54          54
                55          55
                56          56
                57          57
                58          58
                59          59
                60          60
                61          61
                62          62
                63          63
                64          64
                65          65
                66          66
                67          67
                68          68
                69          69
                70          70
                71          71
                72          72
                73          73
                74          74
                75          75
                76          76
                77          77
                78          78
                79          79
                80          80
                81          81
                82          82
                83          83
                84          84
                85          85
                86          86
                87          87
                88          88
                89          89
                90          90
                91          91
                92          92
                93          93
                94          94
                95          95
                96          96
                97          97
                98          98
                99          99
               100         100
               101         101
               102         102
               103         103
               104         104
               105         105
               106         106
               107         107
               108         108
               109         109
               110         110
               111         111
               112         112
               113         113
               114         114
               115         115
               116         116
               117         117
               118         118
               119         119
               120         120
               121         121
               122         122
               123         123
               124         124
               125         125
               126         126
               127         127
               128         128
               129         129
               130         130
               131         131
               132         132
               133         133
               134         134
               135         135
               136         136
               137         137
               138         138
               139         139
               140         140
               141         141
               142         142
               143         143
               144         144

----------------------------------------------------------------------------------------

 
 
 KPOINTS: k-points                                

Automatic generation of k-mesh.
 Grid dimensions read from file:
 generate k-points for:    4    3    1

 Generating k-lattice:

  Cartesian coordinates                     Fractional coordinates (reciprocal lattice)
     0.014621512  0.000098951  0.000000000     0.250000000  0.000000000  0.000000000
     0.000111575  0.017681543  0.000000000    -0.000000000  0.333333333  0.000000000
     0.000000000  0.000000000  0.038396474     0.000000000  0.000000000  1.000000000

  Length of vectors
     0.014621847  0.017681895  0.038396474

  Shift w.r.t. Gamma in fractional coordinates (k-lattice)
     0.500000000  0.000000000  0.000000000

 
 Subroutine IBZKPT returns following result:
 ===========================================
 
 Found      6 irreducible k-points:
 
 Following reciprocal coordinates:
            Coordinates               Weight
  0.125000  0.000000  0.000000      2.000000
  0.375000  0.000000  0.000000      2.000000
  0.125000  0.333333  0.000000      2.000000
  0.375000  0.333333  0.000000      2.000000
 -0.375000  0.333333  0.000000      2.000000
 -0.125000  0.333333  0.000000      2.000000
 
 Following cartesian coordinates:
            Coordinates               Weight
  0.007311  0.000049  0.000000      2.000000
  0.021932  0.000148  0.000000      2.000000
  0.007422  0.017731  0.000000      2.000000
  0.022044  0.017830  0.000000      2.000000
 -0.021821  0.017533  0.000000      2.000000
 -0.007199  0.017632  0.000000      2.000000
 


--------------------------------------------------------------------------------------------------------




 Dimension of arrays:
   k-points           NKPTS =      6   k-points in BZ     NKDIM =      6   number of bands    NBANDS=    276
   number of dos      NEDOS =    301   number of ions     NIONS =    144
   non local maximal  LDIM  =      4   non local SUM 2l+1 LMDIM =      8
   total plane-waves  NPLWV = ******
   max r-space proj   IRMAX =   3411   max aug-charges    IRDMAX=   8936
   dimension x,y,z NGX =   140 NGY =  160 NGZ =  210
   dimension x,y,z NGXF=   280 NGYF=  320 NGZF=  420
   support grid    NGXF=   280 NGYF=  320 NGZF=  420
   ions per type =             126  18
   NGX,Y,Z   is equivalent  to a cutoff of  13.61, 14.11, 13.40 a.u.
   NGXF,Y,Z  is equivalent  to a cutoff of  27.22, 28.22, 26.81 a.u.

 SYSTEM =  SCF                                     
 POSCAR =  generated by phonopy                    

 Startparameter for this run:
   NWRITE =      2    write-flag & timer
   PREC   = accura    normal or accurate (medium, high low for compatibility)
   ISTART =      0    job   : 0-new  1-cont  2-samecut
   ICHARG =      2    charge: 1-file 2-atom 10-const
   ISPIN  =      1    spin polarized calculation?
   LNONCOLLINEAR =      F non collinear calculations
   LSORBIT =      F    spin-orbit coupling
   INIWAV =      1    electr: 0-lowe 1-rand  2-diag
   LASPH  =      F    aspherical Exc in radial PAW
 Electronic Relaxation 1
   ENCUT  =  600.0 eV  44.10 Ry    6.64 a.u.  34.15 37.65 52.02*2*pi/ulx,y,z
   ENINI  =  600.0     initial cutoff
   ENAUG  =  535.5 eV  augmentation charge cutoff
   NELM   =    150;   NELMIN=  2; NELMDL= -5     # of ELM steps 
   EDIFF  = 0.1E-05   stopping-criterion for ELM
   LREAL  =      T    real-space projection
   NLSPLINE    = F    spline interpolate recip. space projectors
   LCOMPAT=      F    compatible to vasp.4.4
   GGA_COMPAT  = T    GGA compatible to vasp.4.4-vasp.4.6
   LMAXPAW     = -100 max onsite density
   LMAXMIX     =    2 max onsite mixed and CHGCAR
   VOSKOWN=      0    Vosko Wilk Nusair interpolation
   ROPT   =   -0.00025  -0.00025
 Ionic relaxation
   EDIFFG = -.1E-02   stopping-criterion for IOM
   NSW    =      0    number of steps for IOM
   NBLOCK =      1;   KBLOCK =      1    inner block; outer block 
   IBRION =     -1    ionic relax: 0-MD 1-quasi-New 2-CG
   NFREE  =      0    steps in history (QN), initial steepest desc. (CG)
   ISIF   =      2    stress and relaxation
   IWAVPR =     10    prediction:  0-non 1-charg 2-wave 3-comb
   ISYM   =      2    0-nonsym 1-usesym 2-fastsym
   LCORR  =      T    Harris-Foulkes like correction to forces

   POTIM  = 0.5000    time-step for ionic-motion
   TEIN   =    0.0    initial temperature
   TEBEG  =    0.0;   TEEND  =   0.0 temperature during run
   SMASS  =  -3.00    Nose mass-parameter (am)
   estimated Nose-frequenzy (Omega)   =  0.10E-29 period in steps = 0.13E+47 mass=  -0.668E-26a.u.
   SCALEE = 1.0000    scale energy and forces
   NPACO  =    256;   APACO  = 10.0  distance and # of slots for P.C.
   PSTRESS=    0.0 pullay stress

  Mass of Ions in am
   POMASS =  10.81  1.00
  Ionic Valenz
   ZVAL   =   3.00  1.00
  Atomic Wigner-Seitz radii
   RWIGS  =  -1.00 -1.00
  virtual crystal weights 
   VCA    =   1.00  1.00
   NELECT =     396.0000    total number of electrons
   NUPDOWN=      -1.0000    fix difference up-down

 DOS related values:
   EMIN   =  10.00;   EMAX   =-10.00  energy-range for DOS
   EFERMI =   0.00;   METHOD = LEGACY      
   ISMEAR =     0;   SIGMA  =   0.10  broadening in eV -4-tet -1-fermi 0-gaus
   EFERMI_NEDOS =   21; number of points for ismear=-14 and -15

 Electronic relaxation 2 (details)
   IALGO  =     38    algorithm
   LDIAG  =      T    sub-space diagonalisation (order eigenvalues)
   LSUBROT=      F    optimize rotation matrix (better conditioning)
   TURBO    =      0    0=normal 1=particle mesh
   IRESTART =      0    0=no restart 2=restart with 2 vectors
   NREBOOT  =      0    no. of reboots
   NMIN     =      0    reboot dimension
   EREF     =   0.00    reference energy to select bands
   IMIX   =      4    mixing-type and parameters
     AMIX     =   0.40;   BMIX     =  1.00
     AMIX_MAG =   1.60;   BMIX_MAG =  1.00
     AMIN     =   0.10
     WC   =   100.;   INIMIX=   1;  MIXPRE=   1;  MAXMIX= -45

 Intra band minimization:
   WEIMIN = 0.0000     energy-eigenvalue tresh-hold
   EBREAK =  0.91E-09  absolut break condition
   DEPER  =   0.30     relativ break condition  

   TIME   =   0.40     timestep for ELM

  volume/ion in A,a.u.               =      58.30       393.43
  Fermi-wavevector in a.u.,A,eV,Ry     =   0.591510  1.117792  4.760461  0.349884
  Thomas-Fermi vector in A             =   1.639966
 
 Write flags
   LWAVE        =      F    write WAVECAR
   LDOWNSAMPLE  =      F    k-point downsampling of WAVECAR
   LCHARG       =      F    write CHGCAR
   LVTOT        =      F    write LOCPOT, total local potential
   LVHAR        =      F    write LOCPOT, Hartree potential only
   WRT_POTENTIAL= false  ! write potential to hdf5 file
   LELF         =      F    write electronic localiz. function (ELF)
   LORBIT       =     11    0 simple, 1 ext, 2 COOP (PROOUT), +10 PAW based schemes


 Python interface
   PLUGINS active      =      F    recompile with -DPLUGINS to activate
 
 Dipole corrections
   LMONO      =      F    monopole corrections only (constant potential shift)
   LDIPOL     =      T    correct potential (dipole corrections)
   IDIPOL     =      3    1-x, 2-y, 3-z, 4-all directions 
   EPSILON    =  1.0000000 bulk dielectric constant
   LVACPOTAV  =      F  vacuum potentials using an averaging scheme for the charge density
   VACPOTFLAT =  0.1000000 required flatness to determine vacuum potential
 
Coulomb truncation method
  LTRUNCATE          =      F  Coulomb kernel truncation to be used
  IDIMENSIONALITY    =      3  Dimensionality of cutoff (0 molecules / 2 surfaces)
  ISURFACE           =     -1  Direction of surface normal
  LCOARSEN           =      F  Coarsen the charge grid before padding, preferred

 
 Exchange correlation treatment:
   GGA     = PE    functional components
   XC_C    = 1    coefficients multiplying the functional components
   LIBXC   =     F    Libxc                    
   VOSKOWN =     0    Vosko Wilk Nusair interpolation
   LHFCALC =     F    Hartree Fock is set to
   LHFONE  =     F    Hartree Fock one center treatment
   AEXX    =    0.0000 exact exchange contribution

 Parameters of functionals:
   PE:
     No parameter
 
 Van der Waals corrections
   IVDW    =    12    specifies the selected vdW correction

 Linear response parameters
   LEPSILON=     F    determine dielectric tensor
   LRPA    =     F    only Hartree local field effects (RPA)
   LNABLA  =     F    use nabla operator in PAW spheres
   LVEL    =     F    velocity operator in full k-point grid
   CSHIFT  =0.1000    complex shift for real part using Kramers Kronig
   OMEGAMAX=  -1.0    maximum frequency
   DEG_THRESHOLD= 0.2000000E-02 threshold for treating states as degnerate
   RTIME   =   -0.100 relaxation time in fs
  (WPLASMAI=    0.000 imaginary part of plasma frequency in eV, 0.658/RTIME)
   DFIELD  = 0.0000000 0.0000000 0.0000000 field for delta impulse in time
 
  Optional k-point grid parameters
   LKPOINTS_OPT  =     F    use optional k-point grid
   KPOINTS_OPT_MODE=     1    mode for optional k-point grid
 
 Orbital magnetization related:
   ORBITALMAG=     F  switch on orbital magnetization
   LCHIMAG   =     F  perturbation theory with respect to B field
   DQ        =  0.001000  dq finite difference perturbation B field
   LLRAUG    =     F  two centre corrections for induced B field
   LBONE     =     F  B-component reconstruction in AE one-centre
   LVGVCALC  =     T  calculate vGv susceptibility
   LVGVAPPL  =     F  apply vGv susceptibility instead of pGv for G=0

 Random number generation:
   RANDOM_GENERATOR = DEFAULT
   PCG_SEED         = not used


--------------------------------------------------------------------------------------------------------


 Static calculation
 charge density and potential will be updated during run
 non-spin polarized calculation
 Variant of blocked Davidson
 Davidson routine will perform the subspace rotation
 perform sub-space diagonalisation
    after iterative eigenvector-optimisation
 modified Broyden-mixing scheme, WC =      100.0
 initial mixing is a Kerker type mixing with AMIX =  0.4000 and BMIX =      1.0000
 Hartree-type preconditioning will be used
 using additional bands           78
 real space projection scheme for non local part
 use partial core corrections
 calculate Harris-corrections to forces 
   (improved forces if not selfconsistent)
 use gradient corrections 
 use of overlap-Matrix (Vanderbilt PP)
 Gauss-broadening in eV      SIGMA  =   0.10


--------------------------------------------------------------------------------------------------------


  energy-cutoff  :      600.00
  volume of cell :     8395.25
      direct lattice vectors                 reciprocal lattice vectors
    17.098825320 -0.107897923  0.000000000     0.058486047  0.000395803  0.000000000
    -0.127586183 18.852855476  0.000000000     0.000334725  0.053044628  0.000000000
     0.000000000  0.000000000 26.044057846     0.000000000  0.000000000  0.038396474

  length of vectors
    17.099165748 18.853287189 26.044057846     0.058487387  0.053045684  0.038396474


 
 k-points in units of 2pi/SCALE and weight: k-points                                
   0.00731076  0.00004948  0.00000000       0.167
   0.02193227  0.00014843  0.00000000       0.167
   0.00742233  0.01773102  0.00000000       0.167
   0.02204384  0.01782997  0.00000000       0.167
  -0.02182069  0.01753312  0.00000000       0.167
  -0.00719918  0.01763207  0.00000000       0.167
 
 k-points in reciprocal lattice and weights: k-points                                
   0.12500000  0.00000000  0.00000000       0.167
   0.37500000  0.00000000  0.00000000       0.167
   0.12500000  0.33333333  0.00000000       0.167
   0.37500000  0.33333333  0.00000000       0.167
  -0.37500000  0.33333333  0.00000000       0.167
  -0.12500000  0.33333333  0.00000000       0.167
 
 position of ions in fractional coordinates (direct lattice) 
   0.16619171  0.21911953  0.15443174
   0.49952505  0.21911953  0.15443174
   0.83285838  0.21911953  0.15443174
   0.16619171  0.55245286  0.15443174
   0.49952505  0.55245286  0.15443174
   0.83285838  0.55245286  0.15443174
   0.16619171  0.88578620  0.15443174
   0.49952505  0.88578620  0.15443174
   0.83285838  0.88578620  0.15443174
   0.16714162  0.11421380  0.15443174
   0.50047495  0.11421380  0.15443174
   0.83380829  0.11421380  0.15443174
   0.16714162  0.44754714  0.15443174
   0.50047495  0.44754714  0.15443174
   0.83380829  0.44754714  0.15443174
   0.16714162  0.78088047  0.15443174
   0.50047495  0.78088047  0.15443174
   0.83380829  0.78088047  0.15443174
   0.32683730  0.21375716  0.15443174
   0.66017064  0.21375716  0.15443174
   0.99350397  0.21375716  0.15443174
   0.32683730  0.54709049  0.15443174
   0.66017064  0.54709049  0.15443174
   0.99350397  0.54709049  0.15443174
   0.32683730  0.88042382  0.15443174
   0.66017064  0.88042382  0.15443174
   0.99350397  0.88042382  0.15443174
   0.00649603  0.11957618  0.15443174
   0.33982936  0.11957618  0.15443174
   0.67316270  0.11957618  0.15443174
   0.00649603  0.45290951  0.15443174
   0.33982936  0.45290951  0.15443174
   0.67316270  0.45290951  0.15443174
   0.00649603  0.78624284  0.15443174
   0.33982936  0.78624284  0.15443174
   0.67316270  0.78624284  0.15443174
   0.20133975  0.30277027  0.15443174
   0.53467308  0.30277027  0.15443174
   0.86800641  0.30277027  0.15443174
   0.20133975  0.63610360  0.15443174
   0.53467308  0.63610360  0.15443174
   0.86800641  0.63610360  0.15443174
   0.20133975  0.96943694  0.15443174
   0.53467308  0.96943694  0.15443174
   0.86800641  0.96943694  0.15443174
   0.13199359  0.03056306  0.15443174
   0.46532692  0.03056306  0.15443174
   0.79866025  0.03056306  0.15443174
   0.13199359  0.36389640  0.15443174
   0.46532692  0.36389640  0.15443174
   0.79866025  0.36389640  0.15443174
   0.13199359  0.69722973  0.15443174
   0.46532692  0.69722973  0.15443174
   0.79866025  0.69722973  0.15443174
   0.29971209  0.30046401  0.15443174
   0.63304542  0.30046401  0.15443174
   0.96637875  0.30046401  0.15443174
   0.29971209  0.63379735  0.15443174
   0.63304542  0.63379735  0.15443174
   0.96637875  0.63379735  0.15443174
   0.29971209  0.96713068  0.15443174
   0.63304542  0.96713068  0.15443174
   0.96637875  0.96713068  0.15443174
   0.03362125  0.03286932  0.15443174
   0.36695458  0.03286932  0.15443174
   0.70028791  0.03286932  0.15443174
   0.03362125  0.36620265  0.15443174
   0.36695458  0.36620265  0.15443174
   0.70028791  0.36620265  0.15443174
   0.03362125  0.69953599  0.15443174
   0.36695458  0.69953599  0.15443174
   0.70028791  0.69953599  0.15443174
   0.24578673  0.23821176  0.19302271
   0.57853524  0.23821176  0.19302271
   0.91186858  0.23821176  0.19302271
   0.24520191  0.57154509  0.19302271
   0.57853524  0.57154509  0.19302271
   0.91186858  0.57154509  0.19302271
   0.24520191  0.90487842  0.19302271
   0.57853524  0.90487842  0.19302271
   0.91186858  0.90487842  0.19302271
   0.08813142  0.09512158  0.11584076
   0.42146476  0.09512158  0.11584076
   0.75479809  0.09512158  0.11584076
   0.08813142  0.42845491  0.11584076
   0.42146476  0.42845491  0.11584076
   0.75479809  0.42845491  0.11584076
   0.08813142  0.76178824  0.11584076
   0.42146476  0.76178824  0.11584076
   0.75479809  0.76178824  0.11584076
   0.24520191  0.23821176  0.11584076
   0.57853524  0.23821176  0.11584076
   0.91186858  0.23821176  0.11584076
   0.24520191  0.57154509  0.11584076
   0.57853524  0.57154509  0.11584076
   0.91186858  0.57154509  0.11584076
   0.24520191  0.90487842  0.11584076
   0.57853524  0.90487842  0.11584076
   0.91186858  0.90487842  0.11584076
   0.08813142  0.09512158  0.19302271
   0.42146476  0.09512158  0.19302271
   0.75479809  0.09512158  0.19302271
   0.08813142  0.42845491  0.19302271
   0.42146476  0.42845491  0.19302271
   0.75479809  0.42845491  0.19302271
   0.08813142  0.76178824  0.19302271
   0.42146476  0.76178824  0.19302271
   0.75479809  0.76178824  0.19302271
   0.08386833  0.17344889  0.15443174
   0.41720166  0.17344889  0.15443174
   0.75053500  0.17344889  0.15443174
   0.08386833  0.50678222  0.15443174
   0.41720166  0.50678222  0.15443174
   0.75053500  0.50678222  0.15443174
   0.08386833  0.84011555  0.15443174
   0.41720166  0.84011555  0.15443174
   0.75053500  0.84011555  0.15443174
   0.24946500  0.15988444  0.15443174
   0.58279834  0.15988444  0.15443174
   0.91613167  0.15988444  0.15443174
   0.24946500  0.49321777  0.15443174
   0.58279834  0.49321777  0.15443174
   0.91613167  0.49321777  0.15443174
   0.24946500  0.82655110  0.15443174
   0.58279834  0.82655110  0.15443174
   0.91613167  0.82655110  0.15443174
   0.16666667  0.16666667  0.09366833
   0.50000000  0.16666667  0.09366833
   0.83333333  0.16666667  0.09366833
   0.16666667  0.50000000  0.09366833
   0.50000000  0.50000000  0.09366833
   0.83333333  0.50000000  0.09366833
   0.16666667  0.83333333  0.09366833
   0.50000000  0.83333333  0.09366833
   0.83333333  0.83333333  0.09366833
   0.16666667  0.16666667  0.21519515
   0.50000000  0.16666667  0.21519515
   0.83333333  0.16666667  0.21519515
   0.16666667  0.50000000  0.21519515
   0.50000000  0.50000000  0.21519515
   0.83333333  0.50000000  0.21519515
   0.16666667  0.83333333  0.21519515
   0.50000000  0.83333333  0.21519515
   0.83333333  0.83333333  0.21519515
 
 position of ions in cartesian coordinates  (Angst):
   2.81372643  4.11309708  4.02202912
   8.51333487  4.07713111  4.02202912
  14.21294331  4.04116513  4.02202912
   2.77119770 10.39738224  4.02202912
   8.47080614 10.36141627  4.02202912
  14.17041458 10.32545029  4.02202912
   2.72866897 16.68166740  4.02202912
   8.42827741 16.64570142  4.02202912
  14.12788585 16.60973545  4.02202912
   2.84335329  2.13522210  4.02202912
   8.54296173  2.09925613  4.02202912
  14.24257017  2.06329015  4.02202912
   2.80082456  8.41950726  4.02202912
   8.50043300  8.38354129  4.02202912
  14.20004144  8.34757531  4.02202912
   2.75829583 14.70379242  4.02202912
   8.45790427 14.66782645  4.02202912
  14.15751271 14.63186047  4.02202912
   5.56126149  3.99466773  4.02202912
  11.26086993  3.95870175  4.02202912
  16.96047837  3.92273578  4.02202912
   5.51873277 10.27895289  4.02202912
  11.21834121 10.24298691  4.02202912
  16.91794965 10.20702094  4.02202912
   5.47620404 16.56323804  4.02202912
  11.17581248 16.52727207  4.02202912
  16.87542092 16.49130610  4.02202912
   0.09581822  2.25365146  4.02202912
   5.79542666  2.21768548  4.02202912
  11.49503510  2.18171951  4.02202912
   0.05328949  8.53793662  4.02202912
   5.75289793  8.50197064  4.02202912
  11.45250637  8.46600467  4.02202912
   0.01076076 14.82222177  4.02202912
   5.71036920 14.78625580  4.02202912
  11.40997764 14.75028983  4.02202912
   3.40404384  5.68635998  4.02202912
   9.10365228  5.65039400  4.02202912
  14.80326072  5.61442803  4.02202912
   3.36151512 11.97064514  4.02202912
   9.06112356 11.93467916  4.02202912
  14.76073200 11.89871319  4.02202912
   3.31898639 18.25493030  4.02202912
   9.01859483 18.21896432  4.02202912
  14.71820327 18.18299835  4.02202912
   2.25303587  0.56195916  4.02202912
   7.95264431  0.52599319  4.02202912
  13.65225275  0.49002721  4.02202912
   2.21050714  6.84624432  4.02202912
   7.91011558  6.81027834  4.02202912
  13.60972402  6.77431237  4.02202912
   2.16797841 13.13052948  4.02202912
   7.86758685 13.09456350  4.02202912
  13.56719529 13.05859753  4.02202912
   5.08638954  5.63226629  4.02202912
  10.78599798  5.59630032  4.02202912
  16.48560642  5.56033434  4.02202912
   5.04386081 11.91655145  4.02202912
  10.74346925 11.88058548  4.02202912
  16.44307769 11.84461950  4.02202912
   5.00133209 18.20083661  4.02202912
  10.70094053 18.16487063  4.02202912
  16.40054897 18.12890466  4.02202912
   0.57069017  0.61605285  4.02202912
   6.27029861  0.58008687  4.02202912
  11.96990705  0.54412090  4.02202912
   0.52816144  6.90033801  4.02202912
   6.22776988  6.86437203  4.02202912
  11.92737832  6.82840606  4.02202912
   0.48563272 13.18462316  4.02202912
   6.18524116 13.14865719  4.02202912
  11.88484960 13.11269122  4.02202912
   4.17227188  4.46445194  5.02709474
   9.86188052  4.42854907  5.02709474
  15.56148896  4.39258310  5.02709474
   4.11974335 10.74880020  5.02709474
   9.81935179 10.71283423  5.02709474
  15.51896023 10.67686826  5.02709474
   4.07721462 17.03308536  5.02709474
   9.77682306 16.99711939  5.02709474
  15.47643150 16.96115341  5.02709474
   1.49480763  1.78380414  3.01696356
   7.19441607  1.74783817  3.01696356
  12.89402451  1.71187219  3.01696356
   1.45227890  8.06808930  3.01696356
   7.15188734  8.03212332  3.01696356
  12.85149578  7.99615735  3.01696356
   1.40975018 14.35237446  3.01696356
   7.10935862 14.31640848  3.01696356
  12.80896706 14.28044251  3.01696356
   4.16227208  4.46451504  3.01696356
   9.86188052  4.42854907  3.01696356
  15.56148896  4.39258310  3.01696356
   4.11974335 10.74880020  3.01696356
   9.81935179 10.71283423  3.01696356
  15.51896023 10.67686826  3.01696356
   4.07721462 17.03308536  3.01696356
   9.77682306 16.99711939  3.01696356
  15.47643150 16.96115341  3.01696356
   1.49480763  1.78380414  5.02709474
   7.19441607  1.74783817  5.02709474
  12.89402451  1.71187219  5.02709474
   1.45227890  8.06808930  5.02709474
   7.15188734  8.03212332  5.02709474
  12.85149578  7.99615735  5.02709474
   1.40975018 14.35237446  5.02709474
   7.10935862 14.31640848  5.02709474
  12.80896706 14.28044251  5.02709474
   1.41192023  3.26095757  4.02202912
   7.11152867  3.22499160  4.02202912
  12.81113711  3.18902563  4.02202912
   1.36939150  9.54524273  4.02202912
   7.06899994  9.50927676  4.02202912
  12.76860838  9.47331078  4.02202912
   1.32686277 15.82952789  4.02202912
   7.02647121 15.79356192  4.02202912
  12.72607965 15.75759594  4.02202912
   4.24515948  2.98736142  4.02202912
   9.94476792  2.95139545  4.02202912
  15.64437636  2.91542948  4.02202912
   4.20263076  9.27164658  4.02202912
   9.90223920  9.23568061  4.02202912
  15.60184764  9.19971463  4.02202912
   4.16010203 15.55593174  4.02202912
   9.85971047 15.51996577  4.02202912
  15.55931891 15.48399979  4.02202912
   2.82853986  3.12415959  2.43950331
   8.52814830  3.08819362  2.43950331
  14.22775674  3.05222764  2.43950331
   2.78601113  9.40844475  2.43950331
   8.48561957  9.37247878  2.43950331
  14.18522801  9.33651280  2.43950331
   2.74348240 15.69272991  2.43950331
   8.44309084 15.65676394  2.43950331
  14.14269928 15.62079796  2.43950331
   2.82853986  3.12415959  5.60455500
   8.52814830  3.08819362  5.60455500
  14.22775674  3.05222764  5.60455500
   2.78601113  9.40844475  5.60455500
   8.48561957  9.37247878  5.60455500
  14.18522801  9.33651280  5.60455500
   2.74348240 15.69272991  5.60455500
   8.44309084 15.65676394  5.60455500
  14.14269928 15.62079796  5.60455500
 


--------------------------------------------------------------------------------------------------------


 k-point     1 :   0.1250 0.0000 0.0000  plane waves:  280158
 k-point     2 :   0.3750 0.0000 0.0000  plane waves:  280185
 k-point     3 :   0.1250 0.3333 0.0000  plane waves:  280065
 k-point     4 :   0.3750 0.3333 0.0000  plane waves:  280150
 k-point     5 :  -0.3750 0.3333 0.0000  plane waves:  280104
 k-point     6 :  -0.1250 0.3333 0.0000  plane waves:  280165

 maximum and minimum number of plane-waves per node :     40114    39957

 maximum number of plane-waves:    280185
 maximum index in each direction: 
   IXMAX=   34   IYMAX=   37   IZMAX=   52
   IXMIN=  -34   IYMIN=  -37   IZMIN=  -52


 real space projection operators:
  total allocation   :      21985.44 KBytes
  max/ min on nodes  :       3148.97       3131.26


 parallel 3D FFT for wavefunctions:
    minimum data exchange during FFTs selected (reduces bandwidth)
 parallel 3D FFT for charge:
    minimum data exchange during FFTs selected (reduces bandwidth)


 total amount of memory used by VASP MPI-rank0   350913. kBytes
=======================================================================

   base                                    :      30000. kBytes
   nonlr-proj                              :      12165. kBytes
   fftplans                                :      51260. kBytes
   grid                                    :      79795. kBytes
   one-center                              :         64. kBytes
   wavefun                                 :     177629. kBytes
 
     INWAV:  cpu time      0.0000: real time      0.0000
 Broyden mixing: mesh for mixing (old mesh)
   NGX = 69   NGY = 75   NGZ =105
  (NGX  =280   NGY  =320   NGZ  =420)
  gives a total of 543375 points

 initial charge density was supplied:
 charge density of overlapping atoms calculated
 number of electron     396.0000000 magnetization 
 keeping initial charge density in first step


--------------------------------------------------------------------------------------------------------


 Maximum index for non-local projection operator          492
 Maximum index for augmentation-charges          510 (set IRDMAX)


--------------------------------------------------------------------------------------------------------


 First call to EWALD:  gamma=   0.087
 Maximum number of real-space cells   3x   3x   2
 Maximum number of reciprocal cells   2x   3x   3

    FEWALD:  cpu time      0.0118: real time      0.0118


--------------------------------------- Ionic step        1  -------------------------------------------




--------------------------------------- Iteration      1(   1)  ---------------------------------------


    POTLOK:  cpu time      0.9512: real time      0.9576
    SETDIJ:  cpu time      0.0052: real time      0.0052
     EDDAV:  cpu time    102.1808: real time    103.0522
       DOS:  cpu time      0.0006: real time      0.0006
    --------------------------------------------
      LOOP:  cpu time    103.1381: real time    104.0161

 eigenvalue-minimisations  :  3564
 total energy-change (2. order) : 0.3289816E+04  (-0.1306358E+05)
 number of electron     396.0000000 magnetization 
 augmentation part      396.0000000 magnetization 

 DIPCOR: dipole corrections for dipol
 direction  3 min pos   275,
 dipolmoment           0.000000      0.000000     -0.000046 electrons x Angstroem
 Tr[quadrupol]    -21716.258155

 energy correction for charged system         0.000000 eV
 dipol+quadrupol energy correction           -0.000000 eV
 added-field ion interaction          0.000021 eV  (added to PSCEN)


 Free energy of the ion-electron system (eV)
  ---------------------------------------------------
  alpha Z        PSCENC =       138.35985097
  Ewald energy   TEWEN  =     69624.91291197
  -Hartree energ DENC   =    -75100.31268319
  -exchange      EXHF   =         0.00000000
  -V(xc)+E(xc)   XCENC  =       913.59349855
  PAW double counting   =      5519.39554754    -5411.78503430
  entropy T*S    EENTRO =        -0.25390975
  eigenvalues    EBANDS =     -1586.24784987
  atomic energy  EATOM  =      9192.15348662
  Solvation  Ediel_sol  =         0.00000000
  ---------------------------------------------------
  free energy    TOTEN  =      3289.81581854 eV

  energy without entropy =     3290.06972829  energy(sigma->0) =     3289.94277341


--------------------------------------------------------------------------------------------------------




--------------------------------------- Iteration      1(   2)  ---------------------------------------


     EDDAV:  cpu time    131.9092: real time    133.0158
       DOS:  cpu time      0.0004: real time      0.0004
    --------------------------------------------
      LOOP:  cpu time    131.9096: real time    133.0162

 eigenvalue-minimisations  :  4896
 total energy-change (2. order) :-0.3556957E+04  (-0.3411082E+04)
 number of electron     396.0000000 magnetization 
 augmentation part      396.0000000 magnetization 

 DIPCOR: dipole corrections for dipol
 direction  3 min pos   275,
 dipolmoment           0.000000      0.000000     -0.000046 electrons x Angstroem
 Tr[quadrupol]    -21716.258155

 energy correction for charged system         0.000000 eV
 dipol+quadrupol energy correction           -0.000000 eV
 added-field ion interaction          0.000021 eV  (added to PSCEN)


 Free energy of the ion-electron system (eV)
  ---------------------------------------------------
  alpha Z        PSCENC =       138.35985097
  Ewald energy   TEWEN  =     69624.91291197
  -Hartree energ DENC   =    -75100.31268319
  -exchange      EXHF   =         0.00000000
  -V(xc)+E(xc)   XCENC  =       913.59349855
  PAW double counting   =      5519.39554754    -5411.78503430
  entropy T*S    EENTRO =        -0.00000000
  eigenvalues    EBANDS =     -5143.45863610
  atomic energy  EATOM  =      9192.15348662
  Solvation  Ediel_sol  =         0.00000000
  ---------------------------------------------------
  free energy    TOTEN  =      -267.14105794 eV

  energy without entropy =     -267.14105794  energy(sigma->0) =     -267.14105794


--------------------------------------------------------------------------------------------------------




--------------------------------------- Iteration      1(   3)  ---------------------------------------


     EDDAV:  cpu time    111.6272: real time    112.5597
       DOS:  cpu time      0.0004: real time      0.0004
    --------------------------------------------
      LOOP:  cpu time    111.6276: real time    112.5601

 eigenvalue-minimisations  :  3912
 total energy-change (2. order) :-0.6002494E+03  (-0.5947024E+03)
 number of electron     396.0000000 magnetization 
 augmentation part      396.0000000 magnetization 

 DIPCOR: dipole corrections for dipol
 direction  3 min pos   275,
 dipolmoment           0.000000      0.000000     -0.000046 electrons x Angstroem
 Tr[quadrupol]    -21716.258155

 energy correction for charged system         0.000000 eV
 dipol+quadrupol energy correction           -0.000000 eV
 added-field ion interaction          0.000021 eV  (added to PSCEN)


 Free energy of the ion-electron system (eV)
  ---------------------------------------------------
  alpha Z        PSCENC =       138.35985097
  Ewald energy   TEWEN  =     69624.91291197
  -Hartree energ DENC   =    -75100.31268319
  -exchange      EXHF   =         0.00000000
  -V(xc)+E(xc)   XCENC  =       913.59349855
  PAW double counting   =      5519.39554754    -5411.78503430
  entropy T*S    EENTRO =        -0.00032909
  eigenvalues    EBANDS =     -5743.70771879
  atomic energy  EATOM  =      9192.15348662
  Solvation  Ediel_sol  =         0.00000000
  ---------------------------------------------------
  free energy    TOTEN  =      -867.39046973 eV

  energy without entropy =     -867.39014064  energy(sigma->0) =     -867.39030519


--------------------------------------------------------------------------------------------------------




--------------------------------------- Iteration      1(   4)  ---------------------------------------


     EDDAV:  cpu time    114.8192: real time    115.8124
       DOS:  cpu time      0.0005: real time      0.0005
    --------------------------------------------
      LOOP:  cpu time    114.8197: real time    115.8128

 eigenvalue-minimisations  :  4140
 total energy-change (2. order) :-0.2425345E+02  (-0.2392231E+02)
 number of electron     396.0000000 magnetization 
 augmentation part      396.0000000 magnetization 

 DIPCOR: dipole corrections for dipol
 direction  3 min pos   275,
 dipolmoment           0.000000      0.000000     -0.000046 electrons x Angstroem
 Tr[quadrupol]    -21716.258155

 energy correction for charged system         0.000000 eV
 dipol+quadrupol energy correction           -0.000000 eV
 added-field ion interaction          0.000021 eV  (added to PSCEN)


 Free energy of the ion-electron system (eV)
  ---------------------------------------------------
  alpha Z        PSCENC =       138.35985097
  Ewald energy   TEWEN  =     69624.91291197
  -Hartree energ DENC   =    -75100.31268319
  -exchange      EXHF   =         0.00000000
  -V(xc)+E(xc)   XCENC  =       913.59349855
  PAW double counting   =      5519.39554754    -5411.78503430
  entropy T*S    EENTRO =        -0.01062658
  eigenvalues    EBANDS =     -5767.95087097
  atomic energy  EATOM  =      9192.15348662
  Solvation  Ediel_sol  =         0.00000000
  ---------------------------------------------------
  free energy    TOTEN  =      -891.64391939 eV

  energy without entropy =     -891.63329282  energy(sigma->0) =     -891.63860610


--------------------------------------------------------------------------------------------------------




--------------------------------------- Iteration      1(   5)  ---------------------------------------


     EDDAV:  cpu time    125.3645: real time    126.4448
       DOS:  cpu time      0.0005: real time      0.0005
    CHARGE:  cpu time      7.0133: real time      7.0600
    MIXING:  cpu time      0.0241: real time      0.0243
    --------------------------------------------
      LOOP:  cpu time    132.4021: real time    133.5292

 eigenvalue-minimisations  :  4596
 total energy-change (2. order) :-0.7885196E+00  (-0.7832951E+00)
 number of electron     395.9999995 magnetization 
 augmentation part       -0.8616915 magnetization 

 DIPCOR: dipole corrections for dipol
 direction  3 min pos   275,
 dipolmoment           0.000000      0.000000     -0.000046 electrons x Angstroem
 Tr[quadrupol]    -21716.258155

 energy correction for charged system         0.000000 eV
 dipol+quadrupol energy correction           -0.000000 eV
 added-field ion interaction          0.000021 eV  (added to PSCEN)


 Broyden mixing:
  rms(total) = 0.38604E+01    rms(broyden)= 0.38604E+01
  rms(prec ) = 0.42023E+01
  weight for this iteration     100.00

 Free energy of the ion-electron system (eV)
  ---------------------------------------------------
  alpha Z        PSCENC =       138.35985097
  Ewald energy   TEWEN  =     69624.91291197
  -Hartree energ DENC   =    -75100.31268319
  -exchange      EXHF   =         0.00000000
  -V(xc)+E(xc)   XCENC  =       913.59349855
  PAW double counting   =      5519.39554754    -5411.78503430
  entropy T*S    EENTRO =        -0.01285989
  eigenvalues    EBANDS =     -5768.73715729
  atomic energy  EATOM  =      9192.15348662
  Solvation  Ediel_sol  =         0.00000000
  ---------------------------------------------------
  free energy    TOTEN  =      -892.43243903 eV

  energy without entropy =     -892.41957914  energy(sigma->0) =     -892.42600908


--------------------------------------------------------------------------------------------------------




--------------------------------------- Iteration      1(   6)  ---------------------------------------


    POTLOK:  cpu time      0.9403: real time      0.9474
    SETDIJ:  cpu time      0.0087: real time      0.0088
     EDDAV:  cpu time    108.8142: real time    109.7987
       DOS:  cpu time      0.0008: real time      0.0008
    CHARGE:  cpu time      6.8541: real time      6.9062
    MIXING:  cpu time      0.0258: real time      0.0260
    --------------------------------------------
      LOOP:  cpu time    116.6439: real time    117.6878

 eigenvalue-minimisations  :  3876
 total energy-change (2. order) : 0.6852199E+02  (-0.9109108E+01)
 number of electron     395.9999994 magnetization 
 augmentation part       -1.1170403 magnetization 

 DIPCOR: dipole corrections for dipol
 direction  3 min pos   275,
 dipolmoment           0.000000      0.000000     -0.004609 electrons x Angstroem
 Tr[quadrupol]    -21726.609357

 energy correction for charged system         0.000000 eV
 dipol+quadrupol energy correction           -0.000000 eV
 added-field ion interaction          0.002120 eV  (added to PSCEN)


 Broyden mixing:
  rms(total) = 0.20244E+01    rms(broyden)= 0.20244E+01
  rms(prec ) = 0.21708E+01
  weight for this iteration     100.00

 eigenvalues of (default mixing * dielectric matrix)
  average eigenvalue GAMMA=   1.8827
  1.8827

 Free energy of the ion-electron system (eV)
  ---------------------------------------------------
  alpha Z        PSCENC =       138.36194968
  Ewald energy   TEWEN  =     69624.91291197
  -Hartree energ DENC   =    -75682.81492661
  -exchange      EXHF   =         0.00000000
  -V(xc)+E(xc)   XCENC  =       926.93127758
  PAW double counting   =     13824.73141947   -13722.93472459
  entropy T*S    EENTRO =        -0.00000000
  eigenvalues    EBANDS =     -5125.25184164
  atomic energy  EATOM  =      9192.15348662
  Solvation  Ediel_sol  =         0.00000000
  ---------------------------------------------------
  free energy    TOTEN  =      -823.91044752 eV

  energy without entropy =     -823.91044752  energy(sigma->0) =     -823.91044752


--------------------------------------------------------------------------------------------------------




--------------------------------------- Iteration      1(   7)  ---------------------------------------


    POTLOK:  cpu time      0.8666: real time      0.8731
    SETDIJ:  cpu time      0.0059: real time      0.0059
     EDDAV:  cpu time    110.8139: real time    111.7463
       DOS:  cpu time      0.0006: real time      0.0006
    CHARGE:  cpu time      6.7860: real time      6.8632
    MIXING:  cpu time      0.0278: real time      0.0282
    --------------------------------------------
      LOOP:  cpu time    118.5008: real time    119.5173

 eigenvalue-minimisations  :  3924
 total energy-change (2. order) : 0.1684924E+02  (-0.6989640E+01)
 number of electron     395.9999994 magnetization 
 augmentation part       -1.3513187 magnetization 

 DIPCOR: dipole corrections for dipol
 direction  3 min pos   275,
 dipolmoment           0.000000      0.000000     -0.005640 electrons x Angstroem
 Tr[quadrupol]    -21738.735417

 energy correction for charged system         0.000000 eV
 dipol+quadrupol energy correction           -0.000000 eV
 added-field ion interaction          0.002594 eV  (added to PSCEN)


 Broyden mixing:
  rms(total) = 0.62539E+00    rms(broyden)= 0.62539E+00
  rms(prec ) = 0.67092E+00
  weight for this iteration     100.00

 eigenvalues of (default mixing * dielectric matrix)
  average eigenvalue GAMMA=   1.9520
  1.7206  2.1835

 Free energy of the ion-electron system (eV)
  ---------------------------------------------------
  alpha Z        PSCENC =       138.36242364
  Ewald energy   TEWEN  =     69624.91291197
  -Hartree energ DENC   =    -76277.85742332
  -exchange      EXHF   =         0.00000000
  -V(xc)+E(xc)   XCENC  =       943.01727690
  PAW double counting   =     27705.40039864   -27608.26242736
  entropy T*S    EENTRO =        -0.00000175
  eigenvalues    EBANDS =     -4524.78785180
  atomic energy  EATOM  =      9192.15348662
  Solvation  Ediel_sol  =         0.00000000
  ---------------------------------------------------
  free energy    TOTEN  =      -807.06120646 eV

  energy without entropy =     -807.06120472  energy(sigma->0) =     -807.06120559


--------------------------------------------------------------------------------------------------------




--------------------------------------- Iteration      1(   8)  ---------------------------------------


    POTLOK:  cpu time      0.9466: real time      0.9585
    SETDIJ:  cpu time      0.0082: real time      0.0082
     EDDAV:  cpu time    114.1547: real time    115.1148
       DOS:  cpu time      0.0004: real time      0.0004
    CHARGE:  cpu time      7.0153: real time      7.0654
    MIXING:  cpu time      0.0228: real time      0.0231
    --------------------------------------------
      LOOP:  cpu time    122.1481: real time    123.1704

 eigenvalue-minimisations  :  4116
 total energy-change (2. order) : 0.9403701E+00  (-0.6212590E+00)
 number of electron     395.9999994 magnetization 
 augmentation part       -1.4580228 magnetization 

 DIPCOR: dipole corrections for dipol
 direction  3 min pos   275,
 dipolmoment           0.000000      0.000000     -0.002967 electrons x Angstroem
 Tr[quadrupol]    -21745.001613

 energy correction for charged system         0.000000 eV
 dipol+quadrupol energy correction           -0.000000 eV
 added-field ion interaction          0.001365 eV  (added to PSCEN)


 Broyden mixing:
  rms(total) = 0.18081E+00    rms(broyden)= 0.18081E+00
  rms(prec ) = 0.23020E+00
  weight for this iteration     100.00

 eigenvalues of (default mixing * dielectric matrix)
  average eigenvalue GAMMA=   1.8104
  2.5777  1.4268  1.4268

 Free energy of the ion-electron system (eV)
  ---------------------------------------------------
  alpha Z        PSCENC =       138.36119461
  Ewald energy   TEWEN  =     69624.91291197
  -Hartree energ DENC   =    -76422.81022008
  -exchange      EXHF   =         0.00000000
  -V(xc)+E(xc)   XCENC  =       947.43647603
  PAW double counting   =     32715.11811293   -32617.99415803
  entropy T*S    EENTRO =        -0.00000037
  eigenvalues    EBANDS =     -4383.29864002
  atomic energy  EATOM  =      9192.15348662
  Solvation  Ediel_sol  =         0.00000000
  ---------------------------------------------------
  free energy    TOTEN  =      -806.12083636 eV

  energy without entropy =     -806.12083599  energy(sigma->0) =     -806.12083617


--------------------------------------------------------------------------------------------------------




--------------------------------------- Iteration      1(   9)  ---------------------------------------


    POTLOK:  cpu time      0.9433: real time      0.9517
    SETDIJ:  cpu time      0.0076: real time      0.0076
     EDDAV:  cpu time    109.9128: real time    110.8614
       DOS:  cpu time      0.0005: real time      0.0005
    CHARGE:  cpu time      7.0473: real time      7.0965
    MIXING:  cpu time      0.0293: real time      0.0295
    --------------------------------------------
      LOOP:  cpu time    117.9407: real time    118.9472

 eigenvalue-minimisations  :  3936
 total energy-change (2. order) : 0.3734036E+00  (-0.7053399E-01)
 number of electron     395.9999994 magnetization 
 augmentation part       -1.4613355 magnetization 

 DIPCOR: dipole corrections for dipol
 direction  3 min pos   275,
 dipolmoment           0.000000      0.000000     -0.000134 electrons x Angstroem
 Tr[quadrupol]    -21749.088475

 energy correction for charged system         0.000000 eV
 dipol+quadrupol energy correction           -0.000000 eV
 added-field ion interaction          0.000062 eV  (added to PSCEN)


 Broyden mixing:
  rms(total) = 0.82764E-01    rms(broyden)= 0.82764E-01
  rms(prec ) = 0.12446E+00
  weight for this iteration     100.00

 eigenvalues of (default mixing * dielectric matrix)
  average eigenvalue GAMMA=   1.6995
  1.1966  1.1966  2.2552  2.1496

 Free energy of the ion-electron system (eV)
  ---------------------------------------------------
  alpha Z        PSCENC =       138.35989172
  Ewald energy   TEWEN  =     69624.91291197
  -Hartree energ DENC   =    -76534.00300643
  -exchange      EXHF   =         0.00000000
  -V(xc)+E(xc)   XCENC  =       949.98551178
  PAW double counting   =     34037.46806545   -33940.49294948
  entropy T*S    EENTRO =        -0.00000364
  eigenvalues    EBANDS =     -4274.13134078
  atomic energy  EATOM  =      9192.15348662
  Solvation  Ediel_sol  =         0.00000000
  ---------------------------------------------------
  free energy    TOTEN  =      -805.74743278 eV

  energy without entropy =     -805.74742914  energy(sigma->0) =     -805.74743096


--------------------------------------------------------------------------------------------------------




--------------------------------------- Iteration      1(  10)  ---------------------------------------


    POTLOK:  cpu time      0.9431: real time      0.9503
    SETDIJ:  cpu time      0.0050: real time      0.0050
     EDDAV:  cpu time    116.4808: real time    117.5691
       DOS:  cpu time      0.0008: real time      0.0009
    CHARGE:  cpu time      7.0522: real time      7.1009
    MIXING:  cpu time      0.0268: real time      0.0270
    --------------------------------------------
      LOOP:  cpu time    124.5087: real time    125.6532

 eigenvalue-minimisations  :  4200
 total energy-change (2. order) : 0.7333468E-01  (-0.1017091E-01)
 number of electron     395.9999994 magnetization 
 augmentation part       -1.4632120 magnetization 

 DIPCOR: dipole corrections for dipol
 direction  3 min pos   275,
 dipolmoment           0.000000      0.000000      0.001821 electrons x Angstroem
 Tr[quadrupol]    -21751.928307

 energy correction for charged system         0.000000 eV
 dipol+quadrupol energy correction           -0.000000 eV
 added-field ion interaction         -0.000837 eV  (added to PSCEN)


 Broyden mixing:
  rms(total) = 0.45731E-01    rms(broyden)= 0.45731E-01
  rms(prec ) = 0.84977E-01
  weight for this iteration     100.00

 eigenvalues of (default mixing * dielectric matrix)
  average eigenvalue GAMMA=   1.7553
  2.5548  2.5548  1.0769  1.2950  1.2950

 Free energy of the ion-electron system (eV)
  ---------------------------------------------------
  alpha Z        PSCENC =       138.35899262
  Ewald energy   TEWEN  =     69624.91291197
  -Hartree energ DENC   =    -76586.53046368
  -exchange      EXHF   =         0.00000000
  -V(xc)+E(xc)   XCENC  =       950.61767852
  PAW double counting   =     33644.60193404   -33547.41168281
  entropy T*S    EENTRO =        -0.00000341
  eigenvalues    EBANDS =     -4222.37695196
  atomic energy  EATOM  =      9192.15348662
  Solvation  Ediel_sol  =         0.00000000
  ---------------------------------------------------
  free energy    TOTEN  =      -805.67409810 eV

  energy without entropy =     -805.67409469  energy(sigma->0) =     -805.67409640


--------------------------------------------------------------------------------------------------------




--------------------------------------- Iteration      1(  11)  ---------------------------------------


    POTLOK:  cpu time      0.9428: real time      0.9498
    SETDIJ:  cpu time      0.0053: real time      0.0053
     EDDAV:  cpu time    109.8140: real time    110.7597
       DOS:  cpu time      0.0005: real time      0.0005
    CHARGE:  cpu time      7.0221: real time      7.0727
    MIXING:  cpu time      0.0313: real time      0.0316
    --------------------------------------------
      LOOP:  cpu time    117.8159: real time    118.8195

 eigenvalue-minimisations  :  3924
 total energy-change (2. order) : 0.7910845E-01  (-0.1290118E-01)
 number of electron     395.9999994 magnetization 
 augmentation part       -1.4649562 magnetization 

 DIPCOR: dipole corrections for dipol
 direction  3 min pos   275,
 dipolmoment           0.000000      0.000000      0.006386 electrons x Angstroem
 Tr[quadrupol]    -21756.763264

 energy correction for charged system         0.000000 eV
 dipol+quadrupol energy correction           -0.000000 eV
 added-field ion interaction         -0.002937 eV  (added to PSCEN)


 Broyden mixing:
  rms(total) = 0.27942E-01    rms(broyden)= 0.27942E-01
  rms(prec ) = 0.47637E-01
  weight for this iteration     100.00

 eigenvalues of (default mixing * dielectric matrix)
  average eigenvalue GAMMA=   1.8028
  3.2465  2.5325  1.7355  1.2318  1.2318  0.8386

 Free energy of the ion-electron system (eV)
  ---------------------------------------------------
  alpha Z        PSCENC =       138.35689231
  Ewald energy   TEWEN  =     69624.91291197
  -Hartree energ DENC   =    -76685.67438891
  -exchange      EXHF   =         0.00000000
  -V(xc)+E(xc)   XCENC  =       951.94774886
  PAW double counting   =     33613.39035548   -33516.08240745
  entropy T*S    EENTRO =        -0.00000892
  eigenvalues    EBANDS =     -4124.59957961
  atomic energy  EATOM  =      9192.15348662
  Solvation  Ediel_sol  =         0.00000000
  ---------------------------------------------------
  free energy    TOTEN  =      -805.59498966 eV

  energy without entropy =     -805.59498073  energy(sigma->0) =     -805.59498520


--------------------------------------------------------------------------------------------------------




--------------------------------------- Iteration      1(  12)  ---------------------------------------


    POTLOK:  cpu time      0.9360: real time      0.9421
    SETDIJ:  cpu time      0.0051: real time      0.0051
     EDDAV:  cpu time    113.9374: real time    114.8872
       DOS:  cpu time      0.0005: real time      0.0005
    CHARGE:  cpu time      7.1086: real time      7.1918
    MIXING:  cpu time      0.0296: real time      0.0300
    --------------------------------------------
      LOOP:  cpu time    122.0171: real time    123.0567

 eigenvalue-minimisations  :  4092
 total energy-change (2. order) :-0.8664372E-02  (-0.3306365E-02)
 number of electron     395.9999994 magnetization 
 augmentation part       -1.4687585 magnetization 

 DIPCOR: dipole corrections for dipol
 direction  3 min pos   275,
 dipolmoment           0.000000      0.000000      0.008264 electrons x Angstroem
 Tr[quadrupol]    -21759.160614

 energy correction for charged system         0.000000 eV
 dipol+quadrupol energy correction           -0.000001 eV
 added-field ion interaction         -0.003801 eV  (added to PSCEN)


 Broyden mixing:
  rms(total) = 0.20334E-01    rms(broyden)= 0.20334E-01
  rms(prec ) = 0.31879E-01
  weight for this iteration     100.00

 eigenvalues of (default mixing * dielectric matrix)
  average eigenvalue GAMMA=   1.9705
  4.3599  2.5877  1.7643  1.7643  0.9640  1.1766  1.1766

 Free energy of the ion-electron system (eV)
  ---------------------------------------------------
  alpha Z        PSCENC =       138.35602852
  Ewald energy   TEWEN  =     69624.91291197
  -Hartree energ DENC   =    -76733.11902647
  -exchange      EXHF   =         0.00000000
  -V(xc)+E(xc)   XCENC  =       952.36575728
  PAW double counting   =     33544.85878531   -33447.54140554
  entropy T*S    EENTRO =        -0.00001590
  eigenvalues    EBANDS =     -4077.59017580
  atomic energy  EATOM  =      9192.15348662
  Solvation  Ediel_sol  =         0.00000000
  ---------------------------------------------------
  free energy    TOTEN  =      -805.60365403 eV

  energy without entropy =     -805.60363812  energy(sigma->0) =     -805.60364608


--------------------------------------------------------------------------------------------------------




--------------------------------------- Iteration      1(  13)  ---------------------------------------


    POTLOK:  cpu time      0.8432: real time      0.8507
    SETDIJ:  cpu time      0.0056: real time      0.0057
     EDDAV:  cpu time    102.8602: real time    103.7319
       DOS:  cpu time      0.0004: real time      0.0004
    CHARGE:  cpu time      7.0436: real time      7.0924
    MIXING:  cpu time      0.0299: real time      0.0302
    --------------------------------------------
      LOOP:  cpu time    110.7831: real time    111.7113

 eigenvalue-minimisations  :  3612
 total energy-change (2. order) :-0.1928322E-01  (-0.8994660E-03)
 number of electron     395.9999994 magnetization 
 augmentation part       -1.4701358 magnetization 

 DIPCOR: dipole corrections for dipol
 direction  3 min pos   275,
 dipolmoment           0.000000      0.000000      0.009983 electrons x Angstroem
 Tr[quadrupol]    -21761.064462

 energy correction for charged system         0.000000 eV
 dipol+quadrupol energy correction           -0.000001 eV
 added-field ion interaction         -0.004591 eV  (added to PSCEN)


 Broyden mixing:
  rms(total) = 0.10798E-01    rms(broyden)= 0.10798E-01
  rms(prec ) = 0.17358E-01
  weight for this iteration     100.00

 eigenvalues of (default mixing * dielectric matrix)
  average eigenvalue GAMMA=   2.1538
  5.5899  3.0319  2.5407  1.5416  1.2394  1.2394  1.0237  1.0237

 Free energy of the ion-electron system (eV)
  ---------------------------------------------------
  alpha Z        PSCENC =       138.35523768
  Ewald energy   TEWEN  =     69624.91291197
  -Hartree energ DENC   =    -76766.21979697
  -exchange      EXHF   =         0.00000000
  -V(xc)+E(xc)   XCENC  =       952.44217582
  PAW double counting   =     33484.59130683   -33387.25917029
  entropy T*S    EENTRO =        -0.00001574
  eigenvalues    EBANDS =     -4044.59907318
  atomic energy  EATOM  =      9192.15348662
  Solvation  Ediel_sol  =         0.00000000
  ---------------------------------------------------
  free energy    TOTEN  =      -805.62293725 eV

  energy without entropy =     -805.62292152  energy(sigma->0) =     -805.62292938


--------------------------------------------------------------------------------------------------------




--------------------------------------- Iteration      1(  14)  ---------------------------------------


    POTLOK:  cpu time      0.9604: real time      0.9670
    SETDIJ:  cpu time      0.0051: real time      0.0051
     EDDAV:  cpu time    110.2464: real time    111.1936
       DOS:  cpu time      0.0005: real time      0.0005
    CHARGE:  cpu time      7.0283: real time      7.0756
    MIXING:  cpu time      0.0246: real time      0.0247
    --------------------------------------------
      LOOP:  cpu time    118.2653: real time    119.2665

 eigenvalue-minimisations  :  3948
 total energy-change (2. order) :-0.1606423E-01  (-0.5713362E-03)
 number of electron     395.9999994 magnetization 
 augmentation part       -1.4704792 magnetization 

 DIPCOR: dipole corrections for dipol
 direction  3 min pos   275,
 dipolmoment           0.000000      0.000000      0.009582 electrons x Angstroem
 Tr[quadrupol]    -21762.164547

 energy correction for charged system         0.000000 eV
 dipol+quadrupol energy correction           -0.000001 eV
 added-field ion interaction         -0.004407 eV  (added to PSCEN)


 Broyden mixing:
  rms(total) = 0.63764E-02    rms(broyden)= 0.63764E-02
  rms(prec ) = 0.92391E-02
  weight for this iteration     100.00

 eigenvalues of (default mixing * dielectric matrix)
  average eigenvalue GAMMA=   2.1615
  6.1247  3.1669  2.4946  1.6639  1.6639  1.2046  1.2046  0.9574  0.9731

 Free energy of the ion-electron system (eV)
  ---------------------------------------------------
  alpha Z        PSCENC =       138.35542213
  Ewald energy   TEWEN  =     69624.91291197
  -Hartree energ DENC   =    -76788.11587091
  -exchange      EXHF   =         0.00000000
  -V(xc)+E(xc)   XCENC  =       952.44545782
  PAW double counting   =     33519.62858102   -33422.32888519
  entropy T*S    EENTRO =        -0.00001711
  eigenvalues    EBANDS =     -4022.69008782
  atomic energy  EATOM  =      9192.15348662
  Solvation  Ediel_sol  =         0.00000000
  ---------------------------------------------------
  free energy    TOTEN  =      -805.63900148 eV

  energy without entropy =     -805.63898438  energy(sigma->0) =     -805.63899293


--------------------------------------------------------------------------------------------------------




--------------------------------------- Iteration      1(  15)  ---------------------------------------


    POTLOK:  cpu time      0.9391: real time      0.9455
    SETDIJ:  cpu time      0.0053: real time      0.0053
     EDDAV:  cpu time    109.6288: real time    110.5811
       DOS:  cpu time      0.0005: real time      0.0005
    CHARGE:  cpu time      7.0237: real time      7.0818
    MIXING:  cpu time      0.0327: real time      0.0329
    --------------------------------------------
      LOOP:  cpu time    117.6301: real time    118.6472

 eigenvalue-minimisations  :  3888
 total energy-change (2. order) :-0.1376139E-01  (-0.1209645E-03)
 number of electron     395.9999994 magnetization 
 augmentation part       -1.4708436 magnetization 

 DIPCOR: dipole corrections for dipol
 direction  3 min pos   275,
 dipolmoment           0.000000      0.000000      0.008650 electrons x Angstroem
 Tr[quadrupol]    -21762.351704

 energy correction for charged system         0.000000 eV
 dipol+quadrupol energy correction           -0.000001 eV
 added-field ion interaction         -0.003978 eV  (added to PSCEN)


 Broyden mixing:
  rms(total) = 0.37902E-02    rms(broyden)= 0.37902E-02
  rms(prec ) = 0.58430E-02
  weight for this iteration     100.00

 eigenvalues of (default mixing * dielectric matrix)
  average eigenvalue GAMMA=   2.2746
  6.7020  3.7941  2.7150  2.3384  1.5637  1.2905  1.2905  0.9552  1.0482  1.0482

 Free energy of the ion-electron system (eV)
  ---------------------------------------------------
  alpha Z        PSCENC =       138.35585082
  Ewald energy   TEWEN  =     69624.91291197
  -Hartree energ DENC   =    -76794.08990915
  -exchange      EXHF   =         0.00000000
  -V(xc)+E(xc)   XCENC  =       952.45409576
  PAW double counting   =     33517.35793513   -33420.05243995
  entropy T*S    EENTRO =        -0.00001731
  eigenvalues    EBANDS =     -4016.74467675
  atomic energy  EATOM  =      9192.15348662
  Solvation  Ediel_sol  =         0.00000000
  ---------------------------------------------------
  free energy    TOTEN  =      -805.65276287 eV

  energy without entropy =     -805.65274556  energy(sigma->0) =     -805.65275421


--------------------------------------------------------------------------------------------------------




--------------------------------------- Iteration      1(  16)  ---------------------------------------


    POTLOK:  cpu time      0.9306: real time      0.9373
    SETDIJ:  cpu time      0.0054: real time      0.0054
     EDDAV:  cpu time    108.3819: real time    109.2909
       DOS:  cpu time      0.0005: real time      0.0005
    CHARGE:  cpu time      7.0128: real time      7.0823
    MIXING:  cpu time      0.0278: real time      0.0282
    --------------------------------------------
      LOOP:  cpu time    116.3590: real time    117.3445

 eigenvalue-minimisations  :  3876
 total energy-change (2. order) :-0.1310996E-01  (-0.1534572E-03)
 number of electron     395.9999994 magnetization 
 augmentation part       -1.4709816 magnetization 

 DIPCOR: dipole corrections for dipol
 direction  3 min pos   275,
 dipolmoment           0.000000      0.000000      0.005883 electrons x Angstroem
 Tr[quadrupol]    -21762.402947

 energy correction for charged system         0.000000 eV
 dipol+quadrupol energy correction           -0.000000 eV
 added-field ion interaction         -0.002706 eV  (added to PSCEN)


 Broyden mixing:
  rms(total) = 0.19129E-02    rms(broyden)= 0.19129E-02
  rms(prec ) = 0.29020E-02
  weight for this iteration     100.00

 eigenvalues of (default mixing * dielectric matrix)
  average eigenvalue GAMMA=   2.3078
  7.4591  4.2181  2.5928  2.5928  1.6808  1.1906  1.1906  1.2597  1.2597  0.9708
  0.9708

 Free energy of the ion-electron system (eV)
  ---------------------------------------------------
  alpha Z        PSCENC =       138.35712405
  Ewald energy   TEWEN  =     69624.91291197
  -Hartree energ DENC   =    -76798.46464440
  -exchange      EXHF   =         0.00000000
  -V(xc)+E(xc)   XCENC  =       952.44789013
  PAW double counting   =     33525.39468283   -33428.08476077
  entropy T*S    EENTRO =        -0.00001735
  eigenvalues    EBANDS =     -4012.38254590
  atomic energy  EATOM  =      9192.15348662
  Solvation  Ediel_sol  =         0.00000000
  ---------------------------------------------------
  free energy    TOTEN  =      -805.66587283 eV

  energy without entropy =     -805.66585548  energy(sigma->0) =     -805.66586416


--------------------------------------------------------------------------------------------------------




--------------------------------------- Iteration      1(  17)  ---------------------------------------


    POTLOK:  cpu time      0.9397: real time      0.9505
    SETDIJ:  cpu time      0.0049: real time      0.0049
     EDDAV:  cpu time    111.8731: real time    112.9982
       DOS:  cpu time      0.0012: real time      0.0012
    CHARGE:  cpu time      6.8420: real time      6.9037
    MIXING:  cpu time      0.0335: real time      0.0337
    --------------------------------------------
      LOOP:  cpu time    119.6944: real time    120.8923

 eigenvalue-minimisations  :  4032
 total energy-change (2. order) :-0.4366860E-02  (-0.2985298E-04)
 number of electron     395.9999994 magnetization 
 augmentation part       -1.4709203 magnetization 

 DIPCOR: dipole corrections for dipol
 direction  3 min pos   275,
 dipolmoment           0.000000      0.000000      0.004675 electrons x Angstroem
 Tr[quadrupol]    -21762.360561

 energy correction for charged system         0.000000 eV
 dipol+quadrupol energy correction           -0.000000 eV
 added-field ion interaction         -0.002150 eV  (added to PSCEN)


 Broyden mixing:
  rms(total) = 0.12270E-02    rms(broyden)= 0.12270E-02
  rms(prec ) = 0.18320E-02
  weight for this iteration     100.00

 eigenvalues of (default mixing * dielectric matrix)
  average eigenvalue GAMMA=   2.3733
  7.8415  4.8408  2.7272  2.6955  1.8077  1.8077  1.2655  1.2655  0.9560  1.0383
  1.1171  1.1171

 Free energy of the ion-electron system (eV)
  ---------------------------------------------------
  alpha Z        PSCENC =       138.35767983
  Ewald energy   TEWEN  =     69624.91291197
  -Hartree energ DENC   =    -76799.70963076
  -exchange      EXHF   =         0.00000000
  -V(xc)+E(xc)   XCENC  =       952.43847080
  PAW double counting   =     33516.94363720   -33419.63243327
  entropy T*S    EENTRO =        -0.00001756
  eigenvalues    EBANDS =     -4011.13434452
  atomic energy  EATOM  =      9192.15348662
  Solvation  Ediel_sol  =         0.00000000
  ---------------------------------------------------
  free energy    TOTEN  =      -805.67023969 eV

  energy without entropy =     -805.67022213  energy(sigma->0) =     -805.67023091


--------------------------------------------------------------------------------------------------------




--------------------------------------- Iteration      1(  18)  ---------------------------------------


    POTLOK:  cpu time      0.9753: real time      0.9841
    SETDIJ:  cpu time      0.0051: real time      0.0051
     EDDAV:  cpu time    110.1123: real time    111.3487
       DOS:  cpu time      0.0005: real time      0.0004
    CHARGE:  cpu time      7.0275: real time      7.0903
    MIXING:  cpu time      0.0339: real time      0.0340
    --------------------------------------------
      LOOP:  cpu time    118.1545: real time    119.4627

 eigenvalue-minimisations  :  3924
 total energy-change (2. order) :-0.3458397E-02  (-0.2960655E-04)
 number of electron     395.9999994 magnetization 
 augmentation part       -1.4708842 magnetization 

 DIPCOR: dipole corrections for dipol
 direction  3 min pos   275,
 dipolmoment           0.000000      0.000000      0.002192 electrons x Angstroem
 Tr[quadrupol]    -21762.277370

 energy correction for charged system         0.000000 eV
 dipol+quadrupol energy correction           -0.000000 eV
 added-field ion interaction         -0.001008 eV  (added to PSCEN)


 Broyden mixing:
  rms(total) = 0.65736E-03    rms(broyden)= 0.65736E-03
  rms(prec ) = 0.93830E-03
  weight for this iteration     100.00

 eigenvalues of (default mixing * dielectric matrix)
  average eigenvalue GAMMA=   2.4072
  8.2736  5.4406  3.1987  2.4913  2.4913  1.6501  1.3091  1.3091  1.1257  1.1257
  1.0184  0.9301  0.9301

 Free energy of the ion-electron system (eV)
  ---------------------------------------------------
  alpha Z        PSCENC =       138.35882184
  Ewald energy   TEWEN  =     69624.91291197
  -Hartree energ DENC   =    -76800.50887851
  -exchange      EXHF   =         0.00000000
  -V(xc)+E(xc)   XCENC  =       952.43908766
  PAW double counting   =     33516.24980336   -33418.93813843
  entropy T*S    EENTRO =        -0.00001766
  eigenvalues    EBANDS =     -4010.34077495
  atomic energy  EATOM  =      9192.15348662
  Solvation  Ediel_sol  =         0.00000000
  ---------------------------------------------------
  free energy    TOTEN  =      -805.67369809 eV

  energy without entropy =     -805.67368043  energy(sigma->0) =     -805.67368926


--------------------------------------------------------------------------------------------------------




--------------------------------------- Iteration      1(  19)  ---------------------------------------


    POTLOK:  cpu time      0.9395: real time      0.9466
    SETDIJ:  cpu time      0.0050: real time      0.0051
     EDDAV:  cpu time    106.6597: real time    107.6956
       DOS:  cpu time      0.0005: real time      0.0005
    CHARGE:  cpu time      6.9819: real time      7.0639
    MIXING:  cpu time      0.0305: real time      0.0307
    --------------------------------------------
      LOOP:  cpu time    114.6171: real time    115.7424

 eigenvalue-minimisations  :  3780
 total energy-change (2. order) :-0.1254869E-02  (-0.7727348E-05)
 number of electron     395.9999994 magnetization 
 augmentation part       -1.4708984 magnetization 

 DIPCOR: dipole corrections for dipol
 direction  3 min pos   275,
 dipolmoment           0.000000      0.000000      0.001318 electrons x Angstroem
 Tr[quadrupol]    -21762.223743

 energy correction for charged system         0.000000 eV
 dipol+quadrupol energy correction           -0.000000 eV
 added-field ion interaction         -0.000606 eV  (added to PSCEN)


 Broyden mixing:
  rms(total) = 0.37347E-03    rms(broyden)= 0.37347E-03
  rms(prec ) = 0.50952E-03
  weight for this iteration     100.00

 eigenvalues of (default mixing * dielectric matrix)
  average eigenvalue GAMMA=   2.4643
  8.6725  5.9779  3.5587  2.6228  2.6228  1.7259  1.7259  1.2867  1.2867  1.1116
  1.1116  0.9787  0.9787  0.8402

 Free energy of the ion-electron system (eV)
  ---------------------------------------------------
  alpha Z        PSCENC =       138.35922384
  Ewald energy   TEWEN  =     69624.91291197
  -Hartree energ DENC   =    -76800.77139039
  -exchange      EXHF   =         0.00000000
  -V(xc)+E(xc)   XCENC  =       952.43876579
  PAW double counting   =     33517.09355337   -33419.78238482
  entropy T*S    EENTRO =        -0.00001773
  eigenvalues    EBANDS =     -4010.07910161
  atomic energy  EATOM  =      9192.15348662
  Solvation  Ediel_sol  =         0.00000000
  ---------------------------------------------------
  free energy    TOTEN  =      -805.67495296 eV

  energy without entropy =     -805.67493523  energy(sigma->0) =     -805.67494410


--------------------------------------------------------------------------------------------------------




--------------------------------------- Iteration      1(  20)  ---------------------------------------


    POTLOK:  cpu time      0.9324: real time      0.9397
    SETDIJ:  cpu time      0.0067: real time      0.0068
     EDDAV:  cpu time    100.5075: real time    101.4800
       DOS:  cpu time      0.0005: real time      0.0005
    CHARGE:  cpu time      6.8240: real time      6.8828
    MIXING:  cpu time      0.0333: real time      0.0336
    --------------------------------------------
      LOOP:  cpu time    108.3044: real time    109.3433

 eigenvalue-minimisations  :  3468
 total energy-change (2. order) :-0.6101815E-03  (-0.2466730E-05)
 number of electron     395.9999994 magnetization 
 augmentation part       -1.4709312 magnetization 

 DIPCOR: dipole corrections for dipol
 direction  3 min pos   275,
 dipolmoment           0.000000      0.000000      0.000294 electrons x Angstroem
 Tr[quadrupol]    -21762.184275

 energy correction for charged system         0.000000 eV
 dipol+quadrupol energy correction           -0.000000 eV
 added-field ion interaction         -0.000135 eV  (added to PSCEN)


 Broyden mixing:
  rms(total) = 0.20581E-03    rms(broyden)= 0.20581E-03
  rms(prec ) = 0.25781E-03
  weight for this iteration     100.00

 eigenvalues of (default mixing * dielectric matrix)
  average eigenvalue GAMMA=   2.4581
  8.6100  6.5500  3.6840  2.8448  2.6446  2.1368  1.6294  1.3541  1.3541  1.1262
  1.1262  1.0068  1.0068  0.9672  0.8305

 Free energy of the ion-electron system (eV)
  ---------------------------------------------------
  alpha Z        PSCENC =       138.35969474
  Ewald energy   TEWEN  =     69624.91291197
  -Hartree energ DENC   =    -76800.86146070
  -exchange      EXHF   =         0.00000000
  -V(xc)+E(xc)   XCENC  =       952.43687851
  PAW double counting   =     33517.10917145   -33419.79845444
  entropy T*S    EENTRO =        -0.00001779
  eigenvalues    EBANDS =     -4009.98777350
  atomic energy  EATOM  =      9192.15348662
  Solvation  Ediel_sol  =         0.00000000
  ---------------------------------------------------
  free energy    TOTEN  =      -805.67556314 eV

  energy without entropy =     -805.67554535  energy(sigma->0) =     -805.67555425


--------------------------------------------------------------------------------------------------------




--------------------------------------- Iteration      1(  21)  ---------------------------------------


    POTLOK:  cpu time      0.9323: real time      0.9406
    SETDIJ:  cpu time      0.0051: real time      0.0051
     EDDAV:  cpu time     93.3349: real time     94.2434
       DOS:  cpu time      0.0006: real time      0.0006
    CHARGE:  cpu time      6.9900: real time      7.1212
    MIXING:  cpu time      0.0305: real time      0.0310
    --------------------------------------------
      LOOP:  cpu time    101.2933: real time    102.3420

 eigenvalue-minimisations  :  3156
 total energy-change (2. order) :-0.1626775E-03  (-0.3085123E-06)
 number of electron     395.9999994 magnetization 
 augmentation part       -1.4709243 magnetization 

 DIPCOR: dipole corrections for dipol
 direction  3 min pos   275,
 dipolmoment           0.000000      0.000000     -0.000057 electrons x Angstroem
 Tr[quadrupol]    -21762.171515

 energy correction for charged system         0.000000 eV
 dipol+quadrupol energy correction           -0.000000 eV
 added-field ion interaction          0.000026 eV  (added to PSCEN)


 Broyden mixing:
  rms(total) = 0.10636E-03    rms(broyden)= 0.10636E-03
  rms(prec ) = 0.13242E-03
  weight for this iteration     100.00

 eigenvalues of (default mixing * dielectric matrix)
  average eigenvalue GAMMA=   2.4841
  8.9241  6.8682  4.1319  3.0931  2.5584  2.3774  1.6968  1.4129  1.4129  1.1087
  1.1087  1.1362  1.1362  0.9785  0.9785  0.8234

 Free energy of the ion-electron system (eV)
  ---------------------------------------------------
  alpha Z        PSCENC =       138.35985626
  Ewald energy   TEWEN  =     69624.91291197
  -Hartree energ DENC   =    -76800.91219211
  -exchange      EXHF   =         0.00000000
  -V(xc)+E(xc)   XCENC  =       952.43685252
  PAW double counting   =     33517.34554823   -33420.03474547
  entropy T*S    EENTRO =        -0.00001777
  eigenvalues    EBANDS =     -4009.93742606
  atomic energy  EATOM  =      9192.15348662
  Solvation  Ediel_sol  =         0.00000000
  ---------------------------------------------------
  free energy    TOTEN  =      -805.67572582 eV

  energy without entropy =     -805.67570805  energy(sigma->0) =     -805.67571693


--------------------------------------------------------------------------------------------------------




--------------------------------------- Iteration      1(  22)  ---------------------------------------


    POTLOK:  cpu time      0.9328: real time      0.9444
    SETDIJ:  cpu time      0.0065: real time      0.0066
     EDDAV:  cpu time     90.9865: real time     91.7695
       DOS:  cpu time      0.0004: real time      0.0004
    CHARGE:  cpu time      6.9209: real time      6.9669
    MIXING:  cpu time      0.0265: real time      0.0267
    --------------------------------------------
      LOOP:  cpu time     98.8736: real time     99.7145

 eigenvalue-minimisations  :  3048
 total energy-change (2. order) :-0.8759243E-04  (-0.1848311E-06)
 number of electron     395.9999994 magnetization 
 augmentation part       -1.4709214 magnetization 

 DIPCOR: dipole corrections for dipol
 direction  3 min pos   275,
 dipolmoment           0.000000      0.000000     -0.000312 electrons x Angstroem
 Tr[quadrupol]    -21762.160574

 energy correction for charged system         0.000000 eV
 dipol+quadrupol energy correction           -0.000000 eV
 added-field ion interaction          0.000144 eV  (added to PSCEN)


 Broyden mixing:
  rms(total) = 0.42961E-04    rms(broyden)= 0.42961E-04
  rms(prec ) = 0.51968E-04
  weight for this iteration     100.00

 eigenvalues of (default mixing * dielectric matrix)
  average eigenvalue GAMMA=   2.4735
  9.0051  6.9280  4.3700  3.1093  2.5956  2.5956  1.9011  1.6140  1.3655  1.3655
  1.1612  1.1612  1.0583  1.0583  0.9674  0.9674  0.8259

 Free energy of the ion-electron system (eV)
  ---------------------------------------------------
  alpha Z        PSCENC =       138.35997355
  Ewald energy   TEWEN  =     69624.91291197
  -Hartree energ DENC   =    -76800.89968676
  -exchange      EXHF   =         0.00000000
  -V(xc)+E(xc)   XCENC  =       952.43604987
  PAW double counting   =     33517.11991812   -33419.80903291
  entropy T*S    EENTRO =        -0.00001777
  eigenvalues    EBANDS =     -4009.94941610
  atomic energy  EATOM  =      9192.15348662
  Solvation  Ediel_sol  =         0.00000000
  ---------------------------------------------------
  free energy    TOTEN  =      -805.67581341 eV

  energy without entropy =     -805.67579565  energy(sigma->0) =     -805.67580453


--------------------------------------------------------------------------------------------------------




--------------------------------------- Iteration      1(  23)  ---------------------------------------


    POTLOK:  cpu time      0.8766: real time      0.8826
    SETDIJ:  cpu time      0.0072: real time      0.0072
     EDDAV:  cpu time     87.2643: real time     88.0329
       DOS:  cpu time      0.0004: real time      0.0004
    CHARGE:  cpu time      7.0068: real time      7.0857
    MIXING:  cpu time      0.0389: real time      0.0393
    --------------------------------------------
      LOOP:  cpu time     95.1943: real time     96.0483

 eigenvalue-minimisations  :  2844
 total energy-change (2. order) :-0.2060963E-04  (-0.2171483E-07)
 number of electron     395.9999994 magnetization 
 augmentation part       -1.4709221 magnetization 

 DIPCOR: dipole corrections for dipol
 direction  3 min pos   275,
 dipolmoment           0.000000      0.000000     -0.000399 electrons x Angstroem
 Tr[quadrupol]    -21762.157910

 energy correction for charged system         0.000000 eV
 dipol+quadrupol energy correction           -0.000000 eV
 added-field ion interaction          0.000184 eV  (added to PSCEN)


 Broyden mixing:
  rms(total) = 0.24053E-04    rms(broyden)= 0.24053E-04
  rms(prec ) = 0.28427E-04
  weight for this iteration     100.00

 eigenvalues of (default mixing * dielectric matrix)
  average eigenvalue GAMMA=   2.4774
  9.1172  6.9938  4.6670  3.2976  2.7146  2.6799  2.2774  1.7385  1.3810  1.3571
  1.2008  1.2008  1.0961  1.0961  0.9813  0.9840  0.9840  0.8260

 Free energy of the ion-electron system (eV)
  ---------------------------------------------------
  alpha Z        PSCENC =       138.36001364
  Ewald energy   TEWEN  =     69624.91291197
  -Hartree energ DENC   =    -76800.91241597
  -exchange      EXHF   =         0.00000000
  -V(xc)+E(xc)   XCENC  =       952.43623391
  PAW double counting   =     33517.05013813   -33419.73917650
  entropy T*S    EENTRO =        -0.00001777
  eigenvalues    EBANDS =     -4009.93700804
  atomic energy  EATOM  =      9192.15348662
  Solvation  Ediel_sol  =         0.00000000
  ---------------------------------------------------
  free energy    TOTEN  =      -805.67583402 eV

  energy without entropy =     -805.67581625  energy(sigma->0) =     -805.67582514


--------------------------------------------------------------------------------------------------------




--------------------------------------- Iteration      1(  24)  ---------------------------------------


    POTLOK:  cpu time      0.9282: real time      0.9366
    SETDIJ:  cpu time      0.0060: real time      0.0060
     EDDAV:  cpu time     85.6418: real time     86.5281
       DOS:  cpu time      0.0005: real time      0.0005
    CHARGE:  cpu time      7.0369: real time      7.0967
    MIXING:  cpu time      0.0366: real time      0.0368
    --------------------------------------------
      LOOP:  cpu time     93.6499: real time     94.6046

 eigenvalue-minimisations  :  2808
 total energy-change (2. order) :-0.7327195E-05  (-0.8986373E-08)
 number of electron     395.9999994 magnetization 
 augmentation part       -1.4709211 magnetization 

 DIPCOR: dipole corrections for dipol
 direction  3 min pos   275,
 dipolmoment           0.000000      0.000000     -0.000439 electrons x Angstroem
 Tr[quadrupol]    -21762.155857

 energy correction for charged system         0.000000 eV
 dipol+quadrupol energy correction           -0.000000 eV
 added-field ion interaction          0.000202 eV  (added to PSCEN)


 Broyden mixing:
  rms(total) = 0.85717E-05    rms(broyden)= 0.85717E-05
  rms(prec ) = 0.10667E-04
  weight for this iteration     100.00

 eigenvalues of (default mixing * dielectric matrix)
  average eigenvalue GAMMA=   2.4536
  9.1450  6.9963  4.8223  3.4198  2.7117  2.7117  2.4082  1.7920  1.4741  1.4741
  1.2778  1.2778  1.1331  1.1331  1.0440  1.0440  0.9623  0.9623  0.8284

 Free energy of the ion-electron system (eV)
  ---------------------------------------------------
  alpha Z        PSCENC =       138.36003168
  Ewald energy   TEWEN  =     69624.91291197
  -Hartree energ DENC   =    -76800.91210566
  -exchange      EXHF   =         0.00000000
  -V(xc)+E(xc)   XCENC  =       952.43625170
  PAW double counting   =     33517.08821764   -33419.77728102
  entropy T*S    EENTRO =        -0.00001777
  eigenvalues    EBANDS =     -4009.93733651
  atomic energy  EATOM  =      9192.15348662
  Solvation  Ediel_sol  =         0.00000000
  ---------------------------------------------------
  free energy    TOTEN  =      -805.67584135 eV

  energy without entropy =     -805.67582358  energy(sigma->0) =     -805.67583246


--------------------------------------------------------------------------------------------------------




--------------------------------------- Iteration      1(  25)  ---------------------------------------


    POTLOK:  cpu time      0.9409: real time      0.9496
    SETDIJ:  cpu time      0.0051: real time      0.0051
     EDDAV:  cpu time     79.5623: real time     80.3888
       DOS:  cpu time      0.0005: real time      0.0005
    CHARGE:  cpu time      7.0479: real time      7.0968
    MIXING:  cpu time      0.0356: real time      0.0359
    --------------------------------------------
      LOOP:  cpu time     87.5923: real time     88.4768

 eigenvalue-minimisations  :  2532
 total energy-change (2. order) :-0.1239641E-05  (-0.3323105E-09)
 number of electron     395.9999994 magnetization 
 augmentation part       -1.4709207 magnetization 

 DIPCOR: dipole corrections for dipol
 direction  3 min pos   275,
 dipolmoment           0.000000      0.000000     -0.000450 electrons x Angstroem
 Tr[quadrupol]    -21762.154924

 energy correction for charged system         0.000000 eV
 dipol+quadrupol energy correction           -0.000000 eV
 added-field ion interaction          0.000207 eV  (added to PSCEN)


 Broyden mixing:
  rms(total) = 0.40968E-05    rms(broyden)= 0.40967E-05
  rms(prec ) = 0.57349E-05
  weight for this iteration     100.00

 eigenvalues of (default mixing * dielectric matrix)
  average eigenvalue GAMMA=   2.4505
  9.1374  7.0182  4.8888  3.5562  3.0887  2.5077  2.3684  2.3684  1.8059  1.5655
  1.2703  1.2703  1.1243  1.1243  1.0671  1.0671  1.0292  0.9626  0.9626  0.8275

 Free energy of the ion-electron system (eV)
  ---------------------------------------------------
  alpha Z        PSCENC =       138.36003694
  Ewald energy   TEWEN  =     69624.91291197
  -Hartree energ DENC   =    -76800.91106888
  -exchange      EXHF   =         0.00000000
  -V(xc)+E(xc)   XCENC  =       952.43626788
  PAW double counting   =     33517.10023889   -33419.78931193
  entropy T*S    EENTRO =        -0.00001777
  eigenvalues    EBANDS =     -4009.93838631
  atomic energy  EATOM  =      9192.15348662
  Solvation  Ediel_sol  =         0.00000000
  ---------------------------------------------------
  free energy    TOTEN  =      -805.67584259 eV

  energy without entropy =     -805.67582482  energy(sigma->0) =     -805.67583370


--------------------------------------------------------------------------------------------------------




--------------------------------------- Iteration      1(  26)  ---------------------------------------


    POTLOK:  cpu time      0.9326: real time      0.9401
    SETDIJ:  cpu time      0.0165: real time      0.0165
     EDDAV:  cpu time     78.3933: real time     79.0742
       DOS:  cpu time      0.0005: real time      0.0005
    --------------------------------------------
      LOOP:  cpu time     79.3431: real time     80.0315

 eigenvalue-minimisations  :  2448
 total energy-change (2. order) :-0.2693596E-06  ( 0.9454992E-09)
 number of electron     395.9999994 magnetization 
 augmentation part       -1.4709207 magnetization 

 DIPCOR: dipole corrections for dipol
 direction  3 min pos   275,
 dipolmoment           0.000000      0.000000     -0.000457 electrons x Angstroem
 Tr[quadrupol]    -21762.154015

 energy correction for charged system         0.000000 eV
 dipol+quadrupol energy correction           -0.000000 eV
 added-field ion interaction          0.000210 eV  (added to PSCEN)


 Free energy of the ion-electron system (eV)
  ---------------------------------------------------
  alpha Z        PSCENC =       138.36004009
  Ewald energy   TEWEN  =     69624.91291197
  -Hartree energ DENC   =    -76800.90931600
  -exchange      EXHF   =         0.00000000
  -V(xc)+E(xc)   XCENC  =       952.43628732
  PAW double counting   =     33517.10647818   -33419.79554820
  entropy T*S    EENTRO =        -0.00001777
  eigenvalues    EBANDS =     -4009.94016507
  atomic energy  EATOM  =      9192.15348662
  Solvation  Ediel_sol  =         0.00000000
  ---------------------------------------------------
  free energy    TOTEN  =      -805.67584286 eV

  energy without entropy =     -805.67582509  energy(sigma->0) =     -805.67583397


--------------------------------------------------------------------------------------------------------




 average (electrostatic) potential at core
  the test charge radii are     0.7672  0.5201
  (the norm of the test charge is              1.0000)
       1 -36.7572       2 -36.7536       3 -36.7545       4 -36.7540       5 -36.7537
       6 -36.7540       7 -36.7544       8 -36.7540       9 -36.7545      10 -36.7577
      11 -36.7530      12 -36.7544      13 -36.7540      14 -36.7536      15 -36.7540
      16 -36.7543      17 -36.7541      18 -36.7544      19 -36.7686      20 -36.7719
      21 -36.7730      22 -36.7722      23 -36.7721      24 -36.7722      25 -36.7726
      26 -36.7723      27 -36.7728      28 -36.7749      29 -36.7701      30 -36.7723
      31 -36.7723      32 -36.7719      33 -36.7722      34 -36.7726      35 -36.7724
      36 -36.7724      37 -35.5212      38 -35.5200      39 -35.5211      40 -35.5206
      41 -35.5204      42 -35.5206      43 -35.5213      44 -35.5203      45 -35.5211
      46 -35.5235      47 -35.5191      48 -35.5209      49 -35.5215      50 -35.5201
      51 -35.5206      52 -35.5208      53 -35.5206      54 -35.5207      55 -35.5965
      56 -35.5985      57 -35.5996      58 -35.5991      59 -35.5989      60 -35.5991
      61 -35.5991      62 -35.5990      63 -35.6001      64 -35.6020      65 -35.5979
      66 -35.5993      67 -35.5991      68 -35.5975      69 -35.5989      70 -35.5992
      71 -35.5991      72 -35.5992      73 -36.6720      74 -36.6708      75 -36.6721
      76 -36.6715      77 -36.6711      78 -36.6715      79 -36.6719      80 -36.6715
      81 -36.6721      82 -36.6766      83 -36.6696      84 -36.6719      85 -36.6719
      86 -36.6708      87 -36.6715      88 -36.6718      89 -36.6716      90 -36.6719
      91 -36.6675      92 -36.6708      93 -36.6721      94 -36.6716      95 -36.6712
      96 -36.6715      97 -36.6719      98 -36.6715      99 -36.6721     100 -36.6766
     101 -36.6704     102 -36.6719     103 -36.6716     104 -36.6710     105 -36.6715
     106 -36.6718     107 -36.6716     108 -36.6719     109 -36.2771     110 -36.2724
     111 -36.2739     112 -36.2737     113 -36.2733     114 -36.2736     115 -36.2740
     116 -36.2737     117 -36.2739     118 -36.2729     119 -36.2731     120 -36.2744
     121 -36.2736     122 -36.2734     123 -36.2736     124 -36.2740     125 -36.2736
     126 -36.2741     127 -41.8119     128 -41.8096     129 -41.8110     130 -41.8105
     131 -41.8101     132 -41.8104     133 -41.8108     134 -41.8105     135 -41.8110
     136 -41.8128     137 -41.8095     138 -41.8110     139 -41.8105     140 -41.8100
     141 -41.8104     142 -41.8108     143 -41.8105     144 -41.8109
 
 
 
 E-fermi :  -3.2019     XC(G=0):  -1.9760     alpha+bet : -1.7250

 val. band max:       -3.4683453289   @ k =  -0.1250   0.3333   0.0000
 cond. band min:      -2.9305893878   @ k =   0.1250   0.0000   0.0000
 fundamental gap:      0.5377559411
 Fermi energy:        -3.2018563063

 k-point     1 :       0.1250    0.0000    0.0000
  band No.  band energies     occupation 
      1     -20.0336      2.00000
      2     -19.9815      2.00000
      3     -19.9804      2.00000
      4     -19.8862      2.00000
      5     -19.8489      2.00000
      6     -19.8421      2.00000
      7     -19.8020      2.00000
      8     -19.7737      2.00000
      9     -19.7663      2.00000
     10     -19.3687      2.00000
     11     -19.3579      2.00000
     12     -19.3481      2.00000
     13     -19.2838      2.00000
     14     -19.2723      2.00000
     15     -19.2413      2.00000
     16     -19.1196      2.00000
     17     -19.1172      2.00000
     18     -19.0312      2.00000
     19     -15.7211      2.00000
     20     -15.7134      2.00000
     21     -15.6388      2.00000
     22     -15.6340      2.00000
     23     -15.6026      2.00000
     24     -15.5730      2.00000
     25     -15.5475      2.00000
     26     -15.5344      2.00000
     27     -15.4912      2.00000
     28     -15.4532      2.00000
     29     -15.3677      2.00000
     30     -15.3423      2.00000
     31     -15.2696      2.00000
     32     -15.2551      2.00000
     33     -15.2538      2.00000
     34     -15.2466      2.00000
     35     -15.1007      2.00000
     36     -15.0635      2.00000
     37     -13.6233      2.00000
     38     -13.5533      2.00000
     39     -13.2729      2.00000
     40     -13.2556      2.00000
     41     -13.1755      2.00000
     42     -13.0371      2.00000
     43     -12.9790      2.00000
     44     -12.9687      2.00000
     45     -12.9570      2.00000
     46     -12.8493      2.00000
     47     -12.8242      2.00000
     48     -12.7504      2.00000
     49     -12.7366      2.00000
     50     -12.5956      2.00000
     51     -12.5331      2.00000
     52     -12.4562      2.00000
     53     -12.3892      2.00000
     54     -12.3870      2.00000
     55     -12.3632      2.00000
     56     -12.2991      2.00000
     57     -12.2475      2.00000
     58     -12.2363      2.00000
     59     -12.2279      2.00000
     60     -12.1982      2.00000
     61     -12.1820      2.00000
     62     -12.1723      2.00000
     63     -12.1477      2.00000
     64     -11.4379      2.00000
     65     -11.3586      2.00000
     66     -11.3387      2.00000
     67     -11.2729      2.00000
     68     -11.2379      2.00000
     69     -11.2017      2.00000
     70     -11.1362      2.00000
     71     -10.7709      2.00000
     72     -10.7253      2.00000
     73     -10.6231      2.00000
     74     -10.5358      2.00000
     75     -10.5038      2.00000
     76     -10.4692      2.00000
     77     -10.4322      2.00000
     78     -10.3339      2.00000
     79     -10.3300      2.00000
     80     -10.3242      2.00000
     81     -10.2664      2.00000
     82     -10.2507      2.00000
     83     -10.1656      2.00000
     84     -10.1522      2.00000
     85     -10.1315      2.00000
     86     -10.0994      2.00000
     87     -10.0509      2.00000
     88      -9.9087      2.00000
     89      -9.7487      2.00000
     90      -9.7089      2.00000
     91      -9.7056      2.00000
     92      -9.6926      2.00000
     93      -9.6689      2.00000
     94      -9.6085      2.00000
     95      -9.5388      2.00000
     96      -9.3963      2.00000
     97      -9.3735      2.00000
     98      -9.3275      2.00000
     99      -9.1796      2.00000
    100      -9.0737      2.00000
    101      -8.7459      2.00000
    102      -8.7206      2.00000
    103      -8.7115      2.00000
    104      -8.7097      2.00000
    105      -8.6244      2.00000
    106      -8.5921      2.00000
    107      -8.5633      2.00000
    108      -8.5148      2.00000
    109      -8.4999      2.00000
    110      -8.3938      2.00000
    111      -8.3341      2.00000
    112      -8.3126      2.00000
    113      -8.2887      2.00000
    114      -8.2789      2.00000
    115      -8.1865      2.00000
    116      -8.1581      2.00000
    117      -8.1129      2.00000
    118      -8.0792      2.00000
    119      -7.9900      2.00000
    120      -7.7886      2.00000
    121      -7.7762      2.00000
    122      -7.7235      2.00000
    123      -7.7020      2.00000
    124      -7.6563      2.00000
    125      -7.6340      2.00000
    126      -7.5988      2.00000
    127      -7.5842      2.00000
    128      -7.5513      2.00000
    129      -7.5429      2.00000
    130      -7.5340      2.00000
    131      -7.5127      2.00000
    132      -7.5074      2.00000
    133      -7.4922      2.00000
    134      -7.4818      2.00000
    135      -7.4366      2.00000
    136      -7.3872      2.00000
    137      -7.3153      2.00000
    138      -7.2258      2.00000
    139      -7.2240      2.00000
    140      -7.2053      2.00000
    141      -7.2050      2.00000
    142      -7.0350      2.00000
    143      -7.0330      2.00000
    144      -6.9590      2.00000
    145      -6.8296      2.00000
    146      -6.7935      2.00000
    147      -6.7283      2.00000
    148      -6.5770      2.00000
    149      -6.5735      2.00000
    150      -6.3307      2.00000
    151      -6.2718      2.00000
    152      -6.2530      2.00000
    153      -6.2428      2.00000
    154      -6.2415      2.00000
    155      -6.2372      2.00000
    156      -6.2101      2.00000
    157      -6.2062      2.00000
    158      -6.2042      2.00000
    159      -6.1900      2.00000
    160      -6.1707      2.00000
    161      -6.1667      2.00000
    162      -6.1566      2.00000
    163      -6.1539      2.00000
    164      -6.1456      2.00000
    165      -6.1431      2.00000
    166      -6.1375      2.00000
    167      -6.1250      2.00000
    168      -6.1140      2.00000
    169      -6.0814      2.00000
    170      -6.0733      2.00000
    171      -6.0690      2.00000
    172      -6.0157      2.00000
    173      -5.9201      2.00000
    174      -5.9137      2.00000
    175      -5.8900      2.00000
    176      -5.8370      2.00000
    177      -5.7109      2.00000
    178      -5.7043      2.00000
    179      -5.6893      2.00000
    180      -5.6668      2.00000
    181      -5.5843      2.00000
    182      -5.5635      2.00000
    183      -5.4917      2.00000
    184      -5.4530      2.00000
    185      -5.3278      2.00000
    186      -5.2956      2.00000
    187      -5.1533      2.00000
    188      -4.5708      2.00000
    189      -4.5402      2.00000
    190      -4.5234      2.00000
    191      -4.5184      2.00000
    192      -4.5171      2.00000
    193      -4.5042      2.00000
    194      -4.4590      2.00000
    195      -4.4187      2.00000
    196      -4.4118      2.00000
    197      -3.7650      2.00000
    198      -3.6964      2.00000
    199      -2.9306      0.00012
    200      -2.6191      0.00000
    201      -2.5682      0.00000
    202      -2.4937      0.00000
    203      -2.4802      0.00000
    204      -2.4384      0.00000
    205      -2.4129      0.00000
    206      -2.3354      0.00000
    207      -2.3110      0.00000
    208      -2.2804      0.00000
    209      -2.2311      0.00000
    210      -2.1190      0.00000
    211      -2.1015      0.00000
    212      -2.0624      0.00000
    213      -2.0218      0.00000
    214      -2.0014      0.00000
    215      -1.9690      0.00000
    216      -1.9457      0.00000
    217      -1.9430      0.00000
    218      -1.9283      0.00000
    219      -1.9271      0.00000
    220      -1.7070      0.00000
    221      -1.6334      0.00000
    222      -1.5151      0.00000
    223      -1.4223      0.00000
    224      -1.3920      0.00000
    225      -1.3126      0.00000
    226      -1.3014      0.00000
    227      -1.2669      0.00000
    228      -1.2643      0.00000
    229      -1.2124      0.00000
    230      -1.1676      0.00000
    231      -1.0971      0.00000
    232      -1.0813      0.00000
    233      -1.0691      0.00000
    234      -1.0219      0.00000
    235      -0.9986      0.00000
    236      -0.9642      0.00000
    237      -0.8519      0.00000
    238      -0.8362      0.00000
    239      -0.8355      0.00000
    240      -0.8237      0.00000
    241      -0.8182      0.00000
    242      -0.7467      0.00000
    243      -0.7218      0.00000
    244      -0.7211      0.00000
    245      -0.7177      0.00000
    246      -0.5563      0.00000
    247      -0.4736      0.00000
    248      -0.4621      0.00000
    249      -0.4606      0.00000
    250      -0.4585      0.00000
    251      -0.2863      0.00000
    252      -0.2329      0.00000
    253      -0.2274      0.00000
    254      -0.2177      0.00000
    255      -0.1410      0.00000
    256      -0.0468      0.00000
    257      -0.0348      0.00000
    258       0.0589      0.00000
    259       0.0908      0.00000
    260       0.1524      0.00000
    261       0.2154      0.00000
    262       0.2980      0.00000
    263       0.3963      0.00000
    264       0.4274      0.00000
    265       0.4600      0.00000
    266       0.5022      0.00000
    267       0.6486      0.00000
    268       0.7332      0.00000
    269       0.7526      0.00000
    270       0.8308      0.00000
    271       0.9199      0.00000
    272       0.9888      0.00000
    273       1.0232      0.00000
    274       1.1148      0.00000
    275       1.1769      0.00000
    276       1.1983      0.00000

 k-point     2 :       0.3750    0.0000    0.0000
  band No.  band energies     occupation 
      1     -20.0077      2.00000
      2     -19.9585      2.00000
      3     -19.9574      2.00000
      4     -19.9553      2.00000
      5     -19.9131      2.00000
      6     -19.9080      2.00000
      7     -19.7283      2.00000
      8     -19.7083      2.00000
      9     -19.7040      2.00000
     10     -19.4357      2.00000
     11     -19.4346      2.00000
     12     -19.4301      2.00000
     13     -19.2073      2.00000
     14     -19.1975      2.00000
     15     -19.1506      2.00000
     16     -19.1442      2.00000
     17     -19.1435      2.00000
     18     -19.0705      2.00000
     19     -15.6900      2.00000
     20     -15.6680      2.00000
     21     -15.6320      2.00000
     22     -15.6160      2.00000
     23     -15.6113      2.00000
     24     -15.5922      2.00000
     25     -15.5699      2.00000
     26     -15.5690      2.00000
     27     -15.5293      2.00000
     28     -15.4758      2.00000
     29     -15.4557      2.00000
     30     -15.2878      2.00000
     31     -15.2519      2.00000
     32     -15.2502      2.00000
     33     -15.2393      2.00000
     34     -15.1591      2.00000
     35     -15.1380      2.00000
     36     -15.0710      2.00000
     37     -13.5854      2.00000
     38     -13.4504      2.00000
     39     -13.3953      2.00000
     40     -13.3226      2.00000
     41     -13.1832      2.00000
     42     -13.0617      2.00000
     43     -13.0410      2.00000
     44     -12.9928      2.00000
     45     -12.8201      2.00000
     46     -12.8162      2.00000
     47     -12.7280      2.00000
     48     -12.7043      2.00000
     49     -12.6367      2.00000
     50     -12.6038      2.00000
     51     -12.5287      2.00000
     52     -12.5067      2.00000
     53     -12.4264      2.00000
     54     -12.4019      2.00000
     55     -12.3709      2.00000
     56     -12.3632      2.00000
     57     -12.3569      2.00000
     58     -12.3130      2.00000
     59     -12.3034      2.00000
     60     -12.2969      2.00000
     61     -12.1816      2.00000
     62     -12.1377      2.00000
     63     -12.1337      2.00000
     64     -11.4162      2.00000
     65     -11.3536      2.00000
     66     -11.1905      2.00000
     67     -11.0795      2.00000
     68     -11.0685      2.00000
     69     -10.9895      2.00000
     70     -10.9515      2.00000
     71     -10.9262      2.00000
     72     -10.7978      2.00000
     73     -10.6823      2.00000
     74     -10.6073      2.00000
     75     -10.6006      2.00000
     76     -10.5882      2.00000
     77     -10.5648      2.00000
     78     -10.4981      2.00000
     79     -10.3126      2.00000
     80     -10.2988      2.00000
     81     -10.2065      2.00000
     82     -10.2045      2.00000
     83     -10.1912      2.00000
     84     -10.1215      2.00000
     85     -10.1062      2.00000
     86     -10.1042      2.00000
     87     -10.0403      2.00000
     88     -10.0016      2.00000
     89      -9.8935      2.00000
     90      -9.8638      2.00000
     91      -9.7657      2.00000
     92      -9.7570      2.00000
     93      -9.5863      2.00000
     94      -9.5366      2.00000
     95      -9.4829      2.00000
     96      -9.4007      2.00000
     97      -9.2756      2.00000
     98      -9.0768      2.00000
     99      -9.0611      2.00000
    100      -8.9851      2.00000
    101      -8.8196      2.00000
    102      -8.7763      2.00000
    103      -8.7633      2.00000
    104      -8.7188      2.00000
    105      -8.6443      2.00000
    106      -8.6073      2.00000
    107      -8.5796      2.00000
    108      -8.4909      2.00000
    109      -8.4844      2.00000
    110      -8.4476      2.00000
    111      -8.3350      2.00000
    112      -8.3273      2.00000
    113      -8.3251      2.00000
    114      -8.3177      2.00000
    115      -8.0818      2.00000
    116      -8.0623      2.00000
    117      -8.0471      2.00000
    118      -8.0464      2.00000
    119      -8.0106      2.00000
    120      -7.9182      2.00000
    121      -7.8920      2.00000
    122      -7.8782      2.00000
    123      -7.8488      2.00000
    124      -7.7082      2.00000
    125      -7.6298      2.00000
    126      -7.5959      2.00000
    127      -7.5893      2.00000
    128      -7.5771      2.00000
    129      -7.5720      2.00000
    130      -7.5652      2.00000
    131      -7.5254      2.00000
    132      -7.4370      2.00000
    133      -7.4203      2.00000
    134      -7.3940      2.00000
    135      -7.3624      2.00000
    136      -7.3286      2.00000
    137      -7.2407      2.00000
    138      -7.1958      2.00000
    139      -7.1721      2.00000
    140      -7.0563      2.00000
    141      -7.0485      2.00000
    142      -7.0260      2.00000
    143      -7.0103      2.00000
    144      -6.9276      2.00000
    145      -6.7655      2.00000
    146      -6.7498      2.00000
    147      -6.6138      2.00000
    148      -6.6091      2.00000
    149      -6.4467      2.00000
    150      -6.4132      2.00000
    151      -6.3745      2.00000
    152      -6.3559      2.00000
    153      -6.3386      2.00000
    154      -6.3266      2.00000
    155      -6.3137      2.00000
    156      -6.2957      2.00000
    157      -6.2595      2.00000
    158      -6.2238      2.00000
    159      -6.2161      2.00000
    160      -6.2139      2.00000
    161      -6.2094      2.00000
    162      -6.2017      2.00000
    163      -6.1973      2.00000
    164      -6.1819      2.00000
    165      -6.1806      2.00000
    166      -6.1687      2.00000
    167      -6.1227      2.00000
    168      -6.1151      2.00000
    169      -6.0618      2.00000
    170      -6.0569      2.00000
    171      -6.0390      2.00000
    172      -6.0319      2.00000
    173      -5.9693      2.00000
    174      -5.8818      2.00000
    175      -5.8411      2.00000
    176      -5.8312      2.00000
    177      -5.7933      2.00000
    178      -5.7687      2.00000
    179      -5.7307      2.00000
    180      -5.7286      2.00000
    181      -5.6326      2.00000
    182      -5.5764      2.00000
    183      -5.5151      2.00000
    184      -5.4504      2.00000
    185      -5.3688      2.00000
    186      -4.7504      2.00000
    187      -4.5906      2.00000
    188      -4.5706      2.00000
    189      -4.5445      2.00000
    190      -4.5275      2.00000
    191      -4.5164      2.00000
    192      -4.5159      2.00000
    193      -4.4767      2.00000
    194      -4.4514      2.00000
    195      -4.4425      2.00000
    196      -4.4060      2.00000
    197      -4.1546      2.00000
    198      -4.0383      2.00000
    199      -2.8995      0.00002
    200      -2.7980      0.00000
    201      -2.5886      0.00000
    202      -2.5545      0.00000
    203      -2.4090      0.00000
    204      -2.3828      0.00000
    205      -2.3564      0.00000
    206      -2.2738      0.00000
    207      -2.2695      0.00000
    208      -2.2109      0.00000
    209      -2.1420      0.00000
    210      -2.0783      0.00000
    211      -2.0702      0.00000
    212      -2.0501      0.00000
    213      -2.0435      0.00000
    214      -2.0103      0.00000
    215      -2.0053      0.00000
    216      -1.9011      0.00000
    217      -1.8314      0.00000
    218      -1.8230      0.00000
    219      -1.8091      0.00000
    220      -1.6470      0.00000
    221      -1.6336      0.00000
    222      -1.6212      0.00000
    223      -1.6092      0.00000
    224      -1.4705      0.00000
    225      -1.3970      0.00000
    226      -1.3825      0.00000
    227      -1.3221      0.00000
    228      -1.2519      0.00000
    229      -1.1636      0.00000
    230      -1.1485      0.00000
    231      -1.1268      0.00000
    232      -1.1101      0.00000
    233      -1.0666      0.00000
    234      -1.0488      0.00000
    235      -1.0429      0.00000
    236      -1.0146      0.00000
    237      -0.9655      0.00000
    238      -0.9202      0.00000
    239      -0.8656      0.00000
    240      -0.7026      0.00000
    241      -0.6684      0.00000
    242      -0.6626      0.00000
    243      -0.6204      0.00000
    244      -0.6155      0.00000
    245      -0.5907      0.00000
    246      -0.5520      0.00000
    247      -0.5023      0.00000
    248      -0.4400      0.00000
    249      -0.4100      0.00000
    250      -0.3234      0.00000
    251      -0.2974      0.00000
    252      -0.2411      0.00000
    253      -0.2404      0.00000
    254      -0.2278      0.00000
    255      -0.2039      0.00000
    256      -0.0400      0.00000
    257       0.0476      0.00000
    258       0.1332      0.00000
    259       0.1892      0.00000
    260       0.2279      0.00000
    261       0.2652      0.00000
    262       0.3146      0.00000
    263       0.3430      0.00000
    264       0.4441      0.00000
    265       0.4477      0.00000
    266       0.4672      0.00000
    267       0.4751      0.00000
    268       0.5012      0.00000
    269       0.6367      0.00000
    270       0.7519      0.00000
    271       0.8844      0.00000
    272       0.9267      0.00000
    273       0.9603      0.00000
    274       1.0656      0.00000
    275       1.0846      0.00000
    276       1.1574      0.00000

 k-point     3 :       0.1250    0.3333    0.0000
  band No.  band energies     occupation 
      1     -20.0256      2.00000
      2     -20.0062      2.00000
      3     -19.9634      2.00000
      4     -19.8824      2.00000
      5     -19.8610      2.00000
      6     -19.8338      2.00000
      7     -19.7948      2.00000
      8     -19.7887      2.00000
      9     -19.7583      2.00000
     10     -19.3707      2.00000
     11     -19.3539      2.00000
     12     -19.3502      2.00000
     13     -19.2878      2.00000
     14     -19.2670      2.00000
     15     -19.2427      2.00000
     16     -19.1461      2.00000
     17     -19.0770      2.00000
     18     -19.0452      2.00000
     19     -15.7234      2.00000
     20     -15.7008      2.00000
     21     -15.6515      2.00000
     22     -15.6065      2.00000
     23     -15.5951      2.00000
     24     -15.5851      2.00000
     25     -15.5723      2.00000
     26     -15.5424      2.00000
     27     -15.4807      2.00000
     28     -15.4716      2.00000
     29     -15.3379      2.00000
     30     -15.3239      2.00000
     31     -15.3083      2.00000
     32     -15.2864      2.00000
     33     -15.2440      2.00000
     34     -15.2009      2.00000
     35     -15.1461      2.00000
     36     -15.0254      2.00000
     37     -13.7260      2.00000
     38     -13.3937      2.00000
     39     -13.3412      2.00000
     40     -13.2491      2.00000
     41     -13.1007      2.00000
     42     -13.0619      2.00000
     43     -13.0574      2.00000
     44     -13.0512      2.00000
     45     -12.9970      2.00000
     46     -12.8923      2.00000
     47     -12.6660      2.00000
     48     -12.5731      2.00000
     49     -12.5666      2.00000
     50     -12.5617      2.00000
     51     -12.5064      2.00000
     52     -12.4454      2.00000
     53     -12.4356      2.00000
     54     -12.4266      2.00000
     55     -12.4208      2.00000
     56     -12.3903      2.00000
     57     -12.3658      2.00000
     58     -12.2943      2.00000
     59     -12.2623      2.00000
     60     -12.2263      2.00000
     61     -12.2170      2.00000
     62     -12.2056      2.00000
     63     -12.1594      2.00000
     64     -11.4237      2.00000
     65     -11.3759      2.00000
     66     -11.2729      2.00000
     67     -11.1521      2.00000
     68     -11.0390      2.00000
     69     -11.0087      2.00000
     70     -10.9578      2.00000
     71     -10.9438      2.00000
     72     -10.9404      2.00000
     73     -10.7565      2.00000
     74     -10.5250      2.00000
     75     -10.5191      2.00000
     76     -10.4807      2.00000
     77     -10.4651      2.00000
     78     -10.4404      2.00000
     79     -10.4077      2.00000
     80     -10.3879      2.00000
     81     -10.2953      2.00000
     82     -10.2506      2.00000
     83     -10.2092      2.00000
     84     -10.1856      2.00000
     85     -10.1565      2.00000
     86     -10.0234      2.00000
     87      -9.9440      2.00000
     88      -9.8435      2.00000
     89      -9.8375      2.00000
     90      -9.8358      2.00000
     91      -9.7574      2.00000
     92      -9.6058      2.00000
     93      -9.5637      2.00000
     94      -9.4464      2.00000
     95      -9.3923      2.00000
     96      -9.3793      2.00000
     97      -9.2925      2.00000
     98      -9.2661      2.00000
     99      -9.1926      2.00000
    100      -8.9146      2.00000
    101      -8.8491      2.00000
    102      -8.7856      2.00000
    103      -8.6577      2.00000
    104      -8.6410      2.00000
    105      -8.6353      2.00000
    106      -8.6164      2.00000
    107      -8.6105      2.00000
    108      -8.5987      2.00000
    109      -8.5394      2.00000
    110      -8.5357      2.00000
    111      -8.5105      2.00000
    112      -8.4722      2.00000
    113      -8.3695      2.00000
    114      -8.3166      2.00000
    115      -8.1931      2.00000
    116      -8.1394      2.00000
    117      -8.0366      2.00000
    118      -7.9783      2.00000
    119      -7.9425      2.00000
    120      -7.8026      2.00000
    121      -7.7773      2.00000
    122      -7.7762      2.00000
    123      -7.7379      2.00000
    124      -7.6644      2.00000
    125      -7.6447      2.00000
    126      -7.6125      2.00000
    127      -7.5887      2.00000
    128      -7.5774      2.00000
    129      -7.5680      2.00000
    130      -7.5439      2.00000
    131      -7.5251      2.00000
    132      -7.4894      2.00000
    133      -7.4766      2.00000
    134      -7.4189      2.00000
    135      -7.3788      2.00000
    136      -7.3701      2.00000
    137      -7.2883      2.00000
    138      -7.1718      2.00000
    139      -7.0677      2.00000
    140      -7.0209      2.00000
    141      -6.9992      2.00000
    142      -6.9779      2.00000
    143      -6.9733      2.00000
    144      -6.9487      2.00000
    145      -6.7727      2.00000
    146      -6.7341      2.00000
    147      -6.7079      2.00000
    148      -6.5101      2.00000
    149      -6.4985      2.00000
    150      -6.4472      2.00000
    151      -6.4402      2.00000
    152      -6.4026      2.00000
    153      -6.3993      2.00000
    154      -6.3672      2.00000
    155      -6.3617      2.00000
    156      -6.2835      2.00000
    157      -6.2764      2.00000
    158      -6.2747      2.00000
    159      -6.2467      2.00000
    160      -6.2418      2.00000
    161      -6.2361      2.00000
    162      -6.1875      2.00000
    163      -6.1679      2.00000
    164      -6.1658      2.00000
    165      -6.1531      2.00000
    166      -6.1455      2.00000
    167      -6.1427      2.00000
    168      -6.1374      2.00000
    169      -6.1290      2.00000
    170      -6.1088      2.00000
    171      -5.9910      2.00000
    172      -5.9421      2.00000
    173      -5.8960      2.00000
    174      -5.8562      2.00000
    175      -5.8344      2.00000
    176      -5.7638      2.00000
    177      -5.7608      2.00000
    178      -5.7123      2.00000
    179      -5.6516      2.00000
    180      -5.6293      2.00000
    181      -5.5954      2.00000
    182      -5.5551      2.00000
    183      -5.5373      2.00000
    184      -5.2946      2.00000
    185      -5.2875      2.00000
    186      -5.2867      2.00000
    187      -4.8432      2.00000
    188      -4.5576      2.00000
    189      -4.5316      2.00000
    190      -4.5234      2.00000
    191      -4.5132      2.00000
    192      -4.4991      2.00000
    193      -4.4888      2.00000
    194      -4.4770      2.00000
    195      -4.4637      2.00000
    196      -4.4001      2.00000
    197      -4.1712      2.00000
    198      -3.5045      1.99998
    199      -2.8210      0.00000
    200      -2.7006      0.00000
    201      -2.6793      0.00000
    202      -2.4950      0.00000
    203      -2.4254      0.00000
    204      -2.4053      0.00000
    205      -2.3614      0.00000
    206      -2.3562      0.00000
    207      -2.3182      0.00000
    208      -2.3005      0.00000
    209      -2.1603      0.00000
    210      -2.0880      0.00000
    211      -2.0747      0.00000
    212      -2.0717      0.00000
    213      -2.0581      0.00000
    214      -2.0533      0.00000
    215      -1.9585      0.00000
    216      -1.9575      0.00000
    217      -1.9490      0.00000
    218      -1.9296      0.00000
    219      -1.9159      0.00000
    220      -1.6765      0.00000
    221      -1.5898      0.00000
    222      -1.4363      0.00000
    223      -1.4222      0.00000
    224      -1.3972      0.00000
    225      -1.3935      0.00000
    226      -1.3035      0.00000
    227      -1.2656      0.00000
    228      -1.2613      0.00000
    229      -1.2539      0.00000
    230      -1.2536      0.00000
    231      -1.2013      0.00000
    232      -1.1167      0.00000
    233      -1.0191      0.00000
    234      -1.0096      0.00000
    235      -1.0084      0.00000
    236      -0.9806      0.00000
    237      -0.9781      0.00000
    238      -0.8716      0.00000
    239      -0.8139      0.00000
    240      -0.7966      0.00000
    241      -0.7916      0.00000
    242      -0.7846      0.00000
    243      -0.7765      0.00000
    244      -0.7475      0.00000
    245      -0.6317      0.00000
    246      -0.5871      0.00000
    247      -0.5253      0.00000
    248      -0.3906      0.00000
    249      -0.3515      0.00000
    250      -0.3114      0.00000
    251      -0.3092      0.00000
    252      -0.2860      0.00000
    253      -0.2793      0.00000
    254      -0.0950      0.00000
    255       0.0338      0.00000
    256       0.0795      0.00000
    257       0.0945      0.00000
    258       0.0958      0.00000
    259       0.1649      0.00000
    260       0.2000      0.00000
    261       0.2762      0.00000
    262       0.3014      0.00000
    263       0.3408      0.00000
    264       0.3576      0.00000
    265       0.3671      0.00000
    266       0.4046      0.00000
    267       0.4309      0.00000
    268       0.5262      0.00000
    269       0.8369      0.00000
    270       0.8480      0.00000
    271       0.8550      0.00000
    272       0.9687      0.00000
    273       1.0311      0.00000
    274       1.0575      0.00000
    275       1.1374      0.00000
    276       1.1383      0.00000

 k-point     4 :       0.3750    0.3333    0.0000
  band No.  band energies     occupation 
      1     -19.9993      2.00000
      2     -19.9824      2.00000
      3     -19.9522      2.00000
      4     -19.9396      2.00000
      5     -19.9298      2.00000
      6     -19.8963      2.00000
      7     -19.7235      2.00000
      8     -19.7186      2.00000
      9     -19.6984      2.00000
     10     -19.4362      2.00000
     11     -19.4337      2.00000
     12     -19.4305      2.00000
     13     -19.2192      2.00000
     14     -19.1805      2.00000
     15     -19.1728      2.00000
     16     -19.1490      2.00000
     17     -19.1081      2.00000
     18     -19.0843      2.00000
     19     -15.6805      2.00000
     20     -15.6773      2.00000
     21     -15.6397      2.00000
     22     -15.6264      2.00000
     23     -15.5947      2.00000
     24     -15.5853      2.00000
     25     -15.5727      2.00000
     26     -15.5660      2.00000
     27     -15.5652      2.00000
     28     -15.4660      2.00000
     29     -15.3806      2.00000
     30     -15.3491      2.00000
     31     -15.2645      2.00000
     32     -15.2637      2.00000
     33     -15.1846      2.00000
     34     -15.1743      2.00000
     35     -15.1214      2.00000
     36     -15.0999      2.00000
     37     -13.5424      2.00000
     38     -13.4447      2.00000
     39     -13.3624      2.00000
     40     -13.2947      2.00000
     41     -13.1904      2.00000
     42     -13.1174      2.00000
     43     -13.0968      2.00000
     44     -13.0016      2.00000
     45     -12.9695      2.00000
     46     -12.8459      2.00000
     47     -12.6887      2.00000
     48     -12.6752      2.00000
     49     -12.6321      2.00000
     50     -12.6069      2.00000
     51     -12.4539      2.00000
     52     -12.4228      2.00000
     53     -12.4163      2.00000
     54     -12.4142      2.00000
     55     -12.3941      2.00000
     56     -12.3647      2.00000
     57     -12.3376      2.00000
     58     -12.3321      2.00000
     59     -12.2904      2.00000
     60     -12.1915      2.00000
     61     -12.1734      2.00000
     62     -12.1589      2.00000
     63     -12.1207      2.00000
     64     -11.4685      2.00000
     65     -11.4426      2.00000
     66     -11.3466      2.00000
     67     -11.2513      2.00000
     68     -11.1347      2.00000
     69     -10.8864      2.00000
     70     -10.7856      2.00000
     71     -10.7259      2.00000
     72     -10.6215      2.00000
     73     -10.6158      2.00000
     74     -10.6099      2.00000
     75     -10.5823      2.00000
     76     -10.5784      2.00000
     77     -10.5773      2.00000
     78     -10.5732      2.00000
     79     -10.4850      2.00000
     80     -10.3060      2.00000
     81     -10.2894      2.00000
     82     -10.2539      2.00000
     83     -10.2512      2.00000
     84     -10.1477      2.00000
     85     -10.0810      2.00000
     86     -10.0107      2.00000
     87      -9.9870      2.00000
     88      -9.9816      2.00000
     89      -9.8587      2.00000
     90      -9.8167      2.00000
     91      -9.7947      2.00000
     92      -9.7139      2.00000
     93      -9.7032      2.00000
     94      -9.5332      2.00000
     95      -9.4500      2.00000
     96      -9.4436      2.00000
     97      -9.2249      2.00000
     98      -9.2015      2.00000
     99      -8.9907      2.00000
    100      -8.9550      2.00000
    101      -8.9010      2.00000
    102      -8.7342      2.00000
    103      -8.7186      2.00000
    104      -8.6994      2.00000
    105      -8.6441      2.00000
    106      -8.6104      2.00000
    107      -8.5899      2.00000
    108      -8.4428      2.00000
    109      -8.4327      2.00000
    110      -8.4045      2.00000
    111      -8.3712      2.00000
    112      -8.3609      2.00000
    113      -8.3165      2.00000
    114      -8.2958      2.00000
    115      -8.2493      2.00000
    116      -8.2217      2.00000
    117      -8.1195      2.00000
    118      -8.0870      2.00000
    119      -8.0853      2.00000
    120      -7.9952      2.00000
    121      -7.7845      2.00000
    122      -7.7207      2.00000
    123      -7.6983      2.00000
    124      -7.6878      2.00000
    125      -7.6838      2.00000
    126      -7.6701      2.00000
    127      -7.6665      2.00000
    128      -7.6611      2.00000
    129      -7.6598      2.00000
    130      -7.5137      2.00000
    131      -7.4745      2.00000
    132      -7.3721      2.00000
    133      -7.3511      2.00000
    134      -7.2617      2.00000
    135      -7.2503      2.00000
    136      -7.2182      2.00000
    137      -7.1891      2.00000
    138      -7.1638      2.00000
    139      -7.1550      2.00000
    140      -7.1134      2.00000
    141      -7.0430      2.00000
    142      -6.9519      2.00000
    143      -6.8877      2.00000
    144      -6.8759      2.00000
    145      -6.8504      2.00000
    146      -6.8343      2.00000
    147      -6.5307      2.00000
    148      -6.5283      2.00000
    149      -6.4872      2.00000
    150      -6.4806      2.00000
    151      -6.4751      2.00000
    152      -6.4295      2.00000
    153      -6.3879      2.00000
    154      -6.3808      2.00000
    155      -6.3603      2.00000
    156      -6.3090      2.00000
    157      -6.2933      2.00000
    158      -6.2349      2.00000
    159      -6.2300      2.00000
    160      -6.2172      2.00000
    161      -6.2146      2.00000
    162      -6.1810      2.00000
    163      -6.1776      2.00000
    164      -6.1765      2.00000
    165      -6.1735      2.00000
    166      -6.1506      2.00000
    167      -6.1489      2.00000
    168      -6.1423      2.00000
    169      -6.1035      2.00000
    170      -6.0778      2.00000
    171      -6.0552      2.00000
    172      -6.0541      2.00000
    173      -6.0005      2.00000
    174      -5.9651      2.00000
    175      -5.9617      2.00000
    176      -5.9592      2.00000
    177      -5.8502      2.00000
    178      -5.8075      2.00000
    179      -5.7582      2.00000
    180      -5.6823      2.00000
    181      -5.6674      2.00000
    182      -5.4919      2.00000
    183      -5.4723      2.00000
    184      -5.0705      2.00000
    185      -4.9636      2.00000
    186      -4.8702      2.00000
    187      -4.6682      2.00000
    188      -4.5667      2.00000
    189      -4.5493      2.00000
    190      -4.5255      2.00000
    191      -4.5187      2.00000
    192      -4.5027      2.00000
    193      -4.4908      2.00000
    194      -4.4533      2.00000
    195      -4.4351      2.00000
    196      -4.4088      2.00000
    197      -4.3348      2.00000
    198      -4.0074      2.00000
    199      -2.8459      0.00000
    200      -2.7687      0.00000
    201      -2.7627      0.00000
    202      -2.5195      0.00000
    203      -2.3974      0.00000
    204      -2.3230      0.00000
    205      -2.3199      0.00000
    206      -2.3187      0.00000
    207      -2.2565      0.00000
    208      -2.1722      0.00000
    209      -2.1098      0.00000
    210      -2.0973      0.00000
    211      -2.0862      0.00000
    212      -2.0849      0.00000
    213      -2.0221      0.00000
    214      -2.0173      0.00000
    215      -1.9802      0.00000
    216      -1.9193      0.00000
    217      -1.8495      0.00000
    218      -1.8237      0.00000
    219      -1.8049      0.00000
    220      -1.6463      0.00000
    221      -1.6387      0.00000
    222      -1.5900      0.00000
    223      -1.5842      0.00000
    224      -1.4727      0.00000
    225      -1.3853      0.00000
    226      -1.3756      0.00000
    227      -1.2881      0.00000
    228      -1.2778      0.00000
    229      -1.2424      0.00000
    230      -1.1959      0.00000
    231      -1.1420      0.00000
    232      -1.1336      0.00000
    233      -1.0730      0.00000
    234      -1.0678      0.00000
    235      -1.0178      0.00000
    236      -1.0166      0.00000
    237      -0.9833      0.00000
    238      -0.9356      0.00000
    239      -0.9200      0.00000
    240      -0.6734      0.00000
    241      -0.6715      0.00000
    242      -0.6493      0.00000
    243      -0.6251      0.00000
    244      -0.5960      0.00000
    245      -0.5921      0.00000
    246      -0.5384      0.00000
    247      -0.4863      0.00000
    248      -0.4094      0.00000
    249      -0.4064      0.00000
    250      -0.3896      0.00000
    251      -0.3823      0.00000
    252      -0.3591      0.00000
    253      -0.2153      0.00000
    254      -0.0233      0.00000
    255       0.0927      0.00000
    256       0.1154      0.00000
    257       0.1233      0.00000
    258       0.1352      0.00000
    259       0.1765      0.00000
    260       0.2289      0.00000
    261       0.2308      0.00000
    262       0.2730      0.00000
    263       0.2988      0.00000
    264       0.3118      0.00000
    265       0.3530      0.00000
    266       0.4199      0.00000
    267       0.4365      0.00000
    268       0.5926      0.00000
    269       0.7313      0.00000
    270       0.7849      0.00000
    271       0.8886      0.00000
    272       0.8912      0.00000
    273       0.9751      0.00000
    274       0.9911      0.00000
    275       1.0269      0.00000
    276       1.0391      0.00000

 k-point     5 :      -0.3750    0.3333    0.0000
  band No.  band energies     occupation 
      1     -20.0013      2.00000
      2     -19.9791      2.00000
      3     -19.9490      2.00000
      4     -19.9409      2.00000
      5     -19.9352      2.00000
      6     -19.8941      2.00000
      7     -19.7264      2.00000
      8     -19.7139      2.00000
      9     -19.7002      2.00000
     10     -19.4366      2.00000
     11     -19.4325      2.00000
     12     -19.4314      2.00000
     13     -19.2232      2.00000
     14     -19.1703      2.00000
     15     -19.1695      2.00000
     16     -19.1559      2.00000
     17     -19.1154      2.00000
     18     -19.0796      2.00000
     19     -15.7002      2.00000
     20     -15.6731      2.00000
     21     -15.6474      2.00000
     22     -15.6243      2.00000
     23     -15.6092      2.00000
     24     -15.5611      2.00000
     25     -15.5467      2.00000
     26     -15.5452      2.00000
     27     -15.5320      2.00000
     28     -15.5095      2.00000
     29     -15.4466      2.00000
     30     -15.3020      2.00000
     31     -15.2809      2.00000
     32     -15.2235      2.00000
     33     -15.2129      2.00000
     34     -15.1932      2.00000
     35     -15.1372      2.00000
     36     -15.0647      2.00000
     37     -13.6148      2.00000
     38     -13.4353      2.00000
     39     -13.2864      2.00000
     40     -13.2455      2.00000
     41     -13.2220      2.00000
     42     -13.1894      2.00000
     43     -12.9615      2.00000
     44     -12.9351      2.00000
     45     -12.9048      2.00000
     46     -12.8104      2.00000
     47     -12.8026      2.00000
     48     -12.7696      2.00000
     49     -12.7419      2.00000
     50     -12.7283      2.00000
     51     -12.5515      2.00000
     52     -12.4186      2.00000
     53     -12.3875      2.00000
     54     -12.3588      2.00000
     55     -12.3574      2.00000
     56     -12.3424      2.00000
     57     -12.3401      2.00000
     58     -12.2864      2.00000
     59     -12.2803      2.00000
     60     -12.1760      2.00000
     61     -12.1546      2.00000
     62     -12.1224      2.00000
     63     -12.0619      2.00000
     64     -11.4641      2.00000
     65     -11.3335      2.00000
     66     -11.3309      2.00000
     67     -11.2920      2.00000
     68     -11.1941      2.00000
     69     -10.9768      2.00000
     70     -10.9461      2.00000
     71     -10.8645      2.00000
     72     -10.7787      2.00000
     73     -10.6023      2.00000
     74     -10.5945      2.00000
     75     -10.5636      2.00000
     76     -10.5448      2.00000
     77     -10.4044      2.00000
     78     -10.3930      2.00000
     79     -10.3324      2.00000
     80     -10.3298      2.00000
     81     -10.3259      2.00000
     82     -10.2236      2.00000
     83     -10.1728      2.00000
     84     -10.1188      2.00000
     85     -10.1025      2.00000
     86     -10.0873      2.00000
     87     -10.0253      2.00000
     88      -9.9671      2.00000
     89      -9.8910      2.00000
     90      -9.7607      2.00000
     91      -9.7603      2.00000
     92      -9.7499      2.00000
     93      -9.6571      2.00000
     94      -9.5511      2.00000
     95      -9.5419      2.00000
     96      -9.4965      2.00000
     97      -9.2800      2.00000
     98      -9.1500      2.00000
     99      -8.9887      2.00000
    100      -8.9655      2.00000
    101      -8.8747      2.00000
    102      -8.7434      2.00000
    103      -8.7415      2.00000
    104      -8.7310      2.00000
    105      -8.6920      2.00000
    106      -8.6234      2.00000
    107      -8.5675      2.00000
    108      -8.5185      2.00000
    109      -8.5075      2.00000
    110      -8.4656      2.00000
    111      -8.3458      2.00000
    112      -8.3318      2.00000
    113      -8.2511      2.00000
    114      -8.2080      2.00000
    115      -8.1959      2.00000
    116      -8.0936      2.00000
    117      -8.0665      2.00000
    118      -8.0556      2.00000
    119      -8.0091      2.00000
    120      -7.8688      2.00000
    121      -7.8667      2.00000
    122      -7.8547      2.00000
    123      -7.8444      2.00000
    124      -7.8323      2.00000
    125      -7.7226      2.00000
    126      -7.5847      2.00000
    127      -7.5518      2.00000
    128      -7.5327      2.00000
    129      -7.5275      2.00000
    130      -7.5217      2.00000
    131      -7.4855      2.00000
    132      -7.4808      2.00000
    133      -7.4700      2.00000
    134      -7.3979      2.00000
    135      -7.2619      2.00000
    136      -7.2318      2.00000
    137      -7.1983      2.00000
    138      -7.1648      2.00000
    139      -7.1245      2.00000
    140      -7.0792      2.00000
    141      -7.0741      2.00000
    142      -7.0459      2.00000
    143      -6.9769      2.00000
    144      -6.7597      2.00000
    145      -6.7195      2.00000
    146      -6.6290      2.00000
    147      -6.6000      2.00000
    148      -6.5566      2.00000
    149      -6.4860      2.00000
    150      -6.4849      2.00000
    151      -6.4737      2.00000
    152      -6.4454      2.00000
    153      -6.4057      2.00000
    154      -6.3897      2.00000
    155      -6.3414      2.00000
    156      -6.2663      2.00000
    157      -6.2338      2.00000
    158      -6.2308      2.00000
    159      -6.2203      2.00000
    160      -6.2100      2.00000
    161      -6.2089      2.00000
    162      -6.2056      2.00000
    163      -6.1924      2.00000
    164      -6.1777      2.00000
    165      -6.1648      2.00000
    166      -6.1577      2.00000
    167      -6.1479      2.00000
    168      -6.1297      2.00000
    169      -6.1218      2.00000
    170      -6.1135      2.00000
    171      -6.0841      2.00000
    172      -6.0498      2.00000
    173      -6.0360      2.00000
    174      -6.0189      2.00000
    175      -5.9976      2.00000
    176      -5.9606      2.00000
    177      -5.8926      2.00000
    178      -5.7997      2.00000
    179      -5.7960      2.00000
    180      -5.6506      2.00000
    181      -5.5699      2.00000
    182      -5.5311      2.00000
    183      -5.4069      2.00000
    184      -5.1749      2.00000
    185      -4.9150      2.00000
    186      -4.7211      2.00000
    187      -4.6965      2.00000
    188      -4.5798      2.00000
    189      -4.5336      2.00000
    190      -4.5296      2.00000
    191      -4.5149      2.00000
    192      -4.5048      2.00000
    193      -4.4994      2.00000
    194      -4.4931      2.00000
    195      -4.4368      2.00000
    196      -4.4287      2.00000
    197      -4.3869      2.00000
    198      -3.9607      2.00000
    199      -2.9083      0.00003
    200      -2.7713      0.00000
    201      -2.6721      0.00000
    202      -2.5764      0.00000
    203      -2.3742      0.00000
    204      -2.3616      0.00000
    205      -2.3188      0.00000
    206      -2.2916      0.00000
    207      -2.2550      0.00000
    208      -2.1646      0.00000
    209      -2.1541      0.00000
    210      -2.1067      0.00000
    211      -2.0966      0.00000
    212      -2.0374      0.00000
    213      -2.0302      0.00000
    214      -1.9815      0.00000
    215      -1.9741      0.00000
    216      -1.9516      0.00000
    217      -1.8343      0.00000
    218      -1.8207      0.00000
    219      -1.8131      0.00000
    220      -1.6502      0.00000
    221      -1.6224      0.00000
    222      -1.6043      0.00000
    223      -1.5731      0.00000
    224      -1.5272      0.00000
    225      -1.4564      0.00000
    226      -1.3484      0.00000
    227      -1.3302      0.00000
    228      -1.2839      0.00000
    229      -1.2725      0.00000
    230      -1.2447      0.00000
    231      -1.1794      0.00000
    232      -1.1022      0.00000
    233      -0.9845      0.00000
    234      -0.9404      0.00000
    235      -0.9125      0.00000
    236      -0.9100      0.00000
    237      -0.8986      0.00000
    238      -0.8468      0.00000
    239      -0.8326      0.00000
    240      -0.7752      0.00000
    241      -0.7309      0.00000
    242      -0.7111      0.00000
    243      -0.6970      0.00000
    244      -0.6201      0.00000
    245      -0.5928      0.00000
    246      -0.5785      0.00000
    247      -0.5083      0.00000
    248      -0.4845      0.00000
    249      -0.4834      0.00000
    250      -0.4547      0.00000
    251      -0.3015      0.00000
    252      -0.2331      0.00000
    253      -0.1994      0.00000
    254      -0.0930      0.00000
    255      -0.0732      0.00000
    256       0.0153      0.00000
    257       0.0328      0.00000
    258       0.1866      0.00000
    259       0.2441      0.00000
    260       0.2606      0.00000
    261       0.3023      0.00000
    262       0.3164      0.00000
    263       0.3605      0.00000
    264       0.3755      0.00000
    265       0.3791      0.00000
    266       0.3853      0.00000
    267       0.4668      0.00000
    268       0.4980      0.00000
    269       0.5735      0.00000
    270       0.7633      0.00000
    271       0.8364      0.00000
    272       0.9022      0.00000
    273       1.0322      0.00000
    274       1.0410      0.00000
    275       1.0922      0.00000
    276       1.1212      0.00000

 k-point     6 :      -0.1250    0.3333    0.0000
  band No.  band energies     occupation 
      1     -20.0263      2.00000
      2     -20.0051      2.00000
      3     -19.9638      2.00000
      4     -19.8781      2.00000
      5     -19.8681      2.00000
      6     -19.8309      2.00000
      7     -19.7997      2.00000
      8     -19.7809      2.00000
      9     -19.7614      2.00000
     10     -19.3663      2.00000
     11     -19.3618      2.00000
     12     -19.3466      2.00000
     13     -19.2925      2.00000
     14     -19.2546      2.00000
     15     -19.2505      2.00000
     16     -19.1451      2.00000
     17     -19.0796      2.00000
     18     -19.0435      2.00000
     19     -15.7307      2.00000
     20     -15.6921      2.00000
     21     -15.6790      2.00000
     22     -15.6070      2.00000
     23     -15.5648      2.00000
     24     -15.5638      2.00000
     25     -15.5521      2.00000
     26     -15.5475      2.00000
     27     -15.5185      2.00000
     28     -15.4401      2.00000
     29     -15.4014      2.00000
     30     -15.3440      2.00000
     31     -15.3044      2.00000
     32     -15.2434      2.00000
     33     -15.2173      2.00000
     34     -15.1975      2.00000
     35     -15.1869      2.00000
     36     -15.0097      2.00000
     37     -13.7520      2.00000
     38     -13.3667      2.00000
     39     -13.3407      2.00000
     40     -13.2964      2.00000
     41     -13.1401      2.00000
     42     -13.0383      2.00000
     43     -12.9664      2.00000
     44     -12.8999      2.00000
     45     -12.8890      2.00000
     46     -12.8673      2.00000
     47     -12.7749      2.00000
     48     -12.7526      2.00000
     49     -12.7508      2.00000
     50     -12.6824      2.00000
     51     -12.6001      2.00000
     52     -12.4468      2.00000
     53     -12.4186      2.00000
     54     -12.3877      2.00000
     55     -12.3667      2.00000
     56     -12.2869      2.00000
     57     -12.2802      2.00000
     58     -12.2742      2.00000
     59     -12.2236      2.00000
     60     -12.2216      2.00000
     61     -12.1953      2.00000
     62     -12.1634      2.00000
     63     -12.1590      2.00000
     64     -11.2999      2.00000
     65     -11.2850      2.00000
     66     -11.2463      2.00000
     67     -11.2254      2.00000
     68     -11.1788      2.00000
     69     -11.1314      2.00000
     70     -11.1047      2.00000
     71     -11.0890      2.00000
     72     -10.7926      2.00000
     73     -10.5865      2.00000
     74     -10.5792      2.00000
     75     -10.5371      2.00000
     76     -10.4920      2.00000
     77     -10.4802      2.00000
     78     -10.4266      2.00000
     79     -10.4038      2.00000
     80     -10.3668      2.00000
     81     -10.2966      2.00000
     82     -10.2486      2.00000
     83     -10.1980      2.00000
     84     -10.0756      2.00000
     85     -10.0174      2.00000
     86     -10.0133      2.00000
     87      -9.9909      2.00000
     88      -9.9888      2.00000
     89      -9.7958      2.00000
     90      -9.7696      2.00000
     91      -9.7142      2.00000
     92      -9.6057      2.00000
     93      -9.4939      2.00000
     94      -9.4812      2.00000
     95      -9.4539      2.00000
     96      -9.4360      2.00000
     97      -9.3761      2.00000
     98      -9.2967      2.00000
     99      -9.2004      2.00000
    100      -8.9925      2.00000
    101      -8.8904      2.00000
    102      -8.7263      2.00000
    103      -8.7051      2.00000
    104      -8.6665      2.00000
    105      -8.6126      2.00000
    106      -8.6120      2.00000
    107      -8.6026      2.00000
    108      -8.5994      2.00000
    109      -8.4942      2.00000
    110      -8.4902      2.00000
    111      -8.4811      2.00000
    112      -8.4170      2.00000
    113      -8.4147      2.00000
    114      -8.3584      2.00000
    115      -8.1044      2.00000
    116      -8.0861      2.00000
    117      -8.0656      2.00000
    118      -7.9179      2.00000
    119      -7.8838      2.00000
    120      -7.8100      2.00000
    121      -7.7629      2.00000
    122      -7.7495      2.00000
    123      -7.7479      2.00000
    124      -7.7434      2.00000
    125      -7.7084      2.00000
    126      -7.6631      2.00000
    127      -7.6003      2.00000
    128      -7.5671      2.00000
    129      -7.5300      2.00000
    130      -7.5297      2.00000
    131      -7.5009      2.00000
    132      -7.4888      2.00000
    133      -7.4520      2.00000
    134      -7.4458      2.00000
    135      -7.4089      2.00000
    136      -7.3570      2.00000
    137      -7.2584      2.00000
    138      -7.2350      2.00000
    139      -7.1985      2.00000
    140      -7.1613      2.00000
    141      -7.1053      2.00000
    142      -6.9606      2.00000
    143      -6.7943      2.00000
    144      -6.7527      2.00000
    145      -6.7240      2.00000
    146      -6.7222      2.00000
    147      -6.6473      2.00000
    148      -6.6268      2.00000
    149      -6.5952      2.00000
    150      -6.4567      2.00000
    151      -6.4180      2.00000
    152      -6.3949      2.00000
    153      -6.3689      2.00000
    154      -6.3221      2.00000
    155      -6.2964      2.00000
    156      -6.2735      2.00000
    157      -6.2566      2.00000
    158      -6.2520      2.00000
    159      -6.2423      2.00000
    160      -6.2410      2.00000
    161      -6.2317      2.00000
    162      -6.2195      2.00000
    163      -6.1821      2.00000
    164      -6.1741      2.00000
    165      -6.1720      2.00000
    166      -6.1675      2.00000
    167      -6.1511      2.00000
    168      -6.1454      2.00000
    169      -6.1272      2.00000
    170      -6.1007      2.00000
    171      -6.0382      2.00000
    172      -5.9525      2.00000
    173      -5.9006      2.00000
    174      -5.8914      2.00000
    175      -5.8898      2.00000
    176      -5.7524      2.00000
    177      -5.7245      2.00000
    178      -5.7138      2.00000
    179      -5.6797      2.00000
    180      -5.6716      2.00000
    181      -5.5525      2.00000
    182      -5.5403      2.00000
    183      -5.4508      2.00000
    184      -5.4368      2.00000
    185      -5.3362      2.00000
    186      -5.1112      2.00000
    187      -4.8332      2.00000
    188      -4.5544      2.00000
    189      -4.5486      2.00000
    190      -4.5359      2.00000
    191      -4.5039      2.00000
    192      -4.5009      2.00000
    193      -4.4874      2.00000
    194      -4.4654      2.00000
    195      -4.4459      2.00000
    196      -4.4020      2.00000
    197      -4.2296      2.00000
    198      -3.4683      1.99984
    199      -2.8798      0.00001
    200      -2.6725      0.00000
    201      -2.6265      0.00000
    202      -2.5271      0.00000
    203      -2.4619      0.00000
    204      -2.3983      0.00000
    205      -2.3948      0.00000
    206      -2.3406      0.00000
    207      -2.3131      0.00000
    208      -2.3079      0.00000
    209      -2.1190      0.00000
    210      -2.1030      0.00000
    211      -2.1015      0.00000
    212      -2.0865      0.00000
    213      -2.0471      0.00000
    214      -2.0033      0.00000
    215      -1.9588      0.00000
    216      -1.9486      0.00000
    217      -1.9433      0.00000
    218      -1.9392      0.00000
    219      -1.9372      0.00000
    220      -1.7039      0.00000
    221      -1.4920      0.00000
    222      -1.4875      0.00000
    223      -1.4442      0.00000
    224      -1.4192      0.00000
    225      -1.4047      0.00000
    226      -1.3614      0.00000
    227      -1.3172      0.00000
    228      -1.2970      0.00000
    229      -1.2797      0.00000
    230      -1.1726      0.00000
    231      -1.1539      0.00000
    232      -1.1318      0.00000
    233      -1.1176      0.00000
    234      -0.9213      0.00000
    235      -0.8893      0.00000
    236      -0.8650      0.00000
    237      -0.8537      0.00000
    238      -0.8437      0.00000
    239      -0.8394      0.00000
    240      -0.8092      0.00000
    241      -0.8089      0.00000
    242      -0.7799      0.00000
    243      -0.7410      0.00000
    244      -0.6888      0.00000
    245      -0.6220      0.00000
    246      -0.6131      0.00000
    247      -0.4870      0.00000
    248      -0.4798      0.00000
    249      -0.4571      0.00000
    250      -0.4130      0.00000
    251      -0.3825      0.00000
    252      -0.3210      0.00000
    253      -0.2495      0.00000
    254      -0.2005      0.00000
    255      -0.0077      0.00000
    256       0.0221      0.00000
    257       0.0265      0.00000
    258       0.1958      0.00000
    259       0.2475      0.00000
    260       0.2717      0.00000
    261       0.2771      0.00000
    262       0.2847      0.00000
    263       0.3458      0.00000
    264       0.3474      0.00000
    265       0.3528      0.00000
    266       0.4072      0.00000
    267       0.5451      0.00000
    268       0.6395      0.00000
    269       0.6413      0.00000
    270       0.7199      0.00000
    271       0.7464      0.00000
    272       1.0585      0.00000
    273       1.1350      0.00000
    274       1.1582      0.00000
    275       1.2094      0.00000
    276       1.2133      0.00000


--------------------------------------------------------------------------------------------------------


 soft charge-density along one line, spin component           1
         0         1         2         3         4         5         6         7         8         9
 total charge-density along one line
 
 pseudopotential strength for first ion, spin component:           1
  6.868  10.489  -0.007  -0.000   0.011  -0.011  -0.000   0.017
 10.489  16.016  -0.011  -0.000   0.016  -0.017  -0.000   0.025
 -0.007  -0.011  -2.384   0.000  -0.000  -4.108   0.000  -0.002
 -0.000  -0.000   0.000  -2.383   0.000   0.000  -4.105   0.000
  0.011   0.016  -0.000   0.000  -2.384  -0.002   0.000  -4.109
 -0.011  -0.017  -4.108   0.000  -0.002  -6.881   0.000  -0.005
 -0.000  -0.000   0.000  -4.105   0.000   0.000  -6.874   0.000
  0.017   0.025  -0.002   0.000  -4.109  -0.005   0.000  -6.885
 total augmentation occupancy for first ion, spin component:           1
  3.582  -0.930   0.028  -0.008   0.487   0.017   0.003  -0.229
 -0.930   0.279   0.053   0.002  -0.281  -0.021  -0.001   0.104
  0.028   0.053   3.254  -0.003   0.732  -0.885   0.001  -0.211
 -0.008   0.002  -0.003   2.305  -0.009   0.001  -0.590   0.002
  0.487  -0.281   0.732  -0.009   3.744  -0.212   0.002  -1.027
  0.017  -0.021  -0.885   0.001  -0.212   0.254  -0.000   0.064
  0.003  -0.001   0.001  -0.590   0.002  -0.000   0.156  -0.001
 -0.229   0.104  -0.211   0.002  -1.027   0.064  -0.001   0.294


------------------------ aborting loop because EDIFF is reached ----------------------------------------





 total charge

# of ion       s       p       d       tot
------------------------------------------
    1        0.734   1.305   0.000   2.040
    2        0.735   1.308   0.000   2.043
    3        0.735   1.308   0.000   2.043
    4        0.735   1.308   0.000   2.043
    5        0.735   1.308   0.000   2.043
    6        0.735   1.308   0.000   2.043
    7        0.735   1.308   0.000   2.043
    8        0.735   1.308   0.000   2.043
    9        0.735   1.308   0.000   2.043
   10        0.735   1.308   0.000   2.043
   11        0.735   1.308   0.000   2.043
   12        0.735   1.308   0.000   2.043
   13        0.735   1.308   0.000   2.043
   14        0.735   1.308   0.000   2.043
   15        0.735   1.308   0.000   2.043
   16        0.735   1.308   0.000   2.043
   17        0.735   1.308   0.000   2.043
   18        0.735   1.308   0.000   2.043
   19        0.695   1.335   0.000   2.030
   20        0.695   1.333   0.000   2.027
   21        0.695   1.333   0.000   2.027
   22        0.695   1.333   0.000   2.027
   23        0.695   1.333   0.000   2.027
   24        0.695   1.333   0.000   2.027
   25        0.695   1.333   0.000   2.027
   26        0.695   1.333   0.000   2.027
   27        0.695   1.333   0.000   2.027
   28        0.695   1.333   0.000   2.027
   29        0.695   1.332   0.000   2.027
   30        0.695   1.333   0.000   2.027
   31        0.695   1.333   0.000   2.027
   32        0.695   1.333   0.000   2.027
   33        0.695   1.333   0.000   2.027
   34        0.695   1.333   0.000   2.027
   35        0.695   1.333   0.000   2.027
   36        0.695   1.333   0.000   2.027
   37        0.713   1.353   0.000   2.066
   38        0.713   1.355   0.000   2.067
   39        0.713   1.355   0.000   2.067
   40        0.713   1.355   0.000   2.067
   41        0.713   1.355   0.000   2.067
   42        0.713   1.355   0.000   2.067
   43        0.713   1.355   0.000   2.067
   44        0.713   1.355   0.000   2.067
   45        0.713   1.354   0.000   2.067
   46        0.713   1.354   0.000   2.067
   47        0.713   1.355   0.000   2.067
   48        0.713   1.355   0.000   2.067
   49        0.713   1.355   0.000   2.067
   50        0.713   1.355   0.000   2.067
   51        0.713   1.355   0.000   2.067
   52        0.713   1.355   0.000   2.067
   53        0.713   1.355   0.000   2.067
   54        0.713   1.355   0.000   2.067
   55        0.703   1.312   0.000   2.015
   56        0.702   1.311   0.000   2.013
   57        0.702   1.311   0.000   2.013
   58        0.702   1.311   0.000   2.013
   59        0.702   1.311   0.000   2.013
   60        0.702   1.311   0.000   2.013
   61        0.702   1.311   0.000   2.013
   62        0.702   1.311   0.000   2.013
   63        0.702   1.311   0.000   2.013
   64        0.702   1.311   0.000   2.013
   65        0.702   1.311   0.000   2.013
   66        0.702   1.311   0.000   2.013
   67        0.702   1.311   0.000   2.013
   68        0.702   1.311   0.000   2.013
   69        0.702   1.311   0.000   2.013
   70        0.702   1.311   0.000   2.013
   71        0.702   1.311   0.000   2.013
   72        0.702   1.311   0.000   2.013
   73        0.699   1.201   0.000   1.900
   74        0.699   1.202   0.000   1.901
   75        0.699   1.202   0.000   1.901
   76        0.699   1.202   0.000   1.901
   77        0.699   1.202   0.000   1.901
   78        0.699   1.202   0.000   1.901
   79        0.699   1.202   0.000   1.901
   80        0.699   1.202   0.000   1.901
   81        0.699   1.202   0.000   1.901
   82        0.699   1.202   0.000   1.901
   83        0.699   1.202   0.000   1.901
   84        0.699   1.202   0.000   1.901
   85        0.699   1.202   0.000   1.901
   86        0.699   1.202   0.000   1.901
   87        0.699   1.202   0.000   1.901
   88        0.699   1.202   0.000   1.901
   89        0.699   1.202   0.000   1.901
   90        0.699   1.202   0.000   1.901
   91        0.699   1.202   0.000   1.901
   92        0.699   1.202   0.000   1.901
   93        0.699   1.202   0.000   1.901
   94        0.699   1.202   0.000   1.901
   95        0.699   1.202   0.000   1.901
   96        0.699   1.202   0.000   1.901
   97        0.699   1.202   0.000   1.901
   98        0.699   1.202   0.000   1.901
   99        0.699   1.202   0.000   1.901
  100        0.699   1.202   0.000   1.901
  101        0.699   1.202   0.000   1.901
  102        0.699   1.202   0.000   1.901
  103        0.699   1.202   0.000   1.901
  104        0.699   1.202   0.000   1.901
  105        0.699   1.202   0.000   1.901
  106        0.699   1.202   0.000   1.901
  107        0.699   1.202   0.000   1.901
  108        0.699   1.202   0.000   1.901
  109        0.719   1.421   0.000   2.139
  110        0.719   1.421   0.000   2.139
  111        0.719   1.421   0.000   2.140
  112        0.719   1.421   0.000   2.139
  113        0.719   1.421   0.000   2.139
  114        0.719   1.421   0.000   2.140
  115        0.719   1.421   0.000   2.140
  116        0.719   1.421   0.000   2.139
  117        0.719   1.421   0.000   2.140
  118        0.719   1.421   0.000   2.140
  119        0.719   1.421   0.000   2.139
  120        0.719   1.421   0.000   2.140
  121        0.719   1.421   0.000   2.140
  122        0.719   1.421   0.000   2.139
  123        0.719   1.421   0.000   2.139
  124        0.719   1.421   0.000   2.140
  125        0.719   1.421   0.000   2.139
  126        0.719   1.421   0.000   2.139
  127        0.363   0.016   0.000   0.378
  128        0.363   0.016   0.000   0.378
  129        0.363   0.016   0.000   0.378
  130        0.363   0.016   0.000   0.378
  131        0.363   0.016   0.000   0.378
  132        0.363   0.016   0.000   0.378
  133        0.363   0.016   0.000   0.378
  134        0.363   0.016   0.000   0.378
  135        0.363   0.016   0.000   0.378
  136        0.362   0.016   0.000   0.378
  137        0.363   0.016   0.000   0.378
  138        0.363   0.016   0.000   0.378
  139        0.363   0.016   0.000   0.378
  140        0.363   0.016   0.000   0.378
  141        0.363   0.016   0.000   0.378
  142        0.363   0.016   0.000   0.378
  143        0.363   0.016   0.000   0.378
  144        0.363   0.016   0.000   0.378
--------------------------------------------------
tot         95.839 164.623   0.000 260.462
 
    CHARGE:  cpu time      7.0854: real time      7.1390
    FORLOC:  cpu time      0.4609: real time      0.4638
    FORNL :  cpu time     28.8366: real time     29.1209
    STRESS:  cpu time     86.0384: real time     86.8047
    FORCOR:  cpu time      1.2641: real time      1.2716
    FORHAR:  cpu time      0.7295: real time      0.7336
    MIXING:  cpu time      0.0329: real time      0.0331
    OFIELD:  cpu time      0.0001: real time      0.0001

 ---------------------------------------------------------------------------------------------

         DFTD3 V3.0 Rev 1        
 DF pbe       
 parameters
 k1-k3        =   16.0000    1.3333   -4.0000
 Edisp (eV)  -12.67681

 E6    (eV) :    -8.3212
 E8    (eV) :    -4.3556
 % E8        : 34.36
    FORVDW:  cpu time      0.5575: real time      0.5604

  FORCE on cell =-STRESS in cart. coord.  units (eV):
  Direction    XX          YY          ZZ          XY          YZ          ZX
  --------------------------------------------------------------------------------------
  Alpha Z   138.35983   138.35983   138.35983
  Ewald   76912.08793 76238.95776-83526.17531   431.58866     0.05631    -0.14927
  Hartree 75690.06519 75330.46793-74219.63105   179.81892     0.00801     0.08824
  E(xc)   -1253.30510 -1252.94831 -1270.18897     2.12718     0.00031     0.00215
  Local  ************************154618.02097  -589.58606    -0.06578     0.01261
  n-local  -106.16264  -119.25320  -109.02658    -0.73982     0.00015     0.02082
  augment    13.99894    14.09208    15.95687    -0.17758     0.00001     0.00042
  Kinetic  4169.12853  4209.62066  4353.33008   -22.97783    -0.02080    -0.13969
  Fock        0.00000     0.00000     0.00000     0.00000     0.00000     0.00000
  vdW       -13.40844   -12.87228    -1.51399    -0.05181     0.00004     0.00010
  -------------------------------------------------------------------------------------
  Total      -0.08036    -0.06106    -0.86814     0.00166    -0.02176    -0.16462
  in kB      -0.01534    -0.01165    -0.16568     0.00032    -0.00415    -0.03142
  external pressure =       -0.06 kB  Pullay stress =        0.00 kB


 VOLUME and BASIS-vectors are now :
 -----------------------------------------------------------------------------
  energy-cutoff  :      600.00
  volume of cell :     8395.25
      direct lattice vectors                 reciprocal lattice vectors
    17.098825320 -0.107897923  0.000000000     0.058486047  0.000395803  0.000000000
    -0.127586183 18.852855476  0.000000000     0.000334725  0.053044628  0.000000000
     0.000000000  0.000000000 26.044057846     0.000000000  0.000000000  0.038396474

  length of vectors
    17.099165748 18.853287189 26.044057846     0.058487387  0.053045684  0.038396474


 FORCES acting on ions
    electron-ion (+dipol)            ewald-force                    non-local-force                 convergence-correction
 -----------------------------------------------------------------------------------------------
   0.529E+02 -.308E+02 -.340E+00   -.570E+02 0.337E+02 0.349E+00   0.419E+01 -.286E+01 0.355E-01   -.594E-07 0.281E-06 -.543E-05
   0.531E+02 -.307E+02 0.915E-02   -.572E+02 0.336E+02 -.931E-02   0.417E+01 -.285E+01 -.210E-02   -.311E-07 -.943E-07 -.553E-05
   0.531E+02 -.307E+02 -.131E-02   -.572E+02 0.336E+02 0.113E-02   0.417E+01 -.285E+01 0.230E-02   -.621E-07 0.188E-06 -.546E-05
   0.531E+02 -.307E+02 -.575E-03   -.573E+02 0.336E+02 0.608E-03   0.417E+01 -.285E+01 0.845E-03   0.201E-06 0.322E-06 -.542E-05
   0.531E+02 -.307E+02 0.691E-03   -.573E+02 0.336E+02 -.708E-03   0.417E+01 -.285E+01 0.688E-03   0.340E-07 0.281E-06 -.551E-05
   0.531E+02 -.307E+02 -.206E-03   -.573E+02 0.336E+02 0.225E-03   0.417E+01 -.284E+01 -.211E-03   0.207E-06 0.317E-06 -.545E-05
   0.531E+02 -.307E+02 -.311E-03   -.573E+02 0.336E+02 0.327E-03   0.417E+01 -.285E+01 -.136E-03   0.324E-06 0.280E-06 -.552E-05
   0.531E+02 -.307E+02 0.409E-03   -.573E+02 0.336E+02 -.465E-03   0.417E+01 -.285E+01 -.832E-03   -.153E-06 0.468E-06 -.552E-05
   0.531E+02 -.307E+02 -.120E-03   -.573E+02 0.336E+02 0.185E-03   0.417E+01 -.284E+01 0.356E-03   0.936E-07 0.467E-06 -.542E-05
   -.531E+02 0.307E+02 -.264E-01   0.572E+02 -.335E+02 0.266E-01   -.417E+01 0.285E+01 0.930E-02   -.767E-07 -.319E-06 -.552E-05
   -.531E+02 0.308E+02 0.518E-02   0.573E+02 -.336E+02 -.498E-02   -.417E+01 0.285E+01 -.767E-03   -.178E-06 -.596E-06 -.554E-05
   -.531E+02 0.307E+02 -.785E-03   0.573E+02 -.336E+02 0.871E-03   -.417E+01 0.285E+01 -.146E-03   -.148E-06 -.249E-06 -.548E-05
   -.531E+02 0.308E+02 -.353E-02   0.572E+02 -.336E+02 0.366E-02   -.417E+01 0.284E+01 -.914E-04   0.592E-07 -.490E-06 -.546E-05
   -.531E+02 0.307E+02 0.214E-02   0.573E+02 -.336E+02 -.220E-02   -.417E+01 0.285E+01 0.827E-03   -.140E-06 -.215E-06 -.544E-05
   -.531E+02 0.307E+02 -.474E-03   0.573E+02 -.336E+02 0.500E-03   -.417E+01 0.285E+01 0.852E-03   0.419E-08 -.334E-06 -.545E-05
   -.531E+02 0.307E+02 -.126E-03   0.573E+02 -.336E+02 0.117E-03   -.417E+01 0.285E+01 0.227E-02   0.149E-06 -.398E-06 -.556E-05
   -.531E+02 0.307E+02 0.157E-03   0.573E+02 -.336E+02 -.212E-03   -.417E+01 0.285E+01 -.187E-02   -.379E-07 -.244E-06 -.553E-05
   -.531E+02 0.307E+02 -.142E-03   0.573E+02 -.336E+02 0.981E-04   -.417E+01 0.285E+01 0.278E-03   0.690E-07 -.256E-06 -.546E-05
   -.543E+02 -.242E+02 0.299E+00   0.571E+02 0.275E+02 -.304E+00   -.275E+01 -.333E+01 -.163E-01   0.885E-07 -.103E-05 -.583E-05
   -.542E+02 -.243E+02 0.121E-02   0.569E+02 0.276E+02 -.108E-02   -.276E+01 -.334E+01 -.926E-03   0.814E-07 -.121E-05 -.577E-05
   -.542E+02 -.243E+02 -.918E-02   0.569E+02 0.276E+02 0.959E-02   -.276E+01 -.334E+01 0.928E-03   0.951E-07 -.107E-05 -.582E-05
   -.542E+02 -.243E+02 0.632E-03   0.569E+02 0.276E+02 -.622E-03   -.276E+01 -.334E+01 0.136E-02   -.681E-07 -.132E-05 -.579E-05
   -.542E+02 -.243E+02 0.307E-03   0.569E+02 0.276E+02 -.253E-03   -.276E+01 -.334E+01 -.826E-03   -.213E-07 -.117E-05 -.585E-05
   -.542E+02 -.243E+02 -.764E-03   0.569E+02 0.276E+02 0.729E-03   -.276E+01 -.334E+01 0.190E-03   -.111E-06 -.113E-05 -.575E-05
   -.542E+02 -.243E+02 0.318E-03   0.569E+02 0.276E+02 -.342E-03   -.276E+01 -.334E+01 0.120E-02   -.529E-07 -.139E-05 -.573E-05
   -.542E+02 -.243E+02 0.116E-03   0.569E+02 0.276E+02 -.158E-03   -.276E+01 -.334E+01 0.190E-02   0.112E-06 -.116E-05 -.579E-05
   -.542E+02 -.243E+02 -.388E-03   0.569E+02 0.276E+02 0.455E-03   -.276E+01 -.334E+01 -.187E-02   -.761E-07 -.121E-05 -.578E-05
   0.541E+02 0.243E+02 -.642E-02   -.569E+02 -.276E+02 0.651E-02   0.276E+01 0.334E+01 -.160E-02   0.476E-08 0.147E-05 -.586E-05
   0.542E+02 0.243E+02 0.213E-01   -.569E+02 -.277E+02 -.286E-01   0.276E+01 0.334E+01 -.400E-04   0.660E-07 0.140E-05 -.575E-05
   0.542E+02 0.243E+02 0.515E-03   -.569E+02 -.276E+02 -.668E-03   0.276E+01 0.334E+01 0.127E-02   -.237E-07 0.150E-05 -.579E-05
   0.542E+02 0.243E+02 -.198E-02   -.569E+02 -.276E+02 0.222E-02   0.276E+01 0.334E+01 -.113E-03   -.697E-07 0.956E-06 -.580E-05
   0.542E+02 0.243E+02 0.341E-02   -.569E+02 -.276E+02 -.346E-02   0.276E+01 0.334E+01 -.896E-03   -.863E-07 0.123E-05 -.577E-05
   0.542E+02 0.243E+02 0.436E-03   -.569E+02 -.276E+02 -.420E-03   0.276E+01 0.334E+01 0.134E-02   0.707E-07 0.105E-05 -.577E-05
   0.542E+02 0.243E+02 -.229E-03   -.569E+02 -.276E+02 0.222E-03   0.276E+01 0.334E+01 0.882E-03   -.172E-07 0.100E-05 -.574E-05
   0.542E+02 0.243E+02 0.166E-03   -.569E+02 -.276E+02 -.150E-03   0.276E+01 0.334E+01 -.934E-03   -.244E-06 0.142E-05 -.573E-05
   0.542E+02 0.243E+02 0.132E-03   -.569E+02 -.276E+02 -.793E-04   0.276E+01 0.334E+01 0.579E-04   -.370E-07 0.115E-05 -.583E-05
   0.223E+02 -.578E+02 -.182E+00   -.245E+02 0.625E+02 0.180E+00   0.217E+01 -.480E+01 0.176E-01   -.101E-05 -.157E-05 -.581E-05
   0.222E+02 -.580E+02 0.491E-02   -.244E+02 0.627E+02 -.503E-02   0.214E+01 -.479E+01 -.123E-02   -.940E-06 -.194E-05 -.578E-05
   0.222E+02 -.579E+02 -.174E-02   -.244E+02 0.627E+02 0.165E-02   0.214E+01 -.479E+01 -.148E-02   -.976E-06 -.192E-05 -.582E-05
   0.222E+02 -.579E+02 -.139E-03   -.244E+02 0.627E+02 0.128E-03   0.214E+01 -.479E+01 -.537E-03   -.105E-05 -.188E-05 -.582E-05
   0.222E+02 -.579E+02 0.293E-03   -.244E+02 0.627E+02 -.289E-03   0.214E+01 -.479E+01 -.968E-03   -.102E-05 -.200E-05 -.591E-05
   0.222E+02 -.579E+02 -.192E-03   -.244E+02 0.627E+02 0.171E-03   0.214E+01 -.479E+01 0.363E-03   -.879E-06 -.201E-05 -.575E-05
   0.222E+02 -.579E+02 -.739E-03   -.244E+02 0.627E+02 0.692E-03   0.214E+01 -.479E+01 0.891E-03   -.112E-05 -.199E-05 -.577E-05
   0.222E+02 -.579E+02 0.910E-03   -.244E+02 0.627E+02 -.915E-03   0.214E+01 -.479E+01 -.795E-03   -.136E-05 -.167E-05 -.582E-05
   0.222E+02 -.579E+02 -.630E-03   -.244E+02 0.627E+02 0.503E-03   0.214E+01 -.479E+01 0.371E-03   -.113E-05 -.196E-05 -.579E-05
   -.222E+02 0.579E+02 -.169E-02   0.244E+02 -.627E+02 0.414E-02   -.214E+01 0.480E+01 0.796E-03   0.113E-05 0.198E-05 -.585E-05
   -.222E+02 0.580E+02 0.244E-02   0.244E+02 -.627E+02 -.274E-02   -.214E+01 0.479E+01 0.264E-03   0.127E-05 0.218E-05 -.580E-05
   -.222E+02 0.579E+02 -.306E-03   0.244E+02 -.627E+02 0.319E-03   -.214E+01 0.479E+01 0.808E-03   0.117E-05 0.208E-05 -.583E-05
   -.222E+02 0.580E+02 -.179E-01   0.244E+02 -.628E+02 0.215E-01   -.214E+01 0.479E+01 0.137E-02   0.901E-06 0.183E-05 -.586E-05
   -.222E+02 0.579E+02 0.697E-02   0.244E+02 -.627E+02 -.754E-02   -.214E+01 0.479E+01 -.556E-03   0.852E-06 0.216E-05 -.580E-05
   -.222E+02 0.579E+02 -.442E-03   0.244E+02 -.627E+02 0.454E-03   -.214E+01 0.479E+01 -.542E-03   0.104E-05 0.191E-05 -.575E-05
   -.222E+02 0.579E+02 -.147E-03   0.244E+02 -.627E+02 0.163E-03   -.214E+01 0.479E+01 -.140E-02   0.112E-05 0.188E-05 -.581E-05
   -.222E+02 0.579E+02 0.189E-03   0.244E+02 -.627E+02 -.217E-03   -.214E+01 0.479E+01 -.126E-02   0.115E-05 0.179E-05 -.582E-05
   -.222E+02 0.579E+02 -.753E-04   0.244E+02 -.627E+02 0.556E-04   -.215E+01 0.479E+01 -.115E-03   0.121E-05 0.180E-05 -.582E-05
   -.339E+02 -.500E+02 0.188E+00   0.365E+02 0.548E+02 -.192E+00   -.261E+01 -.479E+01 -.197E-01   -.257E-06 -.349E-05 -.591E-05
   -.340E+02 -.498E+02 0.158E-02   0.366E+02 0.546E+02 -.149E-02   -.263E+01 -.479E+01 0.366E-02   0.634E-07 -.373E-05 -.581E-05
   -.340E+02 -.498E+02 -.559E-02   0.366E+02 0.546E+02 0.565E-02   -.263E+01 -.479E+01 0.578E-03   0.197E-07 -.348E-05 -.588E-05
   -.340E+02 -.498E+02 0.121E-03   0.366E+02 0.546E+02 -.136E-03   -.263E+01 -.479E+01 0.291E-03   -.457E-06 -.357E-05 -.587E-05
   -.340E+02 -.498E+02 0.243E-03   0.366E+02 0.546E+02 -.173E-03   -.263E+01 -.479E+01 0.244E-04   -.466E-06 -.350E-05 -.596E-05
   -.340E+02 -.498E+02 -.290E-03   0.366E+02 0.546E+02 0.293E-03   -.263E+01 -.479E+01 0.607E-03   -.394E-06 -.351E-05 -.580E-05
   -.340E+02 -.498E+02 0.793E-03   0.366E+02 0.546E+02 -.914E-03   -.263E+01 -.479E+01 -.872E-03   -.308E-06 -.371E-05 -.578E-05
   -.340E+02 -.498E+02 0.448E-03   0.366E+02 0.546E+02 -.419E-03   -.263E+01 -.479E+01 -.151E-03   -.389E-06 -.344E-05 -.586E-05
   -.340E+02 -.498E+02 -.151E-02   0.366E+02 0.546E+02 0.989E-03   -.263E+01 -.479E+01 -.990E-03   -.428E-06 -.347E-05 -.586E-05
   0.340E+02 0.498E+02 -.139E-02   -.366E+02 -.546E+02 0.307E-02   0.263E+01 0.479E+01 -.221E-02   0.348E-06 0.359E-05 -.591E-05
   0.340E+02 0.498E+02 0.272E-02   -.366E+02 -.546E+02 -.432E-02   0.263E+01 0.479E+01 0.559E-03   0.670E-06 0.354E-05 -.581E-05
   0.340E+02 0.498E+02 0.173E-03   -.366E+02 -.546E+02 -.243E-03   0.263E+01 0.479E+01 -.822E-03   0.385E-06 0.363E-05 -.587E-05
   0.339E+02 0.498E+02 -.695E-02   -.366E+02 -.546E+02 0.771E-02   0.263E+01 0.479E+01 0.462E-04   0.441E-06 0.322E-05 -.589E-05
   0.340E+02 0.498E+02 0.176E-01   -.366E+02 -.545E+02 -.198E-01   0.263E+01 0.479E+01 -.997E-03   0.411E-07 0.347E-05 -.587E-05
   0.340E+02 0.498E+02 0.407E-03   -.366E+02 -.546E+02 -.410E-03   0.263E+01 0.479E+01 0.302E-03   0.350E-06 0.339E-05 -.580E-05
   0.340E+02 0.498E+02 -.225E-03   -.366E+02 -.546E+02 0.213E-03   0.263E+01 0.479E+01 0.656E-03   0.356E-06 0.349E-05 -.580E-05
   0.340E+02 0.498E+02 0.152E-03   -.366E+02 -.546E+02 -.166E-03   0.263E+01 0.479E+01 0.360E-02   0.101E-06 0.346E-05 -.581E-05
   0.340E+02 0.498E+02 0.648E-04   -.366E+02 -.546E+02 -.524E-04   0.263E+01 0.479E+01 -.262E-02   0.191E-06 0.353E-05 -.591E-05
   -.878E+01 -.198E+02 -.235E+03   0.878E+01 0.203E+02 0.240E+03   -.150E+00 -.465E+00 -.470E+01   0.316E-06 -.124E-05 -.697E-05
   -.918E+01 -.199E+02 -.235E+03   0.918E+01 0.203E+02 0.240E+03   -.208E-02 -.467E+00 -.470E+01   0.579E-06 -.149E-05 -.687E-05
   -.918E+01 -.199E+02 -.235E+03   0.918E+01 0.203E+02 0.240E+03   -.935E-02 -.470E+00 -.470E+01   0.329E-06 -.132E-05 -.710E-05
   -.916E+01 -.199E+02 -.235E+03   0.916E+01 0.203E+02 0.240E+03   -.721E-02 -.472E+00 -.470E+01   0.167E-06 -.136E-05 -.717E-05
   -.916E+01 -.199E+02 -.235E+03   0.917E+01 0.203E+02 0.240E+03   -.671E-02 -.468E+00 -.470E+01   0.549E-07 -.127E-05 -.702E-05
   -.916E+01 -.199E+02 -.235E+03   0.917E+01 0.203E+02 0.240E+03   -.713E-02 -.467E+00 -.470E+01   0.195E-06 -.125E-05 -.701E-05
   -.916E+01 -.199E+02 -.235E+03   0.916E+01 0.203E+02 0.240E+03   -.273E-02 -.464E+00 -.470E+01   0.269E-06 -.151E-05 -.691E-05
   -.916E+01 -.199E+02 -.235E+03   0.917E+01 0.203E+02 0.240E+03   -.824E-02 -.471E+00 -.470E+01   0.713E-07 -.120E-05 -.676E-05
   -.916E+01 -.199E+02 -.235E+03   0.917E+01 0.203E+02 0.240E+03   -.505E-02 -.468E+00 -.470E+01   0.282E-07 -.132E-05 -.683E-05
   0.916E+01 0.198E+02 0.235E+03   -.916E+01 -.203E+02 -.240E+03   0.923E-02 0.471E+00 0.469E+01   -.412E-06 0.113E-05 -.565E-05
   0.915E+01 0.199E+02 0.235E+03   -.916E+01 -.203E+02 -.240E+03   0.135E-01 0.468E+00 0.469E+01   -.107E-06 0.993E-06 -.545E-05
   0.916E+01 0.199E+02 0.235E+03   -.916E+01 -.203E+02 -.240E+03   0.460E-02 0.468E+00 0.470E+01   -.380E-06 0.111E-05 -.560E-05
   0.916E+01 0.199E+02 0.235E+03   -.916E+01 -.203E+02 -.240E+03   0.785E-02 0.467E+00 0.470E+01   -.444E-06 0.613E-06 -.548E-05
   0.916E+01 0.198E+02 0.235E+03   -.916E+01 -.203E+02 -.240E+03   0.794E-02 0.470E+00 0.470E+01   -.562E-06 0.103E-05 -.559E-05
   0.916E+01 0.199E+02 0.235E+03   -.916E+01 -.203E+02 -.240E+03   0.673E-02 0.471E+00 0.470E+01   -.460E-06 0.923E-06 -.556E-05
   0.916E+01 0.199E+02 0.235E+03   -.917E+01 -.203E+02 -.240E+03   0.988E-02 0.468E+00 0.470E+01   -.422E-06 0.864E-06 -.567E-05
   0.916E+01 0.199E+02 0.235E+03   -.917E+01 -.203E+02 -.240E+03   0.425E-02 0.468E+00 0.469E+01   -.563E-06 0.109E-05 -.581E-05
   0.916E+01 0.199E+02 0.235E+03   -.916E+01 -.203E+02 -.240E+03   0.602E-02 0.469E+00 0.470E+01   -.567E-06 0.985E-06 -.588E-05
   -.900E+01 -.199E+02 0.235E+03   0.901E+01 0.203E+02 -.240E+03   -.954E-02 -.472E+00 0.471E+01   0.712E-06 -.852E-06 -.566E-05
   -.917E+01 -.199E+02 0.235E+03   0.918E+01 0.203E+02 -.240E+03   -.368E-02 -.467E+00 0.470E+01   0.832E-06 -.123E-05 -.569E-05
   -.917E+01 -.199E+02 0.235E+03   0.918E+01 0.203E+02 -.240E+03   -.914E-02 -.468E+00 0.470E+01   0.646E-06 -.939E-06 -.552E-05
   -.916E+01 -.199E+02 0.235E+03   0.916E+01 0.203E+02 -.240E+03   -.661E-02 -.471E+00 0.470E+01   0.508E-06 -.968E-06 -.543E-05
   -.916E+01 -.199E+02 0.235E+03   0.917E+01 0.203E+02 -.240E+03   -.661E-02 -.468E+00 0.470E+01   0.376E-06 -.860E-06 -.567E-05
   -.916E+01 -.199E+02 0.235E+03   0.917E+01 0.203E+02 -.240E+03   -.693E-02 -.468E+00 0.470E+01   0.506E-06 -.951E-06 -.546E-05
   -.916E+01 -.199E+02 0.235E+03   0.916E+01 0.203E+02 -.240E+03   -.462E-02 -.468E+00 0.470E+01   0.500E-06 -.122E-05 -.562E-05
   -.916E+01 -.199E+02 0.235E+03   0.917E+01 0.203E+02 -.240E+03   -.870E-02 -.470E+00 0.469E+01   0.356E-06 -.882E-06 -.585E-05
   -.916E+01 -.199E+02 0.235E+03   0.917E+01 0.203E+02 -.240E+03   -.592E-02 -.469E+00 0.470E+01   0.361E-06 -.945E-06 -.573E-05
   0.915E+01 0.198E+02 -.235E+03   -.915E+01 -.203E+02 0.240E+03   0.881E-02 0.472E+00 -.469E+01   -.828E-07 0.143E-05 -.705E-05
   0.915E+01 0.199E+02 -.235E+03   -.915E+01 -.204E+02 0.240E+03   0.921E-02 0.469E+00 -.470E+01   0.120E-06 0.128E-05 -.717E-05
   0.915E+01 0.199E+02 -.235E+03   -.916E+01 -.203E+02 0.240E+03   0.268E-02 0.465E+00 -.470E+01   -.862E-07 0.148E-05 -.700E-05
   0.916E+01 0.199E+02 -.235E+03   -.916E+01 -.204E+02 0.240E+03   0.752E-02 0.466E+00 -.470E+01   -.138E-06 0.101E-05 -.715E-05
   0.916E+01 0.198E+02 -.235E+03   -.916E+01 -.203E+02 0.240E+03   0.796E-02 0.470E+00 -.470E+01   -.249E-06 0.140E-05 -.702E-05
   0.916E+01 0.199E+02 -.235E+03   -.916E+01 -.203E+02 0.240E+03   0.724E-02 0.472E+00 -.470E+01   -.146E-06 0.120E-05 -.693E-05
   0.916E+01 0.199E+02 -.235E+03   -.917E+01 -.203E+02 0.240E+03   0.992E-02 0.469E+00 -.470E+01   -.229E-06 0.112E-05 -.688E-05
   0.916E+01 0.199E+02 -.235E+03   -.917E+01 -.203E+02 0.240E+03   0.244E-02 0.467E+00 -.470E+01   -.360E-06 0.142E-05 -.672E-05
   0.916E+01 0.199E+02 -.235E+03   -.916E+01 -.203E+02 0.240E+03   0.713E-02 0.470E+00 -.470E+01   -.220E-06 0.134E-05 -.672E-05
   0.122E+02 -.583E+02 -.355E-01   -.118E+02 0.628E+02 0.335E-01   -.419E+00 -.451E+01 0.468E-02   -.170E-05 -.251E-06 -.561E-05
   0.122E+02 -.582E+02 0.272E-01   -.118E+02 0.627E+02 -.273E-01   -.420E+00 -.451E+01 -.274E-02   -.143E-05 -.478E-06 -.558E-05
   0.123E+02 -.582E+02 -.130E-03   -.118E+02 0.627E+02 0.613E-04   -.424E+00 -.451E+01 -.176E-02   -.151E-05 -.253E-06 -.552E-05
   0.123E+02 -.582E+02 -.137E-02   -.119E+02 0.627E+02 0.152E-02   -.427E+00 -.451E+01 0.340E-03   -.137E-05 -.298E-06 -.551E-05
   0.123E+02 -.582E+02 0.137E-02   -.119E+02 0.627E+02 -.152E-02   -.420E+00 -.451E+01 0.992E-03   -.158E-05 -.387E-06 -.550E-05
   0.123E+02 -.582E+02 -.295E-04   -.119E+02 0.627E+02 0.459E-05   -.420E+00 -.451E+01 0.947E-03   -.134E-05 -.401E-06 -.554E-05
   0.123E+02 -.582E+02 -.265E-03   -.119E+02 0.627E+02 0.312E-03   -.425E+00 -.451E+01 0.292E-03   -.138E-05 -.400E-06 -.560E-05
   0.123E+02 -.582E+02 0.373E-03   -.119E+02 0.627E+02 -.323E-03   -.424E+00 -.451E+01 -.163E-02   -.163E-05 -.853E-07 -.552E-05
   0.123E+02 -.582E+02 0.210E-04   -.119E+02 0.627E+02 0.123E-04   -.420E+00 -.451E+01 -.126E-02   -.144E-05 -.144E-06 -.554E-05
   -.121E+02 0.582E+02 0.172E-01   0.116E+02 -.627E+02 -.186E-01   0.434E+00 0.451E+01 0.327E-02   0.159E-05 0.252E-06 -.551E-05
   -.123E+02 0.582E+02 0.250E-02   0.119E+02 -.627E+02 -.256E-02   0.424E+00 0.451E+01 -.160E-02   0.151E-05 0.223E-06 -.557E-05
   -.123E+02 0.582E+02 -.265E-02   0.119E+02 -.627E+02 0.289E-02   0.426E+00 0.451E+01 0.141E-03   0.149E-05 0.376E-06 -.552E-05
   -.123E+02 0.582E+02 -.125E-04   0.118E+02 -.627E+02 -.835E-05   0.420E+00 0.451E+01 0.934E-03   0.152E-05 0.295E-06 -.549E-05
   -.123E+02 0.582E+02 0.785E-03   0.119E+02 -.627E+02 -.787E-03   0.420E+00 0.451E+01 0.958E-03   0.128E-05 0.247E-06 -.555E-05
   -.123E+02 0.582E+02 -.800E-03   0.119E+02 -.627E+02 0.790E-03   0.427E+00 0.451E+01 0.484E-03   0.144E-05 0.310E-06 -.552E-05
   -.123E+02 0.582E+02 -.141E-04   0.119E+02 -.627E+02 -.200E-04   0.425E+00 0.451E+01 -.179E-02   0.155E-05 0.374E-06 -.553E-05
   -.123E+02 0.582E+02 0.168E-03   0.119E+02 -.627E+02 -.206E-03   0.421E+00 0.451E+01 -.472E-03   0.142E-05 0.275E-06 -.558E-05
   -.123E+02 0.582E+02 -.221E-03   0.119E+02 -.627E+02 0.222E-03   0.423E+00 0.451E+01 0.101E-02   0.147E-05 0.328E-06 -.548E-05
   0.679E-02 -.711E-02 0.926E+02   -.591E-02 0.688E-02 -.933E+02   -.424E-03 0.369E-04 0.690E+00   -.214E-07 -.386E-07 -.166E-05
   -.434E-02 0.157E-02 0.926E+02   0.370E-02 -.187E-02 -.933E+02   -.963E-04 -.372E-04 0.691E+00   -.715E-08 -.781E-07 -.154E-05
   -.263E-02 -.491E-03 0.926E+02   0.235E-02 0.327E-03 -.933E+02   -.317E-04 -.860E-05 0.691E+00   -.320E-07 -.172E-07 -.154E-05
   0.168E-02 0.148E-02 0.926E+02   -.158E-02 -.137E-02 -.933E+02   0.638E-04 0.585E-04 0.691E+00   0.193E-07 -.121E-07 -.156E-05
   -.691E-03 -.159E-02 0.926E+02   0.541E-03 0.142E-02 -.933E+02   -.423E-04 -.391E-04 0.691E+00   -.990E-08 -.923E-08 -.160E-05
   -.109E-02 0.374E-03 0.926E+02   0.104E-02 -.417E-03 -.933E+02   -.678E-04 -.349E-04 0.691E+00   0.182E-07 -.165E-07 -.158E-05
   0.582E-03 -.322E-03 0.926E+02   -.593E-03 0.241E-03 -.933E+02   -.917E-05 -.529E-04 0.691E+00   0.475E-07 -.682E-08 -.160E-05
   -.543E-04 0.472E-03 0.926E+02   0.103E-03 -.399E-03 -.933E+02   0.230E-04 -.430E-04 0.691E+00   -.214E-07 0.385E-07 -.163E-05
   -.743E-03 -.421E-03 0.926E+02   0.486E-03 0.179E-03 -.933E+02   -.522E-04 -.113E-03 0.691E+00   0.647E-08 0.336E-07 -.165E-05
   -.209E-01 -.809E-01 -.926E+02   0.205E-01 0.762E-01 0.933E+02   -.459E-02 -.597E-02 -.691E+00   0.161E-07 -.489E-08 -.273E-05
   -.852E-02 0.313E-02 -.926E+02   0.802E-02 -.366E-02 0.933E+02   -.131E-03 -.796E-04 -.691E+00   0.132E-08 -.710E-07 -.282E-05
   -.343E-02 -.652E-03 -.926E+02   0.314E-02 0.462E-03 0.933E+02   -.355E-04 -.674E-05 -.691E+00   -.323E-07 -.145E-07 -.283E-05
   0.225E-02 0.243E-02 -.926E+02   -.214E-02 -.238E-02 0.933E+02   0.376E-04 0.569E-04 -.691E+00   0.259E-07 0.277E-08 -.282E-05
   -.118E-02 -.236E-02 -.926E+02   0.860E-03 0.205E-02 0.933E+02   -.958E-04 -.873E-04 -.691E+00   -.267E-07 -.276E-07 -.280E-05
   -.133E-02 0.503E-03 -.926E+02   0.128E-02 -.543E-03 0.933E+02   -.349E-04 -.501E-04 -.691E+00   0.240E-07 -.129E-07 -.277E-05
   0.715E-03 -.386E-03 -.926E+02   -.706E-03 0.326E-03 0.933E+02   -.848E-05 -.478E-04 -.691E+00   0.662E-07 0.465E-08 -.275E-05
   -.878E-04 0.570E-03 -.926E+02   0.136E-03 -.511E-03 0.933E+02   0.252E-04 -.981E-05 -.691E+00   -.375E-07 0.378E-07 -.273E-05
   -.781E-03 -.426E-03 -.926E+02   0.565E-03 0.222E-03 0.933E+02   -.343E-04 -.927E-04 -.691E+00   0.268E-07 0.405E-07 -.271E-05
 -----------------------------------------------------------------------------------------------
   0.146E-01 -.599E-02 -.375E-01   -.557E-12 0.104E-12 -.166E-11   -.108E-01 0.226E-02 0.310E-01   0.201E-05 -.566E-06 -.778E-03
 
 
 POSITION                                       TOTAL-FORCE (eV/Angst)
 -----------------------------------------------------------------------------------
      2.81373      4.11310      4.02203         0.065099      0.025290      0.043976
      8.51333      4.07713      4.02203        -0.002432      0.006565     -0.002209
     14.21294      4.04117      4.02203        -0.004195      0.005302      0.002167
      2.77120     10.39738      4.02203         0.000758      0.007855      0.000923
      8.47081     10.36142      4.02203         0.001529      0.006532      0.000717
     14.17041     10.32545      4.02203         0.001627      0.010522     -0.000148
      2.72867     16.68167      4.02203         0.003025      0.006072     -0.000075
      8.42828     16.64570      4.02203        -0.001934      0.006267     -0.000843
     14.12789     16.60974      4.02203         0.001103      0.008337      0.000466
      2.84335      2.13522      4.02203         0.003166     -0.000452      0.009615
      8.54296      2.09926      4.02203         0.001718     -0.006632     -0.000515
     14.24257      2.06329      4.02203        -0.003279     -0.006326     -0.000016
      2.80082      8.41951      4.02203        -0.001578     -0.009681      0.000079
      8.50043      8.38354      4.02203        -0.001103     -0.005951      0.000806
     14.20004      8.34758      4.02203        -0.000584     -0.007840      0.000922
      2.75830     14.70379      4.02203         0.003769     -0.005446      0.002302
      8.45790     14.66783      4.02203         0.002042     -0.006603     -0.001879
     14.15751     14.63186      4.02203        -0.001231     -0.006781      0.000279
      5.56126      3.99467      4.02203         0.029128     -0.016858     -0.021014
     11.26087      3.95870      4.02203        -0.006230      0.001297     -0.000752
     16.96048      3.92274      4.02203        -0.004944      0.002769      0.001378
      5.51873     10.27895      4.02203        -0.008484      0.005179      0.001412
     11.21834     10.24299      4.02203        -0.004935      0.002204     -0.000728
     16.91795     10.20702      4.02203        -0.006280      0.002573      0.000199
      5.47620     16.56324      4.02203        -0.005766      0.000535      0.001218
     11.17581     16.52727      4.02203        -0.005141      0.004116      0.001906
     16.87542     16.49131      4.02203        -0.004612      0.002240     -0.001762
      0.09582      2.25365      4.02203         0.002544     -0.002192     -0.001463
      5.79543      2.21769      4.02203         0.005762     -0.010179     -0.007289
     11.49504      2.18172      4.02203         0.005374     -0.000190      0.001161
      0.05329      8.53794      4.02203         0.006549     -0.003290      0.000168
      5.75290      8.50197      4.02203         0.004862     -0.002888     -0.000895
     11.45251      8.46600      4.02203         0.008591     -0.005314      0.001399
      0.01076     14.82222      4.02203         0.003820     -0.001882      0.000919
      5.71037     14.78626      4.02203         0.005852     -0.001020     -0.000873
     11.40998     14.75029      4.02203         0.005549     -0.000545      0.000155
      3.40404      5.68636      4.02203         0.021513     -0.033654      0.015860
      9.10365      5.65039      4.02203         0.001282      0.003455     -0.001305
     14.80326      5.61443      4.02203        -0.000586      0.002886     -0.001532
      3.36152     11.97065      4.02203         0.000764      0.003624     -0.000503
      9.06112     11.93468      4.02203        -0.000189      0.004785     -0.000919
     14.76073     11.89871      4.02203        -0.001423      0.002496      0.000387
      3.31899     18.25493      4.02203         0.002268      0.001288      0.000888
      9.01859     18.21896      4.02203         0.000296      0.003256     -0.000756
     14.71820     18.18300      4.02203         0.001000     -0.000443      0.000289
      2.25304      0.56196      4.02203         0.001046     -0.000146      0.003296
      7.95264      0.52599      4.02203        -0.000345     -0.002254      0.000016
     13.65225      0.49003      4.02203        -0.001921     -0.001861      0.000865
      2.21051      6.84624      4.02203         0.001904     -0.001137      0.004951
      7.91012      6.81028      4.02203        -0.000019     -0.004922     -0.001076
     13.60972      6.77431      4.02203        -0.001064     -0.003464     -0.000486
      2.16798     13.13053      4.02203         0.000710     -0.002822     -0.001338
      7.86759     13.09456      4.02203        -0.001160     -0.003282     -0.001247
     13.56720     13.05860      4.02203        -0.003272      0.000322     -0.000090
      5.08639      5.63227      4.02203         0.027494      0.033789     -0.023360
     10.78600      5.59630      4.02203         0.004047     -0.000677      0.003793
     16.48561      5.56033      4.02203         0.011878      0.001427      0.000685
      5.04386     11.91655      4.02203         0.007778      0.002021      0.000321
     10.74347     11.88059      4.02203         0.007274      0.004074      0.000139
     16.44308     11.84462      4.02203         0.008369      0.002111      0.000655
      5.00133     18.20084      4.02203         0.005873      0.002939     -0.000948
     10.70094     18.16487      4.02203         0.007551      0.002711     -0.000077
     16.40055     18.12890      4.02203         0.008855      0.001104     -0.001467
      0.57069      0.61605      4.02203        -0.010594     -0.002318     -0.000479
      6.27030      0.58009      4.02203        -0.006452     -0.002458     -0.000991
     11.96991      0.54412      4.02203        -0.005667     -0.002488     -0.000847
      0.52816      6.90034      4.02203        -0.008689     -0.001712      0.000841
      6.22777      6.86437      4.02203        -0.007164     -0.006285     -0.003200
     11.92738      6.82841      4.02203        -0.007985     -0.002059      0.000344
      0.48563     13.18462      4.02203        -0.011793     -0.001431      0.000688
      6.18524     13.14866      4.02203        -0.004208      0.000557      0.003627
     11.88485     13.11269      4.02203        -0.007438     -0.002419     -0.002562
      4.17227      4.46445      5.02709        -0.156332     -0.002729     -0.016815
      9.86188      4.42855      5.02709         0.000041     -0.001490      0.002430
     15.56149      4.39258      5.02709        -0.007435     -0.003604     -0.001035
      4.11974     10.74880      5.02709        -0.004941     -0.005793      0.001019
      9.81935     10.71283      5.02709        -0.004873     -0.002776      0.000308
     15.51896     10.67687      5.02709        -0.005173     -0.000770      0.001344
      4.07721     17.03309      5.02709        -0.000148      0.001187      0.001900
      9.77682     16.99712      5.02709        -0.006274     -0.004440      0.000422
     15.47643     16.96115      5.02709        -0.003350     -0.003074      0.001600
      1.49481      1.78380      3.01696         0.005782      0.009075     -0.000196
      7.19442      1.74784      3.01696         0.007138      0.002977     -0.003188
     12.89402      1.71187      3.01696         0.002083      0.002662     -0.000475
      1.45228      8.06809      3.01696         0.005707      0.002176     -0.000781
      7.15189      8.03212      3.01696         0.005239      0.002310     -0.000624
     12.85150      7.99616      3.01696         0.004330      0.005014      0.000777
      1.40975     14.35237      3.01696         0.007773      0.001867      0.000185
      7.10936     14.31641      3.01696         0.002141      0.001945     -0.003704
     12.80897     14.28044      3.01696         0.003673      0.003060      0.000248
      4.16227      4.46452      3.01696        -0.003279      0.000965     -0.003052
      9.86188      4.42855      3.01696        -0.002023     -0.001577     -0.003781
     15.56149      4.39258      3.01696        -0.007572     -0.001856      0.000178
      4.11974     10.74880      3.01696        -0.004368     -0.004991      0.000780
      9.81935     10.71283      3.01696        -0.004570     -0.001858     -0.000948
     15.51896     10.67687      3.01696        -0.004943     -0.002552     -0.000683
      4.07721     17.03309      3.01696        -0.002031     -0.002410     -0.000557
      9.77682     16.99712      3.01696        -0.006770     -0.004230     -0.003640
     15.47643     16.96115      3.01696        -0.004205     -0.004049     -0.001541
      1.49481      1.78380      5.02709         0.004600      0.001909      0.000802
      7.19442      1.74784      5.02709         0.007005      0.004415      0.001156
     12.89402      1.71187      5.02709         0.000212     -0.000949      0.001774
      1.45228      8.06809      5.02709         0.005382      0.000592      0.001089
      7.15189      8.03212      5.02709         0.005552      0.003492      0.000556
     12.85150      7.99616      5.02709         0.004845      0.005832      0.001013
      1.40975     14.35237      5.02709         0.007828      0.003537     -0.001020
      7.10936     14.31641      5.02709         0.000295      0.001685      0.002216
     12.80897     14.28044      5.02709         0.004756      0.004484      0.001608
      1.41192      3.26096      4.02203         0.001432      0.001773      0.002707
      7.11153      3.22499      4.02203         0.002913      0.003949     -0.002851
     12.81114      3.18903      4.02203         0.000403      0.001650     -0.001786
      1.36939      9.54524      4.02203        -0.002310     -0.000012      0.000535
      7.06900      9.50928      4.02203         0.005463     -0.002301      0.000887
     12.76861      9.47331      4.02203         0.004690      0.003897      0.000967
      1.32686     15.82953      4.02203         0.000389      0.005141      0.000384
      7.02647     15.79356      4.02203         0.001364      0.002574     -0.001536
     12.72608     15.75760      4.02203         0.005376      0.001366     -0.001183
      4.24516      2.98736      4.02203         0.009123     -0.002546      0.001900
      9.94477      2.95140      4.02203        -0.001330     -0.002301     -0.001622
     15.64438      2.91543      4.02203        -0.000100     -0.005112      0.000424
      4.20263      9.27165      4.02203        -0.004913     -0.003822      0.000958
      9.90224      9.23568      4.02203        -0.005557      0.002513      0.001001
     15.60185      9.19971      4.02203         0.001732      0.000644      0.000519
      4.16010     15.55593      4.02203        -0.000507     -0.001436     -0.001774
      9.85971     15.51997      4.02203        -0.003790     -0.004680     -0.000465
     15.55932     15.48400      4.02203        -0.001700      0.001039      0.001056
      2.82854      3.12416      2.43950         0.000435     -0.000168     -0.001619
      8.52815      3.08819      2.43950        -0.000759     -0.000313      0.002464
     14.22776      3.05223      2.43950        -0.000340     -0.000146      0.002306
      2.78601      9.40844      2.43950         0.000134      0.000195      0.002301
      8.48562      9.37248      2.43950        -0.000218     -0.000190      0.002377
     14.18523      9.33651      2.43950        -0.000147     -0.000052      0.002316
      2.74348     15.69273      2.43950        -0.000046     -0.000108      0.002311
      8.44309     15.65676      2.43950         0.000046      0.000056      0.002367
     14.14270     15.62080      2.43950        -0.000335     -0.000329      0.002299
      2.82854      3.12416      5.60455        -0.004909     -0.010593     -0.004643
      8.52815      3.08819      5.60455        -0.000667     -0.000572     -0.002154
     14.22776      3.05223      5.60455        -0.000346     -0.000171     -0.002292
      2.78601      9.40844      5.60455         0.000121      0.000131     -0.002271
      8.48562      9.37248      5.60455        -0.000445     -0.000369     -0.002274
     14.18523      9.33651      5.60455        -0.000114     -0.000064     -0.002267
      2.74348     15.69273      5.60455        -0.000025     -0.000082     -0.002292
      8.44309     15.65676      5.60455         0.000047      0.000075     -0.002289
     14.14270     15.62080      5.60455        -0.000277     -0.000271     -0.002291
 -----------------------------------------------------------------------------------
    total drift:                                0.003739     -0.003733     -0.007257


--------------------------------------------------------------------------------------------------------



  FREE ENERGIE OF THE ION-ELECTRON SYSTEM (eV)
  ---------------------------------------------------
  free  energy   TOTEN  =      -818.35265304 eV

  energy  without entropy=     -818.35263527  energy(sigma->0) =     -818.35264415
 


--------------------------------------------------------------------------------------------------------


    POTLOK:  cpu time      0.9947: real time      1.0009


--------------------------------------------------------------------------------------------------------


     LOOP+:  cpu time   3039.2613: real time   3066.5781
 vacuum level on the upper side and lower side of the slab         1.251         1.252
    4ORBIT:  cpu time      0.0000: real time      0.0000



 total charge

# of ion       s       p       d       tot
------------------------------------------
    1        0.734   1.305   0.000   2.040
    2        0.735   1.308   0.000   2.043
    3        0.735   1.308   0.000   2.043
    4        0.735   1.308   0.000   2.043
    5        0.735   1.308   0.000   2.043
    6        0.735   1.308   0.000   2.043
    7        0.735   1.308   0.000   2.043
    8        0.735   1.308   0.000   2.043
    9        0.735   1.308   0.000   2.043
   10        0.735   1.308   0.000   2.043
   11        0.735   1.308   0.000   2.043
   12        0.735   1.308   0.000   2.043
   13        0.735   1.308   0.000   2.043
   14        0.735   1.308   0.000   2.043
   15        0.735   1.308   0.000   2.043
   16        0.735   1.308   0.000   2.043
   17        0.735   1.308   0.000   2.043
   18        0.735   1.308   0.000   2.043
   19        0.695   1.335   0.000   2.030
   20        0.695   1.333   0.000   2.027
   21        0.695   1.333   0.000   2.027
   22        0.695   1.333   0.000   2.027
   23        0.695   1.333   0.000   2.027
   24        0.695   1.333   0.000   2.027
   25        0.695   1.333   0.000   2.027
   26        0.695   1.333   0.000   2.027
   27        0.695   1.333   0.000   2.027
   28        0.695   1.333   0.000   2.027
   29        0.695   1.332   0.000   2.027
   30        0.695   1.333   0.000   2.027
   31        0.695   1.333   0.000   2.027
   32        0.695   1.333   0.000   2.027
   33        0.695   1.333   0.000   2.027
   34        0.695   1.333   0.000   2.027
   35        0.695   1.333   0.000   2.027
   36        0.695   1.333   0.000   2.027
   37        0.713   1.353   0.000   2.066
   38        0.713   1.355   0.000   2.067
   39        0.713   1.355   0.000   2.067
   40        0.713   1.355   0.000   2.067
   41        0.713   1.355   0.000   2.067
   42        0.713   1.355   0.000   2.067
   43        0.713   1.355   0.000   2.067
   44        0.713   1.355   0.000   2.067
   45        0.713   1.354   0.000   2.067
   46        0.713   1.354   0.000   2.067
   47        0.713   1.355   0.000   2.067
   48        0.713   1.355   0.000   2.067
   49        0.713   1.355   0.000   2.067
   50        0.713   1.355   0.000   2.067
   51        0.713   1.355   0.000   2.067
   52        0.713   1.355   0.000   2.067
   53        0.713   1.355   0.000   2.067
   54        0.713   1.355   0.000   2.067
   55        0.703   1.312   0.000   2.015
   56        0.702   1.311   0.000   2.013
   57        0.702   1.311   0.000   2.013
   58        0.702   1.311   0.000   2.013
   59        0.702   1.311   0.000   2.013
   60        0.702   1.311   0.000   2.013
   61        0.702   1.311   0.000   2.013
   62        0.702   1.311   0.000   2.013
   63        0.702   1.311   0.000   2.013
   64        0.702   1.311   0.000   2.013
   65        0.702   1.311   0.000   2.013
   66        0.702   1.311   0.000   2.013
   67        0.702   1.311   0.000   2.013
   68        0.702   1.311   0.000   2.013
   69        0.702   1.311   0.000   2.013
   70        0.702   1.311   0.000   2.013
   71        0.702   1.311   0.000   2.013
   72        0.702   1.311   0.000   2.013
   73        0.699   1.201   0.000   1.900
   74        0.699   1.202   0.000   1.901
   75        0.699   1.202   0.000   1.901
   76        0.699   1.202   0.000   1.901
   77        0.699   1.202   0.000   1.901
   78        0.699   1.202   0.000   1.901
   79        0.699   1.202   0.000   1.901
   80        0.699   1.202   0.000   1.901
   81        0.699   1.202   0.000   1.901
   82        0.699   1.202   0.000   1.901
   83        0.699   1.202   0.000   1.901
   84        0.699   1.202   0.000   1.901
   85        0.699   1.202   0.000   1.901
   86        0.699   1.202   0.000   1.901
   87        0.699   1.202   0.000   1.901
   88        0.699   1.202   0.000   1.901
   89        0.699   1.202   0.000   1.901
   90        0.699   1.202   0.000   1.901
   91        0.699   1.202   0.000   1.901
   92        0.699   1.202   0.000   1.901
   93        0.699   1.202   0.000   1.901
   94        0.699   1.202   0.000   1.901
   95        0.699   1.202   0.000   1.901
   96        0.699   1.202   0.000   1.901
   97        0.699   1.202   0.000   1.901
   98        0.699   1.202   0.000   1.901
   99        0.699   1.202   0.000   1.901
  100        0.699   1.202   0.000   1.901
  101        0.699   1.202   0.000   1.901
  102        0.699   1.202   0.000   1.901
  103        0.699   1.202   0.000   1.901
  104        0.699   1.202   0.000   1.901
  105        0.699   1.202   0.000   1.901
  106        0.699   1.202   0.000   1.901
  107        0.699   1.202   0.000   1.901
  108        0.699   1.202   0.000   1.901
  109        0.719   1.421   0.000   2.139
  110        0.719   1.421   0.000   2.139
  111        0.719   1.421   0.000   2.140
  112        0.719   1.421   0.000   2.139
  113        0.719   1.421   0.000   2.139
  114        0.719   1.421   0.000   2.140
  115        0.719   1.421   0.000   2.140
  116        0.719   1.421   0.000   2.139
  117        0.719   1.421   0.000   2.140
  118        0.719   1.421   0.000   2.140
  119        0.719   1.421   0.000   2.139
  120        0.719   1.421   0.000   2.140
  121        0.719   1.421   0.000   2.140
  122        0.719   1.421   0.000   2.139
  123        0.719   1.421   0.000   2.139
  124        0.719   1.421   0.000   2.140
  125        0.719   1.421   0.000   2.139
  126        0.719   1.421   0.000   2.139
  127        0.363   0.016   0.000   0.378
  128        0.363   0.016   0.000   0.378
  129        0.363   0.016   0.000   0.378
  130        0.363   0.016   0.000   0.378
  131        0.363   0.016   0.000   0.378
  132        0.363   0.016   0.000   0.378
  133        0.363   0.016   0.000   0.378
  134        0.363   0.016   0.000   0.378
  135        0.363   0.016   0.000   0.378
  136        0.362   0.016   0.000   0.378
  137        0.363   0.016   0.000   0.378
  138        0.363   0.016   0.000   0.378
  139        0.363   0.016   0.000   0.378
  140        0.363   0.016   0.000   0.378
  141        0.363   0.016   0.000   0.378
  142        0.363   0.016   0.000   0.378
  143        0.363   0.016   0.000   0.378
  144        0.363   0.016   0.000   0.378
--------------------------------------------------
tot         95.839 164.623   0.000 260.462
 

 total amount of memory used by VASP MPI-rank0   350913. kBytes
=======================================================================

   base                                    :      30000. kBytes
   nonlr-proj                              :      12165. kBytes
   fftplans                                :      51260. kBytes
   grid                                    :      79795. kBytes
   one-center                              :         64. kBytes
   wavefun                                 :     177629. kBytes
 
  
  
 General timing and accounting informations for this job:
 ========================================================
  
                  Total CPU time used (sec):     3067.471
                            User time (sec):     2880.712
                          System time (sec):      186.758
                         Elapsed time (sec):     3095.406
  
                   Maximum memory used (kb):      793500.
                   Average memory used (kb):          N/A
  
                          Minor page faults:       116467
                          Major page faults:          153
                 Voluntary context switches:         1376
