 running   42 mpi-ranks, on    1 nodes
 distrk:  each k-point on   42 cores,    1 groups
 distr:  one band on    7 cores,    6 groups
 vasp.6.5.0 16Dec24 (build Jan 08 2025 16:17:04) complex                        
  
 POSCAR found type information on POSCAR B H 
 POSCAR found :  2 types and     144 ions
 Reading from existing POTCAR
 scaLAPACK will be used
 Reading from existing POTCAR
 LDA part: xc-table for (Slater+PW92), standard interpolation
 POSCAR, INCAR and KPOINTS ok, starting setup
 FFT: planning ... GRIDC
 FFT: planning ... GRID_SOFT
 FFT: planning ... GRID
 WAVECAR not read
 entering main loop
       N       E                     dE             d eps       ncg     rms          rms(c)
DAV:   1     0.328981581854E+04    0.32898E+04   -0.13064E+05  3564   0.109E+03
DAV:   2    -0.267141057942E+03   -0.35570E+04   -0.34111E+04  4896   0.228E+02
DAV:   3    -0.867390469732E+03   -0.60025E+03   -0.59470E+03  3912   0.101E+02
DAV:   4    -0.891643919392E+03   -0.24253E+02   -0.23922E+02  4140   0.218E+01
DAV:   5    -0.892432439026E+03   -0.78852E+00   -0.78330E+00  4596   0.347E+00    0.386E+01
DAV:   6    -0.823910447525E+03    0.68522E+02   -0.91091E+01  3876   0.135E+01    0.202E+01
DAV:   7    -0.807061206462E+03    0.16849E+02   -0.69896E+01  3924   0.112E+01    0.625E+00
DAV:   8    -0.806120836357E+03    0.94037E+00   -0.62126E+00  4116   0.436E+00    0.181E+00
DAV:   9    -0.805747432778E+03    0.37340E+00   -0.70534E-01  3936   0.130E+00    0.828E-01
DAV:  10    -0.805674098103E+03    0.73335E-01   -0.10171E-01  4200   0.475E-01    0.457E-01
DAV:  11    -0.805594989656E+03    0.79108E-01   -0.12901E-01  3924   0.390E-01    0.279E-01
DAV:  12    -0.805603654028E+03   -0.86644E-02   -0.33064E-02  4092   0.232E-01    0.203E-01
DAV:  13    -0.805622937252E+03   -0.19283E-01   -0.89947E-03  3612   0.152E-01    0.108E-01
DAV:  14    -0.805639001482E+03   -0.16064E-01   -0.57134E-03  3948   0.830E-02    0.638E-02
DAV:  15    -0.805652762870E+03   -0.13761E-01   -0.12096E-03  3888   0.387E-02    0.379E-02
DAV:  16    -0.805665872834E+03   -0.13110E-01   -0.15346E-03  3876   0.328E-02    0.191E-02
DAV:  17    -0.805670239694E+03   -0.43669E-02   -0.29853E-04  4032   0.150E-02    0.123E-02
DAV:  18    -0.805673698091E+03   -0.34584E-02   -0.29607E-04  3924   0.110E-02    0.657E-03
DAV:  19    -0.805674952960E+03   -0.12549E-02   -0.77273E-05  3780   0.539E-03    0.373E-03
DAV:  20    -0.805675563142E+03   -0.61018E-03   -0.24667E-05  3468   0.362E-03    0.206E-03
DAV:  21    -0.805675725819E+03   -0.16268E-03   -0.30851E-06  3156   0.157E-03    0.106E-03
DAV:  22    -0.805675813412E+03   -0.87592E-04   -0.18483E-06  3048   0.107E-03    0.430E-04
DAV:  23    -0.805675834021E+03   -0.20610E-04   -0.21715E-07  2844   0.487E-04    0.241E-04
DAV:  24    -0.805675841348E+03   -0.73272E-05   -0.89864E-08  2808   0.271E-04    0.857E-05
DAV:  25    -0.805675842588E+03   -0.12396E-05   -0.33231E-09  2532   0.142E-04    0.410E-05
DAV:  26    -0.805675842857E+03   -0.26936E-06    0.94550E-09  2448   0.809E-05
   1 F= -.81835265E+03 E0= -.81835264E+03  d E =-.177685E-04
