       N       E                     dE             d eps       ncg     rms          rms(c)
DAV:   1     0.328994691187E+04    0.32899E+04   -0.13064E+05  3564   0.109E+03
DAV:   2    -0.267123419079E+03   -0.35571E+04   -0.34112E+04  4896   0.228E+02
DAV:   3    -0.867425776280E+03   -0.60030E+03   -0.59475E+03  3912   0.101E+02
DAV:   4    -0.891699460067E+03   -0.24274E+02   -0.23945E+02  4152   0.218E+01
DAV:   5    -0.892471791954E+03   -0.77233E+00   -0.76716E+00  4584   0.345E+00    0.386E+01
DAV:   6    -0.823914552728E+03    0.68557E+02   -0.91150E+01  3876   0.135E+01    0.202E+01
DAV:   7    -0.807062266851E+03    0.16852E+02   -0.69931E+01  3924   0.112E+01    0.626E+00
DAV:   8    -0.806120878066E+03    0.94139E+00   -0.62194E+00  4128   0.436E+00    0.181E+00
DAV:   9    -0.805747050144E+03    0.37383E+00   -0.70719E-01  3936   0.130E+00    0.828E-01
DAV:  10    -0.805673538064E+03    0.73512E-01   -0.10216E-01  4224   0.475E-01    0.457E-01
DAV:  11    -0.805594426088E+03    0.79112E-01   -0.12935E-01  3912   0.390E-01    0.279E-01
DAV:  12    -0.805603107611E+03   -0.86815E-02   -0.33025E-02  4104   0.232E-01    0.204E-01
DAV:  13    -0.805622413117E+03   -0.19306E-01   -0.90218E-03  3612   0.153E-01    0.108E-01
DAV:  14    -0.805638482839E+03   -0.16070E-01   -0.57355E-03  3936   0.833E-02    0.639E-02
DAV:  15    -0.805652329421E+03   -0.13847E-01   -0.12246E-03  3888   0.389E-02    0.377E-02
DAV:  16    -0.805665382025E+03   -0.13053E-01   -0.15251E-03  3876   0.327E-02    0.191E-02
DAV:  17    -0.805669917432E+03   -0.45354E-02   -0.32607E-04  4032   0.156E-02    0.122E-02
DAV:  18    -0.805673641254E+03   -0.37238E-02   -0.38110E-04  3888   0.123E-02    0.615E-03
DAV:  19    -0.805674640177E+03   -0.99892E-03   -0.55006E-05  3816   0.510E-03    0.302E-03
DAV:  20    -0.805675095378E+03   -0.45520E-03   -0.14650E-05  3084   0.284E-03    0.162E-03
DAV:  21    -0.805675257061E+03   -0.16168E-03   -0.41525E-06  3096   0.161E-03    0.799E-04
DAV:  22    -0.805675297778E+03   -0.40717E-04   -0.56306E-07  3012   0.770E-04    0.324E-04
DAV:  23    -0.805675310146E+03   -0.12368E-04   -0.12410E-07  2796   0.366E-04    0.135E-04
DAV:  24    -0.805675313374E+03   -0.32282E-05   -0.27604E-08  2664   0.196E-04    0.590E-05
DAV:  25    -0.805675314101E+03   -0.72686E-06    0.49182E-09  2436   0.111E-04
   1 F= -.81835201E+03 E0= -.81835200E+03  d E =-.178804E-04
