       N       E                     dE             d eps       ncg     rms          rms(c)
DAV:   1     0.417143700112E+03    0.41714E+03   -0.31547E+04 30240   0.864E+02
DAV:   2    -0.150875737769E+03   -0.56802E+03   -0.52838E+03 52752   0.149E+02
DAV:   3    -0.194449656629E+03   -0.43574E+02   -0.43121E+02 45150   0.484E+01
DAV:   4    -0.195019360017E+03   -0.56970E+00   -0.56920E+00 41496   0.650E+00
DAV:   5    -0.195032603665E+03   -0.13244E-01   -0.13242E-01 50736   0.934E-01
DAV:   6    -0.195032758131E+03   -0.15447E-03   -0.15446E-03 42882   0.780E-02
DAV:   7    -0.195032760105E+03   -0.19736E-05   -0.19729E-05 50862   0.780E-03
DAV:   8    -0.195032760146E+03   -0.41401E-07   -0.40831E-07 41244   0.733E-04
   1 F= -.19503276E+03 E0= -.19501859E+03  d E =-.283327E-01  mag=     0.0000
