o-B14
   1.00060000000000     
    15.0000000000000000    0.0000000000000000    0.0000000000000000
     0.0000000000000000   12.5000000000000000    0.0000000000000000
     0.0000000000000000    0.0000000000000000   18.0000000000000000
  B
     1
Direct
  0.5212300000000027  0.5450000000000017  0.6379599999999996
 
  0.00000000E+00  0.00000000E+00  0.00000000E+00
