 running   42 mpi-ranks, on    1 nodes
 distrk:  each k-point on   42 cores,    1 groups
 distr:  one band on    7 cores,    6 groups
 vasp.6.5.0 16Dec24 (build Jan 08 2025 16:17:04) complex                        
  
 POSCAR found type information on POSCAR B H 
 POSCAR found :  2 types and     144 ions
 Reading from existing POTCAR
 scaLAPACK will be used
 Reading from existing POTCAR
 LDA part: xc-table for (Slater+PW92), standard interpolation
 POSCAR, INCAR and KPOINTS ok, starting setup
 FFT: planning ... GRIDC
 FFT: planning ... GRID_SOFT
 FFT: planning ... GRID
 WAVECAR not read
 entering main loop
       N       E                     dE             d eps       ncg     rms          rms(c)
DAV:   1     0.328981348658E+04    0.32898E+04   -0.13064E+05  3564   0.109E+03
DAV:   2    -0.267130417851E+03   -0.35569E+04   -0.34111E+04  4896   0.228E+02
DAV:   3    -0.867381052423E+03   -0.60025E+03   -0.59470E+03  3912   0.101E+02
DAV:   4    -0.891624898815E+03   -0.24244E+02   -0.23912E+02  4128   0.218E+01
DAV:   5    -0.892422662252E+03   -0.79776E+00   -0.79252E+00  4596   0.349E+00    0.386E+01
DAV:   6    -0.823910486340E+03    0.68512E+02   -0.91069E+01  3876   0.135E+01    0.202E+01
DAV:   7    -0.807060991082E+03    0.16849E+02   -0.69909E+01  3924   0.112E+01    0.625E+00
DAV:   8    -0.806120905670E+03    0.94009E+00   -0.62187E+00  4116   0.436E+00    0.181E+00
DAV:   9    -0.805747589987E+03    0.37332E+00   -0.70618E-01  3936   0.130E+00    0.828E-01
DAV:  10    -0.805674067902E+03    0.73522E-01   -0.10204E-01  4224   0.475E-01    0.457E-01
DAV:  11    -0.805595080004E+03    0.78988E-01   -0.12860E-01  3912   0.390E-01    0.279E-01
DAV:  12    -0.805603686255E+03   -0.86063E-02   -0.33109E-02  4092   0.232E-01    0.203E-01
DAV:  13    -0.805622932095E+03   -0.19246E-01   -0.90166E-03  3612   0.152E-01    0.108E-01
DAV:  14    -0.805639021201E+03   -0.16089E-01   -0.57175E-03  3960   0.830E-02    0.638E-02
DAV:  15    -0.805652776229E+03   -0.13755E-01   -0.12082E-03  3888   0.387E-02    0.379E-02
DAV:  16    -0.805665862969E+03   -0.13087E-01   -0.15270E-03  3876   0.328E-02    0.191E-02
DAV:  17    -0.805670196632E+03   -0.43337E-02   -0.29279E-04  4032   0.149E-02    0.123E-02
DAV:  18    -0.805673611592E+03   -0.34150E-02   -0.28200E-04  3924   0.108E-02    0.676E-03
DAV:  19    -0.805674963991E+03   -0.13524E-02   -0.87591E-05  3768   0.571E-03    0.379E-03
DAV:  20    -0.805675587297E+03   -0.62331E-03   -0.25716E-05  3468   0.367E-03    0.206E-03
DAV:  21    -0.805675753368E+03   -0.16607E-03   -0.31881E-06  3156   0.158E-03    0.106E-03
DAV:  22    -0.805675839821E+03   -0.86453E-04   -0.18117E-06  3048   0.106E-03    0.427E-04
DAV:  23    -0.805675860469E+03   -0.20649E-04   -0.21784E-07  2844   0.487E-04    0.240E-04
DAV:  24    -0.805675867675E+03   -0.72059E-05   -0.88843E-08  2808   0.271E-04    0.863E-05
DAV:  25    -0.805675868898E+03   -0.12229E-05   -0.32108E-09  2532   0.143E-04    0.416E-05
DAV:  26    -0.805675869161E+03   -0.26264E-06    0.96509E-09  2448   0.810E-05
   1 F= -.81835272E+03 E0= -.81835271E+03  d E =-.181758E-04
