o-B14 bilayer with hydrogen termination bridge      
   1.00000000000000     
     5.6053239177758867   -0.1119842311189790    0.0000000000000000
    -0.1255641216807847    6.0730512479780172    0.0000000000000000
     0.0000000000000000    0.0000000000000000   30.0881166459999996
  B             
    28
Direct
     0.5132148167115209    0.6437705221140301    0.1360172171432050
     0.5132148167115209    0.6437705221140301    0.2657399545409483
     0.4867851833411017    0.3562294778859701    0.1360172171432050
     0.4867851833411017    0.3562294778859702    0.2657399545409483
     0.9925686436112739    0.6487679178455078    0.1363949785315803
     0.9925686436112739    0.6487679178455078    0.2653621931525725
     0.0074313564413488    0.3512320821544916    0.1363949785315803
     0.0074313564413488    0.3512320821544916    0.2653621931525725
     0.6013202380038676    0.9069875540143344    0.1380507405873054
     0.6013202380038676    0.9069875540143344    0.2637064310968477
     0.3986797620487554    0.0930124385685516    0.1380507405873054
     0.3986797620487554    0.0930124385685516    0.2637064310968477
     0.9005099407581483    0.9067005207914414    0.1390398584024353
     0.9005099407581483    0.9067005207914414    0.2627173132817177
     0.0994900592944750    0.0932994717914443    0.1390398584024352
     0.0994900592944750    0.0932994717914443    0.2627173132817177
     0.7497312558973332    0.7186781803080260    0.1727171412365028
     0.7538660850854094    0.7281069861570765    0.2952214479799207
     0.2461339147918019    0.2718930138429236    0.1065357257316167
     0.2502687439798778    0.2813218196919740    0.2290400324750348
     0.7538660850854094    0.7281069861570765    0.1065357257316167
     0.7497312558973332    0.7186781803080260    0.2290400324750348
     0.2502687439798778    0.2813218196919740    0.1727171412365028
     0.2461339147918019    0.2718930138429236    0.2952214479799207
     0.2495305593730917    0.5210588217988332    0.1337752372071994
     0.2495305593730917    0.5210588217988332    0.2679819344769537
     0.7504694405041198    0.4789411485327039    0.1337752372071994
     0.7504694405041198    0.4789411485327039    0.2679819344769537
 
  0.00000000E+00  0.00000000E+00  0.00000000E+00
  0.00000000E+00  0.00000000E+00  0.00000000E+00
  0.00000000E+00  0.00000000E+00  0.00000000E+00
  0.00000000E+00  0.00000000E+00  0.00000000E+00
  0.00000000E+00  0.00000000E+00  0.00000000E+00
  0.00000000E+00  0.00000000E+00  0.00000000E+00
  0.00000000E+00  0.00000000E+00  0.00000000E+00
  0.00000000E+00  0.00000000E+00  0.00000000E+00
  0.00000000E+00  0.00000000E+00  0.00000000E+00
  0.00000000E+00  0.00000000E+00  0.00000000E+00
  0.00000000E+00  0.00000000E+00  0.00000000E+00
  0.00000000E+00  0.00000000E+00  0.00000000E+00
  0.00000000E+00  0.00000000E+00  0.00000000E+00
  0.00000000E+00  0.00000000E+00  0.00000000E+00
  0.00000000E+00  0.00000000E+00  0.00000000E+00
  0.00000000E+00  0.00000000E+00  0.00000000E+00
  0.00000000E+00  0.00000000E+00  0.00000000E+00
  0.00000000E+00  0.00000000E+00  0.00000000E+00
  0.00000000E+00  0.00000000E+00  0.00000000E+00
  0.00000000E+00  0.00000000E+00  0.00000000E+00
  0.00000000E+00  0.00000000E+00  0.00000000E+00
  0.00000000E+00  0.00000000E+00  0.00000000E+00
  0.00000000E+00  0.00000000E+00  0.00000000E+00
  0.00000000E+00  0.00000000E+00  0.00000000E+00
  0.00000000E+00  0.00000000E+00  0.00000000E+00
  0.00000000E+00  0.00000000E+00  0.00000000E+00
  0.00000000E+00  0.00000000E+00  0.00000000E+00
  0.00000000E+00  0.00000000E+00  0.00000000E+00
