Parameters                              
           1
     5.605324   -0.111984    0.000000
    -0.125564    6.073051    0.000000
     0.000000    0.000000   30.088117
   B 
    28
Direct configuration=     1
   0.52055489  0.64154341  0.14929545
   0.52055489  0.64154341  0.25246172
   0.47944511  0.35845659  0.14929545
   0.47944511  0.35845659  0.25246172
   0.98306761  0.64116623  0.13544842
   0.98306761  0.64116623  0.26630875
   0.01693239  0.35883377  0.13544842
   0.01693239  0.35883377  0.26630875
   0.59601580  0.89938800  0.13279039
   0.59601580  0.89938800  0.26896678
   0.40398420  0.10061200  0.13279039
   0.40398420  0.10061200  0.26896678
   0.89929251  0.89576416  0.12149595
   0.89929251  0.89576416  0.28026122
   0.10070749  0.10423584  0.12149595
   0.10070749  0.10423584  0.28026122
   0.78140257  0.76553188  0.17260861
   0.69832231  0.67725543  0.30029515
   0.30167769  0.32274457  0.10146202
   0.21859743  0.23446812  0.22914856
   0.69832231  0.67725543  0.10146202
   0.78140257  0.76553188  0.22914856
   0.21859743  0.23446812  0.17260861
   0.30167769  0.32274457  0.30029515
   0.25132469  0.52283450  0.14380742
   0.25132469  0.52283450  0.25794976
   0.74867531  0.47716547  0.14380742
   0.74867531  0.47716547  0.25794976
Direct configuration=     2
   0.51959794  0.64482985  0.14842144
   0.51959794  0.64482985  0.25333573
   0.48040206  0.35517015  0.14842144
   0.48040206  0.35517015  0.25333573
   0.98555880  0.64323429  0.13570259
   0.98555880  0.64323429  0.26605458
   0.01444120  0.35676571  0.13570259
   0.01444120  0.35676571  0.26605458
   0.59548342  0.90072208  0.13255220
   0.59548342  0.90072208  0.26920497
   0.40451658  0.09927791  0.13255220
   0.40451658  0.09927791  0.26920497
   0.89989327  0.89640641  0.12156778
   0.89989327  0.89640641  0.28018940
   0.10010673  0.10359358  0.12156778
   0.10010673  0.10359358  0.28018940
   0.77915810  0.76241224  0.17058435
   0.71217918  0.68902569  0.29767705
   0.28782082  0.31097431  0.10408012
   0.22084190  0.23758776  0.23117282
   0.71217918  0.68902569  0.10408012
   0.77915810  0.76241224  0.23117282
   0.22084190  0.23758776  0.17058435
   0.28782082  0.31097431  0.29767705
   0.25016282  0.52376493  0.14335677
   0.25016282  0.52376493  0.25840040
   0.74983718  0.47623504  0.14335677
   0.74983718  0.47623504  0.25840040
Direct configuration=     3
   0.51923340  0.64608179  0.14808850
   0.51923340  0.64608179  0.25366867
   0.48076660  0.35391821  0.14808850
   0.48076660  0.35391821  0.25366867
   0.98650780  0.64402210  0.13579941
   0.98650780  0.64402210  0.26595776
   0.01349220  0.35597790  0.13579941
   0.01349220  0.35597790  0.26595776
   0.59528061  0.90123030  0.13246146
   0.59528061  0.90123030  0.26929571
   0.40471939  0.09876970  0.13246146
   0.40471939  0.09876970  0.26929571
   0.90012212  0.89665107  0.12159514
   0.90012212  0.89665107  0.28016203
   0.09987788  0.10334892  0.12159514
   0.09987788  0.10334892  0.28016203
   0.77830308  0.76122384  0.16981323
   0.71745785  0.69350948  0.29667970
   0.28254215  0.30649052  0.10507747
   0.22169692  0.23877616  0.23194395
   0.71745785  0.69350948  0.10507747
   0.77830308  0.76122384  0.23194395
   0.22169692  0.23877616  0.16981323
   0.28254215  0.30649052  0.29667970
   0.24972021  0.52411936  0.14318510
   0.24972021  0.52411936  0.25857207
   0.75027979  0.47588061  0.14318510
   0.75027979  0.47588061  0.25857207
Direct configuration=     4
   0.51348780  0.64459610  0.14662904
   0.51348780  0.64459610  0.25512813
   0.48651220  0.35540390  0.14662904
   0.48651220  0.35540390  0.25512813
   0.99111141  0.64586157  0.13600233
   0.99111141  0.64586157  0.26575485
   0.00888859  0.35413843  0.13600233
   0.00888859  0.35413843  0.26575485
   0.59655531  0.90539430  0.13205956
   0.59655531  0.90539430  0.26969761
   0.40344469  0.09460570  0.13205956
   0.40344469  0.09460570  0.26969761
   0.90450418  0.90392350  0.12203704
   0.90450418  0.90392350  0.27972013
   0.09549582  0.09607649  0.12203704
   0.09549582  0.09607649  0.27972013
   0.77748877  0.75871063  0.17086972
   0.73085214  0.70020240  0.29460134
   0.26914786  0.29979760  0.10715583
   0.22251123  0.24128937  0.23088745
   0.73085214  0.70020240  0.10715583
   0.77748877  0.75871063  0.23088745
   0.22251123  0.24128937  0.17086972
   0.26914786  0.29979760  0.29460134
   0.25138056  0.52343199  0.14271325
   0.25138056  0.52343199  0.25904392
   0.74861944  0.47656798  0.14271325
   0.74861944  0.47656798  0.25904392
Direct configuration=     5
   0.51425179  0.64479365  0.14682310
   0.51425179  0.64479365  0.25493407
   0.48574822  0.35520635  0.14682310
   0.48574822  0.35520635  0.25493407
   0.99049927  0.64561698  0.13597534
   0.99049927  0.64561698  0.26578183
   0.00950073  0.35438302  0.13597534
   0.00950073  0.35438302  0.26578183
   0.59638581  0.90484061  0.13211300
   0.59638581  0.90484061  0.26964417
   0.40361419  0.09515938  0.13211300
   0.40361419  0.09515938  0.26964417
   0.90392150  0.90295649  0.12197828
   0.90392150  0.90295649  0.27977889
   0.09607850  0.09704350  0.12197828
   0.09607850  0.09704350  0.27977889
   0.77759704  0.75904481  0.17072924
   0.72907111  0.69931245  0.29487770
   0.27092889  0.30068755  0.10687948
   0.22240295  0.24095519  0.23102794
   0.72907111  0.69931245  0.10687948
   0.77759704  0.75904481  0.23102794
   0.22240295  0.24095519  0.17072924
   0.27092889  0.30068755  0.29487770
   0.25115978  0.52352339  0.14277599
   0.25115978  0.52352339  0.25898118
   0.74884022  0.47647658  0.14277599
   0.74884022  0.47647658  0.25898118
Direct configuration=     6
   0.51488521  0.64688715  0.14537943
   0.51488521  0.64688715  0.25637774
   0.48511479  0.35311285  0.14537943
   0.48511479  0.35311285  0.25637774
   0.99250128  0.64786538  0.13633602
   0.99250128  0.64786538  0.26542115
   0.00749872  0.35213462  0.13633602
   0.00749872  0.35213462  0.26542115
   0.60087501  0.90502430  0.13195646
   0.60087501  0.90502430  0.26980071
   0.39912499  0.09497569  0.13195646
   0.39912499  0.09497569  0.26980071
   0.90130166  0.90302758  0.12309387
   0.90130166  0.90302758  0.27866331
   0.09869834  0.09697241  0.12309387
   0.09869834  0.09697241  0.27866331
   0.77661283  0.75777862  0.17264348
   0.73463276  0.69962093  0.29413854
   0.26536724  0.30037907  0.10761863
   0.22338717  0.24222138  0.22911370
   0.73463276  0.69962093  0.10761863
   0.77661283  0.75777862  0.22911370
   0.22338717  0.24222138  0.17264348
   0.26536724  0.30037907  0.29413854
   0.24872236  0.51969498  0.14245539
   0.24872236  0.51969498  0.25930179
   0.75127764  0.48030499  0.14245539
   0.75127764  0.48030499  0.25930179
Direct configuration=     7
   0.51479128  0.64657673  0.14559349
   0.51479128  0.64657673  0.25616368
   0.48520872  0.35342327  0.14559349
   0.48520872  0.35342327  0.25616368
   0.99220443  0.64753199  0.13628254
   0.99220443  0.64753199  0.26547463
   0.00779557  0.35246801  0.13628254
   0.00779557  0.35246801  0.26547463
   0.60020937  0.90499706  0.13197967
   0.60020937  0.90499706  0.26977750
   0.39979063  0.09500293  0.13197967
   0.39979063  0.09500293  0.26977750
   0.90169012  0.90301704  0.12292845
   0.90169012  0.90301704  0.27882872
   0.09830988  0.09698295  0.12292845
   0.09830988  0.09698295  0.27882872
   0.77675877  0.75796637  0.17235964
   0.73380809  0.69957519  0.29424814
   0.26619191  0.30042481  0.10750903
   0.22324123  0.24203363  0.22939753
   0.73380809  0.69957519  0.10750903
   0.77675877  0.75796637  0.22939753
   0.22324123  0.24203363  0.17235964
   0.26619191  0.30042481  0.29424814
   0.24908377  0.52026265  0.14250292
   0.24908377  0.52026265  0.25925425
   0.75091623  0.47973732  0.14250292
   0.75091623  0.47973732  0.25925425
Direct configuration=     8
   0.51501838  0.64692483  0.14469189
   0.51501838  0.64692483  0.25706528
   0.48498162  0.35307517  0.14469189
   0.48498162  0.35307517  0.25706528
   0.99336305  0.64950731  0.13683289
   0.99336305  0.64950731  0.26492428
   0.00663695  0.35049269  0.13683289
   0.00663695  0.35049269  0.26492428
   0.60131832  0.90672718  0.13209377
   0.60131832  0.90672718  0.26966340
   0.39868168  0.09327281  0.13209377
   0.39868168  0.09327281  0.26966340
   0.90177368  0.90477449  0.12430010
   0.90177368  0.90477449  0.27745707
   0.09822632  0.09522550  0.12430010
   0.09822632  0.09522550  0.27745707
   0.77538346  0.75667403  0.17242956
   0.73458722  0.69711058  0.29433907
   0.26541278  0.30288942  0.10741811
   0.22461654  0.24332597  0.22932762
   0.73458722  0.69711058  0.10741811
   0.77538346  0.75667403  0.22932762
   0.22461654  0.24332597  0.17242956
   0.26541278  0.30288942  0.29433907
   0.24911187  0.51952473  0.14254507
   0.24911187  0.51952473  0.25921211
   0.75088813  0.48047524  0.14254507
   0.75088813  0.48047524  0.25921211
Direct configuration=     9
   0.51514560  0.64711985  0.14418678
   0.51514560  0.64711985  0.25757039
   0.48485440  0.35288015  0.14418678
   0.48485440  0.35288015  0.25757039
   0.99401215  0.65061396  0.13714122
   0.99401215  0.65061396  0.26461595
   0.00598785  0.34938604  0.13714122
   0.00598785  0.34938604  0.26461595
   0.60193960  0.90769647  0.13215769
   0.60193960  0.90769647  0.26959948
   0.39806040  0.09230352  0.13215769
   0.39806040  0.09230352  0.26959948
   0.90182049  0.90575909  0.12506856
   0.90182049  0.90575909  0.27668861
   0.09817951  0.09424090  0.12506856
   0.09817951  0.09424090  0.27668861
   0.77461296  0.75595001  0.17246873
   0.73502372  0.69572980  0.29439001
   0.26497628  0.30427020  0.10736717
   0.22538704  0.24404999  0.22928844
   0.73502372  0.69572980  0.10736717
   0.77461296  0.75595001  0.22928844
   0.22538704  0.24404999  0.17246873
   0.26497628  0.30427020  0.29439001
   0.24912762  0.51911131  0.14256868
   0.24912762  0.51911131  0.25918850
   0.75087238  0.48088866  0.14256868
   0.75087238  0.48088866  0.25918850
Direct configuration=    10
   0.51449308  0.64681699  0.14370778
   0.51449308  0.64681699  0.25804939
   0.48550692  0.35318301  0.14370778
   0.48550692  0.35318301  0.25804939
   0.99465706  0.65143691  0.13756748
   0.99465706  0.65143691  0.26418969
   0.00534294  0.34856309  0.13756748
   0.00534294  0.34856309  0.26418969
   0.60294719  0.90799747  0.13223935
   0.60294719  0.90799747  0.26951782
   0.39705281  0.09200252  0.13223935
   0.39705281  0.09200252  0.26951782
   0.90019645  0.90503352  0.12604152
   0.90019645  0.90503352  0.27571565
   0.09980355  0.09496647  0.12604152
   0.09980355  0.09496647  0.27571565
   0.77316277  0.75508087  0.17226620
   0.73644900  0.69620550  0.29451437
   0.26355100  0.30379450  0.10724281
   0.22683723  0.24491913  0.22949098
   0.73644900  0.69620550  0.10724281
   0.77316277  0.75508087  0.22949098
   0.22683723  0.24491913  0.17226620
   0.26355100  0.30379450  0.29451437
   0.24922036  0.51964034  0.14264065
   0.24922036  0.51964034  0.25911652
   0.75077964  0.48035963  0.14264065
   0.75077964  0.48035963  0.25911652
Direct configuration=    11
   0.51399349  0.64658511  0.14334105
   0.51399349  0.64658511  0.25841613
   0.48600651  0.35341489  0.14334105
   0.48600651  0.35341489  0.25841613
   0.99515081  0.65206697  0.13789383
   0.99515081  0.65206697  0.26386334
   0.00484919  0.34793303  0.13789383
   0.00484919  0.34793303  0.26386334
   0.60371862  0.90822792  0.13230187
   0.60371862  0.90822792  0.26945530
   0.39628138  0.09177207  0.13230187
   0.39628138  0.09177207  0.26945530
   0.89895305  0.90447802  0.12678643
   0.89895305  0.90447802  0.27497074
   0.10104695  0.09552198  0.12678643
   0.10104695  0.09552198  0.27497074
   0.77205248  0.75441543  0.17211113
   0.73754021  0.69656971  0.29460958
   0.26245979  0.30343029  0.10714760
   0.22794752  0.24558457  0.22964604
   0.73754021  0.69656971  0.10714760
   0.77205248  0.75441543  0.22964604
   0.22794752  0.24558457  0.17211113
   0.26245979  0.30343029  0.29460958
   0.24929136  0.52004537  0.14269576
   0.24929136  0.52004537  0.25906141
   0.75070864  0.47995460  0.14269576
   0.75070864  0.47995460  0.25906141
Direct configuration=    12
   0.51359929  0.64626184  0.14310956
   0.51359929  0.64626184  0.25864762
   0.48640071  0.35373816  0.14310956
   0.48640071  0.35373816  0.25864762
   0.99495508  0.65174287  0.13819943
   0.99495508  0.65174287  0.26355774
   0.00504492  0.34825713  0.13819943
   0.00504492  0.34825713  0.26355774
   0.60331594  0.90770131  0.13236172
   0.60331594  0.90770131  0.26939545
   0.39668406  0.09229869  0.13236172
   0.39668406  0.09229869  0.26939545
   0.89968587  0.90519993  0.12740948
   0.89968587  0.90519993  0.27434769
   0.10031413  0.09480007  0.12740948
   0.10031413  0.09480007  0.27434769
   0.77008793  0.75345090  0.17211000
   0.73920696  0.69825737  0.29467498
   0.26079304  0.30174263  0.10708220
   0.22991207  0.24654910  0.22964717
   0.73920696  0.69825737  0.10708220
   0.77008793  0.75345090  0.22964717
   0.22991207  0.24654910  0.17211000
   0.26079304  0.30174263  0.29467498
   0.24903395  0.52070133  0.14269723
   0.24903395  0.52070133  0.25905994
   0.75096605  0.47929864  0.14269723
   0.75096605  0.47929864  0.25905994
Direct configuration=    13
   0.51268936  0.64551563  0.14257520
   0.51268936  0.64551563  0.25918197
   0.48731064  0.35448437  0.14257520
   0.48731064  0.35448437  0.25918197
   0.99450326  0.65099472  0.13890487
   0.99450326  0.65099472  0.26285230
   0.00549674  0.34900528  0.13890487
   0.00549674  0.34900528  0.26285230
   0.60238644  0.90648571  0.13249988
   0.60238644  0.90648571  0.26925729
   0.39761356  0.09351429  0.13249988
   0.39761356  0.09351429  0.26925729
   0.90137745  0.90686633  0.12884768
   0.90137745  0.90686633  0.27290949
   0.09862255  0.09313367  0.12884768
   0.09862255  0.09313367  0.27290949
   0.76555311  0.75122444  0.17210739
   0.74305433  0.70215305  0.29482594
   0.25694567  0.29784695  0.10693124
   0.23444689  0.24877556  0.22964979
   0.74305433  0.70215305  0.10693124
   0.76555311  0.75122444  0.22964979
   0.23444689  0.24877556  0.17210739
   0.25694567  0.29784695  0.29482594
   0.24843976  0.52221549  0.14270062
   0.24843976  0.52221549  0.25905655
   0.75156024  0.47778448  0.14270062
   0.75156024  0.47778448  0.25905655
Direct configuration=    14
   0.51330663  0.64522381  0.14231819
   0.51330663  0.64522381  0.25943898
   0.48669337  0.35477619  0.14231819
   0.48669337  0.35477619  0.25943898
   0.99342292  0.65054729  0.13916032
   0.99342292  0.65054729  0.26259685
   0.00657708  0.34945271  0.13916032
   0.00657708  0.34945271  0.26259685
   0.60132488  0.90618387  0.13255600
   0.60132488  0.90618387  0.26920117
   0.39867512  0.09381612  0.13255600
   0.39867512  0.09381612  0.26920117
   0.90120915  0.90638823  0.12947047
   0.90120915  0.90638823  0.27228670
   0.09879085  0.09361177  0.12947047
   0.09879085  0.09361177  0.27228670
   0.76324443  0.75000863  0.17232417
   0.74495958  0.70372973  0.29477967
   0.25504042  0.29627027  0.10697750
   0.23675557  0.24999137  0.22943301
   0.74495958  0.70372973  0.10697750
   0.76324443  0.75000863  0.22943301
   0.23675557  0.24999137  0.17232417
   0.25504042  0.29627027  0.29477967
   0.24844219  0.52175997  0.14258620
   0.24844219  0.52175997  0.25917097
   0.75155781  0.47824000  0.14258620
   0.75155781  0.47824000  0.25917097
Direct configuration=    15
   0.51425449  0.64477570  0.14192353
   0.51425449  0.64477570  0.25983364
   0.48574551  0.35522430  0.14192353
   0.48574551  0.35522430  0.25983364
   0.99176398  0.64986023  0.13955259
   0.99176398  0.64986023  0.26220458
   0.00823602  0.35013977  0.13955259
   0.00823602  0.35013977  0.26220458
   0.59969479  0.90572038  0.13264218
   0.59969479  0.90572038  0.26911499
   0.40030521  0.09427961  0.13264218
   0.40030521  0.09427961  0.26911499
   0.90095070  0.90565408  0.13042680
   0.90095070  0.90565408  0.27133037
   0.09904930  0.09434591  0.13042680
   0.09904930  0.09434591  0.27133037
   0.75969932  0.74814167  0.17265704
   0.74788522  0.70615081  0.29470863
   0.25211478  0.29384919  0.10704854
   0.24030068  0.25185833  0.22910013
   0.74788522  0.70615081  0.10704854
   0.75969932  0.74814167  0.22910013
   0.24030068  0.25185833  0.17265704
   0.25211478  0.29384919  0.29470863
   0.24844593  0.52106050  0.14241049
   0.24844593  0.52106050  0.25934668
   0.75155407  0.47893947  0.14241049
   0.75155407  0.47893947  0.25934668
Direct configuration=    16
   0.51441027  0.64407500  0.14171175
   0.51441027  0.64407500  0.26004542
   0.48558973  0.35592500  0.14171175
   0.48558973  0.35592500  0.26004542
   0.99165240  0.64927362  0.13964673
   0.99165240  0.64927362  0.26211045
   0.00834760  0.35072638  0.13964673
   0.00834760  0.35072638  0.26211045
   0.59958945  0.90547237  0.13268697
   0.59958945  0.90547237  0.26907020
   0.40041055  0.09452762  0.13268697
   0.40041055  0.09452762  0.26907020
   0.90121429  0.90613006  0.13084791
   0.90121429  0.90613006  0.27090926
   0.09878571  0.09386993  0.13084791
   0.09878571  0.09386993  0.27090926
   0.75834353  0.74735046  0.17277707
   0.74812376  0.70608656  0.29462813
   0.25187624  0.29391344  0.10712904
   0.24165647  0.25264954  0.22898011
   0.74812376  0.70608656  0.10712904
   0.75834353  0.74735046  0.22898011
   0.24165647  0.25264954  0.17277707
   0.25187624  0.29391344  0.29462813
   0.24918425  0.52054255  0.14221325
   0.24918425  0.52054255  0.25954392
   0.75081575  0.47945742  0.14221325
   0.75081575  0.47945742  0.25954392
Direct configuration=    17
   0.51452836  0.64354382  0.14155121
   0.51452836  0.64354382  0.26020596
   0.48547164  0.35645618  0.14155121
   0.48547164  0.35645618  0.26020596
   0.99156782  0.64882893  0.13971809
   0.99156782  0.64882893  0.26203908
   0.00843218  0.35117107  0.13971809
   0.00843218  0.35117107  0.26203908
   0.59950958  0.90528436  0.13272092
   0.59950958  0.90528436  0.26903625
   0.40049042  0.09471563  0.13272092
   0.40049042  0.09471563  0.26903625
   0.90141411  0.90649090  0.13116715
   0.90141411  0.90649090  0.27059002
   0.09858589  0.09350909  0.13116715
   0.09858589  0.09350909  0.27059002
   0.75731573  0.74675066  0.17286805
   0.74830459  0.70603786  0.29456711
   0.25169541  0.29396214  0.10719006
   0.24268427  0.25324934  0.22888912
   0.74830459  0.70603786  0.10719006
   0.75731573  0.74675066  0.22888912
   0.24268427  0.25324934  0.17286805
   0.25169541  0.29396214  0.29456711
   0.24974396  0.52014990  0.14206373
   0.24974396  0.52014990  0.25969344
   0.75025604  0.47985007  0.14206373
   0.75025604  0.47985007  0.25969344
Direct configuration=    18
   0.51427119  0.64336989  0.14133954
   0.51427119  0.64336989  0.26041763
   0.48572881  0.35663011  0.14133954
   0.48572881  0.35663011  0.26041763
   0.99204419  0.64844671  0.13974940
   0.99204419  0.64844671  0.26200777
   0.00795581  0.35155329  0.13974940
   0.00795581  0.35155329  0.26200777
   0.59978728  0.90524197  0.13278466
   0.59978728  0.90524197  0.26897251
   0.40021272  0.09475803  0.13278466
   0.40021272  0.09475803  0.26897251
   0.90078573  0.90598577  0.13156507
   0.90078573  0.90598577  0.27019210
   0.09921427  0.09401422  0.13156507
   0.09921427  0.09401422  0.27019210
   0.75641151  0.74606577  0.17280622
   0.74826188  0.70590335  0.29447935
   0.25173812  0.29409665  0.10727783
   0.24358849  0.25393423  0.22895096
   0.74826188  0.70590335  0.10727783
   0.75641151  0.74606577  0.22895096
   0.24358849  0.25393423  0.17280622
   0.25173812  0.29409665  0.29447935
   0.24990596  0.52019792  0.14180463
   0.24990596  0.52019792  0.25995254
   0.75009404  0.47980205  0.14180463
   0.75009404  0.47980205  0.25995254
Direct configuration=    19
   0.51411761  0.64326602  0.14121312
   0.51411761  0.64326602  0.26054405
   0.48588239  0.35673398  0.14121312
   0.48588239  0.35673398  0.26054405
   0.99232870  0.64821844  0.13976810
   0.99232870  0.64821844  0.26198907
   0.00767130  0.35178156  0.13976810
   0.00767130  0.35178156  0.26198907
   0.59995313  0.90521664  0.13282273
   0.59995313  0.90521664  0.26893444
   0.40004687  0.09478335  0.13282273
   0.40004687  0.09478335  0.26893444
   0.90041045  0.90568410  0.13180272
   0.90041045  0.90568410  0.26995445
   0.09958955  0.09431589  0.13180272
   0.09958955  0.09431589  0.26995445
   0.75587149  0.74565673  0.17276929
   0.74823637  0.70582303  0.29442693
   0.25176363  0.29417697  0.10733024
   0.24412851  0.25434327  0.22898789
   0.74823637  0.70582303  0.10733024
   0.75587149  0.74565673  0.22898789
   0.24412851  0.25434327  0.17276929
   0.25176363  0.29417697  0.29442693
   0.25000271  0.52022659  0.14164988
   0.25000271  0.52022659  0.26010729
   0.74999729  0.47977338  0.14164988
   0.74999729  0.47977338  0.26010729
Direct configuration=    20
   0.51365404  0.64383007  0.14101951
   0.51365404  0.64383007  0.26073766
   0.48634596  0.35616993  0.14101951
   0.48634596  0.35616993  0.26073766
   0.99251217  0.64850275  0.13973942
   0.99251217  0.64850275  0.26201775
   0.00748783  0.35149725  0.13973942
   0.00748783  0.35149725  0.26201775
   0.59998149  0.90556065  0.13291092
   0.59998149  0.90556065  0.26884625
   0.40001851  0.09443935  0.13291092
   0.40001851  0.09443935  0.26884625
   0.90083850  0.90577832  0.13214804
   0.90083850  0.90577832  0.26960913
   0.09916150  0.09422168  0.13214804
   0.09916150  0.09422168  0.26960913
   0.75530027  0.74479010  0.17271935
   0.74836451  0.70589783  0.29440615
   0.25163549  0.29410217  0.10735102
   0.24469973  0.25520990  0.22903783
   0.74836451  0.70589783  0.10735102
   0.75530027  0.74479010  0.22903783
   0.24469973  0.25520990  0.17271935
   0.25163549  0.29410217  0.29440615
   0.24967939  0.52077275  0.14135533
   0.24967939  0.52077275  0.26040184
   0.75032061  0.47922722  0.14135533
   0.75032061  0.47922722  0.26040184
Direct configuration=    21
   0.51322868  0.64434761  0.14084187
   0.51322868  0.64434761  0.26091531
   0.48677132  0.35565239  0.14084187
   0.48677132  0.35565239  0.26091531
   0.99268052  0.64876363  0.13971310
   0.99268052  0.64876363  0.26204408
   0.00731948  0.35123637  0.13971310
   0.00731948  0.35123637  0.26204408
   0.60000750  0.90587629  0.13299184
   0.60000750  0.90587629  0.26876533
   0.39999250  0.09412371  0.13299184
   0.39999250  0.09412371  0.26876533
   0.90123127  0.90586476  0.13246489
   0.90123127  0.90586476  0.26929228
   0.09876873  0.09413523  0.13246489
   0.09876873  0.09413523  0.26929228
   0.75477615  0.74399491  0.17267353
   0.74848208  0.70596647  0.29438708
   0.25151792  0.29403353  0.10737010
   0.24522385  0.25600509  0.22908365
   0.74848208  0.70596647  0.10737010
   0.75477615  0.74399491  0.22908365
   0.24522385  0.25600509  0.17267353
   0.25151792  0.29403353  0.29438708
   0.24938273  0.52127388  0.14108505
   0.24938273  0.52127388  0.26067212
   0.75061727  0.47872609  0.14108505
   0.75061727  0.47872609  0.26067212
Direct configuration=    22
   0.51279586  0.64469859  0.14065172
   0.51279586  0.64469859  0.26110545
   0.48720414  0.35530141  0.14065172
   0.48720414  0.35530141  0.26110545
   0.99226727  0.64929927  0.13962802
   0.99226727  0.64929927  0.26212915
   0.00773273  0.35070073  0.13962802
   0.00773273  0.35070073  0.26212915
   0.60063440  0.90613551  0.13310304
   0.60063440  0.90613551  0.26865413
   0.39936560  0.09386448  0.13310304
   0.39936560  0.09386448  0.26865413
   0.90120207  0.90570984  0.13275563
   0.90120207  0.90570984  0.26900154
   0.09879793  0.09429015  0.13275563
   0.09879793  0.09429015  0.26900154
   0.75440373  0.74298118  0.17274899
   0.74910034  0.70689940  0.29441658
   0.25089966  0.29310060  0.10734059
   0.24559627  0.25701882  0.22900818
   0.74910034  0.70689940  0.10734059
   0.75440373  0.74298118  0.22900818
   0.24559627  0.25701882  0.17274899
   0.25089966  0.29310060  0.29441658
   0.24945880  0.52157578  0.14074116
   0.24945880  0.52157578  0.26101601
   0.75054120  0.47842419  0.14074116
   0.75054120  0.47842419  0.26101601
Direct configuration=    23
   0.51233382  0.64507325  0.14044874
   0.51233382  0.64507325  0.26130843
   0.48766618  0.35492675  0.14044874
   0.48766618  0.35492675  0.26130843
   0.99182612  0.64987108  0.13953721
   0.99182612  0.64987108  0.26221997
   0.00817388  0.35012892  0.13953721
   0.00817388  0.35012892  0.26221997
   0.60130363  0.90641223  0.13322175
   0.60130363  0.90641223  0.26853543
   0.39869637  0.09358776  0.13322175
   0.39869637  0.09358776  0.26853543
   0.90117089  0.90554446  0.13306600
   0.90117089  0.90554446  0.26869118
   0.09882911  0.09445553  0.13306600
   0.09882911  0.09445553  0.26869118
   0.75400617  0.74189901  0.17282955
   0.74976033  0.70789531  0.29444808
   0.25023967  0.29210469  0.10730909
   0.24599383  0.25810099  0.22892762
   0.74976033  0.70789531  0.10730909
   0.75400617  0.74189901  0.22892762
   0.24599383  0.25810099  0.17282955
   0.25023967  0.29210469  0.29444808
   0.24954001  0.52189806  0.14037405
   0.24954001  0.52189806  0.26138312
   0.75045999  0.47810191  0.14037405
   0.75045999  0.47810191  0.26138312
Direct configuration=    24
   0.51247360  0.64508528  0.14025037
   0.51247360  0.64508528  0.26150680
   0.48752640  0.35491472  0.14025037
   0.48752640  0.35491472  0.26150680
   0.99168543  0.64961325  0.13943461
   0.99168543  0.64961325  0.26232256
   0.00831457  0.35038675  0.13943461
   0.00831457  0.35038675  0.26232256
   0.60173917  0.90685064  0.13336219
   0.60173917  0.90685064  0.26839498
   0.39826083  0.09314936  0.13336219
   0.39826083  0.09314936  0.26839498
   0.90114478  0.90604396  0.13331546
   0.90114478  0.90604396  0.26844171
   0.09885523  0.09395603  0.13331546
   0.09885523  0.09395603  0.26844171
   0.75365622  0.74086362  0.17286601
   0.75022842  0.70902851  0.29450362
   0.24977158  0.29097149  0.10725355
   0.24634378  0.25913638  0.22889116
   0.75022842  0.70902851  0.10725355
   0.75365622  0.74086362  0.22889116
   0.24634378  0.25913638  0.17286601
   0.24977158  0.29097149  0.29450362
   0.24949147  0.52176967  0.14002895
   0.24949147  0.52176967  0.26172823
   0.75050853  0.47823030  0.14002895
   0.75050853  0.47823030  0.26172823
Direct configuration=    25
   0.51289295  0.64512135  0.13965525
   0.51289295  0.64512135  0.26210192
   0.48710705  0.35487865  0.13965525
   0.48710705  0.35487865  0.26210192
   0.99126336  0.64883974  0.13912684
   0.99126336  0.64883974  0.26263033
   0.00873664  0.35116026  0.13912684
   0.00873664  0.35116026  0.26263033
   0.60304578  0.90816586  0.13378352
   0.60304578  0.90816586  0.26797365
   0.39695422  0.09183413  0.13378352
   0.39695422  0.09183413  0.26797365
   0.90106642  0.90754246  0.13406386
   0.90106642  0.90754246  0.26769331
   0.09893358  0.09245753  0.13406386
   0.09893358  0.09245753  0.26769331
   0.75260638  0.73775743  0.17297540
   0.75163270  0.71242814  0.29467025
   0.24836730  0.28757186  0.10708692
   0.24739362  0.26224257  0.22878178
   0.75163270  0.71242814  0.10708692
   0.75260638  0.73775743  0.22878178
   0.24739362  0.26224257  0.17297540
   0.24836730  0.28757186  0.29467025
   0.24934587  0.52138450  0.13899363
   0.24934587  0.52138450  0.26276354
   0.75065413  0.47861547  0.13899363
   0.75065413  0.47861547  0.26276354
Direct configuration=    26
   0.51315602  0.64505257  0.13944939
   0.51315602  0.64505257  0.26230779
   0.48684398  0.35494743  0.13944939
   0.48684398  0.35494743  0.26230779
   0.99134042  0.64861763  0.13901534
   0.99134042  0.64861763  0.26274183
   0.00865958  0.35138237  0.13901534
   0.00865958  0.35138237  0.26274183
   0.60306001  0.90847649  0.13394372
   0.60306001  0.90847649  0.26781346
   0.39693999  0.09152351  0.13394372
   0.39693999  0.09152351  0.26781346
   0.90068304  0.90752034  0.13430486
   0.90068304  0.90752034  0.26745232
   0.09931696  0.09247965  0.13430486
   0.09931696  0.09247965  0.26745232
   0.75236904  0.73690059  0.17291086
   0.75191534  0.71344007  0.29472495
   0.24808466  0.28655993  0.10703222
   0.24763096  0.26309941  0.22884632
   0.75191534  0.71344007  0.10703222
   0.75236904  0.73690059  0.22884632
   0.24763096  0.26309941  0.17291086
   0.24808466  0.28655993  0.29472495
   0.24949551  0.52130990  0.13868859
   0.24949551  0.52130990  0.26306858
   0.75050449  0.47869007  0.13868859
   0.75050449  0.47869007  0.26306858
Direct configuration=    27
   0.51381956  0.64487911  0.13893014
   0.51381956  0.64487911  0.26282703
   0.48618044  0.35512089  0.13893014
   0.48618044  0.35512089  0.26282703
   0.99153480  0.64805741  0.13873411
   0.99153480  0.64805741  0.26302306
   0.00846520  0.35194259  0.13873411
   0.00846520  0.35194259  0.26302306
   0.60309590  0.90925999  0.13434779
   0.60309590  0.90925999  0.26740939
   0.39690410  0.09074001  0.13434779
   0.39690410  0.09074001  0.26740939
   0.89971603  0.90746455  0.13491272
   0.89971603  0.90746455  0.26684445
   0.10028397  0.09253544  0.13491272
   0.10028397  0.09253544  0.26684445
   0.75177040  0.73473937  0.17274806
   0.75262826  0.71599247  0.29486292
   0.24737174  0.28400753  0.10689426
   0.24822960  0.26526063  0.22900912
   0.75262826  0.71599247  0.10689426
   0.75177040  0.73473937  0.22900912
   0.24822960  0.26526063  0.17274806
   0.24737174  0.28400753  0.29486292
   0.24987293  0.52112174  0.13791917
   0.24987293  0.52112174  0.26383800
   0.75012707  0.47887824  0.13791917
   0.75012707  0.47887824  0.26383800
Direct configuration=    28
   0.51396473  0.64476609  0.13862723
   0.51396473  0.64476609  0.26312994
   0.48603527  0.35523391  0.13862723
   0.48603527  0.35523391  0.26312994
   0.99174384  0.64814947  0.13855254
   0.99174384  0.64814947  0.26320463
   0.00825616  0.35185053  0.13855254
   0.00825616  0.35185053  0.26320463
   0.60271938  0.90901454  0.13459175
   0.60271938  0.90901454  0.26716542
   0.39728062  0.09098545  0.13459175
   0.39728062  0.09098545  0.26716542
   0.89996738  0.90762261  0.13523844
   0.89996738  0.90762261  0.26651873
   0.10003262  0.09237738  0.13523844
   0.10003262  0.09237738  0.26651873
   0.75152049  0.73371734  0.17267930
   0.75263210  0.71690654  0.29496160
   0.24736790  0.28309346  0.10679557
   0.24847951  0.26628266  0.22907787
   0.75263210  0.71690654  0.10679557
   0.75152049  0.73371734  0.22907787
   0.24847951  0.26628266  0.17267930
   0.24736790  0.28309346  0.29496160
   0.25022606  0.52124852  0.13755667
   0.25022606  0.52124852  0.26420050
   0.74977394  0.47875145  0.13755667
   0.74977394  0.47875145  0.26420050
Direct configuration=    29
   0.51430334  0.64450246  0.13792066
   0.51430334  0.64450246  0.26383652
   0.48569666  0.35549754  0.13792066
   0.48569666  0.35549754  0.26383652
   0.99223144  0.64836423  0.13812901
   0.99223144  0.64836423  0.26362816
   0.00776856  0.35163577  0.13812901
   0.00776856  0.35163577  0.26362816
   0.60184112  0.90844202  0.13516082
   0.60184112  0.90844202  0.26659635
   0.39815888  0.09155797  0.13516082
   0.39815888  0.09155797  0.26659635
   0.90055369  0.90799131  0.13599824
   0.90055369  0.90799131  0.26575893
   0.09944631  0.09200868  0.13599824
   0.09944631  0.09200868  0.26575893
   0.75093755  0.73133333  0.17251892
   0.75264108  0.71903871  0.29519180
   0.24735892  0.28096129  0.10656537
   0.24906245  0.26866667  0.22923825
   0.75264108  0.71903871  0.10656537
   0.75093755  0.73133333  0.22923825
   0.24906245  0.26866667  0.17251892
   0.24735892  0.28096129  0.29519180
   0.25104978  0.52154427  0.13671108
   0.25104978  0.52154427  0.26504609
   0.74895022  0.47845570  0.13671108
   0.74895022  0.47845570  0.26504609
Direct configuration=    30
   0.51421325  0.64431707  0.13757841
   0.51421325  0.64431707  0.26417876
   0.48578675  0.35568293  0.13757841
   0.48578675  0.35568293  0.26417876
   0.99232206  0.64851564  0.13788666
   0.99232206  0.64851564  0.26387051
   0.00767794  0.35148436  0.13788666
   0.00767794  0.35148436  0.26387051
   0.60155541  0.90786319  0.13545096
   0.60155541  0.90786319  0.26630621
   0.39844459  0.09213680  0.13545096
   0.39844459  0.09213680  0.26630621
   0.90046994  0.90756017  0.13634234
   0.90046994  0.90756017  0.26541483
   0.09953006  0.09243982  0.13634234
   0.09953006  0.09243982  0.26541483
   0.75069777  0.73015265  0.17255731
   0.75275792  0.72000076  0.29531100
   0.24724208  0.27999924  0.10644618
   0.24930223  0.26984735  0.22919986
   0.75275792  0.72000076  0.10644618
   0.75069777  0.73015265  0.22919986
   0.24930223  0.26984735  0.17255731
   0.24724208  0.27999924  0.29531100
   0.25077994  0.52159882  0.13632029
   0.25077994  0.52159882  0.26543688
   0.74922006  0.47840115  0.13632029
   0.74922006  0.47840115  0.26543688
Direct configuration=    31
   0.51401112  0.64390115  0.13681058
   0.51401112  0.64390115  0.26494659
   0.48598888  0.35609885  0.13681058
   0.48598888  0.35609885  0.26494659
   0.99252535  0.64885532  0.13734294
   0.99252535  0.64885532  0.26441423
   0.00747465  0.35114468  0.13734294
   0.00747465  0.35114468  0.26441423
   0.60091443  0.90656458  0.13610187
   0.60091443  0.90656458  0.26565530
   0.39908557  0.09343541  0.13610187
   0.39908557  0.09343541  0.26565530
   0.90028206  0.90659291  0.13711434
   0.90028206  0.90659291  0.26464283
   0.09971794  0.09340709  0.13711434
   0.09971794  0.09340709  0.26464283
   0.75015983  0.72750383  0.17264345
   0.75302006  0.72215911  0.29557841
   0.24697994  0.27784089  0.10617876
   0.24984017  0.27249617  0.22911372
   0.75302006  0.72215911  0.10617876
   0.75015983  0.72750383  0.22911372
   0.24984017  0.27249617  0.17264345
   0.24697994  0.27784089  0.29557841
   0.25017455  0.52172121  0.13544357
   0.25017455  0.52172121  0.26631360
   0.74982545  0.47827876  0.13544357
   0.74982545  0.47827876  0.26631360
Direct configuration=    32
   0.51371973  0.64343062  0.13661289
   0.51371973  0.64343062  0.26514429
   0.48628027  0.35656938  0.13661289
   0.48628027  0.35656938  0.26514429
   0.99229738  0.64872405  0.13714544
   0.99229738  0.64872405  0.26461173
   0.00770262  0.35127595  0.13714544
   0.00770262  0.35127595  0.26461173
   0.60070825  0.90661908  0.13631911
   0.60070825  0.90661908  0.26543806
   0.39929175  0.09338092  0.13631911
   0.39929175  0.09338092  0.26543806
   0.90057077  0.90673239  0.13731942
   0.90057077  0.90673239  0.26443775
   0.09942923  0.09326760  0.13731942
   0.09942923  0.09326760  0.26443775
   0.74994113  0.72626413  0.17268359
   0.75340476  0.72278373  0.29563009
   0.24659524  0.27721627  0.10612708
   0.25005887  0.27373587  0.22907358
   0.75340476  0.72278373  0.10612708
   0.74994113  0.72626413  0.22907358
   0.25005887  0.27373587  0.17268359
   0.24659524  0.27721627  0.29563009
   0.24954467  0.52148825  0.13517233
   0.24954467  0.52148825  0.26658484
   0.75045533  0.47851172  0.13517233
   0.75045533  0.47851172  0.26658484
Direct configuration=    33
   0.51357762  0.64320115  0.13651648
   0.51357762  0.64320115  0.26524069
   0.48642238  0.35679885  0.13651648
   0.48642238  0.35679885  0.26524069
   0.99218620  0.64866003  0.13704912
   0.99218620  0.64866003  0.26470805
   0.00781380  0.35133997  0.13704912
   0.00781380  0.35133997  0.26470805
   0.60060771  0.90664565  0.13642506
   0.60060771  0.90664565  0.26533211
   0.39939229  0.09335434  0.13642506
   0.39939229  0.09335434  0.26533211
   0.90071157  0.90680041  0.13741944
   0.90071157  0.90680041  0.26433773
   0.09928843  0.09319958  0.13741944
   0.09928843  0.09319958  0.26433773
   0.74983448  0.72565956  0.17270317
   0.75359237  0.72308835  0.29565529
   0.24640763  0.27691165  0.10610188
   0.25016552  0.27434044  0.22905401
   0.75359237  0.72308835  0.10610188
   0.74983448  0.72565956  0.22905401
   0.25016552  0.27434044  0.17270317
   0.24640763  0.27691165  0.29565529
   0.24923750  0.52137463  0.13504006
   0.24923750  0.52137463  0.26671711
   0.75076250  0.47862534  0.13504006
   0.75076250  0.47862534  0.26671711
Direct configuration=    34
   0.51355853  0.64308559  0.13647076
   0.51355853  0.64308559  0.26528641
   0.48644147  0.35691441  0.13647076
   0.48644147  0.35691441  0.26528641
   0.99200637  0.64859919  0.13696154
   0.99200637  0.64859919  0.26479563
   0.00799363  0.35140081  0.13696154
   0.00799363  0.35140081  0.26479563
   0.60082858  0.90666550  0.13652355
   0.60082858  0.90666550  0.26523362
   0.39917142  0.09333449  0.13652355
   0.39917142  0.09333449  0.26523362
   0.90053971  0.90676336  0.13748880
   0.90053971  0.90676336  0.26426837
   0.09946029  0.09323663  0.13748880
   0.09946029  0.09323663  0.26426837
   0.74974645  0.72484861  0.17264781
   0.75383636  0.72357986  0.29562151
   0.24616364  0.27642014  0.10613566
   0.25025355  0.27515139  0.22910937
   0.75383636  0.72357986  0.10613566
   0.74974645  0.72484861  0.22910937
   0.25025355  0.27515139  0.17264781
   0.24616364  0.27642014  0.29562151
   0.24919585  0.52120114  0.13492482
   0.24919585  0.52120114  0.26683235
   0.75080415  0.47879883  0.13492482
   0.75080415  0.47879883  0.26683235
Direct configuration=    35
   0.51354392  0.64299712  0.13643576
   0.51354392  0.64299712  0.26532141
   0.48645608  0.35700288  0.13643576
   0.48645608  0.35700288  0.26532141
   0.99186869  0.64855261  0.13689449
   0.99186869  0.64855261  0.26486269
   0.00813131  0.35144739  0.13689449
   0.00813131  0.35144739  0.26486269
   0.60099769  0.90668069  0.13659895
   0.60099769  0.90668069  0.26515822
   0.39900231  0.09331930  0.13659895
   0.39900231  0.09331930  0.26515822
   0.90040814  0.90673500  0.13754191
   0.90040814  0.90673500  0.26421526
   0.09959186  0.09326500  0.13754191
   0.09959186  0.09326500  0.26421526
   0.74967905  0.72422774  0.17260542
   0.75402316  0.72395616  0.29559565
   0.24597684  0.27604384  0.10616152
   0.25032095  0.27577226  0.22915175
   0.75402316  0.72395616  0.10616152
   0.74967905  0.72422774  0.22915175
   0.25032095  0.27577226  0.17260542
   0.24597684  0.27604384  0.29559565
   0.24916397  0.52106831  0.13483659
   0.24916397  0.52106831  0.26692058
   0.75083603  0.47893166  0.13483659
   0.75083603  0.47893166  0.26692058
Direct configuration=    36
   0.51364346  0.64323670  0.13641880
   0.51364346  0.64323670  0.26533837
   0.48635654  0.35676330  0.13641880
   0.48635654  0.35676330  0.26533837
   0.99203590  0.64854075  0.13684109
   0.99203590  0.64854075  0.26491608
   0.00796410  0.35145925  0.13684109
   0.00796410  0.35145925  0.26491608
   0.60108157  0.90676074  0.13667255
   0.60108157  0.90676074  0.26508462
   0.39891843  0.09323926  0.13667255
   0.39891843  0.09323926  0.26508462
   0.90045787  0.90695523  0.13760367
   0.90045787  0.90695523  0.26415351
   0.09954213  0.09304476  0.13760367
   0.09954213  0.09304476  0.26415351
   0.74968327  0.72350780  0.17258963
   0.75395948  0.72435623  0.29556101
   0.24604052  0.27564377  0.10619617
   0.25031673  0.27649220  0.22916754
   0.75395948  0.72435623  0.10619617
   0.74968327  0.72350780  0.22916754
   0.25031673  0.27649220  0.17258963
   0.24604052  0.27564377  0.29556101
   0.24942066  0.52116353  0.13475813
   0.24942066  0.52116353  0.26699904
   0.75057934  0.47883644  0.13475813
   0.75057934  0.47883644  0.26699904
Direct configuration=    37
   0.51371498  0.64340883  0.13640661
   0.51371498  0.64340883  0.26535056
   0.48628502  0.35659117  0.13640661
   0.48628502  0.35659117  0.26535056
   0.99215603  0.64853223  0.13680273
   0.99215603  0.64853223  0.26495444
   0.00784397  0.35146777  0.13680273
   0.00784397  0.35146777  0.26495444
   0.60114183  0.90681824  0.13672543
   0.60114183  0.90681824  0.26503174
   0.39885817  0.09318175  0.13672543
   0.39885817  0.09318175  0.26503174
   0.90049361  0.90711347  0.13764803
   0.90049361  0.90711347  0.26410914
   0.09950639  0.09288653  0.13764803
   0.09950639  0.09288653  0.26410914
   0.74968629  0.72299055  0.17257829
   0.75391373  0.72464367  0.29553611
   0.24608627  0.27535633  0.10622106
   0.25031371  0.27700945  0.22917888
   0.75391373  0.72464367  0.10622106
   0.74968629  0.72299055  0.22917888
   0.25031371  0.27700945  0.17257829
   0.24608627  0.27535633  0.29553611
   0.24960508  0.52123195  0.13470176
   0.24960508  0.52123195  0.26705541
   0.75039492  0.47876802  0.13470176
   0.75039492  0.47876802  0.26705541
Direct configuration=    38
   0.51369757  0.64364840  0.13639359
   0.51369757  0.64364840  0.26536359
   0.48630243  0.35635160  0.13639359
   0.48630243  0.35635160  0.26536359
   0.99236922  0.64857543  0.13675465
   0.99236922  0.64857543  0.26500252
   0.00763078  0.35142457  0.13675465
   0.00763078  0.35142457  0.26500252
   0.60117495  0.90704387  0.13680997
   0.60117495  0.90704387  0.26494721
   0.39882505  0.09295612  0.13680997
   0.39882505  0.09295612  0.26494721
   0.90025445  0.90691704  0.13773345
   0.90025445  0.90691704  0.26402373
   0.09974555  0.09308295  0.13773345
   0.09974555  0.09308295  0.26402373
   0.74987235  0.72249057  0.17261719
   0.75376359  0.72493979  0.29550912
   0.24623641  0.27506021  0.10624805
   0.25012765  0.27750943  0.22913999
   0.75376359  0.72493979  0.10624805
   0.74987235  0.72249057  0.22913999
   0.25012765  0.27750943  0.17261719
   0.24623641  0.27506021  0.29550912
   0.24972814  0.52134967  0.13463624
   0.24972814  0.52134967  0.26712093
   0.75027186  0.47865030  0.13463624
   0.75027186  0.47865030  0.26712093
Direct configuration=    39
   0.51369658  0.64366206  0.13639284
   0.51369658  0.64366206  0.26536433
   0.48630342  0.35633794  0.13639284
   0.48630342  0.35633794  0.26536433
   0.99238138  0.64857790  0.13675190
   0.99238138  0.64857790  0.26500527
   0.00761862  0.35142210  0.13675190
   0.00761862  0.35142210  0.26500527
   0.60117684  0.90705674  0.13681479
   0.60117684  0.90705674  0.26494238
   0.39882316  0.09294325  0.13681479
   0.39882316  0.09294325  0.26494238
   0.90024081  0.90690584  0.13773832
   0.90024081  0.90690584  0.26401886
   0.09975919  0.09309415  0.13773832
   0.09975919  0.09309415  0.26401886
   0.74988296  0.72246206  0.17261940
   0.75375502  0.72495668  0.29550758
   0.24624498  0.27504332  0.10624959
   0.25011704  0.27753794  0.22913777
   0.75375502  0.72495668  0.10624959
   0.74988296  0.72246206  0.22913777
   0.25011704  0.27753794  0.17261940
   0.24624498  0.27504332  0.29550758
   0.24973516  0.52135638  0.13463250
   0.24973516  0.52135638  0.26712467
   0.75026484  0.47864359  0.13463250
   0.75026484  0.47864359  0.26712467
Direct configuration=    40
   0.51356459  0.64370812  0.13638610
   0.51356459  0.64370812  0.26537107
   0.48643541  0.35629188  0.13638610
   0.48643541  0.35629188  0.26537107
   0.99238382  0.64863205  0.13671343
   0.99238382  0.64863205  0.26504374
   0.00761618  0.35136795  0.13671343
   0.00761618  0.35136795  0.26504374
   0.60129512  0.90713687  0.13690310
   0.60129512  0.90713687  0.26485408
   0.39870488  0.09286312  0.13690310
   0.39870488  0.09286312  0.26485408
   0.90032831  0.90690304  0.13783240
   0.90032831  0.90690304  0.26392477
   0.09967169  0.09309695  0.13783240
   0.09967169  0.09309695  0.26392477
   0.75009240  0.72226122  0.17265093
   0.75358437  0.72502460  0.29548933
   0.24641563  0.27497540  0.10626784
   0.24990760  0.27773878  0.22910625
   0.75358437  0.72502460  0.10626784
   0.75009240  0.72226122  0.22910625
   0.24990760  0.27773878  0.17265093
   0.24641563  0.27497540  0.29548933
   0.24967035  0.52132621  0.13458675
   0.24967035  0.52132621  0.26717042
   0.75032965  0.47867376  0.13458675
   0.75032965  0.47867376  0.26717042
Direct configuration=    41
   0.51336695  0.64377709  0.13637601
   0.51336695  0.64377709  0.26538116
   0.48663305  0.35622291  0.13637601
   0.48663305  0.35622291  0.26538116
   0.99238746  0.64871315  0.13665583
   0.99238746  0.64871315  0.26510135
   0.00761254  0.35128685  0.13665583
   0.00761254  0.35128685  0.26510135
   0.60147225  0.90725686  0.13703533
   0.60147225  0.90725686  0.26472184
   0.39852775  0.09274313  0.13703533
   0.39852775  0.09274313  0.26472184
   0.90045933  0.90689884  0.13797329
   0.90045933  0.90689884  0.26378388
   0.09954067  0.09310115  0.13797329
   0.09954067  0.09310115  0.26378388
   0.75040602  0.72196048  0.17269813
   0.75332882  0.72512632  0.29546200
   0.24667118  0.27487368  0.10629517
   0.24959398  0.27803952  0.22905905
   0.75332882  0.72512632  0.10629517
   0.75040602  0.72196048  0.22905905
   0.24959398  0.27803952  0.17269813
   0.24667118  0.27487368  0.29546200
   0.24957331  0.52128103  0.13451824
   0.24957331  0.52128103  0.26723893
   0.75042669  0.47871894  0.13451824
   0.75042669  0.47871894  0.26723893
Direct configuration=    42
   0.51330357  0.64377647  0.13638436
   0.51330357  0.64377647  0.26537282
   0.48669643  0.35622353  0.13638436
   0.48669643  0.35622353  0.26537282
   0.99231714  0.64872032  0.13661985
   0.99231714  0.64872032  0.26513732
   0.00768286  0.35127968  0.13661985
   0.00768286  0.35127968  0.26513732
   0.60158300  0.90720150  0.13714308
   0.60158300  0.90720150  0.26461409
   0.39841700  0.09279849  0.13714308
   0.39841700  0.09279849  0.26461409
   0.90047288  0.90680875  0.13806182
   0.90047288  0.90680875  0.26369536
   0.09952712  0.09319124  0.13806182
   0.09952712  0.09319124  0.26369536
   0.75053632  0.72182989  0.17267110
   0.75326760  0.72530147  0.29542592
   0.24673240  0.27469853  0.10633125
   0.24946368  0.27817011  0.22908608
   0.75326760  0.72530147  0.10633125
   0.75053632  0.72182989  0.22908608
   0.24946368  0.27817011  0.17267110
   0.24673240  0.27469853  0.29542592
   0.24952937  0.52120428  0.13447454
   0.24952937  0.52120428  0.26728264
   0.75047063  0.47879569  0.13447454
   0.75047063  0.47879569  0.26728264
Direct configuration=    43
   0.51326158  0.64377606  0.13638988
   0.51326158  0.64377606  0.26536729
   0.48673842  0.35622394  0.13638988
   0.48673842  0.35622394  0.26536729
   0.99227056  0.64872506  0.13659602
   0.99227056  0.64872506  0.26516115
   0.00772944  0.35127494  0.13659602
   0.00772944  0.35127494  0.26516115
   0.60165636  0.90716483  0.13721446
   0.60165636  0.90716483  0.26454272
   0.39834364  0.09283516  0.13721446
   0.39834364  0.09283516  0.26454272
   0.90048185  0.90674907  0.13812046
   0.90048185  0.90674907  0.26363671
   0.09951815  0.09325092  0.13812046
   0.09951815  0.09325092  0.26363671
   0.75062263  0.72174339  0.17265319
   0.75322705  0.72541749  0.29540203
   0.24677295  0.27458251  0.10635515
   0.24937737  0.27825661  0.22910398
   0.75322705  0.72541749  0.10635515
   0.75062263  0.72174339  0.22910398
   0.24937737  0.27825661  0.17265319
   0.24677295  0.27458251  0.29540203
   0.24950025  0.52115344  0.13444559
   0.24950025  0.52115344  0.26731158
   0.75049975  0.47884653  0.13444559
   0.75049975  0.47884653  0.26731158
Direct configuration=    44
   0.51327264  0.64374907  0.13640608
   0.51327264  0.64374907  0.26535109
   0.48672736  0.35625093  0.13640608
   0.48672736  0.35625093  0.26535109
   0.99230588  0.64864018  0.13657140
   0.99230588  0.64864018  0.26518578
   0.00769412  0.35135982  0.13657140
   0.00769412  0.35135982  0.26518578
   0.60151026  0.90716354  0.13731404
   0.60151026  0.90716354  0.26444314
   0.39848974  0.09283645  0.13731404
   0.39848974  0.09283645  0.26444314
   0.90057451  0.90679355  0.13817424
   0.90057451  0.90679355  0.26358293
   0.09942549  0.09320644  0.13817424
   0.09942549  0.09320644  0.26358293
   0.75059897  0.72158891  0.17264744
   0.75326832  0.72567109  0.29537074
   0.24673168  0.27432891  0.10638643
   0.24940103  0.27841109  0.22910974
   0.75326832  0.72567109  0.10638643
   0.75059897  0.72158891  0.22910974
   0.24940103  0.27841109  0.17264744
   0.24673168  0.27432891  0.29537074
   0.24954665  0.52115653  0.13440948
   0.24954665  0.52115653  0.26734769
   0.75045335  0.47884344  0.13440948
   0.75045335  0.47884344  0.26734769
Direct configuration=    45
   0.51328555  0.64371760  0.13642497
   0.51328555  0.64371760  0.26533220
   0.48671445  0.35628240  0.13642497
   0.48671445  0.35628240  0.26533220
   0.99234708  0.64854116  0.13654267
   0.99234708  0.64854116  0.26521450
   0.00765292  0.35145884  0.13654267
   0.00765292  0.35145884  0.26521450
   0.60133984  0.90716203  0.13743020
   0.60133984  0.90716203  0.26432697
   0.39866016  0.09283796  0.13743020
   0.39866016  0.09283796  0.26432697
   0.90068261  0.90684543  0.13823699
   0.90068261  0.90684543  0.26352018
   0.09931739  0.09315456  0.13823699
   0.09931739  0.09315456  0.26352018
   0.75057137  0.72140870  0.17264073
   0.75331647  0.72596693  0.29533424
   0.24668353  0.27403307  0.10642293
   0.24942863  0.27859130  0.22911645
   0.75331647  0.72596693  0.10642293
   0.75057137  0.72140870  0.22911645
   0.24942863  0.27859130  0.17264073
   0.24668353  0.27403307  0.29533424
   0.24960077  0.52116014  0.13436736
   0.24960077  0.52116014  0.26738981
   0.75039923  0.47883984  0.13436736
   0.75039923  0.47883984  0.26738981
Direct configuration=    46
   0.51334901  0.64371751  0.13643460
   0.51334901  0.64371751  0.26532257
   0.48665099  0.35628249  0.13643460
   0.48665099  0.35628249  0.26532257
   0.99238414  0.64849836  0.13652560
   0.99238414  0.64849836  0.26523157
   0.00761586  0.35150164  0.13652560
   0.00761586  0.35150164  0.26523157
   0.60127753  0.90708163  0.13751830
   0.60127753  0.90708163  0.26423887
   0.39872247  0.09291837  0.13751830
   0.39872247  0.09291837  0.26423887
   0.90061073  0.90677905  0.13828027
   0.90061073  0.90677905  0.26347690
   0.09938927  0.09322094  0.13828027
   0.09938927  0.09322094  0.26347690
   0.75052379  0.72123315  0.17266970
   0.75333526  0.72623618  0.29530920
   0.24666474  0.27376382  0.10644798
   0.24947621  0.27876685  0.22908747
   0.75333526  0.72623618  0.10644798
   0.75052379  0.72123315  0.22908747
   0.24947621  0.27876685  0.17266970
   0.24666474  0.27376382  0.29530920
   0.24964715  0.52115001  0.13433262
   0.24964715  0.52115001  0.26742456
   0.75035285  0.47884996  0.13433262
   0.75035285  0.47884996  0.26742456
Direct configuration=    47
   0.51339617  0.64371745  0.13644175
   0.51339617  0.64371745  0.26531542
   0.48660383  0.35628255  0.13644175
   0.48660383  0.35628255  0.26531542
   0.99241169  0.64846656  0.13651292
   0.99241169  0.64846656  0.26524426
   0.00758831  0.35153344  0.13651292
   0.00758831  0.35153344  0.26524426
   0.60123123  0.90702187  0.13758376
   0.60123123  0.90702187  0.26417341
   0.39876877  0.09297812  0.13758376
   0.39876877  0.09297812  0.26417341
   0.90055731  0.90672973  0.13831244
   0.90055731  0.90672973  0.26344474
   0.09944269  0.09327027  0.13831244
   0.09944269  0.09327027  0.26344474
   0.75048843  0.72110270  0.17269123
   0.75334922  0.72643628  0.29529058
   0.24665078  0.27356372  0.10646659
   0.24951157  0.27889730  0.22906594
   0.75334922  0.72643628  0.10646659
   0.75048843  0.72110270  0.22906594
   0.24951157  0.27889730  0.17269123
   0.24665078  0.27356372  0.29529058
   0.24968162  0.52114249  0.13430680
   0.24968162  0.52114249  0.26745038
   0.75031838  0.47885748  0.13430680
   0.75031838  0.47885748  0.26745038
Direct configuration=    48
   0.51340830  0.64369970  0.13643467
   0.51340830  0.64369970  0.26532250
   0.48659170  0.35630030  0.13643467
   0.48659170  0.35630030  0.26532250
   0.99239606  0.64851718  0.13651288
   0.99239606  0.64851718  0.26524430
   0.00760394  0.35148282  0.13651288
   0.00760394  0.35148282  0.26524430
   0.60126515  0.90698149  0.13761735
   0.60126515  0.90698149  0.26413982
   0.39873485  0.09301850  0.13761735
   0.39873485  0.09301850  0.26413982
   0.90057144  0.90677311  0.13833893
   0.90057144  0.90677311  0.26341824
   0.09942856  0.09322688  0.13833893
   0.09942856  0.09322688  0.26341824
   0.75048456  0.72097288  0.17271078
   0.75328739  0.72647873  0.29528761
   0.24671261  0.27352127  0.10646956
   0.24951544  0.27902712  0.22904639
   0.75328739  0.72647873  0.10646956
   0.75048456  0.72097288  0.22904639
   0.24951544  0.27902712  0.17271078
   0.24671261  0.27352127  0.29528761
   0.24967553  0.52111956  0.13428901
   0.24967553  0.52111956  0.26746816
   0.75032447  0.47888041  0.13428901
   0.75032447  0.47888041  0.26746816
Direct configuration=    49
   0.51341819  0.64368523  0.13642890
   0.51341819  0.64368523  0.26532828
   0.48658181  0.35631477  0.13642890
   0.48658181  0.35631477  0.26532828
   0.99238333  0.64855843  0.13651284
   0.99238333  0.64855843  0.26524433
   0.00761667  0.35144157  0.13651284
   0.00761667  0.35144157  0.26524433
   0.60129279  0.90694858  0.13764472
   0.60129279  0.90694858  0.26411245
   0.39870721  0.09305141  0.13764472
   0.39870721  0.09305141  0.26411245
   0.90058295  0.90680847  0.13836053
   0.90058295  0.90680847  0.26339664
   0.09941705  0.09319152  0.13836053
   0.09941705  0.09319152  0.26339664
   0.75048141  0.72086711  0.17272671
   0.75323700  0.72651333  0.29528519
   0.24676300  0.27348667  0.10647198
   0.24951859  0.27913289  0.22903046
   0.75323700  0.72651333  0.10647198
   0.75048141  0.72086711  0.22903046
   0.24951859  0.27913289  0.17272671
   0.24676300  0.27348667  0.29528519
   0.24967056  0.52110087  0.13427452
   0.24967056  0.52110087  0.26748265
   0.75032944  0.47889910  0.13427452
   0.75032944  0.47889910  0.26748265
Direct configuration=    50
   0.51338334  0.64364983  0.13641477
   0.51338334  0.64364983  0.26534240
   0.48661666  0.35635017  0.13641477
   0.48661666  0.35635017  0.26534240
   0.99237680  0.64862583  0.13651689
   0.99237680  0.64862583  0.26524029
   0.00762320  0.35137417  0.13651689
   0.00762320  0.35137417  0.26524029
   0.60130458  0.90698316  0.13767793
   0.60130458  0.90698316  0.26407925
   0.39869542  0.09301683  0.13767793
   0.39869542  0.09301683  0.26407925
   0.90052793  0.90679397  0.13839517
   0.90052793  0.90679397  0.26336200
   0.09947207  0.09320602  0.13839517
   0.09947207  0.09320602  0.26336200
   0.75050889  0.72071033  0.17272417
   0.75318133  0.72653135  0.29528330
   0.24681867  0.27346865  0.10647388
   0.24949111  0.27928967  0.22903300
   0.75318133  0.72653135  0.10647388
   0.75050889  0.72071033  0.22903300
   0.24949111  0.27928967  0.17272417
   0.24681867  0.27346865  0.29528330
   0.24961852  0.52110167  0.13425426
   0.24961852  0.52110167  0.26750291
   0.75038148  0.47889830  0.13425426
   0.75038148  0.47889830  0.26750291
Direct configuration=    51
   0.51333301  0.64359869  0.13639437
   0.51333301  0.64359869  0.26536280
   0.48666699  0.35640131  0.13639437
   0.48666699  0.35640131  0.26536280
   0.99236738  0.64872318  0.13652272
   0.99236738  0.64872318  0.26523445
   0.00763262  0.35127682  0.13652272
   0.00763262  0.35127682  0.26523445
   0.60132160  0.90703310  0.13772588
   0.60132160  0.90703310  0.26403129
   0.39867840  0.09296689  0.13772588
   0.39867840  0.09296689  0.26403129
   0.90044845  0.90677303  0.13844521
   0.90044845  0.90677303  0.26331196
   0.09955155  0.09322696  0.13844521
   0.09955155  0.09322696  0.26331196
   0.75054858  0.72048390  0.17272051
   0.75310093  0.72655739  0.29528057
   0.24689907  0.27344261  0.10647661
   0.24945142  0.27951610  0.22903666
   0.75310093  0.72655739  0.10647661
   0.75054858  0.72048390  0.22903666
   0.24945142  0.27951610  0.17272051
   0.24689907  0.27344261  0.29528057
   0.24954334  0.52110284  0.13422501
   0.24954334  0.52110284  0.26753216
   0.75045666  0.47889713  0.13422501
   0.75045666  0.47889713  0.26753216
Direct configuration=    52
   0.51329874  0.64363631  0.13637822
   0.51329874  0.64363631  0.26537895
   0.48670126  0.35636369  0.13637822
   0.48670126  0.35636369  0.26537895
   0.99240670  0.64872536  0.13652179
   0.99240670  0.64872536  0.26523539
   0.00759330  0.35127464  0.13652179
   0.00759330  0.35127464  0.26523539
   0.60131903  0.90701441  0.13775039
   0.60131903  0.90701441  0.26400678
   0.39868097  0.09298558  0.13775039
   0.39868097  0.09298558  0.26400678
   0.90044330  0.90682406  0.13847522
   0.90044330  0.90682406  0.26328195
   0.09955670  0.09317594  0.13847522
   0.09955670  0.09317594  0.26328195
   0.75055025  0.72035044  0.17270470
   0.75312681  0.72662421  0.29527209
   0.24687319  0.27337579  0.10648509
   0.24944975  0.27964956  0.22905247
   0.75312681  0.72662421  0.10648509
   0.75055025  0.72035044  0.22905247
   0.24944975  0.27964956  0.17270470
   0.24687319  0.27337579  0.29527209
   0.24951428  0.52115245  0.13420501
   0.24951428  0.52115245  0.26755216
   0.75048572  0.47884752  0.13420501
   0.75048572  0.47884752  0.26755216
Direct configuration=    53
   0.51327732  0.64365983  0.13636812
   0.51327732  0.64365983  0.26538906
   0.48672268  0.35634017  0.13636812
   0.48672268  0.35634017  0.26538906
   0.99243128  0.64872673  0.13652120
   0.99243128  0.64872673  0.26523597
   0.00756872  0.35127327  0.13652120
   0.00756872  0.35127327  0.26523597
   0.60131743  0.90700272  0.13776571
   0.60131743  0.90700272  0.26399146
   0.39868257  0.09299727  0.13776571
   0.39868257  0.09299727  0.26399146
   0.90044008  0.90685595  0.13849398
   0.90044008  0.90685595  0.26326320
   0.09955992  0.09314404  0.13849398
   0.09955992  0.09314404  0.26326320
   0.75055129  0.72026702  0.17269481
   0.75314299  0.72666598  0.29526679
   0.24685701  0.27333402  0.10649039
   0.24944871  0.27973298  0.22906236
   0.75314299  0.72666598  0.10649039
   0.75055129  0.72026702  0.22906236
   0.24944871  0.27973298  0.17269481
   0.24685701  0.27333402  0.29526679
   0.24949612  0.52118346  0.13419251
   0.24949612  0.52118346  0.26756466
   0.75050388  0.47881651  0.13419251
   0.75050388  0.47881651  0.26756466
Direct configuration=    54
   0.51326624  0.64369997  0.13634846
   0.51326624  0.64369997  0.26540871
   0.48673376  0.35630003  0.13634846
   0.48673376  0.35630003  0.26540871
   0.99244024  0.64872842  0.13651327
   0.99244024  0.64872842  0.26524391
   0.00755976  0.35127158  0.13651327
   0.00755976  0.35127158  0.26524391
   0.60131007  0.90698239  0.13778520
   0.60131007  0.90698239  0.26397197
   0.39868993  0.09301760  0.13778520
   0.39868993  0.09301760  0.26397197
   0.90040328  0.90685519  0.13852058
   0.90040328  0.90685519  0.26323659
   0.09959672  0.09314481  0.13852058
   0.09959672  0.09314481  0.26323659
   0.75053496  0.72015116  0.17269658
   0.75323897  0.72676442  0.29525428
   0.24676103  0.27323558  0.10650289
   0.24946504  0.27984884  0.22906059
   0.75323897  0.72676442  0.10650289
   0.75053496  0.72015116  0.22906059
   0.24946504  0.27984884  0.17269658
   0.24676103  0.27323558  0.29525428
   0.24952860  0.52119710  0.13416997
   0.24952860  0.52119710  0.26758720
   0.75047140  0.47880287  0.13416997
   0.75047140  0.47880287  0.26758720
Direct configuration=    55
   0.51324353  0.64378222  0.13630818
   0.51324353  0.64378222  0.26544899
   0.48675647  0.35621778  0.13630818
   0.48675647  0.35621778  0.26544899
   0.99245860  0.64873190  0.13649701
   0.99245860  0.64873190  0.26526017
   0.00754140  0.35126810  0.13649701
   0.00754140  0.35126810  0.26526017
   0.60129499  0.90694072  0.13782515
   0.60129499  0.90694072  0.26393202
   0.39870501  0.09305927  0.13782515
   0.39870501  0.09305927  0.26393202
   0.90032787  0.90685362  0.13857511
   0.90032787  0.90685362  0.26318206
   0.09967213  0.09314638  0.13857511
   0.09967213  0.09314638  0.26318206
   0.75050149  0.71991371  0.17270020
   0.75343568  0.72696616  0.29522865
   0.24656432  0.27303384  0.10652852
   0.24949851  0.28008629  0.22905697
   0.75343568  0.72696616  0.10652852
   0.75050149  0.71991371  0.22905697
   0.24949851  0.28008629  0.17270020
   0.24656432  0.27303384  0.29522865
   0.24959516  0.52122506  0.13412377
   0.24959516  0.52122506  0.26763340
   0.75040484  0.47877492  0.13412377
   0.75040484  0.47877492  0.26763340
Direct configuration=    56
   0.51325195  0.64378419  0.13628865
   0.51325195  0.64378419  0.26546852
   0.48674805  0.35621581  0.13628865
   0.48674805  0.35621581  0.26546852
   0.99246392  0.64872476  0.13648840
   0.99246392  0.64872476  0.26526877
   0.00753608  0.35127524  0.13648840
   0.00753608  0.35127524  0.26526877
   0.60128484  0.90695265  0.13784072
   0.60128484  0.90695265  0.26391645
   0.39871516  0.09304735  0.13784072
   0.39871516  0.09304735  0.26391645
   0.90034891  0.90688150  0.13860166
   0.90034891  0.90688150  0.26315552
   0.09965109  0.09311849  0.13860166
   0.09965109  0.09311849  0.26315552
   0.75046906  0.71982184  0.17270823
   0.75349498  0.72703349  0.29522108
   0.24650502  0.27296651  0.10653610
   0.24953094  0.28017816  0.22904894
   0.75349498  0.72703349  0.10653610
   0.75046906  0.71982184  0.22904894
   0.24953094  0.28017816  0.17270823
   0.24650502  0.27296651  0.29522108
   0.24960132  0.52120037  0.13410260
   0.24960132  0.52120037  0.26765458
   0.75039868  0.47879960  0.13410260
   0.75039868  0.47879960  0.26765458
Direct configuration=    57
   0.51327023  0.64378846  0.13624627
   0.51327023  0.64378846  0.26551090
   0.48672977  0.35621154  0.13624627
   0.48672977  0.35621154  0.26551090
   0.99247547  0.64870928  0.13646973
   0.99247547  0.64870928  0.26528745
   0.00752453  0.35129072  0.13646973
   0.00752453  0.35129072  0.26528745
   0.60126282  0.90697852  0.13787450
   0.60126282  0.90697852  0.26388267
   0.39873718  0.09302147  0.13787450
   0.39873718  0.09302147  0.26388267
   0.90039457  0.90694203  0.13865927
   0.90039457  0.90694203  0.26309791
   0.09960543  0.09305796  0.13865927
   0.09960543  0.09305796  0.26309791
   0.75039868  0.71962246  0.17272566
   0.75362369  0.72717964  0.29520464
   0.24637631  0.27282036  0.10655253
   0.24960132  0.28037754  0.22903151
   0.75362369  0.72717964  0.10655253
   0.75039868  0.71962246  0.22903151
   0.24960132  0.28037754  0.17272566
   0.24637631  0.27282036  0.29520464
   0.24961470  0.52114679  0.13405664
   0.24961470  0.52114679  0.26770053
   0.75038530  0.47885318  0.13405664
   0.75038530  0.47885318  0.26770053
Direct configuration=    58
   0.51328365  0.64376258  0.13622087
   0.51328365  0.64376258  0.26553630
   0.48671635  0.35623742  0.13622087
   0.48671635  0.35623742  0.26553630
   0.99249651  0.64870505  0.13646001
   0.99249651  0.64870505  0.26529716
   0.00750349  0.35129495  0.13646001
   0.00750349  0.35129495  0.26529716
   0.60128622  0.90698982  0.13789342
   0.60128622  0.90698982  0.26386375
   0.39871378  0.09301017  0.13789342
   0.39871378  0.09301017  0.26386375
   0.90039151  0.90691606  0.13869837
   0.90039151  0.90691606  0.26305880
   0.09960849  0.09308394  0.13869837
   0.09960849  0.09308394  0.26305880
   0.75034293  0.71953176  0.17272708
   0.75365683  0.72727082  0.29520003
   0.24634317  0.27272918  0.10655715
   0.24965707  0.28046824  0.22903009
   0.75365683  0.72727082  0.10655715
   0.75034293  0.71953176  0.22903009
   0.24965707  0.28046824  0.17272708
   0.24634317  0.27272918  0.29520003
   0.24959019  0.52110764  0.13402909
   0.24959019  0.52110764  0.26772808
   0.75040981  0.47889233  0.13402909
   0.75040981  0.47889233  0.26772808
Direct configuration=    59
   0.51332390  0.64368491  0.13614468
   0.51332390  0.64368491  0.26561250
   0.48667610  0.35631509  0.13614468
   0.48667610  0.35631509  0.26561250
   0.99255962  0.64869235  0.13643087
   0.99255962  0.64869235  0.26532631
   0.00744038  0.35130765  0.13643087
   0.00744038  0.35130765  0.26532631
   0.60135643  0.90702372  0.13795018
   0.60135643  0.90702372  0.26380699
   0.39864357  0.09297628  0.13795018
   0.39864357  0.09297628  0.26380699
   0.90038232  0.90683812  0.13881570
   0.90038232  0.90683812  0.26294147
   0.09961768  0.09316187  0.13881570
   0.09961768  0.09316187  0.26294147
   0.75017569  0.71925966  0.17273133
   0.75375624  0.72754435  0.29518618
   0.24624376  0.27245565  0.10657099
   0.24982431  0.28074034  0.22902584
   0.75375624  0.72754435  0.10657099
   0.75017569  0.71925966  0.22902584
   0.24982431  0.28074034  0.17273133
   0.24624376  0.27245565  0.29518618
   0.24951666  0.52099019  0.13394646
   0.24951666  0.52099019  0.26781072
   0.75048334  0.47900978  0.13394646
   0.75048334  0.47900978  0.26781072
Direct configuration=    60
   0.51329221  0.64367471  0.13611274
   0.51329221  0.64367471  0.26564443
   0.48670779  0.35632529  0.13611274
   0.48670779  0.35632529  0.26564443
   0.99259713  0.64874160  0.13642224
   0.99259713  0.64874160  0.26533493
   0.00740287  0.35125840  0.13642224
   0.00740287  0.35125840  0.26533493
   0.60137132  0.90700698  0.13797597
   0.60137132  0.90700698  0.26378120
   0.39862868  0.09299302  0.13797597
   0.39862868  0.09299302  0.26378120
   0.90044308  0.90680581  0.13887498
   0.90044308  0.90680581  0.26288219
   0.09955692  0.09319418  0.13887498
   0.09955692  0.09319418  0.26288219
   0.75007646  0.71914053  0.17271713
   0.75376455  0.72768764  0.29519220
   0.24623545  0.27231236  0.10656497
   0.24992354  0.28085947  0.22904005
   0.75376455  0.72768764  0.10656497
   0.75007646  0.71914053  0.22904005
   0.24992354  0.28085947  0.17271713
   0.24623545  0.27231236  0.29519220
   0.24952863  0.52101925  0.13390729
   0.24952863  0.52101925  0.26784989
   0.75047137  0.47898072  0.13390729
   0.75047137  0.47898072  0.26784989
Direct configuration=    61
   0.51325715  0.64366343  0.13607741
   0.51325715  0.64366343  0.26567976
   0.48674285  0.35633657  0.13607741
   0.48674285  0.35633657  0.26567976
   0.99263862  0.64879608  0.13641271
   0.99263862  0.64879608  0.26534446
   0.00736138  0.35120392  0.13641271
   0.00736138  0.35120392  0.26534446
   0.60138779  0.90698846  0.13800450
   0.60138779  0.90698846  0.26375267
   0.39861221  0.09301153  0.13800450
   0.39861221  0.09301153  0.26375267
   0.90051030  0.90677007  0.13894056
   0.90051030  0.90677007  0.26281661
   0.09948970  0.09322992  0.13894056
   0.09948970  0.09322992  0.26281661
   0.74996668  0.71900874  0.17270142
   0.75377375  0.72784616  0.29519886
   0.24622625  0.27215384  0.10655831
   0.25003332  0.28099126  0.22905576
   0.75377375  0.72784616  0.10655831
   0.74996668  0.71900874  0.22905576
   0.25003332  0.28099126  0.17270142
   0.24622625  0.27215384  0.29519886
   0.24954187  0.52105140  0.13386395
   0.24954187  0.52105140  0.26789322
   0.75045813  0.47894857  0.13386395
   0.75045813  0.47894857  0.26789322
Direct configuration=    62
   0.51324583  0.64372693  0.13605101
   0.51324583  0.64372693  0.26570616
   0.48675417  0.35627307  0.13605101
   0.48675417  0.35627307  0.26570616
   0.99262386  0.64881693  0.13640537
   0.99262386  0.64881693  0.26535180
   0.00737614  0.35118307  0.13640537
   0.00737614  0.35118307  0.26535180
   0.60133767  0.90699635  0.13802579
   0.60133767  0.90699635  0.26373138
   0.39866233  0.09300364  0.13802579
   0.39866233  0.09300364  0.26373138
   0.90052131  0.90671261  0.13898788
   0.90052131  0.90671261  0.26276929
   0.09947869  0.09328738  0.13898788
   0.09947869  0.09328738  0.26276929
   0.74986544  0.71887268  0.17270484
   0.75380489  0.72796793  0.29521031
   0.24619511  0.27203207  0.10654686
   0.25013456  0.28112732  0.22905233
   0.75380489  0.72796793  0.10654686
   0.74986544  0.71887268  0.22905233
   0.25013456  0.28112732  0.17270484
   0.24619511  0.27203207  0.29521031
   0.24952467  0.52107243  0.13382589
   0.24952467  0.52107243  0.26793128
   0.75047533  0.47892754  0.13382589
   0.75047533  0.47892754  0.26793128
Direct configuration=    63
   0.51324043  0.64375726  0.13603841
   0.51324043  0.64375726  0.26571876
   0.48675957  0.35624274  0.13603841
   0.48675957  0.35624274  0.26571876
   0.99261681  0.64882689  0.13640187
   0.99261681  0.64882689  0.26535530
   0.00738319  0.35117311  0.13640187
   0.00738319  0.35117311  0.26535530
   0.60131374  0.90700013  0.13803595
   0.60131374  0.90700013  0.26372122
   0.39868626  0.09299987  0.13803595
   0.39868626  0.09299987  0.26372122
   0.90052657  0.90668517  0.13901048
   0.90052657  0.90668517  0.26274669
   0.09947343  0.09331482  0.13901048
   0.09947343  0.09331482  0.26274669
   0.74981709  0.71880770  0.17270648
   0.75381976  0.72802609  0.29521578
   0.24618024  0.27197391  0.10654139
   0.25018291  0.28119230  0.22905070
   0.75381976  0.72802609  0.10654139
   0.74981709  0.71880770  0.22905070
   0.25018291  0.28119230  0.17270648
   0.24618024  0.27197391  0.29521578
   0.24951645  0.52108248  0.13380771
   0.24951645  0.52108248  0.26794946
   0.75048355  0.47891749  0.13380771
   0.75048355  0.47891749  0.26794946
Direct configuration=    64
   0.51321482  0.64377052  0.13601722
   0.51321482  0.64377052  0.26573995
   0.48678518  0.35622948  0.13601722
   0.48678518  0.35622948  0.26573995
   0.99256864  0.64876792  0.13639498
   0.99256864  0.64876792  0.26536219
   0.00743136  0.35123208  0.13639498
   0.00743136  0.35123208  0.26536219
   0.60132024  0.90698755  0.13805074
   0.60132024  0.90698755  0.26370643
   0.39867976  0.09301244  0.13805074
   0.39867976  0.09301244  0.26370643
   0.90050994  0.90670052  0.13903986
   0.90050994  0.90670052  0.26271731
   0.09949006  0.09329947  0.13903986
   0.09949006  0.09329947  0.26271731
   0.74973126  0.71867818  0.17271714
   0.75386609  0.72810699  0.29522145
   0.24613391  0.27189301  0.10653573
   0.25026874  0.28132182  0.22904003
   0.75386609  0.72810699  0.10653573
   0.74973126  0.71867818  0.22904003
   0.25026874  0.28132182  0.17271714
   0.24613391  0.27189301  0.29522145
   0.24953056  0.52105882  0.13377524
   0.24953056  0.52105882  0.26798193
   0.75046944  0.47894115  0.13377524
   0.75046944  0.47894115  0.26798193
