k-points
0
Monkhorst-pack
14  20  13
0   0   0