  288  288    1    1
  0.3282949E+02  0.1703999E-08  0.1844133E-08  0.3008812E-08  0.5000000E-15
  1.000000000000000E-004
  CAR 
 SCF                                     
    792      4    552
 
  0.1250000E+00  0.1276756E-14  0.1276756E-14  0.1666667E+00
      1        -18.470644   1.000000
      2        -18.393176   1.000000
      3        -18.392064   1.000000
      4        -18.335895   1.000000
      5        -18.286381   1.000000
      6        -18.262089   1.000000
      7        -18.260935   1.000000
      8        -18.223468   1.000000
      9        -18.222345   1.000000
     10        -18.169621   1.000000
     11        -18.153985   1.000000
     12        -18.118157   1.000000
     13        -18.116973   1.000000
     14        -18.094096   1.000000
     15        -18.092984   1.000000
     16        -18.038731   1.000000
     17        -17.989778   1.000000
     18        -17.988599   1.000000
     19        -17.732457   1.000000
     20        -17.731050   1.000000
     21        -17.716390   1.000000
     22        -17.611346   1.000000
     23        -17.609440   1.000000
     24        -17.606039   1.000000
     25        -17.605044   1.000000
     26        -17.591209   1.000000
     27        -17.559595   1.000000
     28        -17.484926   1.000000
     29        -17.483494   1.000000
     30        -17.436403   1.000000
     31        -17.402088   1.000000
     32        -17.400668   1.000000
     33        -17.274975   1.000000
     34        -17.273375   1.000000
     35        -17.258906   1.000000
     36        -17.139219   1.000000
     37        -14.604428   1.000000
     38        -14.604085   1.000000
     39        -14.582283   1.000000
     40        -14.581869   1.000000
     41        -14.493468   1.000000
     42        -14.486006   1.000000
     43        -14.485633   1.000000
     44        -14.466433   1.000000
     45        -14.466195   1.000000
     46        -14.460154   1.000000
     47        -14.459711   1.000000
     48        -14.393419   1.000000
     49        -14.369654   1.000000
     50        -14.369404   1.000000
     51        -14.367758   1.000000
     52        -14.297181   1.000000
     53        -14.266728   1.000000
     54        -14.266012   1.000000
     55        -14.264908   1.000000
     56        -14.193146   1.000000
     57        -14.156546   1.000000
     58        -14.147000   1.000000
     59        -14.146278   1.000000
     60        -14.140313   1.000000
     61        -14.131182   1.000000
     62        -14.125716   1.000000
     63        -14.125096   1.000000
     64        -14.028246   1.000000
     65        -14.026810   1.000000
     66        -14.012690   1.000000
     67        -14.009929   1.000000
     68        -14.009315   1.000000
     69        -13.907255   1.000000
     70        -13.906512   1.000000
     71        -13.793678   1.000000
     72        -13.792879   1.000000
     73        -12.519030   1.000000
     74        -12.518617   1.000000
     75        -12.365415   1.000000
     76        -12.364960   1.000000
     77        -11.904452   1.000000
     78        -11.904153   1.000000
     79        -11.896564   1.000000
     80        -11.836136   1.000000
     81        -11.819173   1.000000
     82        -11.814411   1.000000
     83        -11.743138   1.000000
     84        -11.742599   1.000000
     85        -11.738795   1.000000
     86        -11.738473   1.000000
     87        -11.729631   1.000000
     88        -11.721141   1.000000
     89        -11.673785   1.000000
     90        -11.639608   1.000000
     91        -11.623939   1.000000
     92        -11.619450   1.000000
     93        -11.607268   1.000000
     94        -11.607119   1.000000
     95        -11.571940   1.000000
     96        -11.571374   1.000000
     97        -11.555351   1.000000
     98        -11.531276   1.000000
     99        -11.478786   1.000000
    100        -11.469945   1.000000
    101        -11.469356   1.000000
    102        -11.434414   1.000000
    103        -11.433997   1.000000
    104        -11.433346   1.000000
    105        -11.432999   1.000000
    106        -11.232195   1.000000
    107        -11.231389   1.000000
    108        -11.137574   1.000000
    109        -11.136913   1.000000
    110        -11.093080   1.000000
    111        -11.052867   1.000000
    112        -11.052176   1.000000
    113        -10.968430   1.000000
    114        -10.967947   1.000000
    115        -10.940860   1.000000
    116        -10.923122   1.000000
    117        -10.922412   1.000000
    118        -10.809908   1.000000
    119        -10.807377   1.000000
    120        -10.805315   1.000000
    121        -10.804800   1.000000
    122        -10.764069   1.000000
    123        -10.763809   1.000000
    124        -10.667007   1.000000
    125        -10.658688   1.000000
    126        -10.657519   1.000000
    127        -10.600849   1.000000
    128        -10.592458   1.000000
    129        -10.568530   1.000000
    130        -10.568204   1.000000
    131        -10.541069   1.000000
    132        -10.540992   1.000000
    133        -10.528009   1.000000
    134        -10.497921   1.000000
    135        -10.478379   1.000000
    136        -10.477170   1.000000
    137        -10.461846   1.000000
    138        -10.444156   1.000000
    139        -10.444009   1.000000
    140        -10.440193   1.000000
    141        -10.367210   1.000000
    142        -10.365879   1.000000
    143        -10.360185   1.000000
    144        -10.359232   1.000000
    145        -10.358902   1.000000
    146        -10.211070   1.000000
    147        -10.210586   1.000000
    148        -10.188316   1.000000
    149        -10.109110   1.000000
    150        -10.086002   1.000000
    151        -10.018139   1.000000
    152        -10.016606   1.000000
    153         -9.977429   1.000000
    154         -9.967011   1.000000
    155         -9.925138   1.000000
    156         -9.923443   1.000000
    157         -9.820974   1.000000
    158         -9.789659   1.000000
    159         -9.787782   1.000000
    160         -9.553440   1.000000
    161         -9.552718   1.000000
    162         -9.541831   1.000000
    163         -9.393370   1.000000
    164         -9.392514   1.000000
    165         -9.273013   1.000000
    166         -9.247216   1.000000
    167         -9.247000   1.000000
    168         -9.233513   1.000000
    169         -9.233357   1.000000
    170         -9.128237   1.000000
    171         -9.127990   1.000000
    172         -9.117402   1.000000
    173         -9.117238   1.000000
    174         -9.111292   1.000000
    175         -8.861521   1.000000
    176         -8.861290   1.000000
    177         -8.843153   1.000000
    178         -8.784302   1.000000
    179         -8.730060   1.000000
    180         -8.729777   1.000000
    181         -8.692615   1.000000
    182         -8.668929   1.000000
    183         -8.519571   1.000000
    184         -8.519204   1.000000
    185         -8.392730   1.000000
    186         -8.392298   1.000000
    187         -8.391090   1.000000
    188         -8.390229   1.000000
    189         -8.348336   1.000000
    190         -8.347976   1.000000
    191         -8.272070   1.000000
    192         -8.231336   1.000000
    193         -8.223060   1.000000
    194         -8.188369   1.000000
    195         -8.188303   1.000000
    196         -8.169963   1.000000
    197         -8.159119   1.000000
    198         -8.156909   1.000000
    199         -8.150789   1.000000
    200         -8.150097   1.000000
    201         -8.139294   1.000000
    202         -8.137222   1.000000
    203         -8.126517   1.000000
    204         -8.123975   1.000000
    205         -8.105764   1.000000
    206         -8.101248   1.000000
    207         -8.099426   1.000000
    208         -8.096286   1.000000
    209         -8.091269   1.000000
    210         -8.037282   1.000000
    211         -8.035878   1.000000
    212         -8.034618   1.000000
    213         -8.030950   1.000000
    214         -8.006989   1.000000
    215         -7.980625   1.000000
    216         -7.971292   1.000000
    217         -7.959284   1.000000
    218         -7.939711   1.000000
    219         -7.795944   1.000000
    220         -7.618717   1.000000
    221         -7.588021   1.000000
    222         -7.587855   1.000000
    223         -7.539047   1.000000
    224         -7.538930   1.000000
    225         -7.511899   1.000000
    226         -7.511684   1.000000
    227         -7.407596   1.000000
    228         -7.407524   1.000000
    229         -7.406266   1.000000
    230         -7.406146   1.000000
    231         -7.315563   1.000000
    232         -7.315531   1.000000
    233         -7.309630   1.000000
    234         -7.309507   1.000000
    235         -7.296393   1.000000
    236         -7.290696   1.000000
    237         -7.290322   1.000000
    238         -7.239617   1.000000
    239         -7.239163   1.000000
    240         -7.213874   1.000000
    241         -7.147499   1.000000
    242         -7.144988   1.000000
    243         -7.144795   1.000000
    244         -7.144659   1.000000
    245         -7.124473   1.000000
    246         -7.124354   1.000000
    247         -7.110294   1.000000
    248         -7.095585   1.000000
    249         -7.094806   1.000000
    250         -7.093652   1.000000
    251         -7.080503   1.000000
    252         -7.066635   1.000000
    253         -7.064708   1.000000
    254         -7.058164   1.000000
    255         -7.057998   1.000000
    256         -7.038672   1.000000
    257         -7.031716   1.000000
    258         -7.028438   1.000000
    259         -7.012355   1.000000
    260         -7.009013   1.000000
    261         -6.993610   1.000000
    262         -6.991331   1.000000
    263         -6.969362   1.000000
    264         -6.879312   1.000000
    265         -6.879071   1.000000
    266         -6.868641   1.000000
    267         -6.815578   1.000000
    268         -6.813623   1.000000
    269         -6.762432   1.000000
    270         -6.700122   1.000000
    271         -6.698251   1.000000
    272         -6.635369   1.000000
    273         -6.634511   1.000000
    274         -6.634408   1.000000
    275         -6.632542   1.000000
    276         -6.590125   1.000000
    277         -6.590010   1.000000
    278         -6.560350   1.000000
    279         -6.559529   1.000000
    280         -6.524895   1.000000
    281         -6.523842   1.000000
    282         -6.443380   1.000000
    283         -6.380651   1.000000
    284         -6.369569   1.000000
    285         -6.369264   1.000000
    286         -6.324277   1.000000
    287         -6.315453   1.000000
    288         -6.315384   1.000000
    289         -6.276983   1.000000
    290         -6.276709   1.000000
    291         -6.255870   1.000000
    292         -6.250895   1.000000
    293         -6.250614   1.000000
    294         -6.227789   1.000000
    295         -6.227236   1.000000
    296         -6.207963   1.000000
    297         -6.207427   1.000000
    298         -6.180731   1.000000
    299         -6.166555   1.000000
    300         -6.131055   1.000000
    301         -6.130991   1.000000
    302         -6.129995   1.000000
    303         -6.129285   1.000000
    304         -6.095735   1.000000
    305         -6.094958   1.000000
    306         -6.065948   1.000000
    307         -6.062864   1.000000
    308         -6.062073   1.000000
    309         -6.060735   1.000000
    310         -6.024876   1.000000
    311         -6.024131   1.000000
    312         -6.004958   1.000000
    313         -6.004562   1.000000
    314         -5.885220   1.000000
    315         -5.868000   1.000000
    316         -5.867600   1.000000
    317         -5.853783   1.000000
    318         -5.803610   1.000000
    319         -5.750925   1.000000
    320         -5.744667   1.000000
    321         -5.737792   1.000000
    322         -5.737442   1.000000
    323         -5.731936   1.000000
    324         -5.723164   1.000000
    325         -5.722976   1.000000
    326         -5.676924   1.000000
    327         -5.675454   1.000000
    328         -5.665001   1.000000
    329         -5.618778   1.000000
    330         -5.618314   1.000000
    331         -5.611440   1.000000
    332         -5.567245   1.000000
    333         -5.543450   1.000000
    334         -5.543192   1.000000
    335         -5.537438   1.000000
    336         -5.536519   1.000000
    337         -5.528721   1.000000
    338         -5.528416   1.000000
    339         -5.527371   1.000000
    340         -5.526690   1.000000
    341         -5.517986   1.000000
    342         -5.513930   1.000000
    343         -5.435552   1.000000
    344         -5.417310   1.000000
    345         -5.416840   1.000000
    346         -5.357766   1.000000
    347         -5.357347   1.000000
    348         -5.355734   1.000000
    349         -5.355508   1.000000
    350         -5.311130   1.000000
    351         -5.251905   1.000000
    352         -5.200877   1.000000
    353         -5.197981   1.000000
    354         -5.137154   1.000000
    355         -5.089955   1.000000
    356         -5.087887   1.000000
    357         -5.086552   1.000000
    358         -5.068829   1.000000
    359         -5.067118   1.000000
    360         -5.034731   1.000000
    361         -4.924404   1.000000
    362         -4.924047   1.000000
    363         -4.885306   1.000000
    364         -4.876107   1.000000
    365         -4.875626   1.000000
    366         -4.850208   1.000000
    367         -4.849263   1.000000
    368         -4.848487   1.000000
    369         -4.804836   1.000000
    370         -4.804767   1.000000
    371         -4.792881   1.000000
    372         -4.624735   1.000000
    373         -4.586217   1.000000
    374         -4.584925   1.000000
    375         -4.582552   1.000000
    376         -4.558262   1.000000
    377         -4.528540   1.000000
    378         -4.526913   1.000000
    379         -4.499874   1.000000
    380         -4.496273   1.000000
    381         -4.491756   1.000000
    382         -4.491295   0.999999
    383         -4.472672   0.999998
    384         -4.472540   0.999998
    385         -4.464482   0.999997
    386         -4.462313   0.999996
    387         -4.460115   0.999996
    388         -4.444593   0.999988
    389         -4.444483   0.999988
    390         -4.394027   0.999780
    391         -4.391546   0.999749
    392         -4.391070   0.999743
    393         -4.305969   0.988384
    394         -4.243104   0.916293
    395         -4.206966   0.807712
    396         -4.206852   0.807270
    397         -4.188906   0.730423
    398         -4.160545   0.584338
    399         -4.002941   0.021907
    400         -3.924618   0.000894
    401         -3.867063   0.000041
    402         -3.866949   0.000041
    403         -3.852240   0.000017
    404         -3.851827   0.000016
    405         -3.818859   0.000002
    406         -3.818855   0.000002
    407         -3.745102   0.000000
    408         -3.744673   0.000000
    409         -3.457123   0.000000
    410         -3.331242   0.000000
    411         -2.134064   0.000000
    412         -2.133771   0.000000
    413         -2.043778   0.000000
    414         -2.043481   0.000000
    415         -1.207546   0.000000
    416         -0.998567   0.000000
    417         -0.958549   0.000000
    418         -0.958437   0.000000
    419         -0.572237   0.000000
    420         -0.515899   0.000000
    421         -0.515837   0.000000
    422         -0.458959   0.000000
    423         -0.308259   0.000000
    424         -0.308146   0.000000
    425         -0.287163   0.000000
    426         -0.243598   0.000000
    427         -0.243458   0.000000
    428         -0.081438   0.000000
    429         -0.079357   0.000000
    430         -0.078965   0.000000
    431          0.054310   0.000000
    432          0.054467   0.000000
    433          0.055340   0.000000
    434          0.058480   0.000000
    435          0.059330   0.000000
    436          0.145440   0.000000
    437          0.145724   0.000000
    438          0.159066   0.000000
    439          0.164600   0.000000
    440          0.168808   0.000000
    441          0.174362   0.000000
    442          0.198339   0.000000
    443          0.198428   0.000000
    444          0.216197   0.000000
    445          0.216641   0.000000
    446          0.225389   0.000000
    447          0.281610   0.000000
    448          0.281905   0.000000
    449          0.378949   0.000000
    450          0.379537   0.000000
    451          0.381305   0.000000
    452          0.382145   0.000000
    453          0.382313   0.000000
    454          0.385160   0.000000
    455          0.588030   0.000000
    456          0.650501   0.000000
    457          0.660690   0.000000
    458          0.682405   0.000000
    459          0.709230   0.000000
    460          0.709465   0.000000
    461          0.716584   0.000000
    462          0.716779   0.000000
    463          0.764478   0.000000
    464          0.822074   0.000000
    465          0.822154   0.000000
    466          0.823643   0.000000
    467          0.824796   0.000000
    468          0.848110   0.000000
    469          0.850634   0.000000
    470          0.850738   0.000000
    471          0.852080   0.000000
    472          0.852229   0.000000
    473          0.983450   0.000000
    474          0.983713   0.000000
    475          1.053132   0.000000
    476          1.116500   0.000000
    477          1.117454   0.000000
    478          1.120743   0.000000
    479          1.139118   0.000000
    480          1.139502   0.000000
    481          1.160165   0.000000
    482          1.165197   0.000000
    483          1.165929   0.000000
    484          1.272259   0.000000
    485          1.284480   0.000000
    486          1.284777   0.000000
    487          1.294956   0.000000
    488          1.368678   0.000000
    489          1.424885   0.000000
    490          1.425107   0.000000
    491          1.448416   0.000000
    492          1.461994   0.000000
    493          1.484453   0.000000
    494          1.496386   0.000000
    495          1.527835   0.000000
    496          1.569246   0.000000
    497          1.575497   0.000000
    498          1.603593   0.000000
    499          1.604635   0.000000
    500          1.621068   0.000000
    501          1.621576   0.000000
    502          1.683743   0.000000
    503          1.684790   0.000000
    504          1.800206   0.000000
    505          1.801401   0.000000
    506          1.891763   0.000000
    507          1.892102   0.000000
    508          1.924649   0.000000
    509          1.926074   0.000000
    510          1.937957   0.000000
    511          1.947970   0.000000
    512          1.948370   0.000000
    513          1.953079   0.000000
    514          1.954589   0.000000
    515          2.014467   0.000000
    516          2.042220   0.000000
    517          2.042536   0.000000
    518          2.096071   0.000000
    519          2.099271   0.000000
    520          2.099889   0.000000
    521          2.238422   0.000000
    522          2.238816   0.000000
    523          2.239280   0.000000
    524          2.266063   0.000000
    525          2.270427   0.000000
    526          2.327654   0.000000
    527          2.328360   0.000000
    528          2.362227   0.000000
    529          2.383328   0.000000
    530          2.383417   0.000000
    531          2.390098   0.000000
    532          2.390371   0.000000
    533          2.419806   0.000000
    534          2.420506   0.000000
    535          2.428083   0.000000
    536          2.450985   0.000000
    537          2.451049   0.000000
    538          2.492462   0.000000
    539          2.493478   0.000000
    540          2.502979   0.000000
    541          2.529446   0.000000
    542          2.529844   0.000000
    543          2.531389   0.000000
    544          2.560633   0.000000
    545          2.560913   0.000000
    546          2.575678   0.000000
    547          2.690196   0.000000
    548          2.690782   0.000000
    549          2.729677   0.000000
    550          2.730260   0.000000
    551          2.738228   0.000000
    552          2.738739   0.000000
 
  0.3750000E+00  0.1276756E-14  0.1276756E-14  0.1666667E+00
      1        -18.439218   1.000000
      2        -18.377239   1.000000
      3        -18.363946   1.000000
      4        -18.362858   1.000000
      5        -18.306954   1.000000
      6        -18.305529   1.000000
      7        -18.304550   1.000000
      8        -18.243696   1.000000
      9        -18.233126   1.000000
     10        -18.232046   1.000000
     11        -18.176452   1.000000
     12        -18.175323   1.000000
     13        -18.031246   1.000000
     14        -17.995982   1.000000
     15        -17.994771   1.000000
     16        -17.902207   1.000000
     17        -17.877499   1.000000
     18        -17.868859   1.000000
     19        -17.867400   1.000000
     20        -17.863886   1.000000
     21        -17.863041   1.000000
     22        -17.750273   1.000000
     23        -17.737744   1.000000
     24        -17.736518   1.000000
     25        -17.510211   1.000000
     26        -17.508735   1.000000
     27        -17.438966   1.000000
     28        -17.437412   1.000000
     29        -17.420914   1.000000
     30        -17.383877   1.000000
     31        -17.382419   1.000000
     32        -17.316250   1.000000
     33        -17.311771   1.000000
     34        -17.310530   1.000000
     35        -17.299215   1.000000
     36        -17.195516   1.000000
     37        -14.578487   1.000000
     38        -14.578207   1.000000
     39        -14.519741   1.000000
     40        -14.519493   1.000000
     41        -14.511949   1.000000
     42        -14.511464   1.000000
     43        -14.471409   1.000000
     44        -14.466308   1.000000
     45        -14.466002   1.000000
     46        -14.428326   1.000000
     47        -14.415767   1.000000
     48        -14.415509   1.000000
     49        -14.401981   1.000000
     50        -14.401413   1.000000
     51        -14.388566   1.000000
     52        -14.388047   1.000000
     53        -14.370710   1.000000
     54        -14.326635   1.000000
     55        -14.279526   1.000000
     56        -14.278919   1.000000
     57        -14.227898   1.000000
     58        -14.172667   1.000000
     59        -14.148672   1.000000
     60        -14.137406   1.000000
     61        -14.121962   1.000000
     62        -14.063634   1.000000
     63        -14.022101   1.000000
     64        -14.014227   1.000000
     65        -14.005124   1.000000
     66        -14.004443   1.000000
     67        -13.930915   1.000000
     68        -13.930165   1.000000
     69        -13.893064   1.000000
     70        -13.892305   1.000000
     71        -13.819633   1.000000
     72        -13.818849   1.000000
     73        -12.403025   1.000000
     74        -12.402602   1.000000
     75        -12.246608   1.000000
     76        -12.246146   1.000000
     77        -12.184904   1.000000
     78        -12.184512   1.000000
     79        -12.024599   1.000000
     80        -12.024174   1.000000
     81        -11.905597   1.000000
     82        -11.891732   1.000000
     83        -11.862559   1.000000
     84        -11.797326   1.000000
     85        -11.753873   1.000000
     86        -11.713063   1.000000
     87        -11.712514   1.000000
     88        -11.710348   1.000000
     89        -11.696046   1.000000
     90        -11.691671   1.000000
     91        -11.654750   1.000000
     92        -11.654180   1.000000
     93        -11.599978   1.000000
     94        -11.518555   1.000000
     95        -11.412824   1.000000
     96        -11.411090   1.000000
     97        -11.368542   1.000000
     98        -11.368035   1.000000
     99        -11.357882   1.000000
    100        -11.357171   1.000000
    101        -11.320192   1.000000
    102        -11.320150   1.000000
    103        -11.254575   1.000000
    104        -11.235969   1.000000
    105        -11.224626   1.000000
    106        -11.224004   1.000000
    107        -11.204874   1.000000
    108        -11.204235   1.000000
    109        -11.165478   1.000000
    110        -11.164694   1.000000
    111        -11.134387   1.000000
    112        -11.134214   1.000000
    113        -11.110663   1.000000
    114        -11.026751   1.000000
    115        -11.026029   1.000000
    116        -11.006596   1.000000
    117        -11.006296   1.000000
    118        -10.985367   1.000000
    119        -10.984696   1.000000
    120        -10.943475   1.000000
    121        -10.942778   1.000000
    122        -10.931103   1.000000
    123        -10.838988   1.000000
    124        -10.838673   1.000000
    125        -10.811449   1.000000
    126        -10.763138   1.000000
    127        -10.717379   1.000000
    128        -10.695062   1.000000
    129        -10.676156   1.000000
    130        -10.626906   1.000000
    131        -10.625742   1.000000
    132        -10.617667   1.000000
    133        -10.569093   1.000000
    134        -10.565339   1.000000
    135        -10.564104   1.000000
    136        -10.489907   1.000000
    137        -10.309839   1.000000
    138        -10.249833   1.000000
    139        -10.248426   1.000000
    140        -10.180284   1.000000
    141        -10.180181   1.000000
    142        -10.144883   1.000000
    143        -10.129809   1.000000
    144        -10.128229   1.000000
    145        -10.066034   1.000000
    146        -10.065881   1.000000
    147        -10.052887   1.000000
    148        -10.052385   1.000000
    149         -9.899162   1.000000
    150         -9.898573   1.000000
    151         -9.855748   1.000000
    152         -9.854075   1.000000
    153         -9.811110   1.000000
    154         -9.809271   1.000000
    155         -9.761939   1.000000
    156         -9.761331   1.000000
    157         -9.738255   1.000000
    158         -9.713243   1.000000
    159         -9.713184   1.000000
    160         -9.708668   1.000000
    161         -9.688389   1.000000
    162         -9.663424   1.000000
    163         -9.605638   1.000000
    164         -9.604910   1.000000
    165         -9.599906   1.000000
    166         -9.599843   1.000000
    167         -9.592249   1.000000
    168         -9.563668   1.000000
    169         -9.261057   1.000000
    170         -9.238098   1.000000
    171         -9.165548   1.000000
    172         -9.132115   1.000000
    173         -9.131891   1.000000
    174         -9.099700   1.000000
    175         -9.018587   1.000000
    176         -9.007236   1.000000
    177         -9.006971   1.000000
    178         -8.949339   1.000000
    179         -8.949091   1.000000
    180         -8.854715   1.000000
    181         -8.817575   1.000000
    182         -8.817268   1.000000
    183         -8.639239   1.000000
    184         -8.469048   1.000000
    185         -8.340783   1.000000
    186         -8.340261   1.000000
    187         -8.313779   1.000000
    188         -8.312701   1.000000
    189         -8.211861   1.000000
    190         -8.191512   1.000000
    191         -8.189596   1.000000
    192         -8.189200   1.000000
    193         -8.187496   1.000000
    194         -8.186850   1.000000
    195         -8.186023   1.000000
    196         -8.158226   1.000000
    197         -8.156202   1.000000
    198         -8.140221   1.000000
    199         -8.139734   1.000000
    200         -8.135968   1.000000
    201         -8.119575   1.000000
    202         -8.116859   1.000000
    203         -8.092853   1.000000
    204         -8.089774   1.000000
    205         -8.071060   1.000000
    206         -8.070380   1.000000
    207         -8.059608   1.000000
    208         -8.056786   1.000000
    209         -8.029101   1.000000
    210         -8.014669   1.000000
    211         -7.969822   1.000000
    212         -7.968868   1.000000
    213         -7.905288   1.000000
    214         -7.905269   1.000000
    215         -7.729180   1.000000
    216         -7.728949   1.000000
    217         -7.714019   1.000000
    218         -7.630815   1.000000
    219         -7.630777   1.000000
    220         -7.599712   1.000000
    221         -7.583816   1.000000
    222         -7.571737   1.000000
    223         -7.558177   1.000000
    224         -7.558036   1.000000
    225         -7.529386   1.000000
    226         -7.465133   1.000000
    227         -7.465005   1.000000
    228         -7.441106   1.000000
    229         -7.440612   1.000000
    230         -7.410823   1.000000
    231         -7.410464   1.000000
    232         -7.402220   1.000000
    233         -7.401879   1.000000
    234         -7.395324   1.000000
    235         -7.371276   1.000000
    236         -7.371216   1.000000
    237         -7.361361   1.000000
    238         -7.361137   1.000000
    239         -7.274697   1.000000
    240         -7.255606   1.000000
    241         -7.255495   1.000000
    242         -7.210976   1.000000
    243         -7.204842   1.000000
    244         -7.195587   1.000000
    245         -7.183657   1.000000
    246         -7.172705   1.000000
    247         -7.098095   1.000000
    248         -7.074655   1.000000
    249         -7.072702   1.000000
    250         -7.069088   1.000000
    251         -7.058800   1.000000
    252         -7.058650   1.000000
    253         -7.053233   1.000000
    254         -7.049188   1.000000
    255         -7.036149   1.000000
    256         -7.034952   1.000000
    257         -6.996495   1.000000
    258         -6.996412   1.000000
    259         -6.973330   1.000000
    260         -6.970802   1.000000
    261         -6.943340   1.000000
    262         -6.943307   1.000000
    263         -6.940725   1.000000
    264         -6.924836   1.000000
    265         -6.909169   1.000000
    266         -6.906399   1.000000
    267         -6.886432   1.000000
    268         -6.886310   1.000000
    269         -6.833898   1.000000
    270         -6.833782   1.000000
    271         -6.823356   1.000000
    272         -6.822982   1.000000
    273         -6.642159   1.000000
    274         -6.622780   1.000000
    275         -6.621013   1.000000
    276         -6.616838   1.000000
    277         -6.613203   1.000000
    278         -6.592270   1.000000
    279         -6.509279   1.000000
    280         -6.492481   1.000000
    281         -6.491614   1.000000
    282         -6.491282   1.000000
    283         -6.418195   1.000000
    284         -6.417186   1.000000
    285         -6.401807   1.000000
    286         -6.341825   1.000000
    287         -6.341536   1.000000
    288         -6.332326   1.000000
    289         -6.297357   1.000000
    290         -6.297102   1.000000
    291         -6.290182   1.000000
    292         -6.289360   1.000000
    293         -6.269020   1.000000
    294         -6.268705   1.000000
    295         -6.223401   1.000000
    296         -6.182604   1.000000
    297         -6.182175   1.000000
    298         -6.164681   1.000000
    299         -6.100341   1.000000
    300         -6.099735   1.000000
    301         -6.086778   1.000000
    302         -6.086648   1.000000
    303         -6.046642   1.000000
    304         -6.040567   1.000000
    305         -6.040423   1.000000
    306         -6.035527   1.000000
    307         -6.035383   1.000000
    308         -5.959519   1.000000
    309         -5.959368   1.000000
    310         -5.942857   1.000000
    311         -5.942287   1.000000
    312         -5.927732   1.000000
    313         -5.927602   1.000000
    314         -5.925466   1.000000
    315         -5.925369   1.000000
    316         -5.922897   1.000000
    317         -5.862108   1.000000
    318         -5.777960   1.000000
    319         -5.773765   1.000000
    320         -5.768387   1.000000
    321         -5.743678   1.000000
    322         -5.712259   1.000000
    323         -5.655859   1.000000
    324         -5.655641   1.000000
    325         -5.628424   1.000000
    326         -5.627654   1.000000
    327         -5.627412   1.000000
    328         -5.610442   1.000000
    329         -5.568704   1.000000
    330         -5.568435   1.000000
    331         -5.566589   1.000000
    332         -5.554700   1.000000
    333         -5.554056   1.000000
    334         -5.531996   1.000000
    335         -5.531632   1.000000
    336         -5.486128   1.000000
    337         -5.478386   1.000000
    338         -5.478089   1.000000
    339         -5.466829   1.000000
    340         -5.466237   1.000000
    341         -5.406818   1.000000
    342         -5.406294   1.000000
    343         -5.403522   1.000000
    344         -5.393672   1.000000
    345         -5.393521   1.000000
    346         -5.340612   1.000000
    347         -5.339937   1.000000
    348         -5.305534   1.000000
    349         -5.304920   1.000000
    350         -5.298713   1.000000
    351         -5.272982   1.000000
    352         -5.262544   1.000000
    353         -5.261841   1.000000
    354         -5.182978   1.000000
    355         -5.181906   1.000000
    356         -5.150028   1.000000
    357         -5.141842   1.000000
    358         -5.075627   1.000000
    359         -5.074652   1.000000
    360         -5.074088   1.000000
    361         -4.983408   1.000000
    362         -4.951521   1.000000
    363         -4.951077   1.000000
    364         -4.950539   1.000000
    365         -4.899286   1.000000
    366         -4.888317   1.000000
    367         -4.887277   1.000000
    368         -4.861973   1.000000
    369         -4.860557   1.000000
    370         -4.852599   1.000000
    371         -4.852428   1.000000
    372         -4.849664   1.000000
    373         -4.756836   1.000000
    374         -4.756044   1.000000
    375         -4.706322   1.000000
    376         -4.687178   1.000000
    377         -4.683630   1.000000
    378         -4.683491   1.000000
    379         -4.667321   1.000000
    380         -4.662499   1.000000
    381         -4.661305   1.000000
    382         -4.639532   1.000000
    383         -4.603932   1.000000
    384         -4.560979   1.000000
    385         -4.491234   0.999999
    386         -4.489610   0.999999
    387         -4.470800   0.999998
    388         -4.468760   0.999998
    389         -4.446747   0.999990
    390         -4.411991   0.999918
    391         -4.354543   0.998444
    392         -4.343141   0.997407
    393         -4.244376   0.919025
    394         -4.230919   0.886521
    395         -4.230862   0.886368
    396         -4.230794   0.886182
    397         -4.012526   0.030033
    398         -4.012482   0.029991
    399         -4.009308   0.027064
    400         -4.009281   0.027040
    401         -3.874811   0.000065
    402         -3.874789   0.000065
    403         -3.741062   0.000000
    404         -3.644106   0.000000
    405         -3.553227   0.000000
    406         -3.438466   0.000000
    407         -3.194172   0.000000
    408         -3.193792   0.000000
    409         -3.090962   0.000000
    410         -3.090553   0.000000
    411         -2.577631   0.000000
    412         -2.577296   0.000000
    413         -2.477671   0.000000
    414         -2.477313   0.000000
    415         -1.153548   0.000000
    416         -0.940523   0.000000
    417         -0.851469   0.000000
    418         -0.851359   0.000000
    419         -0.745080   0.000000
    420         -0.629862   0.000000
    421         -0.629751   0.000000
    422         -0.419455   0.000000
    423         -0.371398   0.000000
    424         -0.277788   0.000000
    425         -0.277621   0.000000
    426         -0.209776   0.000000
    427         -0.136647   0.000000
    428         -0.136507   0.000000
    429         -0.035754   0.000000
    430         -0.035404   0.000000
    431         -0.012112   0.000000
    432          0.075968   0.000000
    433          0.076110   0.000000
    434          0.143117   0.000000
    435          0.143297   0.000000
    436          0.147531   0.000000
    437          0.147728   0.000000
    438          0.158527   0.000000
    439          0.193396   0.000000
    440          0.230254   0.000000
    441          0.232421   0.000000
    442          0.232730   0.000000
    443          0.237532   0.000000
    444          0.275741   0.000000
    445          0.276293   0.000000
    446          0.312623   0.000000
    447          0.312922   0.000000
    448          0.319472   0.000000
    449          0.322173   0.000000
    450          0.378876   0.000000
    451          0.395584   0.000000
    452          0.395943   0.000000
    453          0.480923   0.000000
    454          0.547960   0.000000
    455          0.548821   0.000000
    456          0.569319   0.000000
    457          0.569770   0.000000
    458          0.599320   0.000000
    459          0.599470   0.000000
    460          0.627540   0.000000
    461          0.648683   0.000000
    462          0.689246   0.000000
    463          0.690289   0.000000
    464          0.739652   0.000000
    465          0.739803   0.000000
    466          0.783477   0.000000
    467          0.783611   0.000000
    468          0.909594   0.000000
    469          0.920840   0.000000
    470          0.921121   0.000000
    471          0.982069   0.000000
    472          1.017104   0.000000
    473          1.017334   0.000000
    474          1.050700   0.000000
    475          1.099677   0.000000
    476          1.131631   0.000000
    477          1.196444   0.000000
    478          1.237583   0.000000
    479          1.262398   0.000000
    480          1.290627   0.000000
    481          1.290706   0.000000
    482          1.290792   0.000000
    483          1.292144   0.000000
    484          1.368427   0.000000
    485          1.369233   0.000000
    486          1.380215   0.000000
    487          1.439842   0.000000
    488          1.446303   0.000000
    489          1.446762   0.000000
    490          1.449763   0.000000
    491          1.460367   0.000000
    492          1.482962   0.000000
    493          1.486256   0.000000
    494          1.487561   0.000000
    495          1.543526   0.000000
    496          1.544265   0.000000
    497          1.573404   0.000000
    498          1.573777   0.000000
    499          1.583995   0.000000
    500          1.685487   0.000000
    501          1.686601   0.000000
    502          1.741427   0.000000
    503          1.751366   0.000000
    504          1.782796   0.000000
    505          1.783922   0.000000
    506          1.807880   0.000000
    507          1.808026   0.000000
    508          1.814163   0.000000
    509          1.831008   0.000000
    510          1.858385   0.000000
    511          1.859635   0.000000
    512          1.864290   0.000000
    513          1.864779   0.000000
    514          1.916124   0.000000
    515          1.973526   0.000000
    516          1.974255   0.000000
    517          1.979266   0.000000
    518          1.979293   0.000000
    519          1.985440   0.000000
    520          1.996210   0.000000
    521          1.996668   0.000000
    522          2.070647   0.000000
    523          2.128492   0.000000
    524          2.128737   0.000000
    525          2.167115   0.000000
    526          2.237492   0.000000
    527          2.237796   0.000000
    528          2.328778   0.000000
    529          2.329413   0.000000
    530          2.330240   0.000000
    531          2.350600   0.000000
    532          2.350896   0.000000
    533          2.358068   0.000000
    534          2.358316   0.000000
    535          2.366411   0.000000
    536          2.367090   0.000000
    537          2.402688   0.000000
    538          2.415469   0.000000
    539          2.461087   0.000000
    540          2.461154   0.000000
    541          2.491855   0.000000
    542          2.514201   0.000000
    543          2.587760   0.000000
    544          2.593278   0.000000
    545          2.602818   0.000000
    546          2.605213   0.000000
    547          2.606092   0.000000
    548          2.642704   0.000000
    549          2.646102   0.000000
    550          2.697183   0.000000
    551          2.722570   0.000000
    552          2.724513   0.000000
 
  0.1250000E+00  0.3333333E+00  0.1276756E-14  0.3333333E+00
      1        -18.459554   1.000000
      2        -18.429817   1.000000
      3        -18.365859   1.000000
      4        -18.325287   1.000000
      5        -18.296910   1.000000
      6        -18.277241   1.000000
      7        -18.252985   1.000000
      8        -18.236154   1.000000
      9        -18.201509   1.000000
     10        -18.162076   1.000000
     11        -18.145382   1.000000
     12        -18.141940   1.000000
     13        -18.122120   1.000000
     14        -18.100294   1.000000
     15        -18.073294   1.000000
     16        -18.031525   1.000000
     17        -18.012448   1.000000
     18        -17.972867   1.000000
     19        -17.738254   1.000000
     20        -17.723789   1.000000
     21        -17.718174   1.000000
     22        -17.628228   1.000000
     23        -17.611827   1.000000
     24        -17.598325   1.000000
     25        -17.592987   1.000000
     26        -17.585520   1.000000
     27        -17.566534   1.000000
     28        -17.501135   1.000000
     29        -17.461114   1.000000
     30        -17.446383   1.000000
     31        -17.442845   1.000000
     32        -17.335815   1.000000
     33        -17.316553   1.000000
     34        -17.280383   1.000000
     35        -17.212009   1.000000
     36        -17.159510   1.000000
     37        -14.640226   1.000000
     38        -14.634261   1.000000
     39        -14.529098   1.000000
     40        -14.521126   1.000000
     41        -14.510351   1.000000
     42        -14.490415   1.000000
     43        -14.483499   1.000000
     44        -14.480475   1.000000
     45        -14.455782   1.000000
     46        -14.428648   1.000000
     47        -14.413548   1.000000
     48        -14.390641   1.000000
     49        -14.381853   1.000000
     50        -14.365814   1.000000
     51        -14.364490   1.000000
     52        -14.360406   1.000000
     53        -14.324860   1.000000
     54        -14.319553   1.000000
     55        -14.254175   1.000000
     56        -14.201001   1.000000
     57        -14.186331   1.000000
     58        -14.163865   1.000000
     59        -14.139904   1.000000
     60        -14.122143   1.000000
     61        -14.102239   1.000000
     62        -14.090571   1.000000
     63        -14.072442   1.000000
     64        -14.044078   1.000000
     65        -14.029603   1.000000
     66        -14.028545   1.000000
     67        -13.995816   1.000000
     68        -13.988639   1.000000
     69        -13.978681   1.000000
     70        -13.908448   1.000000
     71        -13.807965   1.000000
     72        -13.701605   1.000000
     73        -12.705665   1.000000
     74        -12.546420   1.000000
     75        -12.234936   1.000000
     76        -12.085552   1.000000
     77        -11.979913   1.000000
     78        -11.955573   1.000000
     79        -11.919464   1.000000
     80        -11.919388   1.000000
     81        -11.872128   1.000000
     82        -11.829469   1.000000
     83        -11.818802   1.000000
     84        -11.805777   1.000000
     85        -11.798087   1.000000
     86        -11.784695   1.000000
     87        -11.728477   1.000000
     88        -11.725784   1.000000
     89        -11.680023   1.000000
     90        -11.675507   1.000000
     91        -11.644030   1.000000
     92        -11.638492   1.000000
     93        -11.631031   1.000000
     94        -11.587639   1.000000
     95        -11.537339   1.000000
     96        -11.524050   1.000000
     97        -11.518633   1.000000
     98        -11.513828   1.000000
     99        -11.435515   1.000000
    100        -11.365678   1.000000
    101        -11.346338   1.000000
    102        -11.341583   1.000000
    103        -11.332902   1.000000
    104        -11.240577   1.000000
    105        -11.189167   1.000000
    106        -11.170968   1.000000
    107        -11.160013   1.000000
    108        -11.150202   1.000000
    109        -11.127523   1.000000
    110        -11.105983   1.000000
    111        -11.097642   1.000000
    112        -11.093342   1.000000
    113        -11.043184   1.000000
    114        -11.014465   1.000000
    115        -11.006222   1.000000
    116        -10.992570   1.000000
    117        -10.985591   1.000000
    118        -10.962320   1.000000
    119        -10.954419   1.000000
    120        -10.946108   1.000000
    121        -10.879709   1.000000
    122        -10.801398   1.000000
    123        -10.800845   1.000000
    124        -10.786169   1.000000
    125        -10.781867   1.000000
    126        -10.731859   1.000000
    127        -10.711116   1.000000
    128        -10.703727   1.000000
    129        -10.627573   1.000000
    130        -10.598634   1.000000
    131        -10.576633   1.000000
    132        -10.563431   1.000000
    133        -10.540305   1.000000
    134        -10.518241   1.000000
    135        -10.471101   1.000000
    136        -10.449059   1.000000
    137        -10.430969   1.000000
    138        -10.413825   1.000000
    139        -10.361747   1.000000
    140        -10.334421   1.000000
    141        -10.273297   1.000000
    142        -10.270616   1.000000
    143        -10.263453   1.000000
    144        -10.230153   1.000000
    145        -10.145490   1.000000
    146        -10.123517   1.000000
    147        -10.116919   1.000000
    148        -10.037247   1.000000
    149         -9.995614   1.000000
    150         -9.984767   1.000000
    151         -9.981836   1.000000
    152         -9.967304   1.000000
    153         -9.956315   1.000000
    154         -9.902755   1.000000
    155         -9.875970   1.000000
    156         -9.871592   1.000000
    157         -9.834974   1.000000
    158         -9.834100   1.000000
    159         -9.827623   1.000000
    160         -9.748658   1.000000
    161         -9.671810   1.000000
    162         -9.654884   1.000000
    163         -9.576973   1.000000
    164         -9.560833   1.000000
    165         -9.532806   1.000000
    166         -9.435920   1.000000
    167         -9.334773   1.000000
    168         -9.173259   1.000000
    169         -9.144918   1.000000
    170         -9.066567   1.000000
    171         -8.980949   1.000000
    172         -8.972672   1.000000
    173         -8.935337   1.000000
    174         -8.876388   1.000000
    175         -8.875219   1.000000
    176         -8.871075   1.000000
    177         -8.830328   1.000000
    178         -8.804024   1.000000
    179         -8.791297   1.000000
    180         -8.736180   1.000000
    181         -8.729753   1.000000
    182         -8.710791   1.000000
    183         -8.668881   1.000000
    184         -8.628126   1.000000
    185         -8.438496   1.000000
    186         -8.367814   1.000000
    187         -8.362124   1.000000
    188         -8.315722   1.000000
    189         -8.307792   1.000000
    190         -8.269067   1.000000
    191         -8.261850   1.000000
    192         -8.247551   1.000000
    193         -8.232791   1.000000
    194         -8.215236   1.000000
    195         -8.190559   1.000000
    196         -8.180739   1.000000
    197         -8.176589   1.000000
    198         -8.171237   1.000000
    199         -8.162012   1.000000
    200         -8.150121   1.000000
    201         -8.130519   1.000000
    202         -8.114467   1.000000
    203         -8.109434   1.000000
    204         -8.107194   1.000000
    205         -8.102812   1.000000
    206         -8.102641   1.000000
    207         -8.095630   1.000000
    208         -8.087010   1.000000
    209         -8.083818   1.000000
    210         -8.072795   1.000000
    211         -8.067288   1.000000
    212         -8.054944   1.000000
    213         -8.029782   1.000000
    214         -8.013101   1.000000
    215         -7.926300   1.000000
    216         -7.884774   1.000000
    217         -7.859848   1.000000
    218         -7.786723   1.000000
    219         -7.663595   1.000000
    220         -7.622258   1.000000
    221         -7.618794   1.000000
    222         -7.563674   1.000000
    223         -7.552348   1.000000
    224         -7.527839   1.000000
    225         -7.521932   1.000000
    226         -7.521158   1.000000
    227         -7.501896   1.000000
    228         -7.486066   1.000000
    229         -7.472036   1.000000
    230         -7.456457   1.000000
    231         -7.442512   1.000000
    232         -7.427513   1.000000
    233         -7.403189   1.000000
    234         -7.349663   1.000000
    235         -7.338800   1.000000
    236         -7.335324   1.000000
    237         -7.283726   1.000000
    238         -7.280506   1.000000
    239         -7.270337   1.000000
    240         -7.246366   1.000000
    241         -7.245461   1.000000
    242         -7.193938   1.000000
    243         -7.168695   1.000000
    244         -7.149297   1.000000
    245         -7.118999   1.000000
    246         -7.107802   1.000000
    247         -7.105335   1.000000
    248         -7.091759   1.000000
    249         -7.060890   1.000000
    250         -7.037941   1.000000
    251         -7.034860   1.000000
    252         -7.031580   1.000000
    253         -7.030933   1.000000
    254         -7.030671   1.000000
    255         -7.019260   1.000000
    256         -7.006301   1.000000
    257         -7.003862   1.000000
    258         -7.003210   1.000000
    259         -6.999339   1.000000
    260         -6.994365   1.000000
    261         -6.983149   1.000000
    262         -6.977051   1.000000
    263         -6.936846   1.000000
    264         -6.920743   1.000000
    265         -6.860740   1.000000
    266         -6.834861   1.000000
    267         -6.832944   1.000000
    268         -6.806862   1.000000
    269         -6.805377   1.000000
    270         -6.756997   1.000000
    271         -6.735516   1.000000
    272         -6.697680   1.000000
    273         -6.654419   1.000000
    274         -6.643491   1.000000
    275         -6.584328   1.000000
    276         -6.580270   1.000000
    277         -6.531158   1.000000
    278         -6.521070   1.000000
    279         -6.501654   1.000000
    280         -6.482233   1.000000
    281         -6.458612   1.000000
    282         -6.454072   1.000000
    283         -6.449325   1.000000
    284         -6.447964   1.000000
    285         -6.422171   1.000000
    286         -6.408468   1.000000
    287         -6.399931   1.000000
    288         -6.397194   1.000000
    289         -6.331437   1.000000
    290         -6.291564   1.000000
    291         -6.275527   1.000000
    292         -6.264208   1.000000
    293         -6.258578   1.000000
    294         -6.250646   1.000000
    295         -6.246131   1.000000
    296         -6.215105   1.000000
    297         -6.156971   1.000000
    298         -6.148335   1.000000
    299         -6.140113   1.000000
    300         -6.126594   1.000000
    301         -6.091611   1.000000
    302         -6.073763   1.000000
    303         -6.018787   1.000000
    304         -6.012407   1.000000
    305         -5.987986   1.000000
    306         -5.984726   1.000000
    307         -5.981268   1.000000
    308         -5.969044   1.000000
    309         -5.941259   1.000000
    310         -5.924489   1.000000
    311         -5.906614   1.000000
    312         -5.905062   1.000000
    313         -5.904833   1.000000
    314         -5.898410   1.000000
    315         -5.897262   1.000000
    316         -5.850016   1.000000
    317         -5.825503   1.000000
    318         -5.824111   1.000000
    319         -5.799260   1.000000
    320         -5.776261   1.000000
    321         -5.768482   1.000000
    322         -5.708814   1.000000
    323         -5.704419   1.000000
    324         -5.703189   1.000000
    325         -5.677484   1.000000
    326         -5.674673   1.000000
    327         -5.650785   1.000000
    328         -5.627550   1.000000
    329         -5.610700   1.000000
    330         -5.574789   1.000000
    331         -5.572251   1.000000
    332         -5.570688   1.000000
    333         -5.563867   1.000000
    334         -5.546811   1.000000
    335         -5.541205   1.000000
    336         -5.536701   1.000000
    337         -5.530233   1.000000
    338         -5.528528   1.000000
    339         -5.523446   1.000000
    340         -5.509057   1.000000
    341         -5.487683   1.000000
    342         -5.458145   1.000000
    343         -5.442690   1.000000
    344         -5.432532   1.000000
    345         -5.408998   1.000000
    346         -5.397334   1.000000
    347         -5.381155   1.000000
    348         -5.360421   1.000000
    349         -5.354308   1.000000
    350         -5.304806   1.000000
    351         -5.301244   1.000000
    352         -5.282197   1.000000
    353         -5.273717   1.000000
    354         -5.247156   1.000000
    355         -5.239957   1.000000
    356         -5.232116   1.000000
    357         -5.223111   1.000000
    358         -5.144546   1.000000
    359         -5.095690   1.000000
    360         -5.064119   1.000000
    361         -5.060640   1.000000
    362         -4.959947   1.000000
    363         -4.949113   1.000000
    364         -4.908244   1.000000
    365         -4.901409   1.000000
    366         -4.857321   1.000000
    367         -4.830924   1.000000
    368         -4.829895   1.000000
    369         -4.801985   1.000000
    370         -4.781428   1.000000
    371         -4.711606   1.000000
    372         -4.710591   1.000000
    373         -4.700022   1.000000
    374         -4.688773   1.000000
    375         -4.612277   1.000000
    376         -4.583807   1.000000
    377         -4.567760   1.000000
    378         -4.559423   1.000000
    379         -4.557196   1.000000
    380         -4.547286   1.000000
    381         -4.512938   1.000000
    382         -4.509039   1.000000
    383         -4.498724   1.000000
    384         -4.492404   1.000000
    385         -4.469373   0.999998
    386         -4.425937   0.999963
    387         -4.401869   0.999856
    388         -4.367190   0.999142
    389         -4.317881   0.992617
    390         -4.315348   0.991853
    391         -4.304001   0.987512
    392         -4.284111   0.975031
    393         -4.273666   0.965067
    394         -4.236628   0.901296
    395         -4.185866   0.716034
    396         -4.161879   0.591679
    397         -4.161757   0.591008
    398         -4.016637   0.034215
    399         -3.953816   0.003358
    400         -3.947774   0.002587
    401         -3.938439   0.001705
    402         -3.919785   0.000707
    403         -3.894279   0.000191
    404         -3.841571   0.000009
    405         -3.837735   0.000007
    406         -3.790188   0.000000
    407         -3.771490   0.000000
    408         -3.750471   0.000000
    409         -3.162571   0.000000
    410         -3.043137   0.000000
    411         -2.615614   0.000000
    412         -2.508218   0.000000
    413         -1.864880   0.000000
    414         -1.787780   0.000000
    415         -1.166620   0.000000
    416         -1.073396   0.000000
    417         -0.874745   0.000000
    418         -0.859131   0.000000
    419         -0.606559   0.000000
    420         -0.526790   0.000000
    421         -0.479436   0.000000
    422         -0.412119   0.000000
    423         -0.359254   0.000000
    424         -0.295714   0.000000
    425         -0.260810   0.000000
    426         -0.223310   0.000000
    427         -0.219409   0.000000
    428         -0.206424   0.000000
    429         -0.191238   0.000000
    430         -0.052107   0.000000
    431         -0.009730   0.000000
    432          0.015333   0.000000
    433          0.016556   0.000000
    434          0.020905   0.000000
    435          0.036080   0.000000
    436          0.040545   0.000000
    437          0.059656   0.000000
    438          0.072642   0.000000
    439          0.105252   0.000000
    440          0.134803   0.000000
    441          0.154428   0.000000
    442          0.182728   0.000000
    443          0.201453   0.000000
    444          0.242356   0.000000
    445          0.278514   0.000000
    446          0.290105   0.000000
    447          0.312364   0.000000
    448          0.315311   0.000000
    449          0.377776   0.000000
    450          0.383490   0.000000
    451          0.438963   0.000000
    452          0.502768   0.000000
    453          0.511158   0.000000
    454          0.527880   0.000000
    455          0.595379   0.000000
    456          0.596686   0.000000
    457          0.623513   0.000000
    458          0.641611   0.000000
    459          0.644615   0.000000
    460          0.674450   0.000000
    461          0.699574   0.000000
    462          0.735265   0.000000
    463          0.736262   0.000000
    464          0.746759   0.000000
    465          0.753893   0.000000
    466          0.809678   0.000000
    467          0.830446   0.000000
    468          0.831546   0.000000
    469          0.912253   0.000000
    470          0.930374   0.000000
    471          0.962340   0.000000
    472          1.000571   0.000000
    473          1.046536   0.000000
    474          1.047296   0.000000
    475          1.053689   0.000000
    476          1.081259   0.000000
    477          1.100307   0.000000
    478          1.116164   0.000000
    479          1.125699   0.000000
    480          1.143841   0.000000
    481          1.146909   0.000000
    482          1.188291   0.000000
    483          1.218513   0.000000
    484          1.249517   0.000000
    485          1.259857   0.000000
    486          1.271106   0.000000
    487          1.349603   0.000000
    488          1.394571   0.000000
    489          1.438383   0.000000
    490          1.480241   0.000000
    491          1.483038   0.000000
    492          1.550122   0.000000
    493          1.557845   0.000000
    494          1.561473   0.000000
    495          1.576785   0.000000
    496          1.590007   0.000000
    497          1.603727   0.000000
    498          1.606997   0.000000
    499          1.634518   0.000000
    500          1.653811   0.000000
    501          1.683901   0.000000
    502          1.698136   0.000000
    503          1.713433   0.000000
    504          1.718116   0.000000
    505          1.779874   0.000000
    506          1.780551   0.000000
    507          1.788399   0.000000
    508          1.794356   0.000000
    509          1.846220   0.000000
    510          1.862447   0.000000
    511          1.888119   0.000000
    512          1.919571   0.000000
    513          1.924750   0.000000
    514          1.948476   0.000000
    515          1.982522   0.000000
    516          2.020291   0.000000
    517          2.040292   0.000000
    518          2.060926   0.000000
    519          2.178767   0.000000
    520          2.182198   0.000000
    521          2.211939   0.000000
    522          2.238380   0.000000
    523          2.244935   0.000000
    524          2.259431   0.000000
    525          2.280462   0.000000
    526          2.294678   0.000000
    527          2.311476   0.000000
    528          2.313400   0.000000
    529          2.331259   0.000000
    530          2.340290   0.000000
    531          2.350817   0.000000
    532          2.355228   0.000000
    533          2.423795   0.000000
    534          2.452678   0.000000
    535          2.453522   0.000000
    536          2.457047   0.000000
    537          2.462105   0.000000
    538          2.474057   0.000000
    539          2.486003   0.000000
    540          2.491573   0.000000
    541          2.516838   0.000000
    542          2.519805   0.000000
    543          2.550663   0.000000
    544          2.561891   0.000000
    545          2.569897   0.000000
    546          2.597536   0.000000
    547          2.599308   0.000000
    548          2.623099   0.000000
    549          2.624016   0.000000
    550          2.626434   0.000000
    551          2.643413   0.000000
    552          2.658941   0.000000
 
  0.3750000E+00  0.3333333E+00  0.1276756E-14  0.3333333E+00
      1        -18.428433   1.000000
      2        -18.399536   1.000000
      3        -18.367048   1.000000
      4        -18.340014   1.000000
      5        -18.337355   1.000000
      6        -18.294562   1.000000
      7        -18.281862   1.000000
      8        -18.266935   1.000000
      9        -18.233937   1.000000
     10        -18.208568   1.000000
     11        -18.207498   1.000000
     12        -18.152969   1.000000
     13        -18.025924   1.000000
     14        -18.011969   1.000000
     15        -17.983995   1.000000
     16        -17.897146   1.000000
     17        -17.883891   1.000000
     18        -17.875123   1.000000
     19        -17.869494   1.000000
     20        -17.860195   1.000000
     21        -17.857056   1.000000
     22        -17.748164   1.000000
     23        -17.742730   1.000000
     24        -17.733733   1.000000
     25        -17.539181   1.000000
     26        -17.477613   1.000000
     27        -17.467540   1.000000
     28        -17.433696   1.000000
     29        -17.411151   1.000000
     30        -17.381299   1.000000
     31        -17.348617   1.000000
     32        -17.343488   1.000000
     33        -17.333930   1.000000
     34        -17.311373   1.000000
     35        -17.257468   1.000000
     36        -17.212659   1.000000
     37        -14.595209   1.000000
     38        -14.574386   1.000000
     39        -14.535301   1.000000
     40        -14.519095   1.000000
     41        -14.510329   1.000000
     42        -14.487204   1.000000
     43        -14.483461   1.000000
     44        -14.469571   1.000000
     45        -14.467187   1.000000
     46        -14.448201   1.000000
     47        -14.424275   1.000000
     48        -14.416356   1.000000
     49        -14.405787   1.000000
     50        -14.402465   1.000000
     51        -14.384441   1.000000
     52        -14.363149   1.000000
     53        -14.341111   1.000000
     54        -14.297617   1.000000
     55        -14.285510   1.000000
     56        -14.284513   1.000000
     57        -14.205152   1.000000
     58        -14.181290   1.000000
     59        -14.174805   1.000000
     60        -14.107419   1.000000
     61        -14.094907   1.000000
     62        -14.094330   1.000000
     63        -14.031804   1.000000
     64        -14.018109   1.000000
     65        -14.005905   1.000000
     66        -13.984767   1.000000
     67        -13.976922   1.000000
     68        -13.919601   1.000000
     69        -13.902063   1.000000
     70        -13.891438   1.000000
     71        -13.878253   1.000000
     72        -13.768994   1.000000
     73        -12.519869   1.000000
     74        -12.365668   1.000000
     75        -12.194672   1.000000
     76        -12.185988   1.000000
     77        -12.098268   1.000000
     78        -12.046283   1.000000
     79        -12.027430   1.000000
     80        -11.926317   1.000000
     81        -11.921174   1.000000
     82        -11.902693   1.000000
     83        -11.861182   1.000000
     84        -11.836319   1.000000
     85        -11.786048   1.000000
     86        -11.769544   1.000000
     87        -11.759229   1.000000
     88        -11.737383   1.000000
     89        -11.722568   1.000000
     90        -11.722223   1.000000
     91        -11.668174   1.000000
     92        -11.652249   1.000000
     93        -11.643972   1.000000
     94        -11.598844   1.000000
     95        -11.544831   1.000000
     96        -11.459895   1.000000
     97        -11.457409   1.000000
     98        -11.443053   1.000000
     99        -11.403038   1.000000
    100        -11.359144   1.000000
    101        -11.339715   1.000000
    102        -11.318410   1.000000
    103        -11.261159   1.000000
    104        -11.251554   1.000000
    105        -11.250294   1.000000
    106        -11.242463   1.000000
    107        -11.235748   1.000000
    108        -11.198649   1.000000
    109        -11.183258   1.000000
    110        -11.128645   1.000000
    111        -11.089020   1.000000
    112        -11.082128   1.000000
    113        -11.052358   1.000000
    114        -11.026385   1.000000
    115        -11.014582   1.000000
    116        -11.005636   1.000000
    117        -10.916840   1.000000
    118        -10.912057   1.000000
    119        -10.909103   1.000000
    120        -10.899556   1.000000
    121        -10.835102   1.000000
    122        -10.834048   1.000000
    123        -10.763758   1.000000
    124        -10.749127   1.000000
    125        -10.747893   1.000000
    126        -10.697574   1.000000
    127        -10.678096   1.000000
    128        -10.668195   1.000000
    129        -10.631137   1.000000
    130        -10.629543   1.000000
    131        -10.568846   1.000000
    132        -10.553999   1.000000
    133        -10.511473   1.000000
    134        -10.506205   1.000000
    135        -10.476723   1.000000
    136        -10.460271   1.000000
    137        -10.428662   1.000000
    138        -10.378923   1.000000
    139        -10.368923   1.000000
    140        -10.318716   1.000000
    141        -10.301139   1.000000
    142        -10.277949   1.000000
    143        -10.228686   1.000000
    144        -10.162268   1.000000
    145        -10.141879   1.000000
    146        -10.134757   1.000000
    147        -10.125823   1.000000
    148        -10.063592   1.000000
    149        -10.012965   1.000000
    150         -9.940055   1.000000
    151         -9.928594   1.000000
    152         -9.918638   1.000000
    153         -9.889230   1.000000
    154         -9.832942   1.000000
    155         -9.783260   1.000000
    156         -9.773004   1.000000
    157         -9.711120   1.000000
    158         -9.711011   1.000000
    159         -9.705237   1.000000
    160         -9.702897   1.000000
    161         -9.652534   1.000000
    162         -9.623095   1.000000
    163         -9.552241   1.000000
    164         -9.513005   1.000000
    165         -9.477848   1.000000
    166         -9.460064   1.000000
    167         -9.441683   1.000000
    168         -9.347631   1.000000
    169         -9.329591   1.000000
    170         -9.317469   1.000000
    171         -9.286307   1.000000
    172         -9.264264   1.000000
    173         -9.208075   1.000000
    174         -9.176518   1.000000
    175         -9.110980   1.000000
    176         -9.036638   1.000000
    177         -8.882147   1.000000
    178         -8.735989   1.000000
    179         -8.713508   1.000000
    180         -8.692898   1.000000
    181         -8.611518   1.000000
    182         -8.574628   1.000000
    183         -8.554295   1.000000
    184         -8.518006   1.000000
    185         -8.512990   1.000000
    186         -8.386979   1.000000
    187         -8.382458   1.000000
    188         -8.336939   1.000000
    189         -8.332824   1.000000
    190         -8.300310   1.000000
    191         -8.203813   1.000000
    192         -8.200033   1.000000
    193         -8.194687   1.000000
    194         -8.178872   1.000000
    195         -8.175413   1.000000
    196         -8.162978   1.000000
    197         -8.160236   1.000000
    198         -8.148581   1.000000
    199         -8.143993   1.000000
    200         -8.140294   1.000000
    201         -8.136290   1.000000
    202         -8.134418   1.000000
    203         -8.105946   1.000000
    204         -8.098131   1.000000
    205         -8.067524   1.000000
    206         -8.063078   1.000000
    207         -8.055575   1.000000
    208         -8.038754   1.000000
    209         -8.035096   1.000000
    210         -8.020479   1.000000
    211         -7.977660   1.000000
    212         -7.918108   1.000000
    213         -7.911428   1.000000
    214         -7.839428   1.000000
    215         -7.805621   1.000000
    216         -7.752969   1.000000
    217         -7.700326   1.000000
    218         -7.670090   1.000000
    219         -7.666120   1.000000
    220         -7.639831   1.000000
    221         -7.600676   1.000000
    222         -7.594330   1.000000
    223         -7.593675   1.000000
    224         -7.583876   1.000000
    225         -7.574383   1.000000
    226         -7.559701   1.000000
    227         -7.552293   1.000000
    228         -7.537775   1.000000
    229         -7.512032   1.000000
    230         -7.427769   1.000000
    231         -7.425595   1.000000
    232         -7.395043   1.000000
    233         -7.390575   1.000000
    234         -7.355499   1.000000
    235         -7.347760   1.000000
    236         -7.341585   1.000000
    237         -7.339684   1.000000
    238         -7.325060   1.000000
    239         -7.323114   1.000000
    240         -7.299768   1.000000
    241         -7.273926   1.000000
    242         -7.245594   1.000000
    243         -7.208542   1.000000
    244         -7.207662   1.000000
    245         -7.189676   1.000000
    246         -7.170751   1.000000
    247         -7.159516   1.000000
    248         -7.144179   1.000000
    249         -7.094114   1.000000
    250         -7.089296   1.000000
    251         -7.082591   1.000000
    252         -7.081805   1.000000
    253         -7.080499   1.000000
    254         -7.070993   1.000000
    255         -7.062529   1.000000
    256         -7.049299   1.000000
    257         -7.042676   1.000000
    258         -7.015385   1.000000
    259         -7.013809   1.000000
    260         -6.981307   1.000000
    261         -6.963151   1.000000
    262         -6.954286   1.000000
    263         -6.919439   1.000000
    264         -6.913929   1.000000
    265         -6.906111   1.000000
    266         -6.900872   1.000000
    267         -6.892910   1.000000
    268         -6.872327   1.000000
    269         -6.769205   1.000000
    270         -6.716674   1.000000
    271         -6.641935   1.000000
    272         -6.630457   1.000000
    273         -6.601102   1.000000
    274         -6.527273   1.000000
    275         -6.525808   1.000000
    276         -6.496229   1.000000
    277         -6.496100   1.000000
    278         -6.494076   1.000000
    279         -6.455703   1.000000
    280         -6.449008   1.000000
    281         -6.448314   1.000000
    282         -6.423844   1.000000
    283         -6.403366   1.000000
    284         -6.399398   1.000000
    285         -6.385379   1.000000
    286         -6.347642   1.000000
    287         -6.341428   1.000000
    288         -6.333192   1.000000
    289         -6.329480   1.000000
    290         -6.315623   1.000000
    291         -6.298529   1.000000
    292         -6.276823   1.000000
    293         -6.275755   1.000000
    294         -6.264938   1.000000
    295         -6.236828   1.000000
    296         -6.209716   1.000000
    297         -6.193522   1.000000
    298         -6.145240   1.000000
    299         -6.130117   1.000000
    300         -6.089162   1.000000
    301         -6.055384   1.000000
    302         -6.039572   1.000000
    303         -6.004251   1.000000
    304         -5.992338   1.000000
    305         -5.991694   1.000000
    306         -5.980672   1.000000
    307         -5.952893   1.000000
    308         -5.940676   1.000000
    309         -5.936357   1.000000
    310         -5.900913   1.000000
    311         -5.899191   1.000000
    312         -5.897571   1.000000
    313         -5.888637   1.000000
    314         -5.855384   1.000000
    315         -5.853594   1.000000
    316         -5.846104   1.000000
    317         -5.830826   1.000000
    318         -5.819493   1.000000
    319         -5.816979   1.000000
    320         -5.805485   1.000000
    321         -5.794944   1.000000
    322         -5.751572   1.000000
    323         -5.750866   1.000000
    324         -5.743193   1.000000
    325         -5.724556   1.000000
    326         -5.708992   1.000000
    327         -5.696862   1.000000
    328         -5.683237   1.000000
    329         -5.635556   1.000000
    330         -5.626031   1.000000
    331         -5.614333   1.000000
    332         -5.611913   1.000000
    333         -5.607307   1.000000
    334         -5.598365   1.000000
    335         -5.586837   1.000000
    336         -5.584694   1.000000
    337         -5.525714   1.000000
    338         -5.497787   1.000000
    339         -5.490744   1.000000
    340         -5.470642   1.000000
    341         -5.452197   1.000000
    342         -5.437796   1.000000
    343         -5.437074   1.000000
    344         -5.428395   1.000000
    345         -5.345579   1.000000
    346         -5.316628   1.000000
    347         -5.311906   1.000000
    348         -5.305657   1.000000
    349         -5.281600   1.000000
    350         -5.280933   1.000000
    351         -5.251054   1.000000
    352         -5.244145   1.000000
    353         -5.201145   1.000000
    354         -5.185711   1.000000
    355         -5.149617   1.000000
    356         -5.135895   1.000000
    357         -5.133110   1.000000
    358         -5.119952   1.000000
    359         -5.113140   1.000000
    360         -5.043451   1.000000
    361         -5.034702   1.000000
    362         -5.033168   1.000000
    363         -5.022519   1.000000
    364         -5.013812   1.000000
    365         -4.985371   1.000000
    366         -4.962838   1.000000
    367         -4.872143   1.000000
    368         -4.804185   1.000000
    369         -4.802506   1.000000
    370         -4.788980   1.000000
    371         -4.788328   1.000000
    372         -4.778914   1.000000
    373         -4.729448   1.000000
    374         -4.723260   1.000000
    375         -4.719096   1.000000
    376         -4.702359   1.000000
    377         -4.693975   1.000000
    378         -4.672727   1.000000
    379         -4.639545   1.000000
    380         -4.627591   1.000000
    381         -4.622462   1.000000
    382         -4.620917   1.000000
    383         -4.604317   1.000000
    384         -4.514159   1.000000
    385         -4.498394   1.000000
    386         -4.473223   0.999998
    387         -4.465697   0.999997
    388         -4.464237   0.999997
    389         -4.452485   0.999993
    390         -4.450869   0.999992
    391         -4.438348   0.999983
    392         -4.426972   0.999966
    393         -4.418082   0.999942
    394         -4.321650   0.993637
    395         -4.175798   0.665932
    396         -4.148431   0.516622
    397         -4.105846   0.287550
    398         -4.098149   0.251614
    399         -4.097565   0.248992
    400         -3.979937   0.009611
    401         -3.792874   0.000000
    402         -3.739593   0.000000
    403         -3.570503   0.000000
    404         -3.477949   0.000000
    405         -3.318818   0.000000
    406         -3.304941   0.000000
    407         -3.226359   0.000000
    408         -3.196698   0.000000
    409         -3.167869   0.000000
    410         -3.053419   0.000000
    411         -2.879458   0.000000
    412         -2.779421   0.000000
    413         -2.454443   0.000000
    414         -2.347441   0.000000
    415         -1.093381   0.000000
    416         -0.971337   0.000000
    417         -0.883481   0.000000
    418         -0.769704   0.000000
    419         -0.752228   0.000000
    420         -0.661778   0.000000
    421         -0.556683   0.000000
    422         -0.387301   0.000000
    423         -0.346969   0.000000
    424         -0.333277   0.000000
    425         -0.217319   0.000000
    426         -0.201909   0.000000
    427         -0.201671   0.000000
    428         -0.157036   0.000000
    429         -0.145418   0.000000
    430         -0.099955   0.000000
    431         -0.099520   0.000000
    432         -0.020324   0.000000
    433         -0.013627   0.000000
    434         -0.002138   0.000000
    435          0.020354   0.000000
    436          0.101918   0.000000
    437          0.117680   0.000000
    438          0.156799   0.000000
    439          0.212757   0.000000
    440          0.230937   0.000000
    441          0.283701   0.000000
    442          0.287629   0.000000
    443          0.336295   0.000000
    444          0.337364   0.000000
    445          0.343783   0.000000
    446          0.348322   0.000000
    447          0.354048   0.000000
    448          0.386718   0.000000
    449          0.393790   0.000000
    450          0.408808   0.000000
    451          0.430681   0.000000
    452          0.460587   0.000000
    453          0.478996   0.000000
    454          0.494860   0.000000
    455          0.506977   0.000000
    456          0.509255   0.000000
    457          0.518656   0.000000
    458          0.543793   0.000000
    459          0.574070   0.000000
    460          0.603866   0.000000
    461          0.662441   0.000000
    462          0.666806   0.000000
    463          0.671519   0.000000
    464          0.786676   0.000000
    465          0.787074   0.000000
    466          0.812185   0.000000
    467          0.812982   0.000000
    468          0.882225   0.000000
    469          1.012777   0.000000
    470          1.131151   0.000000
    471          1.149824   0.000000
    472          1.181894   0.000000
    473          1.186670   0.000000
    474          1.213154   0.000000
    475          1.229321   0.000000
    476          1.240161   0.000000
    477          1.247698   0.000000
    478          1.258150   0.000000
    479          1.289354   0.000000
    480          1.292914   0.000000
    481          1.301771   0.000000
    482          1.304245   0.000000
    483          1.305631   0.000000
    484          1.312784   0.000000
    485          1.333985   0.000000
    486          1.370368   0.000000
    487          1.418000   0.000000
    488          1.421018   0.000000
    489          1.435851   0.000000
    490          1.442167   0.000000
    491          1.443345   0.000000
    492          1.502571   0.000000
    493          1.504624   0.000000
    494          1.526527   0.000000
    495          1.537014   0.000000
    496          1.553675   0.000000
    497          1.556573   0.000000
    498          1.558689   0.000000
    499          1.583652   0.000000
    500          1.587129   0.000000
    501          1.604616   0.000000
    502          1.626911   0.000000
    503          1.670409   0.000000
    504          1.685119   0.000000
    505          1.701031   0.000000
    506          1.713729   0.000000
    507          1.720242   0.000000
    508          1.736086   0.000000
    509          1.753118   0.000000
    510          1.761977   0.000000
    511          1.821533   0.000000
    512          1.834802   0.000000
    513          1.858447   0.000000
    514          1.876814   0.000000
    515          1.888219   0.000000
    516          1.892208   0.000000
    517          1.919851   0.000000
    518          1.921695   0.000000
    519          1.922254   0.000000
    520          1.959746   0.000000
    521          1.968454   0.000000
    522          2.027787   0.000000
    523          2.118010   0.000000
    524          2.130572   0.000000
    525          2.136978   0.000000
    526          2.218389   0.000000
    527          2.220657   0.000000
    528          2.227428   0.000000
    529          2.259435   0.000000
    530          2.280980   0.000000
    531          2.321751   0.000000
    532          2.322788   0.000000
    533          2.332201   0.000000
    534          2.416118   0.000000
    535          2.431718   0.000000
    536          2.432816   0.000000
    537          2.484495   0.000000
    538          2.485932   0.000000
    539          2.495262   0.000000
    540          2.520066   0.000000
    541          2.530419   0.000000
    542          2.580677   0.000000
    543          2.582284   0.000000
    544          2.585412   0.000000
    545          2.640196   0.000000
    546          2.654929   0.000000
    547          2.660416   0.000000
    548          2.665105   0.000000
    549          2.675573   0.000000
    550          2.677983   0.000000
    551          2.700747   0.000000
    552          2.708417   0.000000
