       N       E                     dE             d eps       ncg     rms          rms(c)
DAV:   1     0.259317605906E+03    0.25932E+03   -0.15776E+04 30240   0.765E+02
DAV:   2    -0.713666581936E+02   -0.33068E+03   -0.32977E+03 45402   0.122E+02
DAV:   3    -0.907932317531E+02   -0.19427E+02   -0.19401E+02 58044   0.470E+01
DAV:   4    -0.908218154341E+02   -0.28584E-01   -0.28583E-01 44436   0.212E+00
DAV:   5    -0.908219029338E+02   -0.87500E-04   -0.87499E-04 57708   0.945E-02    0.187E+01
DAV:   6    -0.595030847676E+02    0.31319E+02   -0.51636E+01 55020   0.212E+01    0.111E+01
DAV:   7    -0.565183687955E+02    0.29847E+01   -0.12703E+01 58506   0.113E+01    0.641E+00
DAV:   8    -0.587589010622E+02   -0.22405E+01   -0.25443E+00 58884   0.567E+00    0.481E+00
DAV:   9    -0.639661353240E+02   -0.52072E+01   -0.19243E+00 51786   0.477E+00    0.383E+00
DAV:  10    -0.724033493475E+02   -0.84372E+01   -0.55460E+00 50064   0.684E+00    0.274E+00
DAV:  11    -0.795101195802E+02   -0.71068E+01   -0.61143E+00 46242   0.622E+00    0.170E+00
DAV:  12    -0.828584489923E+02   -0.33483E+01   -0.33914E+00 45234   0.388E+00    0.105E+00
DAV:  13    -0.838567540680E+02   -0.99831E+00   -0.53678E-01 45234   0.168E+00    0.725E-01
DAV:  14    -0.852440043986E+02   -0.13873E+01   -0.30576E-01 44940   0.126E+00    0.404E-01
DAV:  15    -0.855299471594E+02   -0.28594E+00   -0.35558E-02 50022   0.610E-01    0.275E-01
DAV:  16    -0.856589955761E+02   -0.12905E+00   -0.21865E-02 38472   0.434E-01    0.157E-01
DAV:  17    -0.856995470716E+02   -0.40551E-01   -0.64484E-03 40026   0.242E-01    0.104E-01
DAV:  18    -0.857209625756E+02   -0.21416E-01   -0.66898E-03 41706   0.195E-01    0.528E-02
DAV:  19    -0.857338710462E+02   -0.12908E-01   -0.22557E-03 37254   0.124E-01    0.352E-02
DAV:  20    -0.857358864928E+02   -0.20154E-02   -0.58318E-04 36330   0.886E-02    0.242E-02
DAV:  21    -0.857376883644E+02   -0.18019E-02   -0.82199E-04 37086   0.849E-02    0.145E-02
DAV:  22    -0.857378983631E+02   -0.21000E-03   -0.16643E-04 33810   0.634E-02    0.941E-03
DAV:  23    -0.857380642026E+02   -0.16584E-03   -0.72224E-05 43386   0.451E-02    0.633E-03
DAV:  24    -0.857382133187E+02   -0.14912E-03   -0.30152E-05 37632   0.289E-02    0.373E-03
DAV:  25    -0.857383045630E+02   -0.91244E-04   -0.13150E-05 40950   0.214E-02    0.256E-03
DAV:  26    -0.857383744211E+02   -0.69858E-04   -0.78292E-06 37716   0.169E-02    0.146E-03
DAV:  27    -0.857384161730E+02   -0.41752E-04   -0.33235E-06 41370   0.995E-03    0.854E-04
DAV:  28    -0.857384353820E+02   -0.19209E-04   -0.12411E-06 40026   0.589E-03    0.460E-04
DAV:  29    -0.857384437180E+02   -0.83360E-05   -0.33435E-07 50400   0.296E-03    0.229E-04
DAV:  30    -0.857384475503E+02   -0.38323E-05   -0.89078E-08 48174   0.143E-03    0.122E-04
DAV:  31    -0.857384491332E+02   -0.15829E-05   -0.29653E-08 46956   0.717E-04    0.614E-05
DAV:  32    -0.857384496484E+02   -0.51516E-06   -0.70364E-09 50568   0.369E-04
   1 F= -.86928361E+02 E0= -.86918918E+02  d E =-.188857E-01  mag=     1.6932
