  56  56   0   0
  0.6180874E+02  0.1139952E-08  0.1262827E-08  0.2404406E-08  0.1500000E-16
  1.000000000000000E-004
  CAR 
 phonon_dispersion                       
      2.91876736    -20.89506490  301     -4.36374861      1.00000000
    -20.895  0.0000E+00  0.0000E+00
    -20.816  0.0000E+00  0.0000E+00
    -20.736  0.0000E+00  0.0000E+00
    -20.657  0.0000E+00  0.0000E+00
    -20.578  0.0000E+00  0.0000E+00
    -20.498  0.0000E+00  0.0000E+00
    -20.419  0.0000E+00  0.0000E+00
    -20.339  0.0000E+00  0.0000E+00
    -20.260  0.0000E+00  0.0000E+00
    -20.181  0.0000E+00  0.0000E+00
    -20.101  0.2959E-17  0.2349E-18
    -20.022  0.2875E-10  0.2282E-11
    -19.943  0.2122E-05  0.1684E-06
    -19.863  0.1360E-02  0.1081E-03
    -19.784  0.1471E-01  0.1276E-02
    -19.704  0.3688E-01  0.4204E-02
    -19.625  0.4288E-01  0.7607E-02
    -19.546  0.1074E-01  0.8460E-02
    -19.466  0.1228E-01  0.9434E-02
    -19.387  0.5133E-01  0.1351E-01
    -19.307  0.7566E-02  0.1411E-01
    -19.228  0.1019E-01  0.1492E-01
    -19.149  0.4216E-01  0.1826E-01
    -19.069  0.3515E-01  0.2105E-01
    -18.990  0.1344E-01  0.2212E-01
    -18.911  0.5559E-02  0.2256E-01
    -18.831  0.5726E-04  0.2257E-01
    -18.752  0.5968E-08  0.2257E-01
    -18.672  0.4807E-14  0.2257E-01
    -18.593  0.0000E+00  0.2257E-01
    -18.514  0.0000E+00  0.2257E-01
    -18.434  0.0000E+00  0.2257E-01
    -18.355  0.0000E+00  0.2257E-01
    -18.276  0.0000E+00  0.2257E-01
    -18.196  0.0000E+00  0.2257E-01
    -18.117  0.0000E+00  0.2257E-01
    -18.037  0.0000E+00  0.2257E-01
    -17.958  0.0000E+00  0.2257E-01
    -17.879  0.0000E+00  0.2257E-01
    -17.799  0.0000E+00  0.2257E-01
    -17.720  0.0000E+00  0.2257E-01
    -17.641  0.0000E+00  0.2257E-01
    -17.561  0.0000E+00  0.2257E-01
    -17.482  0.0000E+00  0.2257E-01
    -17.402  0.0000E+00  0.2257E-01
    -17.323  0.0000E+00  0.2257E-01
    -17.244  0.0000E+00  0.2257E-01
    -17.164  0.0000E+00  0.2257E-01
    -17.085  0.0000E+00  0.2257E-01
    -17.005  0.0000E+00  0.2257E-01
    -16.926  0.0000E+00  0.2257E-01
    -16.847  0.0000E+00  0.2257E-01
    -16.767  0.0000E+00  0.2257E-01
    -16.688  0.0000E+00  0.2257E-01
    -16.609  0.0000E+00  0.2257E-01
    -16.529  0.0000E+00  0.2257E-01
    -16.450  0.0000E+00  0.2257E-01
    -16.370  0.0000E+00  0.2257E-01
    -16.291  0.0000E+00  0.2257E-01
    -16.212  0.0000E+00  0.2257E-01
    -16.132  0.0000E+00  0.2257E-01
    -16.053  0.0000E+00  0.2257E-01
    -15.974  0.0000E+00  0.2257E-01
    -15.894  0.0000E+00  0.2257E-01
    -15.815  0.0000E+00  0.2257E-01
    -15.735  0.0000E+00  0.2257E-01
    -15.656  0.0000E+00  0.2257E-01
    -15.577  0.8771E-12  0.2257E-01
    -15.497  0.2699E-06  0.2257E-01
    -15.418  0.7052E-03  0.2262E-01
    -15.339  0.2701E-01  0.2477E-01
    -15.259  0.4053E-01  0.2798E-01
    -15.180  0.1178E-01  0.2892E-01
    -15.100  0.6742E-01  0.3427E-01
    -15.021  0.1030E+00  0.4245E-01
    -14.942  0.1601E-01  0.4372E-01
    -14.862  0.2820E-02  0.4394E-01
    -14.783  0.1307E-01  0.4498E-01
    -14.703  0.1931E-02  0.4513E-01
    -14.624  0.4499E-05  0.4513E-01
    -14.545  0.9325E-10  0.4513E-01
    -14.465  0.1578E-16  0.4513E-01
    -14.386  0.0000E+00  0.4513E-01
    -14.307  0.0000E+00  0.4513E-01
    -14.227  0.0000E+00  0.4513E-01
    -14.148  0.0000E+00  0.4513E-01
    -14.068  0.0000E+00  0.4513E-01
    -13.989  0.0000E+00  0.4513E-01
    -13.910  0.2959E-17  0.4513E-01
    -13.830  0.2881E-10  0.4513E-01
    -13.751  0.2124E-05  0.4513E-01
    -13.672  0.1359E-02  0.4524E-01
    -13.592  0.1273E-01  0.4625E-01
    -13.513  0.3659E-02  0.4654E-01
    -13.433  0.1954E-04  0.4654E-01
    -13.354  0.9894E-09  0.4654E-01
    -13.275  0.4113E-08  0.4654E-01
    -13.195  0.6082E-04  0.4655E-01
    -13.116  0.8742E-02  0.4724E-01
    -13.037  0.2499E-01  0.4923E-01
    -12.957  0.1846E-01  0.5069E-01
    -12.878  0.3497E-01  0.5347E-01
    -12.798  0.6830E-01  0.5889E-01
    -12.719  0.2171E-01  0.6061E-01
    -12.640  0.9883E-03  0.6069E-01
    -12.560  0.1831E-01  0.6214E-01
    -12.481  0.1633E-01  0.6344E-01
    -12.401  0.6589E-03  0.6349E-01
    -12.322  0.9444E-02  0.6424E-01
    -12.243  0.1037E-01  0.6507E-01
    -12.163  0.2538E-01  0.6708E-01
    -12.084  0.7763E-02  0.6770E-01
    -12.005  0.4516E-04  0.6770E-01
    -11.925  0.2511E-08  0.6770E-01
    -11.846  0.1061E-14  0.6770E-01
    -11.766  0.0000E+00  0.6770E-01
    -11.687  0.0000E+00  0.6770E-01
    -11.608  0.0000E+00  0.6770E-01
    -11.528  0.2367E-16  0.6770E-01
    -11.449  0.1321E-09  0.6770E-01
    -11.370  0.5612E-05  0.6770E-01
    -11.290  0.2196E-02  0.6788E-01
    -11.211  0.2112E-01  0.6955E-01
    -11.131  0.2974E-01  0.7191E-01
    -11.052  0.4960E-01  0.7585E-01
    -10.973  0.6035E-01  0.8064E-01
    -10.893  0.2069E-01  0.8228E-01
    -10.814  0.4293E-01  0.8569E-01
    -10.734  0.2161E-01  0.8741E-01
    -10.655  0.5124E-03  0.8745E-01
    -10.576  0.8654E-03  0.8752E-01
    -10.496  0.2150E-01  0.8922E-01
    -10.417  0.3744E-01  0.9219E-01
    -10.338  0.3060E-01  0.9462E-01
    -10.258  0.2734E-01  0.9679E-01
    -10.179  0.7883E-02  0.9742E-01
    -10.099  0.3170E-01  0.9994E-01
    -10.020  0.3313E-01  0.1026E+00
     -9.941  0.2826E-01  0.1048E+00
     -9.861  0.5421E-01  0.1091E+00
     -9.782  0.2845E-01  0.1114E+00
     -9.703  0.6809E-03  0.1114E+00
     -9.623  0.9184E-05  0.1114E+00
     -9.544  0.2632E-02  0.1116E+00
     -9.464  0.1608E-01  0.1129E+00
     -9.385  0.3868E-01  0.1160E+00
     -9.306  0.2528E-01  0.1180E+00
     -9.226  0.9328E-02  0.1187E+00
     -9.147  0.2600E-01  0.1208E+00
     -9.068  0.1559E-01  0.1220E+00
     -8.988  0.2438E-01  0.1240E+00
     -8.909  0.1934E-02  0.1241E+00
     -8.829  0.2115E-05  0.1241E+00
     -8.750  0.1025E-07  0.1241E+00
     -8.671  0.1046E-03  0.1241E+00
     -8.591  0.1076E-01  0.1250E+00
     -8.512  0.2588E-01  0.1270E+00
     -8.432  0.1593E-01  0.1283E+00
     -8.353  0.1688E-01  0.1296E+00
     -8.274  0.3254E-01  0.1322E+00
     -8.194  0.4086E-01  0.1355E+00
     -8.115  0.1635E-01  0.1368E+00
     -8.036  0.6131E-03  0.1368E+00
     -7.956  0.8327E-03  0.1369E+00
     -7.877  0.2056E-01  0.1385E+00
     -7.797  0.1798E-01  0.1399E+00
     -7.718  0.4504E-01  0.1435E+00
     -7.639  0.7324E-01  0.1493E+00
     -7.559  0.1981E-01  0.1509E+00
     -7.480  0.7423E-02  0.1515E+00
     -7.401  0.5156E-01  0.1556E+00
     -7.321  0.2885E-01  0.1579E+00
     -7.242  0.6353E-01  0.1629E+00
     -7.162  0.4383E-01  0.1664E+00
     -7.083  0.5300E-01  0.1706E+00
     -7.004  0.7261E-01  0.1764E+00
     -6.924  0.3365E-01  0.1790E+00
     -6.845  0.1123E-02  0.1791E+00
     -6.766  0.6244E-06  0.1791E+00
     -6.686  0.6493E-04  0.1791E+00
     -6.607  0.1247E-01  0.1801E+00
     -6.527  0.5143E-01  0.1842E+00
     -6.448  0.1753E-01  0.1856E+00
     -6.369  0.7583E-02  0.1862E+00
     -6.289  0.1165E-01  0.1871E+00
     -6.210  0.2079E-01  0.1888E+00
     -6.130  0.1639E-01  0.1901E+00
     -6.051  0.3855E-01  0.1931E+00
     -5.972  0.3604E-01  0.1960E+00
     -5.892  0.1652E-01  0.1973E+00
     -5.813  0.2767E-01  0.1995E+00
     -5.734  0.4989E-01  0.2035E+00
     -5.654  0.3930E-01  0.2066E+00
     -5.575  0.4482E-01  0.2101E+00
     -5.495  0.4644E-01  0.2138E+00
     -5.416  0.7046E-02  0.2144E+00
     -5.337  0.2251E-04  0.2144E+00
     -5.257  0.1905E-02  0.2145E+00
     -5.178  0.2429E-01  0.2165E+00
     -5.099  0.1060E-01  0.2173E+00
     -5.019  0.2286E-01  0.2191E+00
     -4.940  0.1129E-01  0.2200E+00
     -4.860  0.1200E-03  0.2200E+00
     -4.781  0.5668E-03  0.2201E+00
     -4.702  0.1721E-01  0.2214E+00
     -4.622  0.3306E-01  0.2241E+00
     -4.543  0.2992E-01  0.2264E+00
     -4.464  0.6619E-01  0.2317E+00
     -4.384  0.4215E-01  0.2350E+00
     -4.305  0.8499E-01  0.2418E+00
     -4.225  0.2202E-01  0.2435E+00
     -4.146  0.2548E-01  0.2456E+00
     -4.067  0.1571E-01  0.2468E+00
     -3.987  0.3118E-03  0.2468E+00
     -3.908  0.6814E-07  0.2468E+00
     -3.828  0.1179E-12  0.2468E+00
     -3.749  0.0000E+00  0.2468E+00
     -3.670  0.0000E+00  0.2468E+00
     -3.590  0.0000E+00  0.2468E+00
     -3.511  0.0000E+00  0.2468E+00
     -3.432  0.0000E+00  0.2468E+00
     -3.352  0.0000E+00  0.2468E+00
     -3.273  0.0000E+00  0.2468E+00
     -3.193  0.0000E+00  0.2468E+00
     -3.114  0.0000E+00  0.2468E+00
     -3.035  0.1999E-13  0.2468E+00
     -2.955  0.1614E-07  0.2468E+00
     -2.876  0.1020E-03  0.2468E+00
     -2.797  0.6806E-02  0.2474E+00
     -2.717  0.1042E-01  0.2482E+00
     -2.638  0.4411E-03  0.2482E+00
     -2.558  0.2290E-06  0.2482E+00
     -2.479  0.9737E-12  0.2482E+00
     -2.400  0.0000E+00  0.2482E+00
     -2.320  0.0000E+00  0.2482E+00
     -2.241  0.0000E+00  0.2482E+00
     -2.162  0.0000E+00  0.2482E+00
     -2.082  0.0000E+00  0.2482E+00
     -2.003  0.1332E-15  0.2482E+00
     -1.923  0.4679E-09  0.2482E+00
     -1.844  0.1234E-04  0.2482E+00
     -1.765  0.3019E-02  0.2485E+00
     -1.685  0.1300E-01  0.2495E+00
     -1.606  0.1736E-02  0.2496E+00
     -1.526  0.8732E-05  0.2496E+00
     -1.447  0.2761E-02  0.2499E+00
     -1.368  0.3326E-01  0.2525E+00
     -1.288  0.2011E-01  0.2541E+00
     -1.209  0.2245E-01  0.2559E+00
     -1.130  0.3019E-01  0.2583E+00
     -1.050  0.6260E-01  0.2633E+00
     -0.971  0.4995E-01  0.2672E+00
     -0.891  0.2831E-01  0.2695E+00
     -0.812  0.1654E-01  0.2708E+00
     -0.733  0.5438E-02  0.2712E+00
     -0.653  0.2630E-01  0.2733E+00
     -0.574  0.1539E-01  0.2745E+00
     -0.495  0.5573E-01  0.2789E+00
     -0.415  0.6259E-01  0.2839E+00
     -0.336  0.1713E-01  0.2853E+00
     -0.256  0.3053E-01  0.2877E+00
     -0.177  0.4954E-01  0.2916E+00
     -0.098  0.2172E-01  0.2933E+00
     -0.018  0.6400E-02  0.2939E+00
      0.061  0.1110E-01  0.2947E+00
      0.140  0.5590E-02  0.2952E+00
      0.220  0.1255E-01  0.2962E+00
      0.299  0.2050E-01  0.2978E+00
      0.379  0.2600E-01  0.2999E+00
      0.458  0.5639E-01  0.3043E+00
      0.537  0.7755E-01  0.3105E+00
      0.617  0.3092E-01  0.3130E+00
      0.696  0.3114E-02  0.3132E+00
      0.776  0.2309E-01  0.3150E+00
      0.855  0.2792E-01  0.3173E+00
      0.934  0.1677E-01  0.3186E+00
      1.014  0.2793E-01  0.3208E+00
      1.093  0.4787E-01  0.3246E+00
      1.172  0.5095E-01  0.3286E+00
      1.252  0.4068E-01  0.3319E+00
      1.331  0.5767E-01  0.3365E+00
      1.411  0.6199E-01  0.3414E+00
      1.490  0.3118E-01  0.3439E+00
      1.569  0.3638E-01  0.3467E+00
      1.649  0.2293E-01  0.3486E+00
      1.728  0.2507E-01  0.3505E+00
      1.807  0.3007E-01  0.3529E+00
      1.887  0.2879E-01  0.3552E+00
      1.966  0.2638E-02  0.3554E+00
      2.046  0.3952E-05  0.3554E+00
      2.125  0.5160E-10  0.3554E+00
      2.204  0.5918E-17  0.3554E+00
      2.284  0.0000E+00  0.3554E+00
      2.363  0.0000E+00  0.3554E+00
      2.442  0.0000E+00  0.3554E+00
      2.522  0.0000E+00  0.3554E+00
      2.601  0.0000E+00  0.3554E+00
      2.681  0.0000E+00  0.3554E+00
      2.760  0.0000E+00  0.3554E+00
      2.839  0.0000E+00  0.3554E+00
      2.919  0.0000E+00  0.3554E+00
