o-B14 large monolayer 3 times 3         
   1.00000000000000     
    17.0992736815999997    0.0000000000000000    0.0000000000000000
     0.0000000000000000   18.9423999786000010    0.0000000000000000
     0.0000000000000000    0.0000000000000000   24.0440578460999994
  B             
   126
Direct
     0.1712740972823568    0.2135879892500867    0.0840968331528131
     0.1712740972823568    0.5469213225728566    0.0840968331528131
     0.1712740972823568    0.8802546558956337    0.0840968331528131
     0.5046074306234871    0.2135879892500867    0.0840968331528131
     0.5046074306234871    0.5469213225728566    0.0840968331528131
     0.5046074306234871    0.8802546558956337    0.0840968331528131
     0.8379407639646175    0.2135879892500867    0.0840968331528131
     0.8379407639646175    0.5469213225728566    0.0840968331528131
     0.8379407639646175    0.8802546558956337    0.0840968331528131
     0.1620592360587736    0.1197453440726903    0.0840968331528131
     0.1620592360587736    0.4530786773954674    0.0840968331528131
     0.1620592360587736    0.7864120107710306    0.0840968331528131
     0.4953925693999039    0.1197453440726903    0.0840968331528131
     0.4953925693999039    0.4530786773954674    0.0840968331528131
     0.4953925693999039    0.7864120107710306    0.0840968331528131
     0.8287259027410343    0.1197453440726903    0.0840968331528131
     0.8287259027410343    0.4530786773954674    0.0840968331528131
     0.8287259027410343    0.7864120107710306    0.0840968331528131
     0.3287259027293388    0.2135879892500867    0.0840968331528131
     0.3287259027293388    0.5469213225728566    0.0840968331528131
     0.3287259027293388    0.8802546558956337    0.0840968331528131
     0.6620592360704691    0.2135879892500867    0.0840968331528131
     0.6620592360704691    0.5469213225728566    0.0840968331528131
     0.6620592360704691    0.8802546558956337    0.0840968331528131
     0.9953925694115995    0.2135879892500867    0.0840968331528131
     0.9953925694115995    0.5469213225728566    0.0840968331528131
     0.9953925694115995    0.8802546558956337    0.0840968331528131
     0.0046074306117916    0.1197453440726903    0.0840968331528131
     0.0046074306117916    0.4530786773954674    0.0840968331528131
     0.0046074306117916    0.7864120107710306    0.0840968331528131
     0.3379407639529219    0.1197453440726903    0.0840968331528131
     0.3379407639529219    0.4530786773954674    0.0840968331528131
     0.3379407639529219    0.7864120107710306    0.0840968331528131
     0.6712740972940523    0.1197453440726903    0.0840968331528131
     0.6712740972940523    0.4530786773954674    0.0840968331528131
     0.6712740972940523    0.7864120107710306    0.0840968331528131
     0.1986969540499288    0.3004073782323644    0.0840968331528131
     0.1986969540499288    0.6337407115551414    0.0840968331528131
     0.1986969540499288    0.9670740448779114    0.0840968331528131
     0.5320302873910592    0.3004073782323644    0.0840968331528131
     0.5320302873910592    0.6337407115551414    0.0840968331528131
     0.5320302873910592    0.9670740448779114    0.0840968331528131
     0.8653636207321895    0.3004073782323644    0.0840968331528131
     0.8653636207321895    0.6337407115551414    0.0840968331528131
     0.8653636207321895    0.9670740448779114    0.0840968331528131
     0.1346363792912015    0.0329259526619978    0.0840968331528131
     0.1346363792912015    0.3662592859847749    0.0840968331528131
     0.1346363792912015    0.6995926193075448    0.0840968331528131
     0.4679697126323319    0.0329259526619978    0.0840968331528131
     0.4679697126323319    0.3662592859847749    0.0840968331528131
     0.4679697126323319    0.6995926193075448    0.0840968331528131
     0.8013030459734694    0.0329259526619978    0.0840968331528131
     0.8013030459734694    0.3662592859847749    0.0840968331528131
     0.8013030459734694    0.6995926193075448    0.0840968331528131
     0.3013030459617667    0.3004073782323644    0.0840968331528131
     0.3013030459617667    0.6337407115551414    0.0840968331528131
     0.3013030459617667    0.9670740448779114    0.0840968331528131
     0.6346363793028971    0.3004073782323644    0.0840968331528131
     0.6346363793028971    0.6337407115551414    0.0840968331528131
     0.6346363793028971    0.9670740448779114    0.0840968331528131
     0.9679697126440345    0.3004073782323644    0.0840968331528131
     0.9679697126440345    0.6337407115551414    0.0840968331528131
     0.9679697126440345    0.9670740448779114    0.0840968331528131
     0.0320302873793636    0.0329259526619978    0.0840968331528131
     0.0320302873793636    0.3662592859847749    0.0840968331528131
     0.0320302873793636    0.6995926193075448    0.0840968331528131
     0.3653636207204940    0.0329259526619978    0.0840968331528131
     0.3653636207204940    0.3662592859847749    0.0840968331528131
     0.3653636207204940    0.6995926193075448    0.0840968331528131
     0.6986969540616244    0.0329259526619978    0.0840968331528131
     0.6986969540616244    0.3662592859847749    0.0840968331528131
     0.6986969540616244    0.6995926193075448    0.0840968331528131
     0.2499999999766089    0.2412613155757981    0.1254179982972019
     0.2499999999766089    0.5745946489513614    0.1254179982972019
     0.2499999999766089    0.9079279822741384    0.1254179982972019
     0.5833333333177393    0.2412613155757981    0.1254179982972019
     0.5833333333177393    0.5745946489513614    0.1254179982972019
     0.5833333333177393    0.9079279822741384    0.1254179982972019
     0.9166666666588696    0.2412613155757981    0.1254179982972019
     0.9166666666588696    0.5745946489513614    0.1254179982972019
     0.9166666666588696    0.9079279822741384    0.1254179982972019
     0.0833333333060438    0.0920720177469789    0.0427756705454314
     0.0833333333060438    0.4254053510697489    0.0427756705454314
     0.0833333333060438    0.7587386843925259    0.0427756705454314
     0.4166666666471741    0.0920720177469789    0.0427756705454314
     0.4166666666471741    0.4254053510697489    0.0427756705454314
     0.4166666666471741    0.7587386843925259    0.0427756705454314
     0.7499999999883045    0.0920720177469789    0.0427756705454314
     0.7499999999883045    0.4254053510697489    0.0427756705454314
     0.7499999999883045    0.7587386843925259    0.0427756705454314
     0.2499999999766089    0.2412613155757981    0.0427756705454314
     0.2499999999766089    0.5745946489513614    0.0427756705454314
     0.2499999999766089    0.9079279822741384    0.0427756705454314
     0.5833333333177393    0.2412613155757981    0.0427756705454314
     0.5833333333177393    0.5745946489513614    0.0427756705454314
     0.5833333333177393    0.9079279822741384    0.0427756705454314
     0.9166666666588696    0.2412613155757981    0.0427756705454314
     0.9166666666588696    0.5745946489513614    0.0427756705454314
     0.9166666666588696    0.9079279822741384    0.0427756705454314
     0.0833333333060438    0.0920720177469789    0.1254179982972019
     0.0833333333060438    0.4254053510697489    0.1254179982972019
     0.0833333333060438    0.7587386843925259    0.1254179982972019
     0.4166666666471741    0.0920720177469789    0.1254179982972019
     0.4166666666471741    0.4254053510697489    0.1254179982972019
     0.4166666666471741    0.7587386843925259    0.1254179982972019
     0.7499999999883045    0.0920720177469789    0.1254179982972019
     0.7499999999883045    0.4254053510697489    0.1254179982972019
     0.7499999999883045    0.7587386843925259    0.1254179982972019
     0.0833333333060438    0.1721625517719119    0.0834729783901932
     0.0833333333060438    0.5054958850946889    0.0840968331528131
     0.0833333333060438    0.8388292184702522    0.0840968331528131
     0.4166666666471741    0.1721625517719119    0.0840968331528131
     0.4166666666471741    0.5054958850946889    0.0840968331528131
     0.4166666666471741    0.8388292184702522    0.0840968331528131
     0.7499999999883045    0.1721625517719119    0.0840968331528131
     0.7499999999883045    0.5054958850946889    0.0840968331528131
     0.7499999999883045    0.8388292184702522    0.0840968331528131
     0.2499999999766089    0.1611707716788260    0.0840968331528131
     0.2499999999766089    0.4945041050016030    0.0840968331528131
     0.2499999999766089    0.8278374383243801    0.0840968331528131
     0.5833333333177393    0.1611707716788260    0.0840968331528131
     0.5833333333177393    0.4945041050016030    0.0840968331528131
     0.5833333333177393    0.8278374383243801    0.0840968331528131
     0.9166666666588696    0.1611707716788260    0.0840968331528131
     0.9166666666588696    0.4945041050016030    0.0840968331528131
     0.9166666666588696    0.8278374383243801    0.0840968331528131
 
  0.00000000E+00  0.00000000E+00  0.00000000E+00
  0.00000000E+00  0.00000000E+00  0.00000000E+00
  0.00000000E+00  0.00000000E+00  0.00000000E+00
  0.00000000E+00  0.00000000E+00  0.00000000E+00
  0.00000000E+00  0.00000000E+00  0.00000000E+00
  0.00000000E+00  0.00000000E+00  0.00000000E+00
  0.00000000E+00  0.00000000E+00  0.00000000E+00
  0.00000000E+00  0.00000000E+00  0.00000000E+00
  0.00000000E+00  0.00000000E+00  0.00000000E+00
  0.00000000E+00  0.00000000E+00  0.00000000E+00
  0.00000000E+00  0.00000000E+00  0.00000000E+00
  0.00000000E+00  0.00000000E+00  0.00000000E+00
  0.00000000E+00  0.00000000E+00  0.00000000E+00
  0.00000000E+00  0.00000000E+00  0.00000000E+00
  0.00000000E+00  0.00000000E+00  0.00000000E+00
  0.00000000E+00  0.00000000E+00  0.00000000E+00
  0.00000000E+00  0.00000000E+00  0.00000000E+00
  0.00000000E+00  0.00000000E+00  0.00000000E+00
  0.00000000E+00  0.00000000E+00  0.00000000E+00
  0.00000000E+00  0.00000000E+00  0.00000000E+00
  0.00000000E+00  0.00000000E+00  0.00000000E+00
  0.00000000E+00  0.00000000E+00  0.00000000E+00
  0.00000000E+00  0.00000000E+00  0.00000000E+00
  0.00000000E+00  0.00000000E+00  0.00000000E+00
  0.00000000E+00  0.00000000E+00  0.00000000E+00
  0.00000000E+00  0.00000000E+00  0.00000000E+00
  0.00000000E+00  0.00000000E+00  0.00000000E+00
  0.00000000E+00  0.00000000E+00  0.00000000E+00
  0.00000000E+00  0.00000000E+00  0.00000000E+00
  0.00000000E+00  0.00000000E+00  0.00000000E+00
  0.00000000E+00  0.00000000E+00  0.00000000E+00
  0.00000000E+00  0.00000000E+00  0.00000000E+00
  0.00000000E+00  0.00000000E+00  0.00000000E+00
  0.00000000E+00  0.00000000E+00  0.00000000E+00
  0.00000000E+00  0.00000000E+00  0.00000000E+00
  0.00000000E+00  0.00000000E+00  0.00000000E+00
  0.00000000E+00  0.00000000E+00  0.00000000E+00
  0.00000000E+00  0.00000000E+00  0.00000000E+00
  0.00000000E+00  0.00000000E+00  0.00000000E+00
  0.00000000E+00  0.00000000E+00  0.00000000E+00
  0.00000000E+00  0.00000000E+00  0.00000000E+00
  0.00000000E+00  0.00000000E+00  0.00000000E+00
  0.00000000E+00  0.00000000E+00  0.00000000E+00
  0.00000000E+00  0.00000000E+00  0.00000000E+00
  0.00000000E+00  0.00000000E+00  0.00000000E+00
  0.00000000E+00  0.00000000E+00  0.00000000E+00
  0.00000000E+00  0.00000000E+00  0.00000000E+00
  0.00000000E+00  0.00000000E+00  0.00000000E+00
  0.00000000E+00  0.00000000E+00  0.00000000E+00
  0.00000000E+00  0.00000000E+00  0.00000000E+00
  0.00000000E+00  0.00000000E+00  0.00000000E+00
  0.00000000E+00  0.00000000E+00  0.00000000E+00
  0.00000000E+00  0.00000000E+00  0.00000000E+00
  0.00000000E+00  0.00000000E+00  0.00000000E+00
  0.00000000E+00  0.00000000E+00  0.00000000E+00
  0.00000000E+00  0.00000000E+00  0.00000000E+00
  0.00000000E+00  0.00000000E+00  0.00000000E+00
  0.00000000E+00  0.00000000E+00  0.00000000E+00
  0.00000000E+00  0.00000000E+00  0.00000000E+00
  0.00000000E+00  0.00000000E+00  0.00000000E+00
  0.00000000E+00  0.00000000E+00  0.00000000E+00
  0.00000000E+00  0.00000000E+00  0.00000000E+00
  0.00000000E+00  0.00000000E+00  0.00000000E+00
  0.00000000E+00  0.00000000E+00  0.00000000E+00
  0.00000000E+00  0.00000000E+00  0.00000000E+00
  0.00000000E+00  0.00000000E+00  0.00000000E+00
  0.00000000E+00  0.00000000E+00  0.00000000E+00
  0.00000000E+00  0.00000000E+00  0.00000000E+00
  0.00000000E+00  0.00000000E+00  0.00000000E+00
  0.00000000E+00  0.00000000E+00  0.00000000E+00
  0.00000000E+00  0.00000000E+00  0.00000000E+00
  0.00000000E+00  0.00000000E+00  0.00000000E+00
  0.00000000E+00  0.00000000E+00  0.00000000E+00
  0.00000000E+00  0.00000000E+00  0.00000000E+00
  0.00000000E+00  0.00000000E+00  0.00000000E+00
  0.00000000E+00  0.00000000E+00  0.00000000E+00
  0.00000000E+00  0.00000000E+00  0.00000000E+00
  0.00000000E+00  0.00000000E+00  0.00000000E+00
  0.00000000E+00  0.00000000E+00  0.00000000E+00
  0.00000000E+00  0.00000000E+00  0.00000000E+00
  0.00000000E+00  0.00000000E+00  0.00000000E+00
  0.00000000E+00  0.00000000E+00  0.00000000E+00
  0.00000000E+00  0.00000000E+00  0.00000000E+00
  0.00000000E+00  0.00000000E+00  0.00000000E+00
  0.00000000E+00  0.00000000E+00  0.00000000E+00
  0.00000000E+00  0.00000000E+00  0.00000000E+00
  0.00000000E+00  0.00000000E+00  0.00000000E+00
  0.00000000E+00  0.00000000E+00  0.00000000E+00
  0.00000000E+00  0.00000000E+00  0.00000000E+00
  0.00000000E+00  0.00000000E+00  0.00000000E+00
  0.00000000E+00  0.00000000E+00  0.00000000E+00
  0.00000000E+00  0.00000000E+00  0.00000000E+00
  0.00000000E+00  0.00000000E+00  0.00000000E+00
  0.00000000E+00  0.00000000E+00  0.00000000E+00
  0.00000000E+00  0.00000000E+00  0.00000000E+00
  0.00000000E+00  0.00000000E+00  0.00000000E+00
  0.00000000E+00  0.00000000E+00  0.00000000E+00
  0.00000000E+00  0.00000000E+00  0.00000000E+00
  0.00000000E+00  0.00000000E+00  0.00000000E+00
  0.00000000E+00  0.00000000E+00  0.00000000E+00
  0.00000000E+00  0.00000000E+00  0.00000000E+00
  0.00000000E+00  0.00000000E+00  0.00000000E+00
  0.00000000E+00  0.00000000E+00  0.00000000E+00
  0.00000000E+00  0.00000000E+00  0.00000000E+00
  0.00000000E+00  0.00000000E+00  0.00000000E+00
  0.00000000E+00  0.00000000E+00  0.00000000E+00
  0.00000000E+00  0.00000000E+00  0.00000000E+00
  0.00000000E+00  0.00000000E+00  0.00000000E+00
  0.00000000E+00  0.00000000E+00  0.00000000E+00
  0.00000000E+00  0.00000000E+00  0.00000000E+00
  0.00000000E+00  0.00000000E+00  0.00000000E+00
  0.00000000E+00  0.00000000E+00  0.00000000E+00
  0.00000000E+00  0.00000000E+00  0.00000000E+00
  0.00000000E+00  0.00000000E+00  0.00000000E+00
  0.00000000E+00  0.00000000E+00  0.00000000E+00
  0.00000000E+00  0.00000000E+00  0.00000000E+00
  0.00000000E+00  0.00000000E+00  0.00000000E+00
  0.00000000E+00  0.00000000E+00  0.00000000E+00
  0.00000000E+00  0.00000000E+00  0.00000000E+00
  0.00000000E+00  0.00000000E+00  0.00000000E+00
  0.00000000E+00  0.00000000E+00  0.00000000E+00
  0.00000000E+00  0.00000000E+00  0.00000000E+00
  0.00000000E+00  0.00000000E+00  0.00000000E+00
  0.00000000E+00  0.00000000E+00  0.00000000E+00
  0.00000000E+00  0.00000000E+00  0.00000000E+00
  0.00000000E+00  0.00000000E+00  0.00000000E+00
