o-B14 large monolayer with Hydrogen
1.0
       11.3883514404         0.0000000000         0.0000000000
        0.0000000000        12.2675390244         0.0000000000
        0.0000000000         0.0000000000        26.0440578461
    B    H
   56   16
Cartesian
     2.980404549         3.907428356         4.022029121
     2.980404549        10.041197868         4.022029121
     8.674580270         3.907428356         4.022029121
     8.674580270        10.041197868         4.022029121
     2.713771172         2.226341156         4.022029121
     2.713771172         8.360110669         4.022029121
     8.407946892         2.226341156         4.022029121
     8.407946892         8.360110669         4.022029121
     5.560859032         3.907428356         4.022029121
     5.560859032        10.041197868         4.022029121
    11.255034752         3.907428356         4.022029121
    11.255034752        10.041197868         4.022029121
     0.133316689         2.226341156         4.022029121
     0.133316689         8.360110669         4.022029121
     5.827492409         2.226341156         4.022029121
     5.827492409         8.360110669         4.022029121
     3.408036723         5.520434721         4.022029121
     3.408036723        11.654204234         4.022029121
     9.102212443         5.520434721         4.022029121
     9.102212443        11.654204234         4.022029121
     2.286138998         0.613334745         4.022029121
     2.286138998         6.747104257         4.022029121
     7.980314718         0.613334745         4.022029121
     7.980314718         6.747104257         4.022029121
     5.133226858         5.520434721         4.022029121
     5.133226858        11.654204234         4.022029121
    10.827402579         5.520434721         4.022029121
    10.827402579        11.654204234         4.022029121
     0.560948862         0.613334745         4.022029121
     0.560948862         6.747104257         4.022029121
     6.255124582         0.613334745         4.022029121
     6.255124582         6.747104257         4.022029121
     4.270631790         4.485602009         5.211037268
     4.270631790        10.619371521         5.211037268
     9.964807510         4.485602009         5.211037268
     9.964807510        10.619371521         5.211037268
     1.423543930         1.648167503         2.833021035
     1.423543930         7.781937015         2.833021035
     7.117719650         1.648167503         2.833021035
     7.117719650         7.781937015         2.833021035
     4.270631790         4.485602009         2.833021035
     4.270631790        10.619371521         2.833021035
     9.964807510         4.485602009         2.833021035
     9.964807510        10.619371521         2.833021035
     1.423543930         1.648167503         5.211037268
     1.423543930         7.781937015         5.211037268
     7.117719650         1.648167503         5.211037268
     7.117719650         7.781937015         5.211037268
     1.423543930         3.219984334         4.022029121
     1.423543930         9.353753846         4.022029121
     7.117719650         3.219984334         4.022029121
     7.117719650         9.353753846         4.022029121
     4.270631790         2.913784996         4.022029121
     4.270631790         9.047554508         4.022029121
     9.964807510         2.913784996         4.022029121
     9.964807510         9.047554508         4.022029121
     4.270631790         4.402435250         1.644543429
     4.270631790        10.536204762         1.644543429
     9.964807510         4.402435250         1.644543429
     9.964807510        10.536204762         1.644543429
     1.423543930         1.731334262         1.644543429
     1.423543930         7.865103774         1.644543429
     7.117719650         1.731334262         1.644543429
     7.117719650         7.865103774         1.644543429
     4.270631790         4.402435250         6.399514874
     4.270631790        10.536204762         6.399514874
     9.964807510         4.402435250         6.399514874
     9.964807510        10.536204762         6.399514874
     1.423543930         1.731334262         6.399514874
     1.423543930         7.865103774         6.399514874
     7.117719650         1.731334262         6.399514874
     7.117719650         7.865103774         6.399514874
