       N       E                     dE             d eps       ncg     rms          rms(c)
DAV:   1     0.606986927875E+04    0.60699E+04   -0.29715E+05  6696   0.119E+03
DAV:   2    -0.101220405689E+04   -0.70821E+04   -0.68638E+04  9576   0.257E+02
DAV:   3    -0.187775534546E+04   -0.86555E+03   -0.85467E+03  7824   0.953E+01
DAV:   4    -0.190381383221E+04   -0.26058E+02   -0.25912E+02  8856   0.173E+01
DAV:   5    -0.190463652444E+04   -0.82269E+00   -0.82154E+00  8736   0.275E+00    0.567E+01
DAV:   6    -0.179488912269E+04    0.10975E+03   -0.11293E+02  7272   0.108E+01    0.318E+01
DAV:   7    -0.175566626971E+04    0.39223E+02   -0.13027E+02  7680   0.109E+01    0.650E+00
DAV:   8    -0.175560548128E+04    0.60788E-01   -0.99648E+00  8208   0.368E+00    0.251E+00
DAV:   9    -0.175549258682E+04    0.11289E+00   -0.13727E+00  8256   0.146E+00    0.133E+00
DAV:  10    -0.175540445003E+04    0.88137E-01   -0.76201E-01  8136   0.106E+00    0.747E-01
DAV:  11    -0.175538161447E+04    0.22836E-01   -0.14288E-01  7704   0.469E-01    0.386E-01
DAV:  12    -0.175536434121E+04    0.17273E-01   -0.83731E-02  7992   0.358E-01    0.256E-01
DAV:  13    -0.175536545817E+04   -0.11170E-02   -0.37770E-02  8040   0.250E-01    0.176E-01
DAV:  14    -0.175537419615E+04   -0.87380E-02   -0.12071E-02  7344   0.139E-01    0.119E-01
DAV:  15    -0.175538441473E+04   -0.10219E-01   -0.50713E-03  7272   0.965E-02    0.701E-02
DAV:  16    -0.175539076505E+04   -0.63503E-02   -0.21498E-03  7608   0.596E-02    0.488E-02
DAV:  17    -0.175539734421E+04   -0.65792E-02   -0.87771E-04  7608   0.330E-02    0.327E-02
DAV:  18    -0.175540210467E+04   -0.47605E-02   -0.45748E-04  7584   0.250E-02    0.227E-02
DAV:  19    -0.175540488345E+04   -0.27788E-02   -0.21553E-04  7632   0.179E-02    0.156E-02
DAV:  20    -0.175540763316E+04   -0.27497E-02   -0.13868E-04  7368   0.116E-02    0.109E-02
DAV:  21    -0.175540988818E+04   -0.22550E-02   -0.10354E-04  7512   0.818E-03    0.679E-03
DAV:  22    -0.175541124290E+04   -0.13547E-02   -0.51327E-05  7608   0.561E-03    0.409E-03
DAV:  23    -0.175541189454E+04   -0.65163E-03   -0.19336E-05  7584   0.334E-03    0.238E-03
DAV:  24    -0.175541211625E+04   -0.22172E-03   -0.41494E-06  6912   0.200E-03    0.158E-03
DAV:  25    -0.175541224806E+04   -0.13181E-03   -0.22247E-06  6600   0.143E-03    0.953E-04
DAV:  26    -0.175541233924E+04   -0.91175E-04   -0.17045E-06  6480   0.926E-04    0.517E-04
DAV:  27    -0.175541236811E+04   -0.28877E-04   -0.29601E-07  5256   0.446E-04    0.266E-04
DAV:  28    -0.175541238198E+04   -0.13864E-04   -0.21464E-07  5112   0.309E-04    0.124E-04
DAV:  29    -0.175541238582E+04   -0.38401E-05   -0.30922E-08  5160   0.165E-04    0.759E-05
DAV:  30    -0.175541238729E+04   -0.14725E-05    0.17097E-09  4464   0.105E-04    0.416E-05
DAV:  31    -0.175541238839E+04   -0.11053E-05    0.63856E-09  4896   0.828E-05    0.264E-05
DAV:  32    -0.175541238876E+04   -0.36244E-06    0.18313E-08  4704   0.524E-05
   1 F= -.17855817E+04 E0= -.17854722E+04  d E =-.218951E+00
