SCF                                     
           1
    16.815972   -0.335953    0.000000
    -0.376692   18.219154    0.000000
     0.000000    0.000000   30.088117
   B    H 
   252    18
Direct configuration=     1
   0.17351830  0.21384780  0.14962781
   0.50685163  0.21384780  0.14929545
   0.84018496  0.21384780  0.14929545
   0.17351830  0.54718114  0.14929545
   0.50685163  0.54718114  0.14929545
   0.84018496  0.54718114  0.14929545
   0.17351830  0.88051447  0.14929545
   0.50685163  0.88051447  0.14929545
   0.84018496  0.88051447  0.14929545
   0.17351830  0.21384780  0.25246172
   0.50685163  0.21384780  0.25246172
   0.84018496  0.21384780  0.25246172
   0.17351830  0.54718114  0.25246172
   0.50685163  0.54718114  0.25246172
   0.84018496  0.54718114  0.25246172
   0.17351830  0.88051447  0.25246172
   0.50685163  0.88051447  0.25246172
   0.84018496  0.88051447  0.25246172
   0.15981504  0.11948553  0.14929545
   0.49314837  0.11948553  0.14929545
   0.82648170  0.11948553  0.14929545
   0.15981504  0.45281886  0.14929545
   0.49314837  0.45281886  0.14929545
   0.82648170  0.45281886  0.14929545
   0.15981504  0.78615220  0.14929545
   0.49314837  0.78615220  0.14929545
   0.82648170  0.78615220  0.14929545
   0.15981504  0.11948553  0.25246172
   0.49314837  0.11948553  0.25246172
   0.82648170  0.11948553  0.25246172
   0.15981504  0.45281886  0.25246172
   0.49314837  0.45281886  0.25246172
   0.82648170  0.45281886  0.25246172
   0.15981504  0.78615220  0.25246172
   0.49314837  0.78615220  0.25246172
   0.82648170  0.78615220  0.25246172
   0.32768920  0.21372208  0.13544842
   0.66102254  0.21372208  0.13544842
   0.99435587  0.21372208  0.13544842
   0.32768920  0.54705541  0.13544842
   0.66102254  0.54705541  0.13544842
   0.99435587  0.54705541  0.13544842
   0.32768920  0.88038874  0.13544842
   0.66102254  0.88038874  0.13544842
   0.99435587  0.88038874  0.13544842
   0.32768920  0.21372208  0.26630875
   0.66102254  0.21372208  0.26630875
   0.99435587  0.21372208  0.26630875
   0.32768920  0.54705541  0.26630875
   0.66102254  0.54705541  0.26630875
   0.99435587  0.54705541  0.26630875
   0.32768920  0.88038874  0.26630875
   0.66102254  0.88038874  0.26630875
   0.99435587  0.88038874  0.26630875
   0.00564413  0.11961126  0.13544842
   0.33897746  0.11961126  0.13544842
   0.67231080  0.11961126  0.13544842
   0.00564413  0.45294459  0.13544842
   0.33897746  0.45294459  0.13544842
   0.67231080  0.45294459  0.13544842
   0.00564413  0.78627792  0.13544842
   0.33897746  0.78627792  0.13544842
   0.67231080  0.78627792  0.13544842
   0.00564413  0.11961126  0.26630875
   0.33897746  0.11961126  0.26630875
   0.67231080  0.11961126  0.26630875
   0.00564413  0.45294459  0.26630875
   0.33897746  0.45294459  0.26630875
   0.67231080  0.45294459  0.26630875
   0.00564413  0.78627792  0.26630875
   0.33897746  0.78627792  0.26630875
   0.67231080  0.78627792  0.26630875
   0.19867193  0.29979600  0.13279039
   0.53200527  0.29979600  0.13279039
   0.86533860  0.29979600  0.13279039
   0.19867193  0.63312933  0.13279039
   0.53200527  0.63312933  0.13279039
   0.86533860  0.63312933  0.13279039
   0.19867193  0.96646267  0.13279039
   0.53200527  0.96646267  0.13279039
   0.86533860  0.96646267  0.13279039
   0.19867193  0.29979600  0.26896678
   0.53200527  0.29979600  0.26896678
   0.86533860  0.29979600  0.26896678
   0.19867193  0.63312933  0.26896678
   0.53200527  0.63312933  0.26896678
   0.86533860  0.63312933  0.26896678
   0.19867193  0.96646267  0.26896678
   0.53200527  0.96646267  0.26896678
   0.86533860  0.96646267  0.26896678
   0.13466140  0.03353733  0.13279039
   0.46799473  0.03353733  0.13279039
   0.80132807  0.03353733  0.13279039
   0.13466140  0.36687067  0.13279039
   0.46799473  0.36687067  0.13279039
   0.80132807  0.36687067  0.13279039
   0.13466140  0.70020400  0.13279039
   0.46799473  0.70020400  0.13279039
   0.80132807  0.70020400  0.13279039
   0.13466140  0.03353733  0.26896678
   0.46799473  0.03353733  0.26896678
   0.80132807  0.03353733  0.26896678
   0.13466140  0.36687067  0.26896678
   0.46799473  0.36687067  0.26896678
   0.80132807  0.36687067  0.26896678
   0.13466140  0.70020400  0.26896678
   0.46799473  0.70020400  0.26896678
   0.80132807  0.70020400  0.26896678
   0.29976417  0.29858805  0.12149595
   0.63309750  0.29858805  0.12149595
   0.96643084  0.29858805  0.12149595
   0.29976417  0.63192139  0.12149595
   0.63309750  0.63192139  0.12149595
   0.96643084  0.63192139  0.12149595
   0.29976417  0.96525472  0.12149595
   0.63309750  0.96525472  0.12149595
   0.96643084  0.96525472  0.12149595
   0.29976417  0.29858805  0.28026122
   0.63309750  0.29858805  0.28026122
   0.96643084  0.29858805  0.28026122
   0.29976417  0.63192139  0.28026122
   0.63309750  0.63192139  0.28026122
   0.96643084  0.63192139  0.28026122
   0.29976417  0.96525472  0.28026122
   0.63309750  0.96525472  0.28026122
   0.96643084  0.96525472  0.28026122
   0.03356916  0.03474528  0.12149595
   0.36690250  0.03474528  0.12149595
   0.70023583  0.03474528  0.12149595
   0.03356916  0.36807861  0.12149595
   0.36690250  0.36807861  0.12149595
   0.70023583  0.36807861  0.12149595
   0.03356916  0.70141195  0.12149595
   0.36690250  0.70141195  0.12149595
   0.70023583  0.70141195  0.12149595
   0.03356916  0.03474528  0.28026122
   0.36690250  0.03474528  0.28026122
   0.70023583  0.03474528  0.28026122
   0.03356916  0.36807861  0.28026122
   0.36690250  0.36807861  0.28026122
   0.70023583  0.36807861  0.28026122
   0.03356916  0.70141195  0.28026122
   0.36690250  0.70141195  0.28026122
   0.70023583  0.70141195  0.28026122
   0.26046752  0.25517729  0.17260861
   0.59380086  0.25517729  0.17260861
   0.92713419  0.25517729  0.17260861
   0.26046752  0.58851063  0.17260861
   0.59380086  0.58851063  0.17260861
   0.92713419  0.58851063  0.17260861
   0.26046752  0.92184396  0.17260861
   0.59380086  0.92184396  0.17260861
   0.92713419  0.92184396  0.17260861
   0.23277410  0.22575181  0.30029515
   0.56610744  0.22575181  0.30029515
   0.89944077  0.22575181  0.30029515
   0.23277410  0.55908514  0.30029515
   0.56610744  0.55908514  0.30029515
   0.89944077  0.55908514  0.30029515
   0.23277410  0.89241848  0.30029515
   0.56610744  0.89241848  0.30029515
   0.89944077  0.89241848  0.30029515
   0.10055923  0.10758152  0.10146202
   0.43389256  0.10758152  0.10146202
   0.76722590  0.10758152  0.10146202
   0.10055923  0.44091486  0.10146202
   0.43389256  0.44091486  0.10146202
   0.76722590  0.44091486  0.10146202
   0.10055923  0.77424819  0.10146202
   0.43389256  0.77424819  0.10146202
   0.76722590  0.77424819  0.10146202
   0.07286581  0.07815604  0.22914856
   0.40619914  0.07815604  0.22914856
   0.73953248  0.07815604  0.22914856
   0.07286581  0.41148937  0.22914856
   0.40619914  0.41148937  0.22914856
   0.73953248  0.41148937  0.22914856
   0.07286581  0.74482271  0.22914856
   0.40619914  0.74482271  0.22914856
   0.73953248  0.74482271  0.22914856
   0.23277410  0.22575181  0.10146202
   0.56610744  0.22575181  0.10146202
   0.89944077  0.22575181  0.10146202
   0.23277410  0.55908514  0.10146202
   0.56610744  0.55908514  0.10146202
   0.89944077  0.55908514  0.10146202
   0.23277410  0.89241848  0.10146202
   0.56610744  0.89241848  0.10146202
   0.89944077  0.89241848  0.10146202
   0.26046752  0.25517729  0.22914856
   0.59380086  0.25517729  0.22914856
   0.92713419  0.25517729  0.22914856
   0.26046752  0.58851063  0.22914856
   0.59380086  0.58851063  0.22914856
   0.92713419  0.58851063  0.22914856
   0.26046752  0.92184396  0.22914856
   0.59380086  0.92184396  0.22914856
   0.92713419  0.92184396  0.22914856
   0.07286581  0.07815604  0.17260861
   0.40619914  0.07815604  0.17260861
   0.73953248  0.07815604  0.17260861
   0.07286581  0.41148937  0.17260861
   0.40619914  0.41148937  0.17260861
   0.73953248  0.41148937  0.17260861
   0.07286581  0.74482271  0.17260861
   0.40619914  0.74482271  0.17260861
   0.73953248  0.74482271  0.17260861
   0.10055923  0.10758152  0.30029515
   0.43389256  0.10758152  0.30029515
   0.76722590  0.10758152  0.30029515
   0.10055923  0.44091486  0.30029515
   0.43389256  0.44091486  0.30029515
   0.76722590  0.44091486  0.30029515
   0.10055923  0.77424819  0.30029515
   0.43389256  0.77424819  0.30029515
   0.76722590  0.77424819  0.30029515
   0.08377490  0.17427817  0.14380742
   0.41710823  0.17427817  0.14380742
   0.75044156  0.17427817  0.14380742
   0.08377490  0.50761150  0.14380742
   0.41710823  0.50761150  0.14380742
   0.75044156  0.50761150  0.14380742
   0.08377490  0.84094483  0.14380742
   0.41710823  0.84094483  0.14380742
   0.75044156  0.84094483  0.14380742
   0.08377490  0.17427817  0.25794976
   0.41710823  0.17427817  0.25794976
   0.75044156  0.17427817  0.25794976
   0.08377490  0.50761150  0.25794976
   0.41710823  0.50761150  0.25794976
   0.75044156  0.50761150  0.25794976
   0.08377490  0.84094483  0.25794976
   0.41710823  0.84094483  0.25794976
   0.75044156  0.84094483  0.25794976
   0.24955844  0.15905516  0.14380742
   0.58289177  0.15905516  0.14380742
   0.91622510  0.15905516  0.14380742
   0.24955844  0.49238849  0.14380742
   0.58289177  0.49238849  0.14380742
   0.91622510  0.49238849  0.14380742
   0.24955844  0.82572182  0.14380742
   0.58289177  0.82572182  0.14380742
   0.91622510  0.82572182  0.14380742
   0.24955844  0.15905516  0.25794976
   0.58289177  0.15905516  0.25794976
   0.91622510  0.15905516  0.25794976
   0.24955844  0.49238849  0.25794976
   0.58289177  0.49238849  0.25794976
   0.91622510  0.49238849  0.25794976
   0.24955844  0.82572182  0.25794976
   0.58289177  0.82572182  0.25794976
   0.91622510  0.82572182  0.25794976
   0.16666667  0.16666667  0.07521493
   0.50000000  0.16666667  0.07521493
   0.83333333  0.16666667  0.07521493
   0.16666667  0.50000000  0.07521493
   0.50000000  0.50000000  0.07521493
   0.83333333  0.50000000  0.07521493
   0.16666667  0.83333333  0.07521493
   0.50000000  0.83333333  0.07521493
   0.83333333  0.83333333  0.07521493
   0.16666667  0.16666667  0.32654224
   0.50000000  0.16666667  0.32654224
   0.83333333  0.16666667  0.32654224
   0.16666667  0.50000000  0.32654224
   0.50000000  0.50000000  0.32654224
   0.83333333  0.50000000  0.32654224
   0.16666667  0.83333333  0.32654224
   0.50000000  0.83333333  0.32654224
   0.83333333  0.83333333  0.32654224
