k-points
0
Monkhorst-pack
18  25  17
0   0   0