o-B14                                   
   1.00000000000000     
     5.7009706947548366    0.0000000000000000    0.0000000000000000
     0.0000000000000000    4.0440580960754238    0.0000000000000000
     0.0000000000000000    0.0000000000000000    6.2018711954847161
  B             
    14
Direct
  0.5212898848530543  0.5000000000000000  0.6379577017724003
  0.4787101151469457  0.5000000000000000  0.3620422982275997
  0.9787101151469457  0.5000000000000000  0.6379577017724003
  0.0212898848530543  0.5000000000000000  0.3620422982275997
  0.5974496620689678  0.5000000000000000  0.8998683156397789
  0.4025503379310322  0.5000000000000000  0.1001316843602211
  0.9025503379310322  0.5000000000000000  0.8998683156397789
  0.0974496620689678  0.5000000000000000  0.1001316843602211
  0.7500000000000000  0.7915649321693365  0.7295793958654500
  0.2500000000000000  0.2084350678306635  0.2704206041345500
  0.7500000000000000  0.2084350678306635  0.7295793958654500
  0.2500000000000000  0.7915649321693365  0.2704206041345500
  0.2500000000000000  0.5000000000000000  0.5239930349963160
  0.7500000000000000  0.5000000000000000  0.4760069650036840
 
  0.00000000E+00  0.00000000E+00  0.00000000E+00
  0.00000000E+00  0.00000000E+00  0.00000000E+00
  0.00000000E+00  0.00000000E+00  0.00000000E+00
  0.00000000E+00  0.00000000E+00  0.00000000E+00
  0.00000000E+00  0.00000000E+00  0.00000000E+00
  0.00000000E+00  0.00000000E+00  0.00000000E+00
  0.00000000E+00  0.00000000E+00  0.00000000E+00
  0.00000000E+00  0.00000000E+00  0.00000000E+00
  0.00000000E+00  0.00000000E+00  0.00000000E+00
  0.00000000E+00  0.00000000E+00  0.00000000E+00
  0.00000000E+00  0.00000000E+00  0.00000000E+00
  0.00000000E+00  0.00000000E+00  0.00000000E+00
  0.00000000E+00  0.00000000E+00  0.00000000E+00
  0.00000000E+00  0.00000000E+00  0.00000000E+00
