k-points
0
Monkhorst-pack
5   7   5
0   0   0