       N       E                     dE             d eps       ncg     rms          rms(c)
DAV:   1     0.607489571965E+04    0.60749E+04   -0.29267E+05  6576   0.122E+03
DAV:   2    -0.893107066117E+03   -0.69680E+04   -0.67240E+04  9072   0.263E+02
DAV:   3    -0.176221292621E+04   -0.86911E+03   -0.85629E+03  7200   0.981E+01
DAV:   4    -0.179176239505E+04   -0.29549E+02   -0.29316E+02  8556   0.186E+01
DAV:   5    -0.179276945795E+04   -0.10071E+01   -0.10049E+01  8388   0.301E+00    0.547E+01
DAV:   6    -0.166555996696E+04    0.12721E+03   -0.17794E+02  7320   0.143E+01    0.291E+01
DAV:   7    -0.163529610333E+04    0.30264E+02   -0.11349E+02  7680   0.110E+01    0.883E+00
DAV:   8    -0.163433387206E+04    0.96223E+00   -0.93925E+00  7764   0.379E+00    0.326E+00
DAV:   9    -0.163391518473E+04    0.41869E+00   -0.12464E+00  7656   0.131E+00    0.115E+00
DAV:  10    -0.163386195852E+04    0.53226E-01   -0.17388E-01  8148   0.462E-01    0.649E-01
DAV:  11    -0.163380614238E+04    0.55816E-01   -0.92704E-02  7476   0.302E-01    0.300E-01
DAV:  12    -0.163380276523E+04    0.33772E-02   -0.38612E-02  7668   0.199E-01    0.213E-01
DAV:  13    -0.163382428460E+04   -0.21519E-01   -0.21152E-02  7176   0.151E-01    0.124E-01
DAV:  14    -0.163383856072E+04   -0.14276E-01   -0.63694E-03  7140   0.107E-01    0.722E-02
DAV:  15    -0.163385000465E+04   -0.11444E-01   -0.25412E-03  7308   0.543E-02    0.492E-02
DAV:  16    -0.163386049461E+04   -0.10490E-01   -0.10385E-03  7644   0.318E-02    0.241E-02
DAV:  17    -0.163386514929E+04   -0.46547E-02   -0.23477E-04  7500   0.164E-02    0.171E-02
DAV:  18    -0.163386969556E+04   -0.45463E-02   -0.31432E-04  7392   0.135E-02    0.103E-02
DAV:  19    -0.163387183201E+04   -0.21364E-02   -0.11755E-04  7728   0.793E-03    0.643E-03
DAV:  20    -0.163387307330E+04   -0.12413E-02   -0.55473E-05  7248   0.533E-03    0.384E-03
DAV:  21    -0.163387366163E+04   -0.58833E-03   -0.15850E-05  7236   0.279E-03    0.220E-03
DAV:  22    -0.163387400029E+04   -0.33866E-03   -0.86294E-06  6504   0.176E-03    0.109E-03
DAV:  23    -0.163387411620E+04   -0.11591E-03   -0.21425E-06  6072   0.925E-04    0.527E-04
DAV:  24    -0.163387415242E+04   -0.36219E-04   -0.45625E-07  5520   0.494E-04    0.238E-04
DAV:  25    -0.163387416306E+04   -0.10644E-04   -0.70095E-08  5112   0.249E-04    0.110E-04
DAV:  26    -0.163387416654E+04   -0.34753E-05   -0.18382E-08  4704   0.144E-04    0.566E-05
DAV:  27    -0.163387416804E+04   -0.14990E-05    0.86184E-09  4464   0.886E-05    0.280E-05
DAV:  28    -0.163387416863E+04   -0.58882E-06    0.15763E-08  4464   0.627E-05
   1 F= -.16658329E+04 E0= -.16657606E+04  d E =-.144566E+00
