       N       E                     dE             d eps       ncg     rms          rms(c)
DAV:   1     0.606998620155E+04    0.60700E+04   -0.29715E+05  6696   0.119E+03
DAV:   2    -0.101220304933E+04   -0.70822E+04   -0.68639E+04  9576   0.257E+02
DAV:   3    -0.187777350696E+04   -0.86557E+03   -0.85469E+03  7824   0.953E+01
DAV:   4    -0.190383271317E+04   -0.26059E+02   -0.25912E+02  8856   0.173E+01
DAV:   5    -0.190465423525E+04   -0.82152E+00   -0.82033E+00  8688   0.275E+00    0.567E+01
DAV:   6    -0.179489263880E+04    0.10976E+03   -0.11294E+02  7272   0.108E+01    0.318E+01
DAV:   7    -0.175566578866E+04    0.39227E+02   -0.13027E+02  7680   0.109E+01    0.650E+00
DAV:   8    -0.175559337712E+04    0.72412E-01   -0.98767E+00  8208   0.365E+00    0.247E+00
DAV:   9    -0.175541969089E+04    0.17369E+00   -0.98539E-01  8184   0.104E+00    0.100E+00
DAV:  10    -0.175540715028E+04    0.12541E-01   -0.17665E-01  8064   0.536E-01    0.569E-01
DAV:  11    -0.175538531541E+04    0.21835E-01   -0.12477E-01  8304   0.450E-01    0.374E-01
DAV:  12    -0.175536103118E+04    0.24284E-01   -0.90239E-02  7824   0.324E-01    0.213E-01
DAV:  13    -0.175537455798E+04   -0.13527E-01   -0.32533E-02  7992   0.197E-01    0.134E-01
DAV:  14    -0.175538172358E+04   -0.71656E-02   -0.59528E-03  7416   0.111E-01    0.923E-02
DAV:  15    -0.175538767373E+04   -0.59502E-02   -0.27524E-03  7392   0.680E-02    0.640E-02
DAV:  16    -0.175539527199E+04   -0.75983E-02   -0.18106E-03  7608   0.510E-02    0.413E-02
DAV:  17    -0.175539944158E+04   -0.41696E-02   -0.44665E-04  7680   0.324E-02    0.291E-02
DAV:  18    -0.175540545942E+04   -0.60178E-02   -0.43217E-04  7416   0.211E-02    0.163E-02
DAV:  19    -0.175540811156E+04   -0.26521E-02   -0.12716E-04  7608   0.107E-02    0.121E-02
DAV:  20    -0.175541034888E+04   -0.22373E-02   -0.88167E-05  7464   0.793E-03    0.786E-03
DAV:  21    -0.175541188186E+04   -0.15330E-02   -0.65087E-05  7584   0.711E-03    0.520E-03
DAV:  22    -0.175541245112E+04   -0.56926E-03   -0.19971E-05  7800   0.450E-03    0.384E-03
DAV:  23    -0.175541295079E+04   -0.49967E-03   -0.13971E-05  7272   0.309E-03    0.204E-03
DAV:  24    -0.175541320986E+04   -0.25907E-03   -0.61412E-06  6960   0.192E-03    0.110E-03
DAV:  25    -0.175541331196E+04   -0.10210E-03   -0.16488E-06  6432   0.974E-04    0.563E-04
DAV:  26    -0.175541335400E+04   -0.42037E-04   -0.61399E-07  5688   0.584E-04    0.301E-04
DAV:  27    -0.175541336308E+04   -0.90742E-05   -0.77210E-08  5304   0.306E-04    0.211E-04
DAV:  28    -0.175541337133E+04   -0.82500E-05   -0.73751E-08  4968   0.245E-04    0.959E-05
DAV:  29    -0.175541337474E+04   -0.34102E-05   -0.17901E-08  4896   0.145E-04    0.506E-05
DAV:  30    -0.175541337576E+04   -0.10232E-05    0.13318E-08  4680   0.793E-05    0.282E-05
DAV:  31    -0.175541337651E+04   -0.75121E-06    0.14216E-08  5040   0.647E-05
   1 F= -.17855826E+04 E0= -.17854731E+04  d E =-.219078E+00
