 vasp.6.5.1 10Mar25 (build Mar 14 2025 17:12:02) complex                        
  
 executed on             LinuxIFC date 2026.01.23  04:13:20
 running  168 mpi-ranks, on    1 nodes
 distrk:  each k-point on  168 cores,    1 groups
 distr:  one band on NCORE=   7 cores,   24 groups


--------------------------------------------------------------------------------------------------------


 INCAR:
   SYSTEM = SCF
   PREC = Accurate
   LORBIT = 11
   ENCUT = 600
   LCHARG = .FALSE.
   LWAVE = .FALSE.
   ALGO = Normal
   NELM = 150
   EDIFF = 1E-6
   EDIFFG = -1E-3
   SIGMA = 0.1
   ISMEAR = 0
   NSW = 0
   IBRION = -1
   NCORE = 7
   LREAL = Auto
   GGA = PE
   IVDW = 12
   LDIPOL = .TRUE.
   IDIPOL = 3
   DIPOL = 0.5 0.5 0.200879

 POTCAR:    PAW_PBE B 06Sep2000                   
 POTCAR:    PAW_PBE H 15Jun2001                   
 POTCAR:    PAW_PBE B 06Sep2000                   
   SHA256 =  a32ced30f5ae56fd4d10b4325ff17eb3e4e38ee0f4288bc219fb012fddfa6e97 B/POTCAR              
   COPYR  = (c) Copyright 06Sep2000 Georg Kresse                                                    
   COPYR  = This file is part of the software VASP. Any use, copying, and all other rights are regul
   COPYR  = If you do not have a valid VASP license, you may not use, copy or distribute this file. 
   VRHFIN =B: s2p1                                                                                  
   LEXCH  = PE                                                                                      
   EATOM  =    71.1703 eV,    5.2309 Ry                                                             
                                                                                                    
   TITEL  = PAW_PBE B 06Sep2000                                                                     
   LULTRA =        F    use ultrasoft PP ?                                                          
   IUNSCR =        1    unscreen: 0-lin 1-nonlin 2-no                                               
   RPACOR =    1.200    partial core radius                                                         
   POMASS =   10.811; ZVAL   =    3.000    mass and valenz                                          
   RCORE  =    1.700    outmost cutoff radius                                                       
   RWIGS  =    1.710; RWIGS  =    0.905    wigner-seitz radius (au A)                               
   ENMAX  =  318.614; ENMIN  =  238.960 eV                                                          
   ICORE  =        2    local potential                                                             
   LCOR   =        T    correct aug charges                                                         
   LPAW   =        T    paw PP                                                                      
   EAUG   =  535.514                                                                                
   DEXC   =    0.000                                                                                
   RMAX   =    1.732    core radius for proj-oper                                                   
   RAUG   =    1.300    factor for augmentation sphere                                              
   RDEP   =    1.757    radius for radial grids                                                     
   RDEPT  =    1.436    core radius for aug-charge                                                  
                                                                                                    
   Atomic configuration                                                                             
    4 entries                                                                                       
     n  l   j            E        occ.                                                              
     1  0  0.50      -180.5896   2.0000                                                             
     2  0  0.50        -9.4431   2.0000                                                             
     2  1  0.50        -3.6068   1.0000                                                             
     3  2  1.50        -4.0817   0.0000                                                             
   Description                                                                                      
     l       E           TYP  RCUT    TYP  RCUT                                                     
     0     -9.4430752     23  1.500                                                                 
     0      0.8675899     23  1.500                                                                 
     1     -3.6067955     23  1.700                                                                 
     1      6.1086146     23  1.700                                                                 
     2     -4.0817478      7  1.700                                                                 
  local pseudopotential read in
  partial core-charges read in
  partial kinetic energy density read in
  atomic valenz-charges read in
  non local Contribution for L=           0  read in
    real space projection operators read in
  non local Contribution for L=           0  read in
    real space projection operators read in
  non local Contribution for L=           1  read in
    real space projection operators read in
  non local Contribution for L=           1  read in
    real space projection operators read in
    PAW grid and wavefunctions read in
 
   number of l-projection  operators is LMAX  =           4
   number of lm-projection operators is LMMAX =           8
 
 POTCAR:    PAW_PBE H 15Jun2001                   
   SHA256 =  030f79b5d3ab3cf0e668861823c8fb652ff669f3e15e46930bd03bfd63a607b6 H/POTCAR              
   COPYR  = (c) Copyright 15Jun2001 Georg Kresse                                                    
   COPYR  = This file is part of the software VASP. Any use, copying, and all other rights are regul
   COPYR  = If you do not have a valid VASP license, you may not use, copy or distribute this file. 
   VRHFIN =H: ultrasoft test                                                                        
   LEXCH  = PE                                                                                      
   EATOM  =    12.4884 eV,    0.9179 Ry                                                             
                                                                                                    
   TITEL  = PAW_PBE H 15Jun2001                                                                     
   LULTRA =        F    use ultrasoft PP ?                                                          
   IUNSCR =        0    unscreen: 0-lin 1-nonlin 2-no                                               
   RPACOR =    0.000    partial core radius                                                         
   POMASS =    1.000; ZVAL   =    1.000    mass and valenz                                          
   RCORE  =    1.100    outmost cutoff radius                                                       
   RWIGS  =    0.700; RWIGS  =    0.370    wigner-seitz radius (au A)                               
   ENMAX  =  250.000; ENMIN  =  200.000 eV                                                          
   RCLOC  =    0.701    cutoff for local pot                                                        
   LCOR   =        T    correct aug charges                                                         
   LPAW   =        T    paw PP                                                                      
   EAUG   =  400.000                                                                                
   RMAX   =    1.123    core radius for proj-oper                                                   
   RAUG   =    1.200    factor for augmentation sphere                                              
   RDEP   =    1.112    radius for radial grids                                                     
   RDEPT  =    0.926    core radius for aug-charge                                                  
                                                                                                    
   Atomic configuration                                                                             
    2 entries                                                                                       
     n  l   j            E        occ.                                                              
     1  0  0.50        -6.4927   1.0000                                                             
     2  1  0.50        -3.4015   0.0000                                                             
   Description                                                                                      
     l       E           TYP  RCUT    TYP  RCUT                                                     
     0     -6.4927494     23  1.100                                                                 
     0      6.8029130     23  1.100                                                                 
     1     -4.0817478     23  1.100                                                                 
  local pseudopotential read in
  atomic valenz-charges read in
  non local Contribution for L=           0  read in
    real space projection operators read in
  non local Contribution for L=           0  read in
    real space projection operators read in
  non local Contribution for L=           1  read in
    real space projection operators read in
    PAW grid and wavefunctions read in
 
   number of l-projection  operators is LMAX  =           3
   number of lm-projection operators is LMMAX =           5
 
 Optimization of the real space projectors (new method)

 maximal supplied QI-value         = 22.11
 optimisation between [QCUT,QGAM] = [ 12.38, 24.98] = [ 42.93,174.79] Ry 
 Optimized for a Real-space Cutoff    1.03 Angstroem

   l    n(q)    QCUT    max X(q) W(low)/X(q) W(high)/X(q)  e(spline) 
   0      8    12.381    53.033    0.22E-03    0.47E-03    0.92E-07
   0      8    12.381    34.740    0.21E-03    0.46E-03    0.93E-07
   1      7    12.381    30.949    0.11E-03    0.42E-03    0.70E-07
   1      7    12.381    19.518    0.10E-03    0.38E-03    0.67E-07
 Optimization of the real space projectors (new method)

 maximal supplied QI-value         = 34.20
 optimisation between [QCUT,QGAM] = [ 12.31, 24.97] = [ 42.46,174.58] Ry 
 Optimized for a Real-space Cutoff    1.13 Angstroem

   l    n(q)    QCUT    max X(q) W(low)/X(q) W(high)/X(q)  e(spline) 
   0      8    12.313    19.460    0.10E-03    0.25E-03    0.27E-06
   0      8    12.313    12.209    0.92E-04    0.23E-03    0.26E-06
   1      8    12.313     4.655    0.24E-03    0.28E-03    0.15E-06
  PAW_PBE B 06Sep2000                   :
 energy of atom  1       EATOM=  -71.1703
 kinetic energy error for atom=    0.0007 (will be added to EATOM!!)
  PAW_PBE H 15Jun2001                   :
 energy of atom  2       EATOM=  -12.4884
 kinetic energy error for atom=    0.0004 (will be added to EATOM!!)
 
 
 POSCAR: generated by phonopy
  positions in direct lattice
  No initial velocities read in
 IVDW         = 12
 VDW_S6       =    1.0000
 VDW_S8       =    0.7875
 VDW_A1       =    0.4289
 VDW_A2       =    4.4407
 VDW_RADIUS   =   50.2022 A
 VDW_CNRADIUS =   21.1671 A


 exchange-correlation table for PE
   RHO(1)=    0.500       N(1)  =     2000
   RHO(2)=  100.500       N(2)  =     4000
 


--------------------------------------------------------------------------------------------------------


 ion  position               nearest neighbor table
   1  0.174  0.213  0.134- 235 1.64  73 1.67 217 1.69  19 1.71 181 1.84 145 1.86
   2  0.508  0.213  0.134- 236 1.64  74 1.67 218 1.69  20 1.71 182 1.84 146 1.86
   3  0.841  0.213  0.134- 237 1.64  75 1.67 219 1.69  21 1.71 183 1.84 147 1.86
   4  0.174  0.546  0.134- 238 1.64  76 1.67 220 1.69  22 1.71 184 1.84 148 1.86
   5  0.508  0.546  0.134- 239 1.64  77 1.67 221 1.69  23 1.71 185 1.84 149 1.86
   6  0.841  0.546  0.134- 240 1.64  78 1.67 222 1.69  24 1.71 186 1.84 150 1.86
   7  0.174  0.879  0.134- 241 1.64  79 1.67 223 1.69  25 1.71 187 1.84 151 1.86
   8  0.508  0.879  0.134- 242 1.64  80 1.67 224 1.69  26 1.71 188 1.84 152 1.86
   9  0.841  0.879  0.134- 243 1.64  81 1.67 225 1.69  27 1.71 189 1.84 153 1.86
  10  0.174  0.213  0.268- 244 1.64  82 1.67 226 1.69  28 1.71 154 1.84 190 1.86
  11  0.508  0.213  0.268- 245 1.64  83 1.67 227 1.69  29 1.71 155 1.84 191 1.86
  12  0.841  0.213  0.268- 246 1.64  84 1.67 228 1.69  30 1.71 156 1.84 192 1.86
  13  0.174  0.546  0.268- 247 1.64  85 1.67 229 1.69  31 1.71 157 1.84 193 1.86
  14  0.508  0.546  0.268- 248 1.64  86 1.67 230 1.69  32 1.71 158 1.84 194 1.86
  15  0.841  0.546  0.268- 249 1.64  87 1.67 231 1.69  33 1.71 159 1.84 195 1.86
  16  0.174  0.879  0.268- 250 1.64  88 1.67 232 1.69  34 1.71 160 1.84 196 1.86
  17  0.508  0.879  0.268- 251 1.64  89 1.67 233 1.69  35 1.71 161 1.84 197 1.86
  18  0.841  0.879  0.268- 252 1.64  90 1.67 234 1.69  36 1.71 162 1.84 198 1.86
  19  0.159  0.121  0.134- 217 1.64  91 1.67 235 1.69   1 1.71 163 1.84 199 1.86
  20  0.492  0.121  0.134- 218 1.64  92 1.67 236 1.69   2 1.71 164 1.84 200 1.86
  21  0.826  0.121  0.134- 219 1.64  93 1.67 237 1.69   3 1.71 165 1.84 201 1.86
  22  0.159  0.454  0.134- 220 1.64  94 1.67 238 1.69   4 1.71 166 1.84 202 1.86
  23  0.492  0.454  0.134- 221 1.64  95 1.67 239 1.69   5 1.71 167 1.84 203 1.86
  24  0.826  0.454  0.134- 222 1.64  96 1.67 240 1.69   6 1.71 168 1.84 204 1.86
  25  0.159  0.787  0.134- 223 1.64  97 1.67 241 1.69   7 1.71 169 1.84 205 1.86
  26  0.492  0.787  0.134- 224 1.64  98 1.67 242 1.69   8 1.71 170 1.84 206 1.86
  27  0.826  0.787  0.134- 225 1.64  99 1.67 243 1.69   9 1.71 171 1.84 207 1.86
  28  0.159  0.121  0.268- 226 1.64 100 1.67 244 1.69  10 1.71 208 1.84 172 1.86
  29  0.492  0.121  0.268- 227 1.64 101 1.67 245 1.69  11 1.71 209 1.84 173 1.86
  30  0.826  0.121  0.268- 228 1.64 102 1.67 246 1.69  12 1.71 210 1.84 174 1.86
  31  0.159  0.454  0.268- 229 1.64 103 1.67 247 1.69  13 1.71 211 1.84 175 1.86
  32  0.492  0.454  0.268- 230 1.64 104 1.67 248 1.69  14 1.71 212 1.84 176 1.86
  33  0.826  0.454  0.268- 231 1.64 105 1.67 249 1.69  15 1.71 213 1.84 177 1.86
  34  0.159  0.787  0.268- 232 1.64 106 1.67 250 1.69  16 1.71 214 1.84 178 1.86
  35  0.492  0.787  0.268- 233 1.64 107 1.67 251 1.69  17 1.71 215 1.84 179 1.86
  36  0.826  0.787  0.268- 234 1.64 108 1.67 252 1.69  18 1.71 216 1.84 180 1.86
  37  0.326  0.213  0.134- 235 1.64 109 1.67 218 1.69  56 1.71 181 1.84 145 1.86
  38  0.659  0.213  0.134- 236 1.64 110 1.67 219 1.69  57 1.71 182 1.84 146 1.86
  39  0.992  0.213  0.134- 237 1.64 111 1.67 217 1.69  55 1.71 183 1.84 147 1.86
  40  0.326  0.546  0.134- 238 1.64 112 1.67 221 1.69  59 1.71 184 1.84 148 1.86
  41  0.659  0.546  0.134- 239 1.64 113 1.67 222 1.69  60 1.71 185 1.84 149 1.86
  42  0.992  0.546  0.134- 240 1.64 114 1.67 220 1.69  58 1.71 186 1.84 150 1.86
  43  0.326  0.879  0.134- 241 1.64 115 1.67 224 1.69  62 1.71 187 1.84 151 1.86
  44  0.659  0.879  0.134- 242 1.64 116 1.67 225 1.69  63 1.71 188 1.84 152 1.86
  45  0.992  0.879  0.134- 243 1.64 117 1.67 223 1.69  61 1.71 189 1.84 153 1.86
  46  0.326  0.213  0.268- 244 1.64 118 1.67 227 1.69  65 1.71 154 1.85 190 1.86
  47  0.659  0.213  0.268- 245 1.64 119 1.67 228 1.69  66 1.71 155 1.84 191 1.86
  48  0.992  0.213  0.268- 246 1.64 120 1.67 226 1.69  64 1.71 156 1.84 192 1.86
  49  0.326  0.546  0.268- 247 1.64 121 1.67 230 1.69  68 1.71 157 1.84 193 1.86
  50  0.659  0.546  0.268- 248 1.64 122 1.67 231 1.69  69 1.71 158 1.84 194 1.86
  51  0.992  0.546  0.268- 249 1.64 123 1.67 229 1.69  67 1.71 159 1.84 195 1.86
  52  0.326  0.879  0.268- 250 1.64 124 1.67 233 1.69  71 1.71 160 1.84 196 1.86
  53  0.659  0.879  0.268- 251 1.64 125 1.67 234 1.69  72 1.71 161 1.84 197 1.86
  54  0.992  0.879  0.268- 252 1.64 126 1.67 232 1.69  70 1.71 162 1.84 198 1.86
  55  0.008  0.121  0.134- 217 1.64 127 1.67 237 1.69  39 1.71 163 1.84 199 1.86
  56  0.341  0.121  0.134- 218 1.64 128 1.67 235 1.69  37 1.71 164 1.84 200 1.86
  57  0.674  0.121  0.134- 219 1.64 129 1.67 236 1.69  38 1.71 165 1.84 201 1.86
  58  0.008  0.454  0.134- 220 1.64 130 1.67 240 1.69  42 1.71 166 1.84 202 1.86
  59  0.341  0.454  0.134- 221 1.64 131 1.67 238 1.69  40 1.71 167 1.84 203 1.86
  60  0.674  0.454  0.134- 222 1.64 132 1.67 239 1.69  41 1.71 168 1.84 204 1.86
  61  0.008  0.787  0.134- 223 1.64 133 1.67 243 1.69  45 1.71 169 1.84 205 1.86
  62  0.341  0.787  0.134- 224 1.64 134 1.67 241 1.69  43 1.71 170 1.84 206 1.86
  63  0.674  0.787  0.134- 225 1.64 135 1.67 242 1.69  44 1.71 171 1.84 207 1.86
  64  0.008  0.121  0.268- 226 1.64 136 1.67 246 1.69  48 1.71 208 1.84 172 1.86
  65  0.341  0.121  0.268- 227 1.64 137 1.67 244 1.69  46 1.71 209 1.84 173 1.86
  66  0.674  0.121  0.268- 228 1.64 138 1.67 245 1.69  47 1.71 210 1.84 174 1.86
  67  0.008  0.454  0.268- 229 1.64 139 1.67 249 1.69  51 1.71 211 1.84 175 1.86
  68  0.341  0.454  0.268- 230 1.64 140 1.67 247 1.69  49 1.71 212 1.84 176 1.86
  69  0.674  0.454  0.268- 231 1.64 141 1.67 248 1.69  50 1.71 213 1.84 177 1.86
  70  0.008  0.787  0.268- 232 1.64 142 1.67 252 1.69  54 1.71 214 1.84 178 1.86
  71  0.341  0.787  0.268- 233 1.64 143 1.67 250 1.69  52 1.71 215 1.84 179 1.86
  72  0.674  0.787  0.268- 234 1.64 144 1.67 251 1.69  53 1.71 216 1.84 180 1.86
  73  0.199  0.300  0.133-  94 1.66   1 1.67 109 1.73 181 1.80 145 1.81
  74  0.533  0.300  0.133-  95 1.66   2 1.67 110 1.73 182 1.80 146 1.81
  75  0.866  0.300  0.133-  96 1.66   3 1.67 111 1.73 183 1.80 147 1.81
  76  0.199  0.633  0.133-  97 1.66   4 1.67 112 1.73 184 1.80 148 1.81
  77  0.533  0.633  0.133-  98 1.66   5 1.67 113 1.73 185 1.80 149 1.81
  78  0.866  0.633  0.133-  99 1.66   6 1.67 114 1.73 186 1.80 150 1.81
  79  0.199  0.967  0.133-  91 1.66   7 1.67 115 1.73 187 1.80 151 1.81
  80  0.533  0.967  0.133-  92 1.66   8 1.67 116 1.73 188 1.80 152 1.81
  81  0.866  0.967  0.133-  93 1.66   9 1.67 117 1.73 189 1.80 153 1.81
  82  0.199  0.300  0.269- 103 1.66  10 1.67 118 1.73 154 1.80 190 1.81
  83  0.533  0.300  0.269- 104 1.66  11 1.67 119 1.73 155 1.80 191 1.81
  84  0.866  0.300  0.269- 105 1.66  12 1.67 120 1.73 156 1.80 192 1.81
  85  0.199  0.633  0.269- 106 1.66  13 1.67 121 1.73 157 1.80 193 1.81
  86  0.533  0.633  0.269- 107 1.66  14 1.67 122 1.73 158 1.80 194 1.81
  87  0.866  0.633  0.269- 108 1.66  15 1.67 123 1.73 159 1.80 195 1.81
  88  0.199  0.967  0.269- 100 1.66  16 1.67 124 1.73 160 1.80 196 1.81
  89  0.533  0.967  0.269- 101 1.66  17 1.67 125 1.73 161 1.80 197 1.81
  90  0.866  0.967  0.269- 102 1.66  18 1.67 126 1.73 162 1.80 198 1.81
  91  0.134  0.033  0.133-  79 1.66  19 1.67 127 1.73 163 1.80 199 1.81
  92  0.467  0.033  0.133-  80 1.66  20 1.67 128 1.73 164 1.80 200 1.81
  93  0.801  0.033  0.133-  81 1.66  21 1.67 129 1.73 165 1.80 201 1.81
  94  0.134  0.367  0.133-  73 1.66  22 1.67 130 1.73 166 1.80 202 1.81
  95  0.467  0.367  0.133-  74 1.66  23 1.67 131 1.73 167 1.80 203 1.81
  96  0.801  0.367  0.133-  75 1.66  24 1.67 132 1.73 168 1.80 204 1.81
  97  0.134  0.700  0.133-  76 1.66  25 1.67 133 1.73 169 1.80 205 1.81
  98  0.467  0.700  0.133-  77 1.66  26 1.67 134 1.73 170 1.80 206 1.81
  99  0.801  0.700  0.133-  78 1.66  27 1.67 135 1.73 171 1.80 207 1.81
 100  0.134  0.033  0.269-  88 1.66  28 1.67 136 1.73 208 1.80 172 1.81
 101  0.467  0.033  0.269-  89 1.66  29 1.67 137 1.73 209 1.80 173 1.81
 102  0.801  0.033  0.269-  90 1.66  30 1.67 138 1.73 210 1.80 174 1.81
 103  0.134  0.367  0.269-  82 1.66  31 1.67 139 1.73 211 1.80 175 1.81
 104  0.467  0.367  0.269-  83 1.66  32 1.67 140 1.73 212 1.80 176 1.81
 105  0.801  0.367  0.269-  84 1.66  33 1.67 141 1.73 213 1.80 177 1.81
 106  0.134  0.700  0.269-  85 1.66  34 1.67 142 1.73 214 1.80 178 1.81
 107  0.467  0.700  0.269-  86 1.66  35 1.67 143 1.73 215 1.80 179 1.81
 108  0.801  0.700  0.269-  87 1.66  36 1.67 144 1.73 216 1.80 180 1.81
 109  0.301  0.300  0.133- 131 1.66  37 1.67  73 1.73 181 1.80 145 1.81
 110  0.634  0.300  0.133- 132 1.66  38 1.67  74 1.73 182 1.80 146 1.81
 111  0.967  0.300  0.133- 130 1.66  39 1.67  75 1.73 183 1.80 147 1.81
 112  0.301  0.633  0.133- 134 1.66  40 1.67  76 1.73 184 1.80 148 1.81
 113  0.634  0.633  0.133- 135 1.66  41 1.67  77 1.73 185 1.80 149 1.81
 114  0.967  0.633  0.133- 133 1.66  42 1.67  78 1.73 186 1.80 150 1.81
 115  0.301  0.967  0.133- 128 1.66  43 1.67  79 1.73 187 1.80 151 1.81
 116  0.634  0.967  0.133- 129 1.66  44 1.67  80 1.73 188 1.80 152 1.81
 117  0.967  0.967  0.133- 127 1.66  45 1.67  81 1.73 189 1.80 153 1.81
 118  0.301  0.300  0.269- 140 1.66  46 1.67  82 1.73 154 1.80 190 1.81
 119  0.634  0.300  0.269- 141 1.66  47 1.67  83 1.73 155 1.80 191 1.81
 120  0.967  0.300  0.269- 139 1.66  48 1.67  84 1.73 156 1.80 192 1.81
 121  0.301  0.633  0.269- 143 1.66  49 1.67  85 1.73 157 1.80 193 1.81
 122  0.634  0.633  0.269- 144 1.66  50 1.67  86 1.73 158 1.80 194 1.81
 123  0.967  0.633  0.269- 142 1.66  51 1.67  87 1.73 159 1.80 195 1.81
 124  0.301  0.967  0.269- 137 1.66  52 1.67  88 1.73 160 1.80 196 1.81
 125  0.634  0.967  0.269- 138 1.66  53 1.67  89 1.73 161 1.80 197 1.81
 126  0.967  0.967  0.269- 136 1.66  54 1.67  90 1.73 162 1.80 198 1.81
 127  0.033  0.033  0.133- 117 1.66  55 1.67  91 1.73 163 1.80 199 1.81
 128  0.366  0.033  0.133- 115 1.66  56 1.67  92 1.73 164 1.80 200 1.81
 129  0.699  0.033  0.133- 116 1.66  57 1.67  93 1.73 165 1.80 201 1.81
 130  0.033  0.367  0.133- 111 1.66  58 1.67  94 1.73 166 1.80 202 1.81
 131  0.366  0.367  0.133- 109 1.66  59 1.67  95 1.73 167 1.80 203 1.81
 132  0.699  0.367  0.133- 110 1.66  60 1.67  96 1.73 168 1.80 204 1.81
 133  0.033  0.700  0.133- 114 1.66  61 1.67  97 1.73 169 1.80 205 1.81
 134  0.366  0.700  0.133- 112 1.66  62 1.67  98 1.73 170 1.80 206 1.81
 135  0.699  0.700  0.133- 113 1.66  63 1.67  99 1.73 171 1.80 207 1.81
 136  0.033  0.033  0.269- 126 1.66  64 1.67 100 1.73 208 1.80 172 1.81
 137  0.366  0.033  0.269- 124 1.66  65 1.67 101 1.73 209 1.80 173 1.81
 138  0.699  0.033  0.269- 125 1.66  66 1.67 102 1.73 210 1.80 174 1.81
 139  0.033  0.367  0.269- 120 1.66  67 1.67 103 1.73 211 1.80 175 1.81
 140  0.366  0.367  0.269- 118 1.66  68 1.67 104 1.73 212 1.80 176 1.81
 141  0.699  0.367  0.269- 119 1.66  69 1.67 105 1.73 213 1.80 177 1.81
 142  0.033  0.700  0.269- 123 1.66  70 1.67 106 1.73 214 1.80 178 1.81
 143  0.366  0.700  0.269- 121 1.66  71 1.67 107 1.73 215 1.80 179 1.81
 144  0.699  0.700  0.269- 122 1.66  72 1.67 108 1.73 216 1.80 180 1.81
 145  0.250  0.244  0.174- 190 1.65  73 1.81 109 1.81   1 1.86  37 1.86 235 1.99
 146  0.583  0.244  0.174- 191 1.65  74 1.81 110 1.81   2 1.86  38 1.86 236 1.99
 147  0.917  0.244  0.174- 192 1.65  75 1.81 111 1.81   3 1.86  39 1.86 237 1.99
 148  0.250  0.578  0.174- 193 1.65  76 1.81 112 1.81   4 1.86  40 1.86 238 1.99
 149  0.583  0.578  0.174- 194 1.65  77 1.81 113 1.81   5 1.86  41 1.86 239 1.99
 150  0.917  0.578  0.174- 195 1.65  78 1.81 114 1.81   6 1.86  42 1.86 240 1.99
 151  0.250  0.911  0.174- 196 1.65  79 1.81 115 1.81   7 1.86  43 1.86 241 1.99
 152  0.583  0.911  0.174- 197 1.65  80 1.81 116 1.81   8 1.86  44 1.86 242 1.99
 153  0.917  0.911  0.174- 198 1.65  81 1.81 117 1.81   9 1.86  45 1.86 243 1.99
 154  0.250  0.243  0.308- 280 1.19  82 1.80 118 1.80  10 1.84  46 1.85 244 1.96
 155  0.583  0.243  0.308- 281 1.19  83 1.80 119 1.80  11 1.84  47 1.84 245 1.97
 156  0.917  0.243  0.308- 282 1.19  84 1.80 120 1.80  12 1.84  48 1.84 246 1.97
 157  0.250  0.576  0.308- 283 1.19  85 1.80 121 1.80  13 1.84  49 1.84 247 1.97
 158  0.583  0.576  0.308- 284 1.19  86 1.80 122 1.80  14 1.84  50 1.84 248 1.97
 159  0.917  0.576  0.308- 285 1.19  87 1.80 123 1.80  15 1.84  51 1.84 249 1.97
 160  0.250  0.910  0.308- 286 1.19  88 1.80 124 1.80  16 1.84  52 1.84 250 1.97
 161  0.583  0.910  0.308- 287 1.19  89 1.80 125 1.80  17 1.84  53 1.84 251 1.97
 162  0.917  0.910  0.308- 288 1.19  90 1.80 126 1.80  18 1.84  54 1.84 252 1.97
 163  0.083  0.090  0.094- 253 1.19 127 1.80  91 1.80  55 1.84  19 1.84 217 1.97
 164  0.417  0.090  0.094- 254 1.19 128 1.80  92 1.80  56 1.84  20 1.84 218 1.97
 165  0.750  0.090  0.094- 255 1.19 129 1.80  93 1.80  57 1.84  21 1.84 219 1.97
 166  0.083  0.424  0.094- 256 1.19 130 1.80  94 1.80  58 1.84  22 1.84 220 1.97
 167  0.417  0.424  0.094- 257 1.19 131 1.80  95 1.80  59 1.84  23 1.84 221 1.97
 168  0.750  0.424  0.094- 258 1.19 132 1.80  96 1.80  60 1.84  24 1.84 222 1.97
 169  0.083  0.757  0.094- 259 1.19 133 1.80  97 1.80  61 1.84  25 1.84 223 1.97
 170  0.417  0.757  0.094- 260 1.19 134 1.80  98 1.80  62 1.84  26 1.84 224 1.97
 171  0.750  0.757  0.094- 261 1.19 135 1.80  99 1.80  63 1.84  27 1.84 225 1.97
 172  0.083  0.089  0.228- 199 1.65 136 1.81 100 1.81  64 1.86  28 1.86 226 1.99
 173  0.417  0.089  0.228- 200 1.65 137 1.81 101 1.81  65 1.86  29 1.86 227 1.99
 174  0.750  0.089  0.228- 201 1.65 138 1.81 102 1.81  66 1.86  30 1.86 228 1.99
 175  0.083  0.422  0.228- 202 1.65 139 1.81 103 1.81  67 1.86  31 1.86 229 1.99
 176  0.417  0.422  0.228- 203 1.65 140 1.81 104 1.81  68 1.86  32 1.86 230 1.99
 177  0.750  0.422  0.228- 204 1.65 141 1.81 105 1.81  69 1.86  33 1.86 231 1.99
 178  0.083  0.756  0.228- 205 1.65 142 1.81 106 1.81  70 1.86  34 1.86 232 1.99
 179  0.417  0.756  0.228- 206 1.65 143 1.81 107 1.81  71 1.86  35 1.86 233 1.99
 180  0.750  0.756  0.228- 207 1.65 144 1.81 108 1.81  72 1.86  36 1.86 234 1.99
 181  0.250  0.243  0.094- 262 1.19  73 1.80 109 1.80   1 1.84  37 1.84 235 1.97
 182  0.583  0.243  0.094- 263 1.19  74 1.80 110 1.80   2 1.84  38 1.84 236 1.97
 183  0.917  0.243  0.094- 264 1.19  75 1.80 111 1.80   3 1.84  39 1.84 237 1.97
 184  0.250  0.576  0.094- 265 1.19  76 1.80 112 1.80   4 1.84  40 1.84 238 1.97
 185  0.583  0.576  0.094- 266 1.19  77 1.80 113 1.80   5 1.84  41 1.84 239 1.97
 186  0.917  0.576  0.094- 267 1.19  78 1.80 114 1.80   6 1.84  42 1.84 240 1.97
 187  0.250  0.910  0.094- 268 1.19  79 1.80 115 1.80   7 1.84  43 1.84 241 1.97
 188  0.583  0.910  0.094- 269 1.19  80 1.80 116 1.80   8 1.84  44 1.84 242 1.97
 189  0.917  0.910  0.094- 270 1.19  81 1.80 117 1.80   9 1.84  45 1.84 243 1.97
 190  0.250  0.244  0.228- 145 1.65  82 1.81 118 1.81  10 1.86  46 1.86 244 1.99
 191  0.583  0.244  0.228- 146 1.65  83 1.81 119 1.81  11 1.86  47 1.86 245 1.99
 192  0.917  0.244  0.228- 147 1.65  84 1.81 120 1.81  12 1.86  48 1.86 246 1.99
 193  0.250  0.578  0.228- 148 1.65  85 1.81 121 1.81  13 1.86  49 1.86 247 1.99
 194  0.583  0.578  0.228- 149 1.65  86 1.81 122 1.81  14 1.86  50 1.86 248 1.99
 195  0.917  0.578  0.228- 150 1.65  87 1.81 123 1.81  15 1.86  51 1.86 249 1.99
 196  0.250  0.911  0.228- 151 1.65  88 1.81 124 1.81  16 1.86  52 1.86 250 1.99
 197  0.583  0.911  0.228- 152 1.65  89 1.81 125 1.81  17 1.86  53 1.86 251 1.99
 198  0.917  0.911  0.228- 153 1.65  90 1.81 126 1.81  18 1.86  54 1.86 252 1.99
 199  0.083  0.089  0.174- 172 1.65 127 1.81  91 1.81  55 1.86  19 1.86 217 1.99
 200  0.417  0.089  0.174- 173 1.65 128 1.81  92 1.81  56 1.86  20 1.86 218 1.99
 201  0.750  0.089  0.174- 174 1.65 129 1.81  93 1.81  57 1.86  21 1.86 219 1.99
 202  0.083  0.422  0.174- 175 1.65 130 1.81  94 1.81  58 1.86  22 1.86 220 1.99
 203  0.417  0.422  0.174- 176 1.65 131 1.81  95 1.81  59 1.86  23 1.86 221 1.99
 204  0.750  0.422  0.174- 177 1.65 132 1.81  96 1.81  60 1.86  24 1.86 222 1.99
 205  0.083  0.756  0.174- 178 1.65 133 1.81  97 1.81  61 1.86  25 1.86 223 1.99
 206  0.417  0.756  0.174- 179 1.65 134 1.81  98 1.81  62 1.86  26 1.86 224 1.99
 207  0.750  0.756  0.174- 180 1.65 135 1.81  99 1.81  63 1.86  27 1.86 225 1.99
 208  0.083  0.090  0.308- 271 1.19 136 1.80 100 1.80  64 1.84  28 1.84 226 1.97
 209  0.417  0.090  0.308- 272 1.19 137 1.80 101 1.80  65 1.84  29 1.84 227 1.97
 210  0.750  0.090  0.308- 273 1.19 138 1.80 102 1.80  66 1.84  30 1.84 228 1.97
 211  0.083  0.424  0.308- 274 1.19 139 1.80 103 1.80  67 1.84  31 1.84 229 1.97
 212  0.417  0.424  0.308- 275 1.19 140 1.80 104 1.80  68 1.84  32 1.84 230 1.97
 213  0.750  0.424  0.308- 276 1.19 141 1.80 105 1.80  69 1.84  33 1.84 231 1.97
 214  0.083  0.757  0.308- 277 1.19 142 1.80 106 1.80  70 1.84  34 1.84 232 1.97
 215  0.417  0.757  0.308- 278 1.19 143 1.80 107 1.80  71 1.84  35 1.84 233 1.97
 216  0.750  0.757  0.308- 279 1.19 144 1.80 108 1.80  72 1.84  36 1.84 234 1.97
 217  0.083  0.175  0.134-  55 1.64  19 1.64  39 1.69   1 1.69 163 1.97 199 1.99
 218  0.417  0.175  0.134-  56 1.64  20 1.64  37 1.69   2 1.69 164 1.97 200 1.99
 219  0.750  0.175  0.134-  57 1.64  21 1.64  38 1.69   3 1.69 165 1.97 201 1.99
 220  0.083  0.509  0.134-  58 1.64  22 1.64  42 1.69   4 1.69 166 1.97 202 1.99
 221  0.417  0.509  0.134-  59 1.64  23 1.64  40 1.69   5 1.69 167 1.97 203 1.99
 222  0.750  0.509  0.134-  60 1.64  24 1.64  41 1.69   6 1.69 168 1.97 204 1.99
 223  0.083  0.842  0.134-  61 1.64  25 1.64  45 1.69   7 1.69 169 1.97 205 1.99
 224  0.417  0.842  0.134-  62 1.64  26 1.64  43 1.69   8 1.69 170 1.97 206 1.99
 225  0.750  0.842  0.134-  63 1.64  27 1.64  44 1.69   9 1.69 171 1.97 207 1.99
 226  0.083  0.175  0.268-  64 1.64  28 1.64  48 1.69  10 1.69 208 1.97 172 1.99
 227  0.417  0.175  0.268-  65 1.64  29 1.64  46 1.69  11 1.69 209 1.97 173 1.99
 228  0.750  0.175  0.268-  66 1.64  30 1.64  47 1.69  12 1.69 210 1.97 174 1.99
 229  0.083  0.509  0.268-  67 1.64  31 1.64  51 1.69  13 1.69 211 1.97 175 1.99
 230  0.417  0.509  0.268-  68 1.64  32 1.64  49 1.69  14 1.69 212 1.97 176 1.99
 231  0.750  0.509  0.268-  69 1.64  33 1.64  50 1.69  15 1.69 213 1.97 177 1.99
 232  0.083  0.842  0.268-  70 1.64  34 1.64  54 1.69  16 1.69 214 1.97 178 1.99
 233  0.417  0.842  0.268-  71 1.64  35 1.64  52 1.69  17 1.69 215 1.97 179 1.99
 234  0.750  0.842  0.268-  72 1.64  36 1.64  53 1.69  18 1.69 216 1.97 180 1.99
 235  0.250  0.158  0.134-   1 1.64  37 1.64  19 1.69  56 1.69 181 1.97 145 1.99
 236  0.583  0.158  0.134-   2 1.64  38 1.64  20 1.69  57 1.69 182 1.97 146 1.99
 237  0.917  0.158  0.134-   3 1.64  39 1.64  21 1.69  55 1.69 183 1.97 147 1.99
 238  0.250  0.491  0.134-   4 1.64  40 1.64  22 1.69  59 1.69 184 1.97 148 1.99
 239  0.583  0.491  0.134-   5 1.64  41 1.64  23 1.69  60 1.69 185 1.97 149 1.99
 240  0.917  0.491  0.134-   6 1.64  42 1.64  24 1.69  58 1.69 186 1.97 150 1.99
 241  0.250  0.825  0.134-   7 1.64  43 1.64  25 1.69  62 1.69 187 1.97 151 1.99
 242  0.583  0.825  0.134-   8 1.64  44 1.64  26 1.69  63 1.69 188 1.97 152 1.99
 243  0.917  0.825  0.134-   9 1.64  45 1.64  27 1.69  61 1.69 189 1.97 153 1.99
 244  0.250  0.158  0.268-  10 1.64  46 1.64  28 1.69  65 1.69 154 1.96 190 1.99
 245  0.583  0.158  0.268-  11 1.64  47 1.64  29 1.69  66 1.69 155 1.97 191 1.99
 246  0.917  0.158  0.268-  12 1.64  48 1.64  30 1.69  64 1.69 156 1.97 192 1.99
 247  0.250  0.491  0.268-  13 1.64  49 1.64  31 1.69  68 1.69 157 1.97 193 1.99
 248  0.583  0.491  0.268-  14 1.64  50 1.64  32 1.69  69 1.69 158 1.97 194 1.99
 249  0.917  0.491  0.268-  15 1.64  51 1.64  33 1.69  67 1.69 159 1.97 195 1.99
 250  0.250  0.825  0.268-  16 1.64  52 1.64  34 1.69  71 1.69 160 1.97 196 1.99
 251  0.583  0.825  0.268-  17 1.64  53 1.64  35 1.69  72 1.69 161 1.97 197 1.99
 252  0.917  0.825  0.268-  18 1.64  54 1.64  36 1.69  70 1.69 162 1.97 198 1.99
 253  0.083  0.096  0.054- 163 1.19
 254  0.417  0.096  0.054- 164 1.19
 255  0.750  0.096  0.054- 165 1.19
 256  0.083  0.429  0.054- 166 1.19
 257  0.417  0.429  0.054- 167 1.19
 258  0.750  0.429  0.054- 168 1.19
 259  0.083  0.762  0.054- 169 1.19
 260  0.417  0.762  0.054- 170 1.19
 261  0.750  0.762  0.054- 171 1.19
 262  0.250  0.238  0.054- 181 1.19
 263  0.583  0.238  0.054- 182 1.19
 264  0.917  0.238  0.054- 183 1.19
 265  0.250  0.571  0.054- 184 1.19
 266  0.583  0.571  0.054- 185 1.19
 267  0.917  0.571  0.054- 186 1.19
 268  0.250  0.904  0.054- 187 1.19
 269  0.583  0.904  0.054- 188 1.19
 270  0.917  0.904  0.054- 189 1.19
 271  0.083  0.096  0.347- 208 1.19
 272  0.417  0.096  0.347- 209 1.19
 273  0.750  0.096  0.347- 210 1.19
 274  0.083  0.429  0.347- 211 1.19
 275  0.417  0.429  0.347- 212 1.19
 276  0.750  0.429  0.347- 213 1.19
 277  0.083  0.762  0.347- 214 1.19
 278  0.417  0.762  0.347- 215 1.19
 279  0.750  0.762  0.347- 216 1.19
 280  0.250  0.238  0.347- 154 1.19
 281  0.583  0.238  0.347- 155 1.19
 282  0.917  0.238  0.347- 156 1.19
 283  0.250  0.571  0.347- 157 1.19
 284  0.583  0.571  0.347- 158 1.19
 285  0.917  0.571  0.347- 159 1.19
 286  0.250  0.904  0.347- 160 1.19
 287  0.583  0.904  0.347- 161 1.19
 288  0.917  0.904  0.347- 162 1.19
 
  LATTYP: Found a simple orthorhombic cell.
 ALAT       =    17.0399881536
 B/A-ratio  =     1.0822386373
 C/A-ratio  =     1.7657357725
  
  Lattice vectors:
  
 A1 = (  17.0399881536,   0.0000000000,   0.0000000000)
 A2 = (   0.0000000000,  18.4413335590,   0.0000000000)
 A3 = (   0.0000000000,   0.0000000000,  30.0881166460)


Analysis of symmetry for initial positions (statically):
=====================================================================
 Subroutine PRICEL returns:
 Original cell was already a primitive cell.
 

 Routine SETGRP: Setting up the symmetry group for a 
 simple orthorhombic supercell.


 Subroutine GETGRP returns: Found  1 space group operations
 (whereof  1 operations were pure point group operations)
 out of a pool of  8 trial point group operations.


The static configuration has the point symmetry C_1 .


Analysis of symmetry for dynamics (positions and initial velocities):
=====================================================================
 Subroutine PRICEL returns:
 Original cell was already a primitive cell.
 

 Routine SETGRP: Setting up the symmetry group for a 
 simple orthorhombic supercell.


 Subroutine GETGRP returns: Found  1 space group operations
 (whereof  1 operations were pure point group operations)
 out of a pool of  8 trial point group operations.


The dynamic configuration has the point symmetry C_1 .


 Subroutine INISYM returns: Found  1 space group operations
 (whereof  1 operations are pure point group operations),
 and found     1 'primitive' translations


----------------------------------------------------------------------------------------

                                     Primitive cell                                     

  volume of cell :    9454.8929

  direct lattice vectors                    reciprocal lattice vectors
    17.039988154  0.000000000  0.000000000     0.058685487  0.000000000  0.000000000
     0.000000000 18.441333559  0.000000000     0.000000000  0.054226013  0.000000000
     0.000000000  0.000000000 30.088116646     0.000000000  0.000000000  0.033235713

  length of vectors
    17.039988154 18.441333559 30.088116646     0.058685487  0.054226013  0.033235713

  position of ions in fractional coordinates (direct lattice)
     0.174181531  0.212574317  0.133576343
     0.507514865  0.212574317  0.133576343
     0.840848198  0.212574317  0.133576343
     0.174181531  0.545907650  0.133576343
     0.507514865  0.545907650  0.133576343
     0.840848198  0.545907650  0.133576343
     0.174181531  0.879240984  0.133576343
     0.507514865  0.879240984  0.133576343
     0.840848198  0.879240984  0.133576343
     0.174181531  0.212574317  0.268180829
     0.507514865  0.212574317  0.268180829
     0.840848198  0.212574317  0.268180829
     0.174181531  0.545907650  0.268180829
     0.507514865  0.545907650  0.268180829
     0.840848198  0.545907650  0.268180829
     0.174181531  0.879240984  0.268180829
     0.507514865  0.879240984  0.268180829
     0.840848198  0.879240984  0.268180829
     0.159151802  0.120759016  0.133576343
     0.492485135  0.120759016  0.133576343
     0.825818469  0.120759016  0.133576343
     0.159151802  0.454092350  0.133576343
     0.492485135  0.454092350  0.133576343
     0.825818469  0.454092350  0.133576343
     0.159151802  0.787425683  0.133576343
     0.492485135  0.787425683  0.133576343
     0.825818469  0.787425683  0.133576343
     0.159151802  0.120759016  0.268180829
     0.492485135  0.120759016  0.268180829
     0.825818469  0.120759016  0.268180829
     0.159151802  0.454092350  0.268180829
     0.492485135  0.454092350  0.268180829
     0.825818469  0.454092350  0.268180829
     0.159151802  0.787425683  0.268180829
     0.492485135  0.787425683  0.268180829
     0.825818469  0.787425683  0.268180829
     0.325818469  0.212574317  0.133576343
     0.659151802  0.212574317  0.133576343
     0.992485135  0.212574317  0.133576343
     0.325818469  0.545907650  0.133576343
     0.659151802  0.545907650  0.133576343
     0.992485135  0.545907650  0.133576343
     0.325818469  0.879240984  0.133576343
     0.659151802  0.879240984  0.133576343
     0.992485135  0.879240984  0.133576343
     0.325818469  0.212574317  0.268180829
     0.659151802  0.212574317  0.268180829
     0.992485135  0.212574317  0.268180829
     0.325818469  0.545907650  0.268180829
     0.659151802  0.545907650  0.268180829
     0.992485135  0.545907650  0.268180829
     0.325818469  0.879240984  0.268180829
     0.659151802  0.879240984  0.268180829
     0.992485135  0.879240984  0.268180829
     0.007514865  0.120759016  0.133576343
     0.340848198  0.120759016  0.133576343
     0.674181531  0.120759016  0.133576343
     0.007514865  0.454092350  0.133576343
     0.340848198  0.454092350  0.133576343
     0.674181531  0.454092350  0.133576343
     0.007514865  0.787425683  0.133576343
     0.340848198  0.787425683  0.133576343
     0.674181531  0.787425683  0.133576343
     0.007514865  0.120759016  0.268180829
     0.340848198  0.120759016  0.268180829
     0.674181531  0.120759016  0.268180829
     0.007514865  0.454092350  0.268180829
     0.340848198  0.454092350  0.268180829
     0.674181531  0.454092350  0.268180829
     0.007514865  0.787425683  0.268180829
     0.340848198  0.787425683  0.268180829
     0.674181531  0.787425683  0.268180829
     0.199334485  0.300039698  0.132944581
     0.532667818  0.300039698  0.132944581
     0.866001151  0.300039698  0.132944581
     0.199334485  0.633373031  0.132944581
     0.532667818  0.633373031  0.132944581
     0.866001151  0.633373031  0.132944581
     0.199334485  0.966706364  0.132944581
     0.532667818  0.966706364  0.132944581
     0.866001151  0.966706364  0.132944581
     0.199334485  0.300039698  0.268812591
     0.532667818  0.300039698  0.268812591
     0.866001151  0.300039698  0.268812591
     0.199334485  0.633373031  0.268812591
     0.532667818  0.633373031  0.268812591
     0.866001151  0.633373031  0.268812591
     0.199334485  0.966706364  0.268812591
     0.532667818  0.966706364  0.268812591
     0.866001151  0.966706364  0.268812591
     0.133998849  0.033293633  0.132944581
     0.467332182  0.033293633  0.132944581
     0.800665515  0.033293633  0.132944581
     0.133998849  0.366626967  0.132944581
     0.467332182  0.366626967  0.132944581
     0.800665515  0.366626967  0.132944581
     0.133998849  0.699960300  0.132944581
     0.467332182  0.699960300  0.132944581
     0.800665515  0.699960300  0.132944581
     0.133998849  0.033293633  0.268812591
     0.467332182  0.033293633  0.268812591
     0.800665515  0.033293633  0.268812591
     0.133998849  0.366626967  0.268812591
     0.467332182  0.366626967  0.268812591
     0.800665515  0.366626967  0.268812591
     0.133998849  0.699960300  0.268812591
     0.467332182  0.699960300  0.268812591
     0.800665515  0.699960300  0.268812591
     0.300665515  0.300039698  0.132944581
     0.633998849  0.300039698  0.132944581
     0.967332182  0.300039698  0.132944581
     0.300665515  0.633373031  0.132944581
     0.633998849  0.633373031  0.132944581
     0.967332182  0.633373031  0.132944581
     0.300665515  0.966706364  0.132944581
     0.633998849  0.966706364  0.132944581
     0.967332182  0.966706364  0.132944581
     0.300665515  0.300039698  0.268812591
     0.633998849  0.300039698  0.268812591
     0.967332182  0.300039698  0.268812591
     0.300665515  0.633373031  0.268812591
     0.633998849  0.633373031  0.268812591
     0.967332182  0.633373031  0.268812591
     0.300665515  0.966706364  0.268812591
     0.633998849  0.966706364  0.268812591
     0.967332182  0.966706364  0.268812591
     0.032667818  0.033293633  0.132944581
     0.366001151  0.033293633  0.132944581
     0.699334485  0.033293633  0.132944581
     0.032667818  0.366626967  0.132944581
     0.366001151  0.366626967  0.132944581
     0.699334485  0.366626967  0.132944581
     0.032667818  0.699960300  0.132944581
     0.366001151  0.699960300  0.132944581
     0.699334485  0.699960300  0.132944581
     0.032667818  0.033293633  0.268812591
     0.366001151  0.033293633  0.268812591
     0.699334485  0.033293633  0.268812591
     0.032667818  0.366626967  0.268812591
     0.366001151  0.366626967  0.268812591
     0.699334485  0.366626967  0.268812591
     0.032667818  0.699960300  0.268812591
     0.366001151  0.699960300  0.268812591
     0.699334485  0.699960300  0.268812591
     0.250000000  0.244452054  0.173537855
     0.583333333  0.244452054  0.173537855
     0.916666667  0.244452054  0.173537855
     0.250000000  0.577785388  0.173537855
     0.583333333  0.577785388  0.173537855
     0.916666667  0.577785388  0.173537855
     0.250000000  0.911118721  0.173537855
     0.583333333  0.911118721  0.173537855
     0.916666667  0.911118721  0.173537855
     0.249601731  0.242532945  0.307767495
     0.583333333  0.242931215  0.307767495
     0.916666667  0.242931215  0.307767495
     0.250000000  0.576264548  0.307767495
     0.583333333  0.576264548  0.307767495
     0.916666667  0.576264548  0.307767495
     0.250000000  0.909597881  0.307767495
     0.583333333  0.909597881  0.307767495
     0.916666667  0.909597881  0.307767495
     0.083333333  0.090402119  0.093989678
     0.416666667  0.090402119  0.093989678
     0.750000000  0.090402119  0.093989678
     0.083333333  0.423735452  0.093989678
     0.416666667  0.423735452  0.093989678
     0.750000000  0.423735452  0.093989678
     0.083333333  0.757068785  0.093989678
     0.416666667  0.757068785  0.093989678
     0.750000000  0.757068785  0.093989678
     0.083333333  0.088881279  0.228219319
     0.416666667  0.088881279  0.228219319
     0.750000000  0.088881279  0.228219319
     0.083333333  0.422214612  0.228219319
     0.416666667  0.422214612  0.228219319
     0.750000000  0.422214612  0.228219319
     0.083333333  0.755547946  0.228219319
     0.416666667  0.755547946  0.228219319
     0.750000000  0.755547946  0.228219319
     0.250000000  0.242931215  0.093989678
     0.583333333  0.242931215  0.093989678
     0.916666667  0.242931215  0.093989678
     0.250000000  0.576264548  0.093989678
     0.583333333  0.576264548  0.093989678
     0.916666667  0.576264548  0.093989678
     0.250000000  0.909597881  0.093989678
     0.583333333  0.909597881  0.093989678
     0.916666667  0.909597881  0.093989678
     0.250000000  0.244452054  0.228219319
     0.583333333  0.244452054  0.228219319
     0.916666667  0.244452054  0.228219319
     0.250000000  0.577785388  0.228219319
     0.583333333  0.577785388  0.228219319
     0.916666667  0.577785388  0.228219319
     0.250000000  0.911118721  0.228219319
     0.583333333  0.911118721  0.228219319
     0.916666667  0.911118721  0.228219319
     0.083333333  0.088881279  0.173537855
     0.416666667  0.088881279  0.173537855
     0.750000000  0.088881279  0.173537855
     0.083333333  0.422214612  0.173537855
     0.416666667  0.422214612  0.173537855
     0.750000000  0.422214612  0.173537855
     0.083333333  0.755547946  0.173537855
     0.416666667  0.755547946  0.173537855
     0.750000000  0.755547946  0.173537855
     0.083333333  0.090402119  0.307767495
     0.416666667  0.090402119  0.307767495
     0.750000000  0.090402119  0.307767495
     0.083333333  0.423735452  0.307767495
     0.416666667  0.423735452  0.307767495
     0.750000000  0.423735452  0.307767495
     0.083333333  0.757068785  0.307767495
     0.416666667  0.757068785  0.307767495
     0.750000000  0.757068785  0.307767495
     0.083333333  0.175245459  0.133717215
     0.416666667  0.175245459  0.133717215
     0.750000000  0.175245459  0.133717215
     0.083333333  0.508578792  0.133717215
     0.416666667  0.508578792  0.133717215
     0.750000000  0.508578792  0.133717215
     0.083333333  0.841912125  0.133717215
     0.416666667  0.841912125  0.133717215
     0.750000000  0.841912125  0.133717215
     0.083333333  0.175245459  0.268039956
     0.416666667  0.175245459  0.268039956
     0.750000000  0.175245459  0.268039956
     0.083333333  0.508578792  0.268039956
     0.416666667  0.508578792  0.268039956
     0.750000000  0.508578792  0.268039956
     0.083333333  0.841912125  0.268039956
     0.416666667  0.841912125  0.268039956
     0.750000000  0.841912125  0.268039956
     0.250000000  0.158087865  0.133717215
     0.583333333  0.158087865  0.133717215
     0.916666667  0.158087865  0.133717215
     0.250000000  0.491421198  0.133717215
     0.583333333  0.491421198  0.133717215
     0.916666667  0.491421198  0.133717215
     0.250000000  0.824754532  0.133717215
     0.583333333  0.824754532  0.133717215
     0.916666667  0.824754532  0.133717215
     0.250000000  0.158087865  0.268039956
     0.583333333  0.158087865  0.268039956
     0.916666667  0.158087865  0.268039956
     0.250000000  0.491421198  0.268039956
     0.583333333  0.491421198  0.268039956
     0.916666667  0.491421198  0.268039956
     0.250000000  0.824754532  0.268039956
     0.583333333  0.824754532  0.268039956
     0.916666667  0.824754532  0.268039956
     0.083333333  0.095709005  0.054498269
     0.416666667  0.095709005  0.054498269
     0.750000000  0.095709005  0.054498269
     0.083333333  0.429042338  0.054498269
     0.416666667  0.429042338  0.054498269
     0.750000000  0.429042338  0.054498269
     0.083333333  0.762375672  0.054498269
     0.416666667  0.762375672  0.054498269
     0.750000000  0.762375672  0.054498269
     0.250000000  0.237624328  0.054498269
     0.583333333  0.237624328  0.054498269
     0.916666667  0.237624328  0.054498269
     0.250000000  0.570957662  0.054498269
     0.583333333  0.570957662  0.054498269
     0.916666667  0.570957662  0.054498269
     0.250000000  0.904290995  0.054498269
     0.583333333  0.904290995  0.054498269
     0.916666667  0.904290995  0.054498269
     0.083333333  0.095709005  0.347258905
     0.416666667  0.095709005  0.347258905
     0.750000000  0.095709005  0.347258905
     0.083333333  0.429042338  0.347258905
     0.416666667  0.429042338  0.347258905
     0.750000000  0.429042338  0.347258905
     0.083333333  0.762375672  0.347258905
     0.416666667  0.762375672  0.347258905
     0.750000000  0.762375672  0.347258905
     0.250000000  0.237624328  0.347258905
     0.583333333  0.237624328  0.347258905
     0.916666667  0.237624328  0.347258905
     0.250000000  0.570957662  0.347258905
     0.583333333  0.570957662  0.347258905
     0.916666667  0.570957662  0.347258905
     0.250000000  0.904290995  0.347258905
     0.583333333  0.904290995  0.347258905
     0.916666667  0.904290995  0.347258905

  ion indices of the primitive-cell ions
   primitive index   ion index
                 1           1
                 2           2
                 3           3
                 4           4
                 5           5
                 6           6
                 7           7
                 8           8
                 9           9
                10          10
                11          11
                12          12
                13          13
                14          14
                15          15
                16          16
                17          17
                18          18
                19          19
                20          20
                21          21
                22          22
                23          23
                24          24
                25          25
                26          26
                27          27
                28          28
                29          29
                30          30
                31          31
                32          32
                33          33
                34          34
                35          35
                36          36
                37          37
                38          38
                39          39
                40          40
                41          41
                42          42
                43          43
                44          44
                45          45
                46          46
                47          47
                48          48
                49          49
                50          50
                51          51
                52          52
                53          53
                54          54
                55          55
                56          56
                57          57
                58          58
                59          59
                60          60
                61          61
                62          62
                63          63
                64          64
                65          65
                66          66
                67          67
                68          68
                69          69
                70          70
                71          71
                72          72
                73          73
                74          74
                75          75
                76          76
                77          77
                78          78
                79          79
                80          80
                81          81
                82          82
                83          83
                84          84
                85          85
                86          86
                87          87
                88          88
                89          89
                90          90
                91          91
                92          92
                93          93
                94          94
                95          95
                96          96
                97          97
                98          98
                99          99
               100         100
               101         101
               102         102
               103         103
               104         104
               105         105
               106         106
               107         107
               108         108
               109         109
               110         110
               111         111
               112         112
               113         113
               114         114
               115         115
               116         116
               117         117
               118         118
               119         119
               120         120
               121         121
               122         122
               123         123
               124         124
               125         125
               126         126
               127         127
               128         128
               129         129
               130         130
               131         131
               132         132
               133         133
               134         134
               135         135
               136         136
               137         137
               138         138
               139         139
               140         140
               141         141
               142         142
               143         143
               144         144
               145         145
               146         146
               147         147
               148         148
               149         149
               150         150
               151         151
               152         152
               153         153
               154         154
               155         155
               156         156
               157         157
               158         158
               159         159
               160         160
               161         161
               162         162
               163         163
               164         164
               165         165
               166         166
               167         167
               168         168
               169         169
               170         170
               171         171
               172         172
               173         173
               174         174
               175         175
               176         176
               177         177
               178         178
               179         179
               180         180
               181         181
               182         182
               183         183
               184         184
               185         185
               186         186
               187         187
               188         188
               189         189
               190         190
               191         191
               192         192
               193         193
               194         194
               195         195
               196         196
               197         197
               198         198
               199         199
               200         200
               201         201
               202         202
               203         203
               204         204
               205         205
               206         206
               207         207
               208         208
               209         209
               210         210
               211         211
               212         212
               213         213
               214         214
               215         215
               216         216
               217         217
               218         218
               219         219
               220         220
               221         221
               222         222
               223         223
               224         224
               225         225
               226         226
               227         227
               228         228
               229         229
               230         230
               231         231
               232         232
               233         233
               234         234
               235         235
               236         236
               237         237
               238         238
               239         239
               240         240
               241         241
               242         242
               243         243
               244         244
               245         245
               246         246
               247         247
               248         248
               249         249
               250         250
               251         251
               252         252
               253         253
               254         254
               255         255
               256         256
               257         257
               258         258
               259         259
               260         260
               261         261
               262         262
               263         263
               264         264
               265         265
               266         266
               267         267
               268         268
               269         269
               270         270
               271         271
               272         272
               273         273
               274         274
               275         275
               276         276
               277         277
               278         278
               279         279
               280         280
               281         281
               282         282
               283         283
               284         284
               285         285
               286         286
               287         287
               288         288

----------------------------------------------------------------------------------------

 
 
 KPOINTS: k-points                                

Automatic generation of k-mesh.
 Grid dimensions read from file:
 generate k-points for:    4    3    1

 Generating k-lattice:

  Cartesian coordinates                     Fractional coordinates (reciprocal lattice)
     0.014671372  0.000000000  0.000000000     0.250000000  0.000000000  0.000000000
     0.000000000  0.018075338  0.000000000     0.000000000  0.333333333  0.000000000
     0.000000000  0.000000000  0.033235713     0.000000000  0.000000000  1.000000000

  Length of vectors
     0.014671372  0.018075338  0.033235713

  Shift w.r.t. Gamma in fractional coordinates (k-lattice)
     0.500000000  0.000000000  0.000000000

 
 Subroutine IBZKPT returns following result:
 ===========================================
 
 Found      6 irreducible k-points:
 
 Following reciprocal coordinates:
            Coordinates               Weight
  0.125000  0.000000  0.000000      2.000000
  0.375000  0.000000  0.000000      2.000000
  0.125000  0.333333  0.000000      2.000000
  0.125000 -0.333333  0.000000      2.000000
  0.375000  0.333333  0.000000      2.000000
  0.375000 -0.333333  0.000000      2.000000
 
 Following cartesian coordinates:
            Coordinates               Weight
  0.007336  0.000000  0.000000      2.000000
  0.022007  0.000000  0.000000      2.000000
  0.007336  0.018075  0.000000      2.000000
  0.007336 -0.018075  0.000000      2.000000
  0.022007  0.018075  0.000000      2.000000
  0.022007 -0.018075  0.000000      2.000000
 


--------------------------------------------------------------------------------------------------------




 Dimension of arrays:
   k-points           NKPTS =      6   k-points in BZ     NKDIM =      6   number of bands    NBANDS=    552
   number of dos      NEDOS =    301   number of ions     NIONS =    288
   non local maximal  LDIM  =      4   non local SUM 2l+1 LMDIM =      8
   total plane-waves  NPLWV = ******
   max r-space proj   IRMAX =   3247   max aug-charges    IRDMAX=   8511
   dimension x,y,z NGX =   140 NGY =  150 NGZ =  240
   dimension x,y,z NGXF=   280 NGYF=  300 NGZF=  480
   support grid    NGXF=   280 NGYF=  300 NGZF=  480
   ions per type =             252  36
   NGX,Y,Z   is equivalent  to a cutoff of  13.66, 13.52, 13.26 a.u.
   NGXF,Y,Z  is equivalent  to a cutoff of  27.32, 27.04, 26.52 a.u.

 SYSTEM =  SCF                                     
 POSCAR =  generated by phonopy                    

 Startparameter for this run:
   NWRITE =      2    write-flag & timer
   PREC   = accura    normal or accurate (medium, high low for compatibility)
   ISTART =      0    job   : 0-new  1-cont  2-samecut
   ICHARG =      2    charge: 1-file 2-atom 10-const
   ISPIN  =      1    spin polarized calculation?
   LNONCOLLINEAR =      F non collinear calculations
   LSORBIT =      F    spin-orbit coupling
   INIWAV =      1    electr: 0-lowe 1-rand  2-diag
   LASPH  =      F    aspherical Exc in radial PAW
 Electronic Relaxation 1
   ENCUT  =  600.0 eV  44.10 Ry    6.64 a.u.  34.03 36.83 60.09*2*pi/ulx,y,z
   ENINI  =  600.0     initial cutoff
   ENAUG  =  535.5 eV  augmentation charge cutoff
   NELM   =    150;   NELMIN=  2; NELMDL= -5     # of ELM steps 
   EDIFF  = 0.1E-05   stopping-criterion for ELM
   LREAL  =      T    real-space projection
   NLSPLINE    = F    spline interpolate recip. space projectors
   LCOMPAT=      F    compatible to vasp.4.4
   GGA_COMPAT  = T    GGA compatible to vasp.4.4-vasp.4.6
   LMAXPAW     = -100 max onsite density
   LMAXMIX     =    2 max onsite mixed and CHGCAR
   VOSKOWN=      0    Vosko Wilk Nusair interpolation
   ROPT   =   -0.00025  -0.00025
 Ionic relaxation
   EDIFFG = -.1E-02   stopping-criterion for IOM
   NSW    =      0    number of steps for IOM
   NBLOCK =      1;   KBLOCK =      1    inner block; outer block 
   IBRION =     -1    ionic relax: 0-MD 1-quasi-New 2-CG
   NFREE  =      0    steps in history (QN), initial steepest desc. (CG)
   ISIF   =      2    stress and relaxation
   IWAVPR =     10    prediction:  0-non 1-charg 2-wave 3-comb
   ISYM   =      2    0-nonsym 1-usesym 2-fastsym
   LCORR  =      T    Harris-Foulkes like correction to forces

   POTIM  = 0.5000    time-step for ionic-motion
   TEIN   =    0.0    initial temperature
   TEBEG  =    0.0;   TEEND  =   0.0 temperature during run
   SMASS  =  -3.00    Nose mass-parameter (am)
   estimated Nose-frequenzy (Omega)   =  0.10E-29 period in steps = 0.13E+47 mass=  -0.664E-26a.u.
   SCALEE = 1.0000    scale energy and forces
   NPACO  =    256;   APACO  = 10.0  distance and # of slots for P.C.
   PSTRESS=    0.0 pullay stress

  Mass of Ions in am
   POMASS =  10.81  1.00
  Ionic Valenz
   ZVAL   =   3.00  1.00
  Atomic Wigner-Seitz radii
   RWIGS  =  -1.00 -1.00
  virtual crystal weights 
   VCA    =   1.00  1.00
   NELECT =     792.0000    total number of electrons
   NUPDOWN=      -1.0000    fix difference up-down

 DOS related values:
   EMIN   =  10.00;   EMAX   =-10.00  energy-range for DOS
   EFERMI =   0.00;   METHOD = LEGACY      
   ISMEAR =     0;   SIGMA  =   0.10  broadening in eV -4-tet -1-fermi 0-gaus
   EFERMI_NEDOS =   21; number of points for ismear=-14 and -15

 Electronic relaxation 2 (details)
   IALGO  =     38    algorithm
   LDIAG  =      T    sub-space diagonalisation (order eigenvalues)
   LSUBROT=      F    optimize rotation matrix (better conditioning)
   LROBUST=      F    robust break criterion during scf (extrapolated energy error)
   ISEARCH=      0    line search for conjugate gradient (0, 1=use gradient)
   TURBO    =      0    0=normal 1=particle mesh
   IRESTART =      0    0=no restart 2=restart with 2 vectors
   NREBOOT  =      0    no. of reboots
   NMIN     =      0    reboot dimension
   EREF     =   0.00    reference energy to select bands
   IMIX   =      4    mixing-type and parameters
     AMIX     =   0.40;   BMIX     =  1.00
     AMIX_MAG =   1.60;   BMIX_MAG =  1.00
     AMIN     =   0.10
     WC   =   100.;   INIMIX=   1;  MIXPRE=   1;  MAXMIX= -45

 Intra band minimization:
   WEIMIN = 0.0000     energy-eigenvalue tresh-hold
   EBREAK =  0.45E-09  absolut break condition
   DEPER  =   0.30     relativ break condition  

   TIME   =   0.40     timestep for ELM

  volume/ion in A,a.u.               =      32.83       221.54
  Fermi-wavevector in a.u.,A,eV,Ry     =   0.716305  1.353619  6.981043  0.513092
  Thomas-Fermi vector in A             =   1.804691
 
 Write flags
   LWAVE        =      F    write WAVECAR
   LDOWNSAMPLE  =      F    k-point downsampling of WAVECAR
   LCHARG       =      F    write CHGCAR
   LVTOT        =      F    write LOCPOT, total local potential
   LVHAR        =      F    write LOCPOT, Hartree potential only
   WRT_POTENTIAL= false  ! write potential to hdf5 file
   LELF         =      F    write electronic localiz. function (ELF)
   LORBIT       =     11    0 simple, 1 ext, 2 COOP (PROOUT), +10 PAW based schemes


 Python interface
   PLUGINS active      =      F    recompile with -DPLUGINS to activate
 
 Dipole corrections
   LMONO      =      F    monopole corrections only (constant potential shift)
   LDIPOL     =      T    correct potential (dipole corrections)
   IDIPOL     =      3    1-x, 2-y, 3-z, 4-all directions 
   EPSILON    =  1.0000000 bulk dielectric constant
   LVACPOTAV  =      F  vacuum potentials using an averaging scheme for the charge density
   VACPOTFLAT =  0.1000000 required flatness to determine vacuum potential
 
Coulomb truncation method
  LTRUNCATE          =      F  Coulomb kernel truncation to be used

 
 Exchange correlation treatment:
   GGA     = PE    functional components
   XC_C    = 1    coefficients multiplying the functional components
   LIBXC   =     F    Libxc                    
   VOSKOWN =     0    Vosko Wilk Nusair interpolation
   LHFCALC =     F    Hartree Fock is set to
   LHFONE  =     F    Hartree Fock one center treatment
   AEXX    =    0.0000 exact exchange contribution

 Parameters of functionals:
   PE:
     No parameter
 
 Van der Waals corrections
   IVDW    =    12    specifies the selected vdW correction

 Linear response parameters
   LEPSILON=     F    determine dielectric tensor
   LRPA    =     F    only Hartree local field effects (RPA)
   LNABLA  =     F    use nabla operator in PAW spheres
   LVEL    =     F    velocity operator in full k-point grid
   CSHIFT  =0.1000    complex shift for real part using Kramers Kronig
   OMEGAMAX=  -1.0    maximum frequency
   DEG_THRESHOLD= 0.2000000E-02 threshold for treating states as degnerate
   RTIME   =   -0.100 relaxation time in fs
  (WPLASMAI=    0.000 imaginary part of plasma frequency in eV, 0.658/RTIME)
   DFIELD  = 0.0000000 0.0000000 0.0000000 field for delta impulse in time
 
  Optional k-point grid parameters
   LKPOINTS_OPT  =     F    use optional k-point grid
   KPOINTS_OPT_MODE=     1    mode for optional k-point grid
 
 Orbital magnetization related:
   ORBITALMAG=     F  switch on orbital magnetization
   LCHIMAG   =     F  perturbation theory with respect to B field
   DQ        =  0.001000  dq finite difference perturbation B field
   LLRAUG    =     F  two centre corrections for induced B field
   LBONE     =     F  B-component reconstruction in AE one-centre
   LVGVCALC  =     T  calculate vGv susceptibility
   LVGVAPPL  =     F  apply vGv susceptibility instead of pGv for G=0

 Random number generation:
   RANDOM_GENERATOR = DEFAULT
   PCG_SEED         = not used


--------------------------------------------------------------------------------------------------------


 Static calculation
 charge density and potential will be updated during run
 non-spin polarized calculation
 Variant of blocked Davidson
 Davidson routine will perform the subspace rotation
 perform sub-space diagonalisation
    after iterative eigenvector-optimisation
 modified Broyden-mixing scheme, WC =      100.0
 initial mixing is a Kerker type mixing with AMIX =  0.4000 and BMIX =      1.0000
 Hartree-type preconditioning will be used
 using additional bands          156
 real space projection scheme for non local part
 use partial core corrections
 calculate Harris-corrections to forces 
   (improved forces if not selfconsistent)
 use gradient corrections 
 use of overlap-Matrix (Vanderbilt PP)
 Gauss-broadening in eV      SIGMA  =   0.10


--------------------------------------------------------------------------------------------------------


  energy-cutoff  :      600.00
  volume of cell :     9454.89
      direct lattice vectors                 reciprocal lattice vectors
    17.039988154  0.000000000  0.000000000     0.058685487  0.000000000  0.000000000
     0.000000000 18.441333559  0.000000000     0.000000000  0.054226013  0.000000000
     0.000000000  0.000000000 30.088116646     0.000000000  0.000000000  0.033235713

  length of vectors
    17.039988154 18.441333559 30.088116646     0.058685487  0.054226013  0.033235713


 
 k-points in units of 2pi/SCALE and weight: k-points                                
   0.00733569  0.00000000  0.00000000       0.167
   0.02200706  0.00000000  0.00000000       0.167
   0.00733569  0.01807534  0.00000000       0.167
   0.00733569 -0.01807534  0.00000000       0.167
   0.02200706  0.01807534  0.00000000       0.167
   0.02200706 -0.01807534  0.00000000       0.167
 
 k-points in reciprocal lattice and weights: k-points                                
   0.12500000  0.00000000  0.00000000       0.167
   0.37500000  0.00000000  0.00000000       0.167
   0.12500000  0.33333333  0.00000000       0.167
   0.12500000 -0.33333333  0.00000000       0.167
   0.37500000  0.33333333  0.00000000       0.167
   0.37500000 -0.33333333  0.00000000       0.167
 
 position of ions in fractional coordinates (direct lattice) 
   0.17418153  0.21257432  0.13357634
   0.50751486  0.21257432  0.13357634
   0.84084820  0.21257432  0.13357634
   0.17418153  0.54590765  0.13357634
   0.50751486  0.54590765  0.13357634
   0.84084820  0.54590765  0.13357634
   0.17418153  0.87924098  0.13357634
   0.50751486  0.87924098  0.13357634
   0.84084820  0.87924098  0.13357634
   0.17418153  0.21257432  0.26818083
   0.50751486  0.21257432  0.26818083
   0.84084820  0.21257432  0.26818083
   0.17418153  0.54590765  0.26818083
   0.50751486  0.54590765  0.26818083
   0.84084820  0.54590765  0.26818083
   0.17418153  0.87924098  0.26818083
   0.50751486  0.87924098  0.26818083
   0.84084820  0.87924098  0.26818083
   0.15915180  0.12075902  0.13357634
   0.49248514  0.12075902  0.13357634
   0.82581847  0.12075902  0.13357634
   0.15915180  0.45409235  0.13357634
   0.49248514  0.45409235  0.13357634
   0.82581847  0.45409235  0.13357634
   0.15915180  0.78742568  0.13357634
   0.49248514  0.78742568  0.13357634
   0.82581847  0.78742568  0.13357634
   0.15915180  0.12075902  0.26818083
   0.49248514  0.12075902  0.26818083
   0.82581847  0.12075902  0.26818083
   0.15915180  0.45409235  0.26818083
   0.49248514  0.45409235  0.26818083
   0.82581847  0.45409235  0.26818083
   0.15915180  0.78742568  0.26818083
   0.49248514  0.78742568  0.26818083
   0.82581847  0.78742568  0.26818083
   0.32581847  0.21257432  0.13357634
   0.65915180  0.21257432  0.13357634
   0.99248514  0.21257432  0.13357634
   0.32581847  0.54590765  0.13357634
   0.65915180  0.54590765  0.13357634
   0.99248514  0.54590765  0.13357634
   0.32581847  0.87924098  0.13357634
   0.65915180  0.87924098  0.13357634
   0.99248514  0.87924098  0.13357634
   0.32581847  0.21257432  0.26818083
   0.65915180  0.21257432  0.26818083
   0.99248514  0.21257432  0.26818083
   0.32581847  0.54590765  0.26818083
   0.65915180  0.54590765  0.26818083
   0.99248514  0.54590765  0.26818083
   0.32581847  0.87924098  0.26818083
   0.65915180  0.87924098  0.26818083
   0.99248514  0.87924098  0.26818083
   0.00751486  0.12075902  0.13357634
   0.34084820  0.12075902  0.13357634
   0.67418153  0.12075902  0.13357634
   0.00751486  0.45409235  0.13357634
   0.34084820  0.45409235  0.13357634
   0.67418153  0.45409235  0.13357634
   0.00751486  0.78742568  0.13357634
   0.34084820  0.78742568  0.13357634
   0.67418153  0.78742568  0.13357634
   0.00751486  0.12075902  0.26818083
   0.34084820  0.12075902  0.26818083
   0.67418153  0.12075902  0.26818083
   0.00751486  0.45409235  0.26818083
   0.34084820  0.45409235  0.26818083
   0.67418153  0.45409235  0.26818083
   0.00751486  0.78742568  0.26818083
   0.34084820  0.78742568  0.26818083
   0.67418153  0.78742568  0.26818083
   0.19933448  0.30003970  0.13294458
   0.53266782  0.30003970  0.13294458
   0.86600115  0.30003970  0.13294458
   0.19933448  0.63337303  0.13294458
   0.53266782  0.63337303  0.13294458
   0.86600115  0.63337303  0.13294458
   0.19933448  0.96670636  0.13294458
   0.53266782  0.96670636  0.13294458
   0.86600115  0.96670636  0.13294458
   0.19933448  0.30003970  0.26881259
   0.53266782  0.30003970  0.26881259
   0.86600115  0.30003970  0.26881259
   0.19933448  0.63337303  0.26881259
   0.53266782  0.63337303  0.26881259
   0.86600115  0.63337303  0.26881259
   0.19933448  0.96670636  0.26881259
   0.53266782  0.96670636  0.26881259
   0.86600115  0.96670636  0.26881259
   0.13399885  0.03329363  0.13294458
   0.46733218  0.03329363  0.13294458
   0.80066552  0.03329363  0.13294458
   0.13399885  0.36662697  0.13294458
   0.46733218  0.36662697  0.13294458
   0.80066552  0.36662697  0.13294458
   0.13399885  0.69996030  0.13294458
   0.46733218  0.69996030  0.13294458
   0.80066552  0.69996030  0.13294458
   0.13399885  0.03329363  0.26881259
   0.46733218  0.03329363  0.26881259
   0.80066552  0.03329363  0.26881259
   0.13399885  0.36662697  0.26881259
   0.46733218  0.36662697  0.26881259
   0.80066552  0.36662697  0.26881259
   0.13399885  0.69996030  0.26881259
   0.46733218  0.69996030  0.26881259
   0.80066552  0.69996030  0.26881259
   0.30066552  0.30003970  0.13294458
   0.63399885  0.30003970  0.13294458
   0.96733218  0.30003970  0.13294458
   0.30066552  0.63337303  0.13294458
   0.63399885  0.63337303  0.13294458
   0.96733218  0.63337303  0.13294458
   0.30066552  0.96670636  0.13294458
   0.63399885  0.96670636  0.13294458
   0.96733218  0.96670636  0.13294458
   0.30066552  0.30003970  0.26881259
   0.63399885  0.30003970  0.26881259
   0.96733218  0.30003970  0.26881259
   0.30066552  0.63337303  0.26881259
   0.63399885  0.63337303  0.26881259
   0.96733218  0.63337303  0.26881259
   0.30066552  0.96670636  0.26881259
   0.63399885  0.96670636  0.26881259
   0.96733218  0.96670636  0.26881259
   0.03266782  0.03329363  0.13294458
   0.36600115  0.03329363  0.13294458
   0.69933448  0.03329363  0.13294458
   0.03266782  0.36662697  0.13294458
   0.36600115  0.36662697  0.13294458
   0.69933448  0.36662697  0.13294458
   0.03266782  0.69996030  0.13294458
   0.36600115  0.69996030  0.13294458
   0.69933448  0.69996030  0.13294458
   0.03266782  0.03329363  0.26881259
   0.36600115  0.03329363  0.26881259
   0.69933448  0.03329363  0.26881259
   0.03266782  0.36662697  0.26881259
   0.36600115  0.36662697  0.26881259
   0.69933448  0.36662697  0.26881259
   0.03266782  0.69996030  0.26881259
   0.36600115  0.69996030  0.26881259
   0.69933448  0.69996030  0.26881259
   0.25000000  0.24445205  0.17353786
   0.58333333  0.24445205  0.17353786
   0.91666667  0.24445205  0.17353786
   0.25000000  0.57778539  0.17353786
   0.58333333  0.57778539  0.17353786
   0.91666667  0.57778539  0.17353786
   0.25000000  0.91111872  0.17353786
   0.58333333  0.91111872  0.17353786
   0.91666667  0.91111872  0.17353786
   0.24960173  0.24253295  0.30776750
   0.58333333  0.24293121  0.30776750
   0.91666667  0.24293121  0.30776750
   0.25000000  0.57626455  0.30776750
   0.58333333  0.57626455  0.30776750
   0.91666667  0.57626455  0.30776750
   0.25000000  0.90959788  0.30776750
   0.58333333  0.90959788  0.30776750
   0.91666667  0.90959788  0.30776750
   0.08333333  0.09040212  0.09398968
   0.41666667  0.09040212  0.09398968
   0.75000000  0.09040212  0.09398968
   0.08333333  0.42373545  0.09398968
   0.41666667  0.42373545  0.09398968
   0.75000000  0.42373545  0.09398968
   0.08333333  0.75706879  0.09398968
   0.41666667  0.75706879  0.09398968
   0.75000000  0.75706879  0.09398968
   0.08333333  0.08888128  0.22821932
   0.41666667  0.08888128  0.22821932
   0.75000000  0.08888128  0.22821932
   0.08333333  0.42221461  0.22821932
   0.41666667  0.42221461  0.22821932
   0.75000000  0.42221461  0.22821932
   0.08333333  0.75554795  0.22821932
   0.41666667  0.75554795  0.22821932
   0.75000000  0.75554795  0.22821932
   0.25000000  0.24293121  0.09398968
   0.58333333  0.24293121  0.09398968
   0.91666667  0.24293121  0.09398968
   0.25000000  0.57626455  0.09398968
   0.58333333  0.57626455  0.09398968
   0.91666667  0.57626455  0.09398968
   0.25000000  0.90959788  0.09398968
   0.58333333  0.90959788  0.09398968
   0.91666667  0.90959788  0.09398968
   0.25000000  0.24445205  0.22821932
   0.58333333  0.24445205  0.22821932
   0.91666667  0.24445205  0.22821932
   0.25000000  0.57778539  0.22821932
   0.58333333  0.57778539  0.22821932
   0.91666667  0.57778539  0.22821932
   0.25000000  0.91111872  0.22821932
   0.58333333  0.91111872  0.22821932
   0.91666667  0.91111872  0.22821932
   0.08333333  0.08888128  0.17353786
   0.41666667  0.08888128  0.17353786
   0.75000000  0.08888128  0.17353786
   0.08333333  0.42221461  0.17353786
   0.41666667  0.42221461  0.17353786
   0.75000000  0.42221461  0.17353786
   0.08333333  0.75554795  0.17353786
   0.41666667  0.75554795  0.17353786
   0.75000000  0.75554795  0.17353786
   0.08333333  0.09040212  0.30776750
   0.41666667  0.09040212  0.30776750
   0.75000000  0.09040212  0.30776750
   0.08333333  0.42373545  0.30776750
   0.41666667  0.42373545  0.30776750
   0.75000000  0.42373545  0.30776750
   0.08333333  0.75706879  0.30776750
   0.41666667  0.75706879  0.30776750
   0.75000000  0.75706879  0.30776750
   0.08333333  0.17524546  0.13371722
   0.41666667  0.17524546  0.13371722
   0.75000000  0.17524546  0.13371722
   0.08333333  0.50857879  0.13371722
   0.41666667  0.50857879  0.13371722
   0.75000000  0.50857879  0.13371722
   0.08333333  0.84191213  0.13371722
   0.41666667  0.84191213  0.13371722
   0.75000000  0.84191213  0.13371722
   0.08333333  0.17524546  0.26803996
   0.41666667  0.17524546  0.26803996
   0.75000000  0.17524546  0.26803996
   0.08333333  0.50857879  0.26803996
   0.41666667  0.50857879  0.26803996
   0.75000000  0.50857879  0.26803996
   0.08333333  0.84191213  0.26803996
   0.41666667  0.84191213  0.26803996
   0.75000000  0.84191213  0.26803996
   0.25000000  0.15808786  0.13371722
   0.58333333  0.15808786  0.13371722
   0.91666667  0.15808786  0.13371722
   0.25000000  0.49142120  0.13371722
   0.58333333  0.49142120  0.13371722
   0.91666667  0.49142120  0.13371722
   0.25000000  0.82475453  0.13371722
   0.58333333  0.82475453  0.13371722
   0.91666667  0.82475453  0.13371722
   0.25000000  0.15808786  0.26803996
   0.58333333  0.15808786  0.26803996
   0.91666667  0.15808786  0.26803996
   0.25000000  0.49142120  0.26803996
   0.58333333  0.49142120  0.26803996
   0.91666667  0.49142120  0.26803996
   0.25000000  0.82475453  0.26803996
   0.58333333  0.82475453  0.26803996
   0.91666667  0.82475453  0.26803996
   0.08333333  0.09570900  0.05449827
   0.41666667  0.09570900  0.05449827
   0.75000000  0.09570900  0.05449827
   0.08333333  0.42904234  0.05449827
   0.41666667  0.42904234  0.05449827
   0.75000000  0.42904234  0.05449827
   0.08333333  0.76237567  0.05449827
   0.41666667  0.76237567  0.05449827
   0.75000000  0.76237567  0.05449827
   0.25000000  0.23762433  0.05449827
   0.58333333  0.23762433  0.05449827
   0.91666667  0.23762433  0.05449827
   0.25000000  0.57095766  0.05449827
   0.58333333  0.57095766  0.05449827
   0.91666667  0.57095766  0.05449827
   0.25000000  0.90429100  0.05449827
   0.58333333  0.90429100  0.05449827
   0.91666667  0.90429100  0.05449827
   0.08333333  0.09570900  0.34725890
   0.41666667  0.09570900  0.34725890
   0.75000000  0.09570900  0.34725890
   0.08333333  0.42904234  0.34725890
   0.41666667  0.42904234  0.34725890
   0.75000000  0.42904234  0.34725890
   0.08333333  0.76237567  0.34725890
   0.41666667  0.76237567  0.34725890
   0.75000000  0.76237567  0.34725890
   0.25000000  0.23762433  0.34725890
   0.58333333  0.23762433  0.34725890
   0.91666667  0.23762433  0.34725890
   0.25000000  0.57095766  0.34725890
   0.58333333  0.57095766  0.34725890
   0.91666667  0.57095766  0.34725890
   0.25000000  0.90429100  0.34725890
   0.58333333  0.90429100  0.34725890
   0.91666667  0.90429100  0.34725890
 
 position of ions in cartesian coordinates  (Angst):
   2.96805123  3.92015388  4.01906059
   8.64804728  3.92015388  4.01906059
  14.32804333  3.92015388  4.01906059
   2.96805123 10.06726507  4.01906059
   8.64804728 10.06726507  4.01906059
  14.32804333 10.06726507  4.01906059
   2.96805123 16.21437626  4.01906059
   8.64804728 16.21437626  4.01906059
  14.32804333 16.21437626  4.01906059
   2.96805123  3.92015388  8.06905606
   8.64804728  3.92015388  8.06905606
  14.32804333  3.92015388  8.06905606
   2.96805123 10.06726507  8.06905606
   8.64804728 10.06726507  8.06905606
  14.32804333 10.06726507  8.06905606
   2.96805123 16.21437626  8.06905606
   8.64804728 16.21437626  8.06905606
  14.32804333 16.21437626  8.06905606
   2.71194482  2.22695730  4.01906059
   8.39194087  2.22695730  4.01906059
  14.07193693  2.22695730  4.01906059
   2.71194482  8.37406849  4.01906059
   8.39194087  8.37406849  4.01906059
  14.07193693  8.37406849  4.01906059
   2.71194482 14.52117968  4.01906059
   8.39194087 14.52117968  4.01906059
  14.07193693 14.52117968  4.01906059
   2.71194482  2.22695730  8.06905606
   8.39194087  2.22695730  8.06905606
  14.07193693  2.22695730  8.06905606
   2.71194482  8.37406849  8.06905606
   8.39194087  8.37406849  8.06905606
  14.07193693  8.37406849  8.06905606
   2.71194482 14.52117968  8.06905606
   8.39194087 14.52117968  8.06905606
  14.07193693 14.52117968  8.06905606
   5.55194285  3.92015388  4.01906059
  11.23193890  3.92015388  4.01906059
  16.91193495  3.92015388  4.01906059
   5.55194285 10.06726507  4.01906059
  11.23193890 10.06726507  4.01906059
  16.91193495 10.06726507  4.01906059
   5.55194285 16.21437626  4.01906059
  11.23193890 16.21437626  4.01906059
  16.91193495 16.21437626  4.01906059
   5.55194285  3.92015388  8.06905606
  11.23193890  3.92015388  8.06905606
  16.91193495  3.92015388  8.06905606
   5.55194285 10.06726507  8.06905606
  11.23193890 10.06726507  8.06905606
  16.91193495 10.06726507  8.06905606
   5.55194285 16.21437626  8.06905606
  11.23193890 16.21437626  8.06905606
  16.91193495 16.21437626  8.06905606
   0.12805320  2.22695730  4.01906059
   5.80804925  2.22695730  4.01906059
  11.48804531  2.22695730  4.01906059
   0.12805320  8.37406849  4.01906059
   5.80804925  8.37406849  4.01906059
  11.48804531  8.37406849  4.01906059
   0.12805320 14.52117968  4.01906059
   5.80804925 14.52117968  4.01906059
  11.48804531 14.52117968  4.01906059
   0.12805320  2.22695730  8.06905606
   5.80804925  2.22695730  8.06905606
  11.48804531  2.22695730  8.06905606
   0.12805320  8.37406849  8.06905606
   5.80804925  8.37406849  8.06905606
  11.48804531  8.37406849  8.06905606
   0.12805320 14.52117968  8.06905606
   5.80804925 14.52117968  8.06905606
  11.48804531 14.52117968  8.06905606
   3.39665726  5.53313214  4.00005206
   9.07665331  5.53313214  4.00005206
  14.75664936  5.53313214  4.00005206
   3.39665726 11.68024333  4.00005206
   9.07665331 11.68024333  4.00005206
  14.75664936 11.68024333  4.00005206
   3.39665726 17.82735452  4.00005206
   9.07665331 17.82735452  4.00005206
  14.75664936 17.82735452  4.00005206
   3.39665726  5.53313214  8.08806459
   9.07665331  5.53313214  8.08806459
  14.75664936  5.53313214  8.08806459
   3.39665726 11.68024333  8.08806459
   9.07665331 11.68024333  8.08806459
  14.75664936 11.68024333  8.08806459
   3.39665726 17.82735452  8.08806459
   9.07665331 17.82735452  8.08806459
  14.75664936 17.82735452  8.08806459
   2.28333879  0.61397900  4.00005206
   7.96333485  0.61397900  4.00005206
  13.64333090  0.61397900  4.00005206
   2.28333879  6.76109018  4.00005206
   7.96333485  6.76109018  4.00005206
  13.64333090  6.76109018  4.00005206
   2.28333879 12.90820137  4.00005206
   7.96333485 12.90820137  4.00005206
  13.64333090 12.90820137  4.00005206
   2.28333879  0.61397900  8.08806459
   7.96333485  0.61397900  8.08806459
  13.64333090  0.61397900  8.08806459
   2.28333879  6.76109018  8.08806459
   7.96333485  6.76109018  8.08806459
  13.64333090  6.76109018  8.08806459
   2.28333879 12.90820137  8.08806459
   7.96333485 12.90820137  8.08806459
  13.64333090 12.90820137  8.08806459
   5.12333682  5.53313214  4.00005206
  10.80333287  5.53313214  4.00005206
  16.48332892  5.53313214  4.00005206
   5.12333682 11.68024333  4.00005206
  10.80333287 11.68024333  4.00005206
  16.48332892 11.68024333  4.00005206
   5.12333682 17.82735452  4.00005206
  10.80333287 17.82735452  4.00005206
  16.48332892 17.82735452  4.00005206
   5.12333682  5.53313214  8.08806459
  10.80333287  5.53313214  8.08806459
  16.48332892  5.53313214  8.08806459
   5.12333682 11.68024333  8.08806459
  10.80333287 11.68024333  8.08806459
  16.48332892 11.68024333  8.08806459
   5.12333682 17.82735452  8.08806459
  10.80333287 17.82735452  8.08806459
  16.48332892 17.82735452  8.08806459
   0.55665923  0.61397900  4.00005206
   6.23665528  0.61397900  4.00005206
  11.91665133  0.61397900  4.00005206
   0.55665923  6.76109018  4.00005206
   6.23665528  6.76109018  4.00005206
  11.91665133  6.76109018  4.00005206
   0.55665923 12.90820137  4.00005206
   6.23665528 12.90820137  4.00005206
  11.91665133 12.90820137  4.00005206
   0.55665923  0.61397900  8.08806459
   6.23665528  0.61397900  8.08806459
  11.91665133  0.61397900  8.08806459
   0.55665923  6.76109018  8.08806459
   6.23665528  6.76109018  8.08806459
  11.91665133  6.76109018  8.08806459
   0.55665923 12.90820137  8.08806459
   6.23665528 12.90820137  8.08806459
  11.91665133 12.90820137  8.08806459
   4.25999704  4.50802188  5.22142723
   9.93999309  4.50802188  5.22142723
  15.61998914  4.50802188  5.22142723
   4.25999704 10.65513306  5.22142723
   9.93999309 10.65513306  5.22142723
  15.61998914 10.65513306  5.22142723
   4.25999704 16.80224425  5.22142723
   9.93999309 16.80224425  5.22142723
  15.61998914 16.80224425  5.22142723
   4.25321054  4.47263094  9.26014430
   9.93999309  4.47997556  9.26014430
  15.61998914  4.47997556  9.26014430
   4.25999704 10.62708675  9.26014430
   9.93999309 10.62708675  9.26014430
  15.61998914 10.62708675  9.26014430
   4.25999704 16.77419793  9.26014430
   9.93999309 16.77419793  9.26014430
  15.61998914 16.77419793  9.26014430
   1.41999901  1.66713563  2.82797241
   7.09999506  1.66713563  2.82797241
  12.77999111  1.66713563  2.82797241
   1.41999901  7.81424681  2.82797241
   7.09999506  7.81424681  2.82797241
  12.77999111  7.81424681  2.82797241
   1.41999901 13.96135800  2.82797241
   7.09999506 13.96135800  2.82797241
  12.77999111 13.96135800  2.82797241
   1.41999901  1.63908931  6.86668948
   7.09999506  1.63908931  6.86668948
  12.77999111  1.63908931  6.86668948
   1.41999901  7.78620050  6.86668948
   7.09999506  7.78620050  6.86668948
  12.77999111  7.78620050  6.86668948
   1.41999901 13.93331168  6.86668948
   7.09999506 13.93331168  6.86668948
  12.77999111 13.93331168  6.86668948
   4.25999704  4.47997556  2.82797241
   9.93999309  4.47997556  2.82797241
  15.61998914  4.47997556  2.82797241
   4.25999704 10.62708675  2.82797241
   9.93999309 10.62708675  2.82797241
  15.61998914 10.62708675  2.82797241
   4.25999704 16.77419793  2.82797241
   9.93999309 16.77419793  2.82797241
  15.61998914 16.77419793  2.82797241
   4.25999704  4.50802188  6.86668948
   9.93999309  4.50802188  6.86668948
  15.61998914  4.50802188  6.86668948
   4.25999704 10.65513306  6.86668948
   9.93999309 10.65513306  6.86668948
  15.61998914 10.65513306  6.86668948
   4.25999704 16.80224425  6.86668948
   9.93999309 16.80224425  6.86668948
  15.61998914 16.80224425  6.86668948
   1.41999901  1.63908931  5.22142723
   7.09999506  1.63908931  5.22142723
  12.77999111  1.63908931  5.22142723
   1.41999901  7.78620050  5.22142723
   7.09999506  7.78620050  5.22142723
  12.77999111  7.78620050  5.22142723
   1.41999901 13.93331168  5.22142723
   7.09999506 13.93331168  5.22142723
  12.77999111 13.93331168  5.22142723
   1.41999901  1.66713563  9.26014430
   7.09999506  1.66713563  9.26014430
  12.77999111  1.66713563  9.26014430
   1.41999901  7.81424681  9.26014430
   7.09999506  7.81424681  9.26014430
  12.77999111  7.81424681  9.26014430
   1.41999901 13.96135800  9.26014430
   7.09999506 13.96135800  9.26014430
  12.77999111 13.96135800  9.26014430
   1.41999901  3.23175996  4.02329917
   7.09999506  3.23175996  4.02329917
  12.77999111  3.23175996  4.02329917
   1.41999901  9.37887114  4.02329917
   7.09999506  9.37887114  4.02329917
  12.77999111  9.37887114  4.02329917
   1.41999901 15.52598233  4.02329917
   7.09999506 15.52598233  4.02329917
  12.77999111 15.52598233  4.02329917
   1.41999901  3.23175996  8.06481747
   7.09999506  3.23175996  8.06481747
  12.77999111  3.23175996  8.06481747
   1.41999901  9.37887114  8.06481747
   7.09999506  9.37887114  8.06481747
  12.77999111  9.37887114  8.06481747
   1.41999901 15.52598233  8.06481747
   7.09999506 15.52598233  8.06481747
  12.77999111 15.52598233  8.06481747
   4.25999704  2.91535105  4.02329917
   9.93999309  2.91535105  4.02329917
  15.61998914  2.91535105  4.02329917
   4.25999704  9.06246224  4.02329917
   9.93999309  9.06246224  4.02329917
  15.61998914  9.06246224  4.02329917
   4.25999704 15.20957342  4.02329917
   9.93999309 15.20957342  4.02329917
  15.61998914 15.20957342  4.02329917
   4.25999704  2.91535105  8.06481747
   9.93999309  2.91535105  8.06481747
  15.61998914  2.91535105  8.06481747
   4.25999704  9.06246224  8.06481747
   9.93999309  9.06246224  8.06481747
  15.61998914  9.06246224  8.06481747
   4.25999704 15.20957342  8.06481747
   9.93999309 15.20957342  8.06481747
  15.61998914 15.20957342  8.06481747
   1.41999901  1.76500168  1.63975028
   7.09999506  1.76500168  1.63975028
  12.77999111  1.76500168  1.63975028
   1.41999901  7.91211287  1.63975028
   7.09999506  7.91211287  1.63975028
  12.77999111  7.91211287  1.63975028
   1.41999901 14.05922406  1.63975028
   7.09999506 14.05922406  1.63975028
  12.77999111 14.05922406  1.63975028
   4.25999704  4.38210950  1.63975028
   9.93999309  4.38210950  1.63975028
  15.61998914  4.38210950  1.63975028
   4.25999704 10.52922069  1.63975028
   9.93999309 10.52922069  1.63975028
  15.61998914 10.52922069  1.63975028
   4.25999704 16.67633187  1.63975028
   9.93999309 16.67633187  1.63975028
  15.61998914 16.67633187  1.63975028
   1.41999901  1.76500168 10.44836643
   7.09999506  1.76500168 10.44836643
  12.77999111  1.76500168 10.44836643
   1.41999901  7.91211287 10.44836643
   7.09999506  7.91211287 10.44836643
  12.77999111  7.91211287 10.44836643
   1.41999901 14.05922406 10.44836643
   7.09999506 14.05922406 10.44836643
  12.77999111 14.05922406 10.44836643
   4.25999704  4.38210950 10.44836643
   9.93999309  4.38210950 10.44836643
  15.61998914  4.38210950 10.44836643
   4.25999704 10.52922069 10.44836643
   9.93999309 10.52922069 10.44836643
  15.61998914 10.52922069 10.44836643
   4.25999704 16.67633187 10.44836643
   9.93999309 16.67633187 10.44836643
  15.61998914 16.67633187 10.44836643
 


--------------------------------------------------------------------------------------------------------


 k-point     1 :   0.1250 0.0000 0.0000  plane waves:  315476
 k-point     2 :   0.3750 0.0000 0.0000  plane waves:  315550
 k-point     3 :   0.1250 0.3333 0.0000  plane waves:  315471
 k-point     4 :   0.1250-0.3333 0.0000  plane waves:  315471
 k-point     5 :   0.3750 0.3333 0.0000  plane waves:  315584
 k-point     6 :   0.3750-0.3333 0.0000  plane waves:  315584

 maximum and minimum number of plane-waves per node :     45161    45006

 maximum number of plane-waves:    315584
 maximum index in each direction: 
   IXMAX=   33   IYMAX=   37   IZMAX=   60
   IXMIN=  -34   IYMIN=  -37   IZMIN=  -60


 real space projection operators:
  total allocation   :      41826.89 KBytes
  max/ min on nodes  :       5995.09       5952.56


 parallel 3D FFT for wavefunctions:
    minimum data exchange during FFTs selected (reduces bandwidth)
 parallel 3D FFT for charge:
    minimum data exchange during FFTs selected (reduces bandwidth)


 total amount of memory used by VASP MPI-rank0   229218. kBytes
=======================================================================

   base                                    :      30000. kBytes
   nonlr-proj                              :      23128. kBytes
   fftplans                                :      30624. kBytes
   grid                                    :      45024. kBytes
   one-center                              :        129. kBytes
   wavefun                                 :     100313. kBytes
 
     INWAV:  cpu time      0.0000: real time      0.0000
 Broyden mixing: mesh for mixing (old mesh)
   NGX = 69   NGY = 73   NGZ =121
  (NGX  =280   NGY  =300   NGZ  =480)
  gives a total of 609477 points

 initial charge density was supplied:
 charge density of overlapping atoms calculated
 number of electron     792.0000000 magnetization 
 keeping initial charge density in first step


--------------------------------------------------------------------------------------------------------


 Maximum index for non-local projection operator          469
 Maximum index for augmentation-charges          469 (set IRDMAX)


--------------------------------------------------------------------------------------------------------


 First call to EWALD:  gamma=   0.084
 Maximum number of real-space cells   3x   3x   2
 Maximum number of reciprocal cells   2x   2x   4

    FEWALD:  cpu time      0.0243: real time      0.0244


--------------------------------------- Ionic step        1  -------------------------------------------




--------------------------------------- Iteration      1(   1)  ---------------------------------------


    POTLOK:  cpu time      0.3672: real time      0.3696
    SETDIJ:  cpu time      0.0062: real time      0.0062
     EDDAV:  cpu time     63.6838: real time     64.2695
       DOS:  cpu time      0.0006: real time      0.0006
    --------------------------------------------
      LOOP:  cpu time     64.0580: real time     64.6462

 eigenvalue-minimisations  :  6696
 total energy-change (2. order) : 0.6069986E+04  (-0.2971523E+05)
 number of electron     792.0000000 magnetization 
 augmentation part      792.0000000 magnetization 

 DIPCOR: dipole corrections for dipol
 direction  3 min pos   337,
 dipolmoment           0.000000      0.000000     -0.000018 electrons x Angstroem
 Tr[quadrupol]    -41680.575006

 energy correction for charged system         0.000000 eV
 dipol+quadrupol energy correction           -0.000000 eV
 added-field ion interaction          0.000007 eV  (added to PSCEN)


 Free energy of the ion-electron system (eV)
  ---------------------------------------------------
  alpha Z        PSCENC =       491.41331560
  Ewald energy   TEWEN  =    231142.47558413
  -Hartree energ DENC   =   -243396.87746444
  -exchange      EXHF   =         0.00000000
  -V(xc)+E(xc)   XCENC  =      1831.24524150
  PAW double counting   =     11038.79109509   -10823.57006860
  entropy T*S    EENTRO =        -0.35277649
  eigenvalues    EBANDS =     -2597.44569849
  atomic energy  EATOM  =     18384.30697324
  Solvation  Ediel_sol  =         0.00000000
  ---------------------------------------------------
  free energy    TOTEN  =      6069.98620155 eV

  energy without entropy =     6070.33897804  energy(sigma->0) =     6070.16258980


--------------------------------------------------------------------------------------------------------




--------------------------------------- Iteration      1(   2)  ---------------------------------------


     EDDAV:  cpu time     84.2430: real time     85.1096
       DOS:  cpu time      0.0007: real time      0.0007
    --------------------------------------------
      LOOP:  cpu time     84.2437: real time     85.1104

 eigenvalue-minimisations  :  9576
 total energy-change (2. order) :-0.7082189E+04  (-0.6863896E+04)
 number of electron     792.0000000 magnetization 
 augmentation part      792.0000000 magnetization 

 DIPCOR: dipole corrections for dipol
 direction  3 min pos   337,
 dipolmoment           0.000000      0.000000     -0.000018 electrons x Angstroem
 Tr[quadrupol]    -41680.575006

 energy correction for charged system         0.000000 eV
 dipol+quadrupol energy correction           -0.000000 eV
 added-field ion interaction          0.000007 eV  (added to PSCEN)


 Free energy of the ion-electron system (eV)
  ---------------------------------------------------
  alpha Z        PSCENC =       491.41331560
  Ewald energy   TEWEN  =    231142.47558413
  -Hartree energ DENC   =   -243396.87746444
  -exchange      EXHF   =         0.00000000
  -V(xc)+E(xc)   XCENC  =      1831.24524150
  PAW double counting   =     11038.79109509   -10823.57006860
  entropy T*S    EENTRO =        -0.22562102
  eigenvalues    EBANDS =     -9679.76210485
  atomic energy  EATOM  =     18384.30697324
  Solvation  Ediel_sol  =         0.00000000
  ---------------------------------------------------
  free energy    TOTEN  =     -1012.20304933 eV

  energy without entropy =    -1011.97742832  energy(sigma->0) =    -1012.09023882


--------------------------------------------------------------------------------------------------------




--------------------------------------- Iteration      1(   3)  ---------------------------------------


     EDDAV:  cpu time     71.5552: real time     72.1712
       DOS:  cpu time      0.0007: real time      0.0007
    --------------------------------------------
      LOOP:  cpu time     71.5557: real time     72.1717

 eigenvalue-minimisations  :  7824
 total energy-change (2. order) :-0.8655705E+03  (-0.8546935E+03)
 number of electron     792.0000000 magnetization 
 augmentation part      792.0000000 magnetization 

 DIPCOR: dipole corrections for dipol
 direction  3 min pos   337,
 dipolmoment           0.000000      0.000000     -0.000018 electrons x Angstroem
 Tr[quadrupol]    -41680.575006

 energy correction for charged system         0.000000 eV
 dipol+quadrupol energy correction           -0.000000 eV
 added-field ion interaction          0.000007 eV  (added to PSCEN)


 Free energy of the ion-electron system (eV)
  ---------------------------------------------------
  alpha Z        PSCENC =       491.41331560
  Ewald energy   TEWEN  =    231142.47558413
  -Hartree energ DENC   =   -243396.87746444
  -exchange      EXHF   =         0.00000000
  -V(xc)+E(xc)   XCENC  =      1831.24524150
  PAW double counting   =     11038.79109509   -10823.57006860
  entropy T*S    EENTRO =        -0.28724909
  eigenvalues    EBANDS =    -10545.27093439
  atomic energy  EATOM  =     18384.30697324
  Solvation  Ediel_sol  =         0.00000000
  ---------------------------------------------------
  free energy    TOTEN  =     -1877.77350696 eV

  energy without entropy =    -1877.48625787  energy(sigma->0) =    -1877.62988241


--------------------------------------------------------------------------------------------------------




--------------------------------------- Iteration      1(   4)  ---------------------------------------


     EDDAV:  cpu time     79.1891: real time     79.8779
       DOS:  cpu time      0.0007: real time      0.0007
    --------------------------------------------
      LOOP:  cpu time     79.1898: real time     79.8786

 eigenvalue-minimisations  :  8856
 total energy-change (2. order) :-0.2605921E+02  (-0.2591248E+02)
 number of electron     792.0000000 magnetization 
 augmentation part      792.0000000 magnetization 

 DIPCOR: dipole corrections for dipol
 direction  3 min pos   337,
 dipolmoment           0.000000      0.000000     -0.000018 electrons x Angstroem
 Tr[quadrupol]    -41680.575006

 energy correction for charged system         0.000000 eV
 dipol+quadrupol energy correction           -0.000000 eV
 added-field ion interaction          0.000007 eV  (added to PSCEN)


 Free energy of the ion-electron system (eV)
  ---------------------------------------------------
  alpha Z        PSCENC =       491.41331560
  Ewald energy   TEWEN  =    231142.47558413
  -Hartree energ DENC   =   -243396.87746444
  -exchange      EXHF   =         0.00000000
  -V(xc)+E(xc)   XCENC  =      1831.24524150
  PAW double counting   =     11038.79109509   -10823.57006860
  entropy T*S    EENTRO =        -0.30097158
  eigenvalues    EBANDS =    -10571.31641811
  atomic energy  EATOM  =     18384.30697324
  Solvation  Ediel_sol  =         0.00000000
  ---------------------------------------------------
  free energy    TOTEN  =     -1903.83271317 eV

  energy without entropy =    -1903.53174159  energy(sigma->0) =    -1903.68222738


--------------------------------------------------------------------------------------------------------




--------------------------------------- Iteration      1(   5)  ---------------------------------------


     EDDAV:  cpu time     78.1142: real time     78.8446
       DOS:  cpu time      0.0007: real time      0.0007
    CHARGE:  cpu time      4.1432: real time      4.1769
    MIXING:  cpu time      0.0057: real time      0.0058
    --------------------------------------------
      LOOP:  cpu time     82.2636: real time     83.0277

 eigenvalue-minimisations  :  8688
 total energy-change (2. order) :-0.8215221E+00  (-0.8203267E+00)
 number of electron     791.9999994 magnetization 
 augmentation part       -1.4587867 magnetization 

 DIPCOR: dipole corrections for dipol
 direction  3 min pos   337,
 dipolmoment           0.000000      0.000000     -0.000018 electrons x Angstroem
 Tr[quadrupol]    -41680.575006

 energy correction for charged system         0.000000 eV
 dipol+quadrupol energy correction           -0.000000 eV
 added-field ion interaction          0.000007 eV  (added to PSCEN)


 Broyden mixing:
  rms(total) = 0.56664E+01    rms(broyden)= 0.56664E+01
  rms(prec ) = 0.59455E+01
  weight for this iteration     100.00

 Free energy of the ion-electron system (eV)
  ---------------------------------------------------
  alpha Z        PSCENC =       491.41331560
  Ewald energy   TEWEN  =    231142.47558413
  -Hartree energ DENC   =   -243396.87746444
  -exchange      EXHF   =         0.00000000
  -V(xc)+E(xc)   XCENC  =      1831.24524150
  PAW double counting   =     11038.79109509   -10823.57006860
  entropy T*S    EENTRO =        -0.30164663
  eigenvalues    EBANDS =    -10572.13726514
  atomic energy  EATOM  =     18384.30697324
  Solvation  Ediel_sol  =         0.00000000
  ---------------------------------------------------
  free energy    TOTEN  =     -1904.65423525 eV

  energy without entropy =    -1904.35258861  energy(sigma->0) =    -1904.50341193


--------------------------------------------------------------------------------------------------------




--------------------------------------- Iteration      1(   6)  ---------------------------------------


    POTLOK:  cpu time      0.3523: real time      0.3559
    SETDIJ:  cpu time      0.0049: real time      0.0050
     EDDAV:  cpu time     67.5133: real time     68.1080
       DOS:  cpu time      0.0006: real time      0.0006
    CHARGE:  cpu time      4.1267: real time      4.1602
    MIXING:  cpu time      0.0044: real time      0.0044
    --------------------------------------------
      LOOP:  cpu time     72.0023: real time     72.6341

 eigenvalue-minimisations  :  7272
 total energy-change (2. order) : 0.1097616E+03  (-0.1129377E+02)
 number of electron     791.9999993 magnetization 
 augmentation part       -1.8033468 magnetization 

 DIPCOR: dipole corrections for dipol
 direction  3 min pos   337,
 dipolmoment           0.000000      0.000000     -0.003156 electrons x Angstroem
 Tr[quadrupol]    -41698.551488

 energy correction for charged system         0.000000 eV
 dipol+quadrupol energy correction           -0.000000 eV
 added-field ion interaction          0.001267 eV  (added to PSCEN)


 Broyden mixing:
  rms(total) = 0.31753E+01    rms(broyden)= 0.31753E+01
  rms(prec ) = 0.33158E+01
  weight for this iteration     100.00

 eigenvalues of (default mixing * dielectric matrix)
  average eigenvalue GAMMA=   2.1445
  2.1445

 Free energy of the ion-electron system (eV)
  ---------------------------------------------------
  alpha Z        PSCENC =       491.41457554
  Ewald energy   TEWEN  =    231142.47558413
  -Hartree energ DENC   =   -244392.80964366
  -exchange      EXHF   =         0.00000000
  -V(xc)+E(xc)   XCENC  =      1866.10772134
  PAW double counting   =     27625.38010875   -27422.08834528
  entropy T*S    EENTRO =        -0.29261793
  eigenvalues    EBANDS =     -9489.38699494
  atomic energy  EATOM  =     18384.30697324
  Solvation  Ediel_sol  =         0.00000000
  ---------------------------------------------------
  free energy    TOTEN  =     -1794.89263880 eV

  energy without entropy =    -1794.60002087  energy(sigma->0) =    -1794.74632983


--------------------------------------------------------------------------------------------------------




--------------------------------------- Iteration      1(   7)  ---------------------------------------


    POTLOK:  cpu time      0.3690: real time      0.3722
    SETDIJ:  cpu time      0.0043: real time      0.0044
     EDDAV:  cpu time     70.5379: real time     71.1414
       DOS:  cpu time      0.0013: real time      0.0013
    CHARGE:  cpu time      4.1336: real time      4.1656
    MIXING:  cpu time      0.0047: real time      0.0047
    --------------------------------------------
      LOOP:  cpu time     75.0507: real time     75.6896

 eigenvalue-minimisations  :  7680
 total energy-change (2. order) : 0.3922685E+02  (-0.1302650E+02)
 number of electron     791.9999993 magnetization 
 augmentation part       -2.2353637 magnetization 

 DIPCOR: dipole corrections for dipol
 direction  3 min pos   337,
 dipolmoment           0.000000      0.000000     -0.009561 electrons x Angstroem
 Tr[quadrupol]    -41727.752276

 energy correction for charged system         0.000000 eV
 dipol+quadrupol energy correction           -0.000001 eV
 added-field ion interaction          0.003839 eV  (added to PSCEN)


 Broyden mixing:
  rms(total) = 0.64984E+00    rms(broyden)= 0.64983E+00
  rms(prec ) = 0.68824E+00
  weight for this iteration     100.00

 eigenvalues of (default mixing * dielectric matrix)
  average eigenvalue GAMMA=   1.9269
  1.7411  2.1128

 Free energy of the ion-electron system (eV)
  ---------------------------------------------------
  alpha Z        PSCENC =       491.41714652
  Ewald energy   TEWEN  =    231142.47558413
  -Hartree energ DENC   =   -245732.04664580
  -exchange      EXHF   =         0.00000000
  -V(xc)+E(xc)   XCENC  =      1915.65251388
  PAW double counting   =     61082.09752713   -60890.62814225
  entropy T*S    EENTRO =        -0.21603978
  eigenvalues    EBANDS =     -8148.72470574
  atomic energy  EATOM  =     18384.30697324
  Solvation  Ediel_sol  =         0.00000000
  ---------------------------------------------------
  free energy    TOTEN  =     -1755.66578866 eV

  energy without entropy =    -1755.44974888  energy(sigma->0) =    -1755.55776877


--------------------------------------------------------------------------------------------------------




--------------------------------------- Iteration      1(   8)  ---------------------------------------


    POTLOK:  cpu time      0.4585: real time      0.4641
    SETDIJ:  cpu time      0.0041: real time      0.0041
     EDDAV:  cpu time     74.2841: real time     74.9398
       DOS:  cpu time      0.0017: real time      0.0018
    CHARGE:  cpu time      4.1295: real time      4.1637
    MIXING:  cpu time      0.0046: real time      0.0046
    --------------------------------------------
      LOOP:  cpu time     78.8825: real time     79.5782

 eigenvalue-minimisations  :  8208
 total energy-change (2. order) : 0.7241154E-01  (-0.9876723E+00)
 number of electron     791.9999993 magnetization 
 augmentation part       -2.3581259 magnetization 

 DIPCOR: dipole corrections for dipol
 direction  3 min pos   337,
 dipolmoment           0.000000      0.000000     -0.003820 electrons x Angstroem
 Tr[quadrupol]    -41739.252483

 energy correction for charged system         0.000000 eV
 dipol+quadrupol energy correction           -0.000000 eV
 added-field ion interaction          0.001534 eV  (added to PSCEN)


 Broyden mixing:
  rms(total) = 0.24692E+00    rms(broyden)= 0.24692E+00
  rms(prec ) = 0.27643E+00
  weight for this iteration     100.00

 eigenvalues of (default mixing * dielectric matrix)
  average eigenvalue GAMMA=   1.8871
  1.3169  2.5630  1.7813

 Free energy of the ion-electron system (eV)
  ---------------------------------------------------
  alpha Z        PSCENC =       491.41484214
  Ewald energy   TEWEN  =    231142.47558413
  -Hartree energ DENC   =   -245935.13262959
  -exchange      EXHF   =         0.00000000
  -V(xc)+E(xc)   XCENC  =      1919.76707914
  PAW double counting   =     66725.97581723   -66533.44382170
  entropy T*S    EENTRO =        -0.21706398
  eigenvalues    EBANDS =     -7950.74015774
  atomic energy  EATOM  =     18384.30697324
  Solvation  Ediel_sol  =         0.00000000
  ---------------------------------------------------
  free energy    TOTEN  =     -1755.59337712 eV

  energy without entropy =    -1755.37631314  energy(sigma->0) =    -1755.48484513


--------------------------------------------------------------------------------------------------------




--------------------------------------- Iteration      1(   9)  ---------------------------------------


    POTLOK:  cpu time      0.3660: real time      0.3691
    SETDIJ:  cpu time      0.0036: real time      0.0036
     EDDAV:  cpu time     75.9014: real time     76.5644
       DOS:  cpu time      0.0007: real time      0.0007
    CHARGE:  cpu time      4.1351: real time      4.1750
    MIXING:  cpu time      0.0056: real time      0.0056
    --------------------------------------------
      LOOP:  cpu time     80.4123: real time     81.1184

 eigenvalue-minimisations  :  8184
 total energy-change (2. order) : 0.1736862E+00  (-0.9853880E-01)
 number of electron     791.9999993 magnetization 
 augmentation part       -2.3621225 magnetization 

 DIPCOR: dipole corrections for dipol
 direction  3 min pos   337,
 dipolmoment           0.000000      0.000000     -0.010508 electrons x Angstroem
 Tr[quadrupol]    -41748.770404

 energy correction for charged system         0.000000 eV
 dipol+quadrupol energy correction           -0.000001 eV
 added-field ion interaction          0.004219 eV  (added to PSCEN)


 Broyden mixing:
  rms(total) = 0.10001E+00    rms(broyden)= 0.10001E+00
  rms(prec ) = 0.12651E+00
  weight for this iteration     100.00

 eigenvalues of (default mixing * dielectric matrix)
  average eigenvalue GAMMA=   1.7501
  2.3217  2.3217  0.9876  1.3695

 Free energy of the ion-electron system (eV)
  ---------------------------------------------------
  alpha Z        PSCENC =       491.41752651
  Ewald energy   TEWEN  =    231142.47558413
  -Hartree energ DENC   =   -246142.86796719
  -exchange      EXHF   =         0.00000000
  -V(xc)+E(xc)   XCENC  =      1924.24843270
  PAW double counting   =     69622.10441483   -69429.41084887
  entropy T*S    EENTRO =        -0.21741438
  eigenvalues    EBANDS =     -7747.47639187
  atomic energy  EATOM  =     18384.30697324
  Solvation  Ediel_sol  =         0.00000000
  ---------------------------------------------------
  free energy    TOTEN  =     -1755.41969089 eV

  energy without entropy =    -1755.20227651  energy(sigma->0) =    -1755.31098370


--------------------------------------------------------------------------------------------------------




--------------------------------------- Iteration      1(  10)  ---------------------------------------


    POTLOK:  cpu time      0.3783: real time      0.3817
    SETDIJ:  cpu time      0.0037: real time      0.0037
     EDDAV:  cpu time     73.3049: real time     73.9307
       DOS:  cpu time      0.0012: real time      0.0012
    CHARGE:  cpu time      4.1108: real time      4.1640
    MIXING:  cpu time      0.0129: real time      0.0130
    --------------------------------------------
      LOOP:  cpu time     77.8118: real time     78.4943

 eigenvalue-minimisations  :  8064
 total energy-change (2. order) : 0.1254061E-01  (-0.1766506E-01)
 number of electron     791.9999993 magnetization 
 augmentation part       -2.3579971 magnetization 

 DIPCOR: dipole corrections for dipol
 direction  3 min pos   337,
 dipolmoment           0.000000      0.000000      0.001681 electrons x Angstroem
 Tr[quadrupol]    -41753.326576

 energy correction for charged system         0.000000 eV
 dipol+quadrupol energy correction           -0.000000 eV
 added-field ion interaction         -0.000675 eV  (added to PSCEN)


 Broyden mixing:
  rms(total) = 0.56889E-01    rms(broyden)= 0.56889E-01
  rms(prec ) = 0.88051E-01
  weight for this iteration     100.00

 eigenvalues of (default mixing * dielectric matrix)
  average eigenvalue GAMMA=   1.6428
  2.4643  2.4643  1.2639  1.2639  0.7576

 Free energy of the ion-electron system (eV)
  ---------------------------------------------------
  alpha Z        PSCENC =       491.41263312
  Ewald energy   TEWEN  =    231142.47558413
  -Hartree energ DENC   =   -246217.86240176
  -exchange      EXHF   =         0.00000000
  -V(xc)+E(xc)   XCENC  =      1924.57519906
  PAW double counting   =     69084.97470662   -68891.97859989
  entropy T*S    EENTRO =        -0.21626021
  eigenvalues    EBANDS =     -7673.09498460
  atomic energy  EATOM  =     18384.30697324
  Solvation  Ediel_sol  =         0.00000000
  ---------------------------------------------------
  free energy    TOTEN  =     -1755.40715028 eV

  energy without entropy =    -1755.19089007  energy(sigma->0) =    -1755.29902018


--------------------------------------------------------------------------------------------------------




--------------------------------------- Iteration      1(  11)  ---------------------------------------


    POTLOK:  cpu time      0.3913: real time      0.3948
    SETDIJ:  cpu time      0.0045: real time      0.0045
     EDDAV:  cpu time     75.1549: real time     75.8017
       DOS:  cpu time      0.0007: real time      0.0007
    CHARGE:  cpu time      4.1158: real time      4.1765
    MIXING:  cpu time      0.0043: real time      0.0043
    --------------------------------------------
      LOOP:  cpu time     79.6715: real time     80.3825

 eigenvalue-minimisations  :  8304
 total energy-change (2. order) : 0.2183487E-01  (-0.1247749E-01)
 number of electron     791.9999993 magnetization 
 augmentation part       -2.3555325 magnetization 

 DIPCOR: dipole corrections for dipol
 direction  3 min pos   337,
 dipolmoment           0.000000      0.000000     -0.002560 electrons x Angstroem
 Tr[quadrupol]    -41756.617129

 energy correction for charged system         0.000000 eV
 dipol+quadrupol energy correction           -0.000000 eV
 added-field ion interaction          0.001028 eV  (added to PSCEN)


 Broyden mixing:
  rms(total) = 0.37439E-01    rms(broyden)= 0.37438E-01
  rms(prec ) = 0.61774E-01
  weight for this iteration     100.00

 eigenvalues of (default mixing * dielectric matrix)
  average eigenvalue GAMMA=   1.6462
  2.8497  2.5822  1.5109  1.5109  0.9448  0.4788

 Free energy of the ion-electron system (eV)
  ---------------------------------------------------
  alpha Z        PSCENC =       491.41433619
  Ewald energy   TEWEN  =    231142.47558413
  -Hartree energ DENC   =   -246275.87200100
  -exchange      EXHF   =         0.00000000
  -V(xc)+E(xc)   XCENC  =      1925.07334133
  PAW double counting   =     68982.08320975   -68788.99329905
  entropy T*S    EENTRO =        -0.21654966
  eigenvalues    EBANDS =     -7615.65691035
  atomic energy  EATOM  =     18384.30697324
  Solvation  Ediel_sol  =         0.00000000
  ---------------------------------------------------
  free energy    TOTEN  =     -1755.38531541 eV

  energy without entropy =    -1755.16876576  energy(sigma->0) =    -1755.27704059


--------------------------------------------------------------------------------------------------------




--------------------------------------- Iteration      1(  12)  ---------------------------------------


    POTLOK:  cpu time      0.3890: real time      0.3919
    SETDIJ:  cpu time      0.0043: real time      0.0043
     EDDAV:  cpu time     71.8252: real time     72.4486
       DOS:  cpu time      0.0053: real time      0.0053
    CHARGE:  cpu time      4.1265: real time      4.1594
    MIXING:  cpu time      0.0048: real time      0.0049
    --------------------------------------------
      LOOP:  cpu time     76.3551: real time     77.0143

 eigenvalue-minimisations  :  7824
 total energy-change (2. order) : 0.2428423E-01  (-0.9023915E-02)
 number of electron     791.9999993 magnetization 
 augmentation part       -2.3547877 magnetization 

 DIPCOR: dipole corrections for dipol
 direction  3 min pos   337,
 dipolmoment           0.000000      0.000000     -0.004207 electrons x Angstroem
 Tr[quadrupol]    -41762.330768

 energy correction for charged system         0.000000 eV
 dipol+quadrupol energy correction           -0.000000 eV
 added-field ion interaction          0.001690 eV  (added to PSCEN)


 Broyden mixing:
  rms(total) = 0.21281E-01    rms(broyden)= 0.21281E-01
  rms(prec ) = 0.33183E-01
  weight for this iteration     100.00

 eigenvalues of (default mixing * dielectric matrix)
  average eigenvalue GAMMA=   1.7244
  3.3017  2.3370  2.3370  1.4489  1.2751  0.9089  0.4622

 Free energy of the ion-electron system (eV)
  ---------------------------------------------------
  alpha Z        PSCENC =       491.41499755
  Ewald energy   TEWEN  =    231142.47558413
  -Hartree energ DENC   =   -246379.75259861
  -exchange      EXHF   =         0.00000000
  -V(xc)+E(xc)   XCENC  =      1926.16809196
  PAW double counting   =     69063.45018833   -68870.31547499
  entropy T*S    EENTRO =        -0.21802467
  eigenvalues    EBANDS =     -7512.89076813
  atomic energy  EATOM  =     18384.30697324
  Solvation  Ediel_sol  =         0.00000000
  ---------------------------------------------------
  free energy    TOTEN  =     -1755.36103118 eV

  energy without entropy =    -1755.14300651  energy(sigma->0) =    -1755.25201885


--------------------------------------------------------------------------------------------------------




--------------------------------------- Iteration      1(  13)  ---------------------------------------


    POTLOK:  cpu time      0.3981: real time      0.4013
    SETDIJ:  cpu time      0.0051: real time      0.0051
     EDDAV:  cpu time     73.2748: real time     73.9315
       DOS:  cpu time      0.0007: real time      0.0007
    CHARGE:  cpu time      4.1205: real time      4.1524
    MIXING:  cpu time      0.0050: real time      0.0050
    --------------------------------------------
      LOOP:  cpu time     77.8041: real time     78.4960

 eigenvalue-minimisations  :  7992
 total energy-change (2. order) :-0.1352680E-01  (-0.3253303E-02)
 number of electron     791.9999993 magnetization 
 augmentation part       -2.3580885 magnetization 

 DIPCOR: dipole corrections for dipol
 direction  3 min pos   337,
 dipolmoment           0.000000      0.000000      0.010084 electrons x Angstroem
 Tr[quadrupol]    -41766.199436

 energy correction for charged system         0.000000 eV
 dipol+quadrupol energy correction           -0.000001 eV
 added-field ion interaction         -0.004049 eV  (added to PSCEN)


 Broyden mixing:
  rms(total) = 0.13373E-01    rms(broyden)= 0.13373E-01
  rms(prec ) = 0.20585E-01
  weight for this iteration     100.00

 eigenvalues of (default mixing * dielectric matrix)
  average eigenvalue GAMMA=   1.7250
  4.0240  2.3779  2.3779  1.4354  1.4354  0.8427  0.8427  0.4643

 Free energy of the ion-electron system (eV)
  ---------------------------------------------------
  alpha Z        PSCENC =       491.40925776
  Ewald energy   TEWEN  =    231142.47558413
  -Hartree energ DENC   =   -246444.98127766
  -exchange      EXHF   =         0.00000000
  -V(xc)+E(xc)   XCENC  =      1926.58816939
  PAW double counting   =     68997.49195859   -68804.39960117
  entropy T*S    EENTRO =        -0.21919790
  eigenvalues    EBANDS =     -7448.04642437
  atomic energy  EATOM  =     18384.30697324
  Solvation  Ediel_sol  =         0.00000000
  ---------------------------------------------------
  free energy    TOTEN  =     -1755.37455798 eV

  energy without entropy =    -1755.15536008  energy(sigma->0) =    -1755.26495903


--------------------------------------------------------------------------------------------------------




--------------------------------------- Iteration      1(  14)  ---------------------------------------


    POTLOK:  cpu time      0.3879: real time      0.3913
    SETDIJ:  cpu time      0.0035: real time      0.0035
     EDDAV:  cpu time     68.7427: real time     69.3408
       DOS:  cpu time      0.0011: real time      0.0011
    CHARGE:  cpu time      4.1180: real time      4.1635
    MIXING:  cpu time      0.0048: real time      0.0048
    --------------------------------------------
      LOOP:  cpu time     73.2580: real time     73.9050

 eigenvalue-minimisations  :  7416
 total energy-change (2. order) :-0.7165596E-02  (-0.5952786E-03)
 number of electron     791.9999993 magnetization 
 augmentation part       -2.3583887 magnetization 

 DIPCOR: dipole corrections for dipol
 direction  3 min pos   337,
 dipolmoment           0.000000      0.000000     -0.001387 electrons x Angstroem
 Tr[quadrupol]    -41767.990600

 energy correction for charged system         0.000000 eV
 dipol+quadrupol energy correction           -0.000000 eV
 added-field ion interaction          0.000557 eV  (added to PSCEN)


 Broyden mixing:
  rms(total) = 0.92321E-02    rms(broyden)= 0.92320E-02
  rms(prec ) = 0.14240E-01
  weight for this iteration     100.00

 eigenvalues of (default mixing * dielectric matrix)
  average eigenvalue GAMMA=   1.6955
  4.4286  2.3938  2.3938  1.5046  1.5046  0.9048  0.9048  0.7580  0.4661

 Free energy of the ion-electron system (eV)
  ---------------------------------------------------
  alpha Z        PSCENC =       491.41386513
  Ewald energy   TEWEN  =    231142.47558413
  -Hartree energ DENC   =   -246472.94878831
  -exchange      EXHF   =         0.00000000
  -V(xc)+E(xc)   XCENC  =      1926.67490064
  PAW double counting   =     68943.09492534   -68749.98738678
  entropy T*S    EENTRO =        -0.21921656
  eigenvalues    EBANDS =     -7420.19258042
  atomic energy  EATOM  =     18384.30697324
  Solvation  Ediel_sol  =         0.00000000
  ---------------------------------------------------
  free energy    TOTEN  =     -1755.38172358 eV

  energy without entropy =    -1755.16250702  energy(sigma->0) =    -1755.27211530


--------------------------------------------------------------------------------------------------------




--------------------------------------- Iteration      1(  15)  ---------------------------------------


    POTLOK:  cpu time      0.3847: real time      0.3879
    SETDIJ:  cpu time      0.0034: real time      0.0034
     EDDAV:  cpu time     68.4450: real time     69.0210
       DOS:  cpu time      0.0007: real time      0.0007
    CHARGE:  cpu time      4.1352: real time      4.1680
    MIXING:  cpu time      0.0050: real time      0.0050
    --------------------------------------------
      LOOP:  cpu time     72.9741: real time     73.5860

 eigenvalue-minimisations  :  7392
 total energy-change (2. order) :-0.5950155E-02  (-0.2752387E-03)
 number of electron     791.9999993 magnetization 
 augmentation part       -2.3580712 magnetization 

 DIPCOR: dipole corrections for dipol
 direction  3 min pos   337,
 dipolmoment           0.000000      0.000000      0.002715 electrons x Angstroem
 Tr[quadrupol]    -41769.011085

 energy correction for charged system         0.000000 eV
 dipol+quadrupol energy correction           -0.000000 eV
 added-field ion interaction         -0.001090 eV  (added to PSCEN)


 Broyden mixing:
  rms(total) = 0.64035E-02    rms(broyden)= 0.64035E-02
  rms(prec ) = 0.10254E-01
  weight for this iteration     100.00

 eigenvalues of (default mixing * dielectric matrix)
  average eigenvalue GAMMA=   1.7451
  5.0100  2.6152  2.5147  1.5893  1.5893  1.1057  1.1057  0.9561  0.4656  0.4998

 Free energy of the ion-electron system (eV)
  ---------------------------------------------------
  alpha Z        PSCENC =       491.41221797
  Ewald energy   TEWEN  =    231142.47558413
  -Hartree energ DENC   =   -246488.27889002
  -exchange      EXHF   =         0.00000000
  -V(xc)+E(xc)   XCENC  =      1926.67993759
  PAW double counting   =     68926.81034286   -68733.68985261
  entropy T*S    EENTRO =        -0.21907798
  eigenvalues    EBANDS =     -7404.88490893
  atomic energy  EATOM  =     18384.30697324
  Solvation  Ediel_sol  =         0.00000000
  ---------------------------------------------------
  free energy    TOTEN  =     -1755.38767373 eV

  energy without entropy =    -1755.16859576  energy(sigma->0) =    -1755.27813475


--------------------------------------------------------------------------------------------------------




--------------------------------------- Iteration      1(  16)  ---------------------------------------


    POTLOK:  cpu time      0.3887: real time      0.3921
    SETDIJ:  cpu time      0.0037: real time      0.0037
     EDDAV:  cpu time     70.0143: real time     70.6760
       DOS:  cpu time      0.0007: real time      0.0007
    CHARGE:  cpu time      4.1361: real time      4.1678
    MIXING:  cpu time      0.0055: real time      0.0055
    --------------------------------------------
      LOOP:  cpu time     74.5489: real time     75.2458

 eigenvalue-minimisations  :  7608
 total energy-change (2. order) :-0.7598258E-02  (-0.1810606E-03)
 number of electron     791.9999993 magnetization 
 augmentation part       -2.3578500 magnetization 

 DIPCOR: dipole corrections for dipol
 direction  3 min pos   337,
 dipolmoment           0.000000      0.000000      0.007494 electrons x Angstroem
 Tr[quadrupol]    -41770.099659

 energy correction for charged system         0.000000 eV
 dipol+quadrupol energy correction           -0.000001 eV
 added-field ion interaction         -0.003009 eV  (added to PSCEN)


 Broyden mixing:
  rms(total) = 0.41268E-02    rms(broyden)= 0.41267E-02
  rms(prec ) = 0.65298E-02
  weight for this iteration     100.00

 eigenvalues of (default mixing * dielectric matrix)
  average eigenvalue GAMMA=   1.7282
  5.3792  2.8341  2.4711  1.6586  1.6586  1.1963  1.1963  0.9364  0.7323  0.4621
  0.4856

 Free energy of the ion-electron system (eV)
  ---------------------------------------------------
  alpha Z        PSCENC =       491.41029818
  Ewald energy   TEWEN  =    231142.47558413
  -Hartree energ DENC   =   -246504.88441899
  -exchange      EXHF   =         0.00000000
  -V(xc)+E(xc)   XCENC  =      1926.66924445
  PAW double counting   =     68927.38945445   -68734.26962292
  entropy T*S    EENTRO =        -0.21904679
  eigenvalues    EBANDS =     -7388.27373774
  atomic energy  EATOM  =     18384.30697324
  Solvation  Ediel_sol  =         0.00000000
  ---------------------------------------------------
  free energy    TOTEN  =     -1755.39527199 eV

  energy without entropy =    -1755.17622520  energy(sigma->0) =    -1755.28574860


--------------------------------------------------------------------------------------------------------




--------------------------------------- Iteration      1(  17)  ---------------------------------------


    POTLOK:  cpu time      0.3904: real time      0.3932
    SETDIJ:  cpu time      0.0034: real time      0.0034
     EDDAV:  cpu time     70.5839: real time     71.2711
       DOS:  cpu time      0.0007: real time      0.0007
    CHARGE:  cpu time      4.1198: real time      4.1591
    MIXING:  cpu time      0.0052: real time      0.0052
    --------------------------------------------
      LOOP:  cpu time     75.1033: real time     75.8329

 eigenvalue-minimisations  :  7680
 total energy-change (2. order) :-0.4169592E-02  (-0.4466512E-04)
 number of electron     791.9999993 magnetization 
 augmentation part       -2.3578080 magnetization 

 DIPCOR: dipole corrections for dipol
 direction  3 min pos   337,
 dipolmoment           0.000000      0.000000      0.001538 electrons x Angstroem
 Tr[quadrupol]    -41770.559311

 energy correction for charged system         0.000000 eV
 dipol+quadrupol energy correction           -0.000000 eV
 added-field ion interaction         -0.000617 eV  (added to PSCEN)


 Broyden mixing:
  rms(total) = 0.29140E-02    rms(broyden)= 0.29140E-02
  rms(prec ) = 0.45970E-02
  weight for this iteration     100.00

 eigenvalues of (default mixing * dielectric matrix)
  average eigenvalue GAMMA=   1.8223
  6.1347  3.2093  2.3819  2.1598  1.9273  1.3789  1.1600  0.9802  0.9802  0.6148
  0.4635  0.4764

 Free energy of the ion-electron system (eV)
  ---------------------------------------------------
  alpha Z        PSCENC =       491.41269077
  Ewald energy   TEWEN  =    231142.47558413
  -Hartree energ DENC   =   -246512.20302100
  -exchange      EXHF   =         0.00000000
  -V(xc)+E(xc)   XCENC  =      1926.65893025
  PAW double counting   =     68930.28436303   -68737.16652449
  entropy T*S    EENTRO =        -0.21908649
  eigenvalues    EBANDS =     -7380.94935104
  atomic energy  EATOM  =     18384.30697324
  Solvation  Ediel_sol  =         0.00000000
  ---------------------------------------------------
  free energy    TOTEN  =     -1755.39944158 eV

  energy without entropy =    -1755.18035510  energy(sigma->0) =    -1755.28989834


--------------------------------------------------------------------------------------------------------




--------------------------------------- Iteration      1(  18)  ---------------------------------------


    POTLOK:  cpu time      0.3899: real time      0.3932
    SETDIJ:  cpu time      0.0037: real time      0.0038
     EDDAV:  cpu time     68.6769: real time     69.3033
       DOS:  cpu time      0.0013: real time      0.0013
    CHARGE:  cpu time      4.1186: real time      4.1578
    MIXING:  cpu time      0.0060: real time      0.0060
    --------------------------------------------
      LOOP:  cpu time     73.1964: real time     73.8653

 eigenvalue-minimisations  :  7416
 total energy-change (2. order) :-0.6017834E-02  (-0.4321720E-04)
 number of electron     791.9999993 magnetization 
 augmentation part       -2.3577305 magnetization 

 DIPCOR: dipole corrections for dipol
 direction  3 min pos   337,
 dipolmoment           0.000000      0.000000      0.003342 electrons x Angstroem
 Tr[quadrupol]    -41771.048377

 energy correction for charged system         0.000000 eV
 dipol+quadrupol energy correction           -0.000000 eV
 added-field ion interaction         -0.001342 eV  (added to PSCEN)


 Broyden mixing:
  rms(total) = 0.16260E-02    rms(broyden)= 0.16260E-02
  rms(prec ) = 0.25716E-02
  weight for this iteration     100.00

 eigenvalues of (default mixing * dielectric matrix)
  average eigenvalue GAMMA=   1.8416
  6.4976  3.6684  2.4677  2.4677  1.5300  1.5300  1.2179  1.2179  0.9035  0.9035
  0.5974  0.4640  0.4752

 Free energy of the ion-electron system (eV)
  ---------------------------------------------------
  alpha Z        PSCENC =       491.41196592
  Ewald energy   TEWEN  =    231142.47558413
  -Hartree energ DENC   =   -246520.44016655
  -exchange      EXHF   =         0.00000000
  -V(xc)+E(xc)   XCENC  =      1926.64053028
  PAW double counting   =     68936.89122402   -68743.77038090
  entropy T*S    EENTRO =        -0.21911768
  eigenvalues    EBANDS =     -7372.70207188
  atomic energy  EATOM  =     18384.30697324
  Solvation  Ediel_sol  =         0.00000000
  ---------------------------------------------------
  free energy    TOTEN  =     -1755.40545942 eV

  energy without entropy =    -1755.18634174  energy(sigma->0) =    -1755.29590058


--------------------------------------------------------------------------------------------------------




--------------------------------------- Iteration      1(  19)  ---------------------------------------


    POTLOK:  cpu time      0.4107: real time      0.4138
    SETDIJ:  cpu time      0.0037: real time      0.0037
     EDDAV:  cpu time     69.8836: real time     70.5144
       DOS:  cpu time      0.0013: real time      0.0013
    CHARGE:  cpu time      4.1222: real time      4.1572
    MIXING:  cpu time      0.0058: real time      0.0058
    --------------------------------------------
      LOOP:  cpu time     74.4272: real time     75.0962

 eigenvalue-minimisations  :  7608
 total energy-change (2. order) :-0.2652136E-02  (-0.1271605E-04)
 number of electron     791.9999993 magnetization 
 augmentation part       -2.3578033 magnetization 

 DIPCOR: dipole corrections for dipol
 direction  3 min pos   337,
 dipolmoment           0.000000      0.000000      0.002617 electrons x Angstroem
 Tr[quadrupol]    -41771.179198

 energy correction for charged system         0.000000 eV
 dipol+quadrupol energy correction           -0.000000 eV
 added-field ion interaction         -0.001051 eV  (added to PSCEN)


 Broyden mixing:
  rms(total) = 0.12141E-02    rms(broyden)= 0.12141E-02
  rms(prec ) = 0.18245E-02
  weight for this iteration     100.00

 eigenvalues of (default mixing * dielectric matrix)
  average eigenvalue GAMMA=   1.8670
  6.7966  3.9953  2.5167  2.5167  1.7539  1.7539  1.2726  1.2726  0.9295  0.9295
  0.8567  0.6065  0.4638  0.4743

 Free energy of the ion-electron system (eV)
  ---------------------------------------------------
  alpha Z        PSCENC =       491.41225742
  Ewald energy   TEWEN  =    231142.47558413
  -Hartree energ DENC   =   -246522.94560130
  -exchange      EXHF   =         0.00000000
  -V(xc)+E(xc)   XCENC  =      1926.63353230
  PAW double counting   =     68939.80600408   -68746.68346686
  entropy T*S    EENTRO =        -0.21907573
  eigenvalues    EBANDS =     -7370.19431884
  atomic energy  EATOM  =     18384.30697324
  Solvation  Ediel_sol  =         0.00000000
  ---------------------------------------------------
  free energy    TOTEN  =     -1755.40811156 eV

  energy without entropy =    -1755.18903583  energy(sigma->0) =    -1755.29857369


--------------------------------------------------------------------------------------------------------




--------------------------------------- Iteration      1(  20)  ---------------------------------------


    POTLOK:  cpu time      0.3998: real time      0.4029
    SETDIJ:  cpu time      0.0047: real time      0.0047
     EDDAV:  cpu time     68.8543: real time     69.4810
       DOS:  cpu time      0.0052: real time      0.0052
    CHARGE:  cpu time      4.1304: real time      4.1641
    MIXING:  cpu time      0.0071: real time      0.0072
    --------------------------------------------
      LOOP:  cpu time     73.4015: real time     74.0651

 eigenvalue-minimisations  :  7464
 total energy-change (2. order) :-0.2237324E-02  (-0.8816723E-05)
 number of electron     791.9999993 magnetization 
 augmentation part       -2.3578390 magnetization 

 DIPCOR: dipole corrections for dipol
 direction  3 min pos   337,
 dipolmoment           0.000000      0.000000      0.002042 electrons x Angstroem
 Tr[quadrupol]    -41771.243663

 energy correction for charged system         0.000000 eV
 dipol+quadrupol energy correction           -0.000000 eV
 added-field ion interaction         -0.000820 eV  (added to PSCEN)


 Broyden mixing:
  rms(total) = 0.78605E-03    rms(broyden)= 0.78605E-03
  rms(prec ) = 0.11890E-02
  weight for this iteration     100.00

 eigenvalues of (default mixing * dielectric matrix)
  average eigenvalue GAMMA=   1.9143
  7.1700  4.5775  2.8739  2.4547  2.1519  1.7355  1.2554  1.2554  1.1279  0.9334
  0.9334  0.6866  0.6207  0.4638  0.4744

 Free energy of the ion-electron system (eV)
  ---------------------------------------------------
  alpha Z        PSCENC =       491.41248832
  Ewald energy   TEWEN  =    231142.47558413
  -Hartree energ DENC   =   -246524.71132900
  -exchange      EXHF   =         0.00000000
  -V(xc)+E(xc)   XCENC  =      1926.63960185
  PAW double counting   =     68940.02917504   -68746.90754972
  entropy T*S    EENTRO =        -0.21906085
  eigenvalues    EBANDS =     -7368.43623190
  atomic energy  EATOM  =     18384.30697324
  Solvation  Ediel_sol  =         0.00000000
  ---------------------------------------------------
  free energy    TOTEN  =     -1755.41034888 eV

  energy without entropy =    -1755.19128803  energy(sigma->0) =    -1755.30081845


--------------------------------------------------------------------------------------------------------




--------------------------------------- Iteration      1(  21)  ---------------------------------------


    POTLOK:  cpu time      0.4179: real time      0.4217
    SETDIJ:  cpu time      0.0037: real time      0.0037
     EDDAV:  cpu time     70.1064: real time     70.7077
       DOS:  cpu time      0.0013: real time      0.0013
    CHARGE:  cpu time      4.1186: real time      4.1754
    MIXING:  cpu time      0.0064: real time      0.0064
    --------------------------------------------
      LOOP:  cpu time     74.6542: real time     75.3163

 eigenvalue-minimisations  :  7584
 total energy-change (2. order) :-0.1532983E-02  (-0.6508723E-05)
 number of electron     791.9999993 magnetization 
 augmentation part       -2.3578809 magnetization 

 DIPCOR: dipole corrections for dipol
 direction  3 min pos   337,
 dipolmoment           0.000000      0.000000      0.001210 electrons x Angstroem
 Tr[quadrupol]    -41771.282412

 energy correction for charged system         0.000000 eV
 dipol+quadrupol energy correction           -0.000000 eV
 added-field ion interaction         -0.000486 eV  (added to PSCEN)


 Broyden mixing:
  rms(total) = 0.51963E-03    rms(broyden)= 0.51962E-03
  rms(prec ) = 0.76883E-03
  weight for this iteration     100.00

 eigenvalues of (default mixing * dielectric matrix)
  average eigenvalue GAMMA=   1.9094
  7.3551  5.0567  3.0985  2.4604  2.2561  1.5402  1.3403  1.3403  1.2736  0.9268
  0.9268  0.8596  0.4638  0.4746  0.6159  0.5626

 Free energy of the ion-electron system (eV)
  ---------------------------------------------------
  alpha Z        PSCENC =       491.41282211
  Ewald energy   TEWEN  =    231142.47558413
  -Hartree energ DENC   =   -246526.08100522
  -exchange      EXHF   =         0.00000000
  -V(xc)+E(xc)   XCENC  =      1926.64840289
  PAW double counting   =     68938.96003816   -68745.83964769
  entropy T*S    EENTRO =        -0.21907389
  eigenvalues    EBANDS =     -7367.07597559
  atomic energy  EATOM  =     18384.30697324
  Solvation  Ediel_sol  =         0.00000000
  ---------------------------------------------------
  free energy    TOTEN  =     -1755.41188186 eV

  energy without entropy =    -1755.19280797  energy(sigma->0) =    -1755.30234491


--------------------------------------------------------------------------------------------------------




--------------------------------------- Iteration      1(  22)  ---------------------------------------


    POTLOK:  cpu time      0.4005: real time      0.4035
    SETDIJ:  cpu time      0.0053: real time      0.0053
     EDDAV:  cpu time     71.4936: real time     72.1344
       DOS:  cpu time      0.0011: real time      0.0011
    CHARGE:  cpu time      4.1241: real time      4.1550
    MIXING:  cpu time      0.0066: real time      0.0066
    --------------------------------------------
      LOOP:  cpu time     76.0311: real time     76.7059

 eigenvalue-minimisations  :  7800
 total energy-change (2. order) :-0.5692605E-03  (-0.1997126E-05)
 number of electron     791.9999993 magnetization 
 augmentation part       -2.3579110 magnetization 

 DIPCOR: dipole corrections for dipol
 direction  3 min pos   337,
 dipolmoment           0.000000      0.000000      0.000979 electrons x Angstroem
 Tr[quadrupol]    -41771.292943

 energy correction for charged system         0.000000 eV
 dipol+quadrupol energy correction           -0.000000 eV
 added-field ion interaction         -0.000393 eV  (added to PSCEN)


 Broyden mixing:
  rms(total) = 0.38392E-03    rms(broyden)= 0.38392E-03
  rms(prec ) = 0.51892E-03
  weight for this iteration     100.00

 eigenvalues of (default mixing * dielectric matrix)
  average eigenvalue GAMMA=   1.9440
  7.6231  5.6317  3.3000  2.5325  2.1546  1.7940  1.7940  1.2753  1.2753  1.0176
  1.0176  0.9008  0.7043  0.6184  0.4641  0.4740  0.4704

 Free energy of the ion-electron system (eV)
  ---------------------------------------------------
  alpha Z        PSCENC =       491.41291524
  Ewald energy   TEWEN  =    231142.47558413
  -Hartree energ DENC   =   -246526.56857476
  -exchange      EXHF   =         0.00000000
  -V(xc)+E(xc)   XCENC  =      1926.65081010
  PAW double counting   =     68938.24391241   -68745.12365507
  entropy T*S    EENTRO =        -0.21908137
  eigenvalues    EBANDS =     -7366.59133505
  atomic energy  EATOM  =     18384.30697324
  Solvation  Ediel_sol  =         0.00000000
  ---------------------------------------------------
  free energy    TOTEN  =     -1755.41245112 eV

  energy without entropy =    -1755.19336975  energy(sigma->0) =    -1755.30291044


--------------------------------------------------------------------------------------------------------




--------------------------------------- Iteration      1(  23)  ---------------------------------------


    POTLOK:  cpu time      0.3815: real time      0.3845
    SETDIJ:  cpu time      0.0035: real time      0.0035
     EDDAV:  cpu time     67.5511: real time     68.1924
       DOS:  cpu time      0.0007: real time      0.0007
    CHARGE:  cpu time      4.1163: real time      4.1548
    MIXING:  cpu time      0.0064: real time      0.0065
    --------------------------------------------
      LOOP:  cpu time     72.0595: real time     72.7424

 eigenvalue-minimisations  :  7272
 total energy-change (2. order) :-0.4996684E-03  (-0.1397075E-05)
 number of electron     791.9999993 magnetization 
 augmentation part       -2.3579149 magnetization 

 DIPCOR: dipole corrections for dipol
 direction  3 min pos   337,
 dipolmoment           0.000000      0.000000      0.000951 electrons x Angstroem
 Tr[quadrupol]    -41771.297619

 energy correction for charged system         0.000000 eV
 dipol+quadrupol energy correction           -0.000000 eV
 added-field ion interaction         -0.000382 eV  (added to PSCEN)


 Broyden mixing:
  rms(total) = 0.20387E-03    rms(broyden)= 0.20387E-03
  rms(prec ) = 0.27124E-03
  weight for this iteration     100.00

 eigenvalues of (default mixing * dielectric matrix)
  average eigenvalue GAMMA=   1.9830
  8.1394  5.9972  3.5145  2.6889  2.2624  2.2624  1.6336  1.2424  1.2424  1.2123
  0.9614  0.9614  0.8905  0.6760  0.6055  0.4747  0.4640  0.4640

 Free energy of the ion-electron system (eV)
  ---------------------------------------------------
  alpha Z        PSCENC =       491.41292631
  Ewald energy   TEWEN  =    231142.47558413
  -Hartree energ DENC   =   -246526.87835469
  -exchange      EXHF   =         0.00000000
  -V(xc)+E(xc)   XCENC  =      1926.64982738
  PAW double counting   =     68937.64574483   -68744.52495302
  entropy T*S    EENTRO =        -0.21908183
  eigenvalues    EBANDS =     -7366.28161714
  atomic energy  EATOM  =     18384.30697324
  Solvation  Ediel_sol  =         0.00000000
  ---------------------------------------------------
  free energy    TOTEN  =     -1755.41295079 eV

  energy without entropy =    -1755.19386896  energy(sigma->0) =    -1755.30340988


--------------------------------------------------------------------------------------------------------




--------------------------------------- Iteration      1(  24)  ---------------------------------------


    POTLOK:  cpu time      0.3629: real time      0.3666
    SETDIJ:  cpu time      0.0042: real time      0.0043
     EDDAV:  cpu time     65.1941: real time     65.8871
       DOS:  cpu time      0.0007: real time      0.0007
    CHARGE:  cpu time      4.1058: real time      4.1684
    MIXING:  cpu time      0.0080: real time      0.0080
    --------------------------------------------
      LOOP:  cpu time     69.6758: real time     70.4351

 eigenvalue-minimisations  :  6960
 total energy-change (2. order) :-0.2590736E-03  (-0.6141217E-06)
 number of electron     791.9999993 magnetization 
 augmentation part       -2.3579148 magnetization 

 DIPCOR: dipole corrections for dipol
 direction  3 min pos   337,
 dipolmoment           0.000000      0.000000      0.000598 electrons x Angstroem
 Tr[quadrupol]    -41771.302326

 energy correction for charged system         0.000000 eV
 dipol+quadrupol energy correction           -0.000000 eV
 added-field ion interaction         -0.000240 eV  (added to PSCEN)


 Broyden mixing:
  rms(total) = 0.11022E-03    rms(broyden)= 0.11022E-03
  rms(prec ) = 0.13893E-03
  weight for this iteration     100.00

 eigenvalues of (default mixing * dielectric matrix)
  average eigenvalue GAMMA=   2.0102
  8.4886  6.1976  3.6844  2.8850  2.3965  2.1520  1.6334  1.6334  1.3164  1.2610
  1.0167  1.0167  0.9154  0.9154  0.6704  0.6051  0.4746  0.4638  0.4671

 Free energy of the ion-electron system (eV)
  ---------------------------------------------------
  alpha Z        PSCENC =       491.41306817
  Ewald energy   TEWEN  =    231142.47558413
  -Hartree energ DENC   =   -246527.04317880
  -exchange      EXHF   =         0.00000000
  -V(xc)+E(xc)   XCENC  =      1926.64815874
  PAW double counting   =     68937.66377577   -68744.54273204
  entropy T*S    EENTRO =        -0.21907765
  eigenvalues    EBANDS =     -7366.11578142
  atomic energy  EATOM  =     18384.30697324
  Solvation  Ediel_sol  =         0.00000000
  ---------------------------------------------------
  free energy    TOTEN  =     -1755.41320986 eV

  energy without entropy =    -1755.19413221  energy(sigma->0) =    -1755.30367104


--------------------------------------------------------------------------------------------------------




--------------------------------------- Iteration      1(  25)  ---------------------------------------


    POTLOK:  cpu time      0.3557: real time      0.3591
    SETDIJ:  cpu time      0.0057: real time      0.0057
     EDDAV:  cpu time     61.6370: real time     62.2599
       DOS:  cpu time      0.0013: real time      0.0013
    CHARGE:  cpu time      4.1209: real time      4.1577
    MIXING:  cpu time      0.0071: real time      0.0072
    --------------------------------------------
      LOOP:  cpu time     66.1277: real time     66.7909

 eigenvalue-minimisations  :  6432
 total energy-change (2. order) :-0.1021007E-03  (-0.1648798E-06)
 number of electron     791.9999993 magnetization 
 augmentation part       -2.3579100 magnetization 

 DIPCOR: dipole corrections for dipol
 direction  3 min pos   337,
 dipolmoment           0.000000      0.000000      0.000514 electrons x Angstroem
 Tr[quadrupol]    -41771.306352

 energy correction for charged system         0.000000 eV
 dipol+quadrupol energy correction           -0.000000 eV
 added-field ion interaction         -0.000207 eV  (added to PSCEN)


 Broyden mixing:
  rms(total) = 0.56336E-04    rms(broyden)= 0.56336E-04
  rms(prec ) = 0.71176E-04
  weight for this iteration     100.00

 eigenvalues of (default mixing * dielectric matrix)
  average eigenvalue GAMMA=   2.0358
  8.7378  6.4370  4.0404  3.0282  2.5217  2.1061  2.1061  1.6146  1.3595  1.1511
  1.1511  0.9676  0.9676  0.9188  0.9188  0.6781  0.6048  0.4746  0.4638  0.4680

 Free energy of the ion-electron system (eV)
  ---------------------------------------------------
  alpha Z        PSCENC =       491.41310166
  Ewald energy   TEWEN  =    231142.47558413
  -Hartree energ DENC   =   -246527.12060312
  -exchange      EXHF   =         0.00000000
  -V(xc)+E(xc)   XCENC  =      1926.64751266
  PAW double counting   =     68937.81449017   -68744.69356672
  entropy T*S    EENTRO =        -0.21907715
  eigenvalues    EBANDS =     -7366.03772683
  atomic energy  EATOM  =     18384.30697324
  Solvation  Ediel_sol  =         0.00000000
  ---------------------------------------------------
  free energy    TOTEN  =     -1755.41331196 eV

  energy without entropy =    -1755.19423481  energy(sigma->0) =    -1755.30377339


--------------------------------------------------------------------------------------------------------




--------------------------------------- Iteration      1(  26)  ---------------------------------------


    POTLOK:  cpu time      0.4135: real time      0.4172
    SETDIJ:  cpu time      0.0039: real time      0.0040
     EDDAV:  cpu time     56.1635: real time     56.7346
       DOS:  cpu time      0.0012: real time      0.0012
    CHARGE:  cpu time      4.1098: real time      4.1719
    MIXING:  cpu time      0.0079: real time      0.0080
    --------------------------------------------
      LOOP:  cpu time     60.6999: real time     61.3370

 eigenvalue-minimisations  :  5688
 total energy-change (2. order) :-0.4203703E-04  (-0.6139861E-07)
 number of electron     791.9999993 magnetization 
 augmentation part       -2.3579086 magnetization 

 DIPCOR: dipole corrections for dipol
 direction  3 min pos   337,
 dipolmoment           0.000000      0.000000      0.000463 electrons x Angstroem
 Tr[quadrupol]    -41771.310223

 energy correction for charged system         0.000000 eV
 dipol+quadrupol energy correction           -0.000000 eV
 added-field ion interaction         -0.000186 eV  (added to PSCEN)


 Broyden mixing:
  rms(total) = 0.30095E-04    rms(broyden)= 0.30095E-04
  rms(prec ) = 0.38777E-04
  weight for this iteration     100.00

 eigenvalues of (default mixing * dielectric matrix)
  average eigenvalue GAMMA=   2.0133
  8.7725  6.5507  4.1720  3.0891  2.5398  2.1471  2.1471  1.4913  1.4913  1.2263
  1.2263  1.0086  1.0086  0.9293  0.9293  0.8572  0.6808  0.6051  0.4746  0.4638
  0.4681

 Free energy of the ion-electron system (eV)
  ---------------------------------------------------
  alpha Z        PSCENC =       491.41312217
  Ewald energy   TEWEN  =    231142.47558413
  -Hartree energ DENC   =   -246527.17599468
  -exchange      EXHF   =         0.00000000
  -V(xc)+E(xc)   XCENC  =      1926.64746479
  PAW double counting   =     68937.91287957   -68744.79202718
  entropy T*S    EENTRO =        -0.21907808
  eigenvalues    EBANDS =     -7365.98227797
  atomic energy  EATOM  =     18384.30697324
  Solvation  Ediel_sol  =         0.00000000
  ---------------------------------------------------
  free energy    TOTEN  =     -1755.41335400 eV

  energy without entropy =    -1755.19427592  energy(sigma->0) =    -1755.30381496


--------------------------------------------------------------------------------------------------------




--------------------------------------- Iteration      1(  27)  ---------------------------------------


    POTLOK:  cpu time      0.3735: real time      0.3769
    SETDIJ:  cpu time      0.0046: real time      0.0046
     EDDAV:  cpu time     53.3995: real time     53.9538
       DOS:  cpu time      0.0007: real time      0.0007
    CHARGE:  cpu time      4.0999: real time      4.1416
    MIXING:  cpu time      0.0073: real time      0.0075
    --------------------------------------------
      LOOP:  cpu time     57.8856: real time     58.4851

 eigenvalue-minimisations  :  5304
 total energy-change (2. order) :-0.9074218E-05  (-0.7720956E-08)
 number of electron     791.9999993 magnetization 
 augmentation part       -2.3579093 magnetization 

 DIPCOR: dipole corrections for dipol
 direction  3 min pos   337,
 dipolmoment           0.000000      0.000000      0.000444 electrons x Angstroem
 Tr[quadrupol]    -41771.312012

 energy correction for charged system         0.000000 eV
 dipol+quadrupol energy correction           -0.000000 eV
 added-field ion interaction         -0.000178 eV  (added to PSCEN)


 Broyden mixing:
  rms(total) = 0.21089E-04    rms(broyden)= 0.21089E-04
  rms(prec ) = 0.28273E-04
  weight for this iteration     100.00

 eigenvalues of (default mixing * dielectric matrix)
  average eigenvalue GAMMA=   1.9955
  8.8099  6.6511  4.3288  3.1852  2.5641  2.1599  2.1599  1.7029  1.7029  1.2718
  1.2718  1.0471  1.0471  0.9314  0.9324  0.9324  0.6792  0.6045  0.4638  0.4746
  0.4682  0.5131

 Free energy of the ion-electron system (eV)
  ---------------------------------------------------
  alpha Z        PSCENC =       491.41313007
  Ewald energy   TEWEN  =    231142.47558413
  -Hartree energ DENC   =   -246527.18977539
  -exchange      EXHF   =         0.00000000
  -V(xc)+E(xc)   XCENC  =      1926.64741612
  PAW double counting   =     68937.91476869   -68744.79390971
  entropy T*S    EENTRO =        -0.21907832
  eigenvalues    EBANDS =     -7365.96847192
  atomic energy  EATOM  =     18384.30697324
  Solvation  Ediel_sol  =         0.00000000
  ---------------------------------------------------
  free energy    TOTEN  =     -1755.41336308 eV

  energy without entropy =    -1755.19428476  energy(sigma->0) =    -1755.30382392


--------------------------------------------------------------------------------------------------------




--------------------------------------- Iteration      1(  28)  ---------------------------------------


    POTLOK:  cpu time      0.3841: real time      0.3875
    SETDIJ:  cpu time      0.0036: real time      0.0037
     EDDAV:  cpu time     50.9919: real time     51.5404
       DOS:  cpu time      0.0006: real time      0.0006
    CHARGE:  cpu time      4.1146: real time      4.1576
    MIXING:  cpu time      0.0077: real time      0.0078
    --------------------------------------------
      LOOP:  cpu time     55.5026: real time     56.0976

 eigenvalue-minimisations  :  4968
 total energy-change (2. order) :-0.8249983E-05  (-0.7375123E-08)
 number of electron     791.9999993 magnetization 
 augmentation part       -2.3579097 magnetization 

 DIPCOR: dipole corrections for dipol
 direction  3 min pos   337,
 dipolmoment           0.000000      0.000000      0.000426 electrons x Angstroem
 Tr[quadrupol]    -41771.314559

 energy correction for charged system         0.000000 eV
 dipol+quadrupol energy correction           -0.000000 eV
 added-field ion interaction         -0.000171 eV  (added to PSCEN)


 Broyden mixing:
  rms(total) = 0.95944E-05    rms(broyden)= 0.95944E-05
  rms(prec ) = 0.13283E-04
  weight for this iteration     100.00

 eigenvalues of (default mixing * dielectric matrix)
  average eigenvalue GAMMA=   1.9898
  8.9007  6.6810  4.5262  3.3272  2.5961  2.4160  2.0208  2.0208  1.4716  1.4716
  1.1719  1.1719  1.0393  1.0393  0.9292  0.9292  0.8866  0.6802  0.6052  0.4638
  0.4677  0.4750  0.4750

 Free energy of the ion-electron system (eV)
  ---------------------------------------------------
  alpha Z        PSCENC =       491.41313727
  Ewald energy   TEWEN  =    231142.47558413
  -Hartree energ DENC   =   -246527.20385318
  -exchange      EXHF   =         0.00000000
  -V(xc)+E(xc)   XCENC  =      1926.64735012
  PAW double counting   =     68937.90100722   -68744.78013295
  entropy T*S    EENTRO =        -0.21907840
  eigenvalues    EBANDS =     -7365.95435879
  atomic energy  EATOM  =     18384.30697324
  Solvation  Ediel_sol  =         0.00000000
  ---------------------------------------------------
  free energy    TOTEN  =     -1755.41337133 eV

  energy without entropy =    -1755.19429293  energy(sigma->0) =    -1755.30383213


--------------------------------------------------------------------------------------------------------




--------------------------------------- Iteration      1(  29)  ---------------------------------------


    POTLOK:  cpu time      0.3798: real time      0.3834
    SETDIJ:  cpu time      0.0034: real time      0.0034
     EDDAV:  cpu time     50.3772: real time     50.9321
       DOS:  cpu time      0.0006: real time      0.0006
    CHARGE:  cpu time      4.1135: real time      4.1583
    MIXING:  cpu time      0.0080: real time      0.0081
    --------------------------------------------
      LOOP:  cpu time     54.8825: real time     55.4860

 eigenvalue-minimisations  :  4896
 total energy-change (2. order) :-0.3410176E-05  (-0.1790070E-08)
 number of electron     791.9999993 magnetization 
 augmentation part       -2.3579105 magnetization 

 DIPCOR: dipole corrections for dipol
 direction  3 min pos   337,
 dipolmoment           0.000000      0.000000      0.000424 electrons x Angstroem
 Tr[quadrupol]    -41771.316762

 energy correction for charged system         0.000000 eV
 dipol+quadrupol energy correction           -0.000000 eV
 added-field ion interaction         -0.000170 eV  (added to PSCEN)


 Broyden mixing:
  rms(total) = 0.50617E-05    rms(broyden)= 0.50617E-05
  rms(prec ) = 0.80630E-05
  weight for this iteration     100.00

 eigenvalues of (default mixing * dielectric matrix)
  average eigenvalue GAMMA=   1.9690
  8.9155  6.6952  4.6007  3.3643  2.7033  2.4425  2.0758  1.9158  1.5277  1.5277
  1.2835  1.2835  1.0517  1.0517  0.9502  0.9502  0.8744  0.8744  0.6793  0.6053
  0.4638  0.4680  0.4746  0.4768

 Free energy of the ion-electron system (eV)
  ---------------------------------------------------
  alpha Z        PSCENC =       491.41313782
  Ewald energy   TEWEN  =    231142.47558413
  -Hartree energ DENC   =   -246527.21381535
  -exchange      EXHF   =         0.00000000
  -V(xc)+E(xc)   XCENC  =      1926.64732685
  PAW double counting   =     68937.88014613   -68744.75926680
  entropy T*S    EENTRO =        -0.21907826
  eigenvalues    EBANDS =     -7365.94438250
  atomic energy  EATOM  =     18384.30697324
  Solvation  Ediel_sol  =         0.00000000
  ---------------------------------------------------
  free energy    TOTEN  =     -1755.41337474 eV

  energy without entropy =    -1755.19429648  energy(sigma->0) =    -1755.30383561


--------------------------------------------------------------------------------------------------------




--------------------------------------- Iteration      1(  30)  ---------------------------------------


    POTLOK:  cpu time      0.3933: real time      0.3971
    SETDIJ:  cpu time      0.0040: real time      0.0040
     EDDAV:  cpu time     49.0266: real time     49.5982
       DOS:  cpu time      0.0006: real time      0.0006
    CHARGE:  cpu time      4.1113: real time      4.1657
    MIXING:  cpu time      0.0081: real time      0.0081
    --------------------------------------------
      LOOP:  cpu time     53.5438: real time     54.1738

 eigenvalue-minimisations  :  4680
 total energy-change (2. order) :-0.1023182E-05  ( 0.1331801E-08)
 number of electron     791.9999993 magnetization 
 augmentation part       -2.3579101 magnetization 

 DIPCOR: dipole corrections for dipol
 direction  3 min pos   337,
 dipolmoment           0.000000      0.000000      0.000424 electrons x Angstroem
 Tr[quadrupol]    -41771.318403

 energy correction for charged system         0.000000 eV
 dipol+quadrupol energy correction           -0.000000 eV
 added-field ion interaction         -0.000170 eV  (added to PSCEN)


 Broyden mixing:
  rms(total) = 0.28178E-05    rms(broyden)= 0.28178E-05
  rms(prec ) = 0.56599E-05
  weight for this iteration     100.00

 eigenvalues of (default mixing * dielectric matrix)
  average eigenvalue GAMMA=   1.9802
  8.9199  6.7290  4.7068  3.4579  2.9676  2.5064  2.1111  2.1111  1.8600  1.5447
  1.2870  1.2870  1.1261  1.1261  1.0174  0.9110  0.9110  0.9086  0.8434  0.6792
  0.6052  0.4638  0.4680  0.4746  0.4810

 Free energy of the ion-electron system (eV)
  ---------------------------------------------------
  alpha Z        PSCENC =       491.41313783
  Ewald energy   TEWEN  =    231142.47558413
  -Hartree energ DENC   =   -246527.22085134
  -exchange      EXHF   =         0.00000000
  -V(xc)+E(xc)   XCENC  =      1926.64735447
  PAW double counting   =     68937.87820164   -68744.75731990
  entropy T*S    EENTRO =        -0.21907817
  eigenvalues    EBANDS =     -7365.93737766
  atomic energy  EATOM  =     18384.30697324
  Solvation  Ediel_sol  =         0.00000000
  ---------------------------------------------------
  free energy    TOTEN  =     -1755.41337576 eV

  energy without entropy =    -1755.19429759  energy(sigma->0) =    -1755.30383667


--------------------------------------------------------------------------------------------------------




--------------------------------------- Iteration      1(  31)  ---------------------------------------


    POTLOK:  cpu time      0.3728: real time      0.3769
    SETDIJ:  cpu time      0.0042: real time      0.0043
     EDDAV:  cpu time     51.6033: real time     52.1720
       DOS:  cpu time      0.0007: real time      0.0007
    --------------------------------------------
      LOOP:  cpu time     51.9812: real time     52.5540

 eigenvalue-minimisations  :  5040
 total energy-change (2. order) :-0.7512135E-06  ( 0.1421631E-08)
 number of electron     791.9999993 magnetization 
 augmentation part       -2.3579101 magnetization 

 DIPCOR: dipole corrections for dipol
 direction  3 min pos   337,
 dipolmoment           0.000000      0.000000      0.000425 electrons x Angstroem
 Tr[quadrupol]    -41771.320487

 energy correction for charged system         0.000000 eV
 dipol+quadrupol energy correction           -0.000000 eV
 added-field ion interaction         -0.000171 eV  (added to PSCEN)


 Free energy of the ion-electron system (eV)
  ---------------------------------------------------
  alpha Z        PSCENC =       491.41313751
  Ewald energy   TEWEN  =    231142.47558413
  -Hartree energ DENC   =   -246527.22885983
  -exchange      EXHF   =         0.00000000
  -V(xc)+E(xc)   XCENC  =      1926.64738287
  PAW double counting   =     68937.87543775   -68744.75455427
  entropy T*S    EENTRO =        -0.21907814
  eigenvalues    EBANDS =     -7365.92939979
  atomic energy  EATOM  =     18384.30697324
  Solvation  Ediel_sol  =         0.00000000
  ---------------------------------------------------
  free energy    TOTEN  =     -1755.41337651 eV

  energy without entropy =    -1755.19429838  energy(sigma->0) =    -1755.30383744


--------------------------------------------------------------------------------------------------------




 average (electrostatic) potential at core
  the test charge radii are     0.7672  0.5201
  (the norm of the test charge is              1.0000)
       1 -35.7909       2 -35.7897       3 -35.7898       4 -35.7897       5 -35.7896
       6 -35.7897       7 -35.7897       8 -35.7897       9 -35.7898      10 -35.7865
      11 -35.7896      12 -35.7898      13 -35.7897      14 -35.7897      15 -35.7897
      16 -35.7897      17 -35.7897      18 -35.7897      19 -35.7904      20 -35.7896
      21 -35.7897      22 -35.7897      23 -35.7896      24 -35.7897      25 -35.7897
      26 -35.7897      27 -35.7898      28 -35.7887      29 -35.7898      30 -35.7897
      31 -35.7896      32 -35.7898      33 -35.7897      34 -35.7897      35 -35.7897
      36 -35.7897      37 -35.7895      38 -35.7897      39 -35.7898      40 -35.7897
      41 -35.7896      42 -35.7897      43 -35.7897      44 -35.7898      45 -35.7898
      46 -35.7889      47 -35.7898      48 -35.7897      49 -35.7897      50 -35.7897
      51 -35.7896      52 -35.7897      53 -35.7897      54 -35.7896      55 -35.7899
      56 -35.7898      57 -35.7897      58 -35.7896      59 -35.7896      60 -35.7897
      61 -35.7897      62 -35.7897      63 -35.7898      64 -35.7895      65 -35.7889
      66 -35.7898      67 -35.7896      68 -35.7900      69 -35.7897      70 -35.7897
      71 -35.7897      72 -35.7897      73 -34.7339      74 -34.7340      75 -34.7341
      76 -34.7340      77 -34.7340      78 -34.7340      79 -34.7341      80 -34.7340
      81 -34.7341      82 -34.7342      83 -34.7341      84 -34.7343      85 -34.7340
      86 -34.7340      87 -34.7340      88 -34.7339      89 -34.7340      90 -34.7340
      91 -34.7343      92 -34.7340      93 -34.7341      94 -34.7340      95 -34.7339
      96 -34.7340      97 -34.7340      98 -34.7340      99 -34.7341     100 -34.7335
     101 -34.7338     102 -34.7339     103 -34.7338     104 -34.7343     105 -34.7341
     106 -34.7340     107 -34.7340     108 -34.7341     109 -34.7332     110 -34.7341
     111 -34.7341     112 -34.7340     113 -34.7339     114 -34.7340     115 -34.7341
     116 -34.7341     117 -34.7342     118 -34.7376     119 -34.7341     120 -34.7342
     121 -34.7340     122 -34.7340     123 -34.7340     124 -34.7339     125 -34.7340
     126 -34.7339     127 -34.7343     128 -34.7342     129 -34.7341     130 -34.7340
     131 -34.7337     132 -34.7340     133 -34.7340     134 -34.7341     135 -34.7341
     136 -34.7335     137 -34.7334     138 -34.7340     139 -34.7340     140 -34.7350
     141 -34.7341     142 -34.7340     143 -34.7340     144 -34.7341     145 -34.9776
     146 -34.9776     147 -34.9776     148 -34.9776     149 -34.9775     150 -34.9776
     151 -34.9776     152 -34.9776     153 -34.9777     154 -35.2017     155 -35.2043
     156 -35.2042     157 -35.2042     158 -35.2041     159 -35.2042     160 -35.2041
     161 -35.2042     162 -35.2042     163 -35.2050     164 -35.2041     165 -35.2042
     166 -35.2041     167 -35.2040     168 -35.2042     169 -35.2042     170 -35.2042
     171 -35.2043     172 -34.9761     173 -34.9774     174 -34.9775     175 -34.9774
     176 -34.9779     177 -34.9775     178 -34.9775     179 -34.9776     180 -34.9776
     181 -35.2043     182 -35.2042     183 -35.2042     184 -35.2042     185 -35.2041
     186 -35.2042     187 -35.2042     188 -35.2042     189 -35.2043     190 -34.9783
     191 -34.9776     192 -34.9777     193 -34.9776     194 -34.9775     195 -34.9775
     196 -34.9775     197 -34.9775     198 -34.9775     199 -34.9780     200 -34.9775
     201 -34.9776     202 -34.9775     203 -34.9773     204 -34.9775     205 -34.9776
     206 -34.9776     207 -34.9776     208 -35.2034     209 -35.2036     210 -35.2042
     211 -35.2041     212 -35.2046     213 -35.2042     214 -35.2041     215 -35.2042
     216 -35.2042     217 -35.7947     218 -35.7940     219 -35.7942     220 -35.7941
     221 -35.7941     222 -35.7941     223 -35.7942     224 -35.7942     225 -35.7942
     226 -35.7934     227 -35.7945     228 -35.7940     229 -35.7940     230 -35.7942
     231 -35.7942     232 -35.7941     233 -35.7942     234 -35.7942     235 -35.7948
     236 -35.7942     237 -35.7942     238 -35.7942     239 -35.7941     240 -35.7941
     241 -35.7942     242 -35.7942     243 -35.7942     244 -35.7903     245 -35.7941
     246 -35.7945     247 -35.7940     248 -35.7942     249 -35.7941     250 -35.7941
     251 -35.7941     252 -35.7941     253 -38.7851     254 -38.7845     255 -38.7845
     256 -38.7845     257 -38.7844     258 -38.7845     259 -38.7846     260 -38.7845
     261 -38.7846     262 -38.7849     263 -38.7845     264 -38.7846     265 -38.7845
     266 -38.7844     267 -38.7845     268 -38.7846     269 -38.7846     270 -38.7846
     271 -38.7837     272 -38.7840     273 -38.7845     274 -38.7843     275 -38.7846
     276 -38.7845     277 -38.7844     278 -38.7845     279 -38.7845     280 -38.7850
     281 -38.7845     282 -38.7845     283 -38.7845     284 -38.7844     285 -38.7845
     286 -38.7844     287 -38.7845     288 -38.7844
 
 
 
 E-fermi :  -4.1447     XC(G=0):  -3.1141     alpha+bet : -3.0633

 val. band max:       -4.1476255003   @ k =   0.3750  -0.3333   0.0000
 cond. band min:      -4.1051171276   @ k =   0.3750  -0.3333   0.0000
 fundamental gap:      0.0425083727
 Fermi energy:        -4.1447126083

 k-point     1 :       0.1250    0.0000    0.0000
  band No.  band energies     occupation 
      1     -18.4694      2.00000
      2     -18.3914      2.00000
      3     -18.3913      2.00000
      4     -18.3346      2.00000
      5     -18.2851      2.00000
      6     -18.2603      2.00000
      7     -18.2601      2.00000
      8     -18.2217      2.00000
      9     -18.2215      2.00000
     10     -18.1683      2.00000
     11     -18.1527      2.00000
     12     -18.1163      2.00000
     13     -18.1162      2.00000
     14     -18.0924      2.00000
     15     -18.0922      2.00000
     16     -18.0374      2.00000
     17     -17.9880      2.00000
     18     -17.9878      2.00000
     19     -17.7303      2.00000
     20     -17.7302      2.00000
     21     -17.7150      2.00000
     22     -17.6087      2.00000
     23     -17.6086      2.00000
     24     -17.6043      2.00000
     25     -17.6042      2.00000
     26     -17.5899      2.00000
     27     -17.5582      2.00000
     28     -17.4827      2.00000
     29     -17.4827      2.00000
     30     -17.4349      2.00000
     31     -17.3999      2.00000
     32     -17.3998      2.00000
     33     -17.2726      2.00000
     34     -17.2725      2.00000
     35     -17.2574      2.00000
     36     -17.1376      2.00000
     37     -14.6033      2.00000
     38     -14.6032      2.00000
     39     -14.5811      2.00000
     40     -14.5809      2.00000
     41     -14.4926      2.00000
     42     -14.4848      2.00000
     43     -14.4847      2.00000
     44     -14.4655      2.00000
     45     -14.4654      2.00000
     46     -14.4589      2.00000
     47     -14.4587      2.00000
     48     -14.3926      2.00000
     49     -14.3687      2.00000
     50     -14.3686      2.00000
     51     -14.3667      2.00000
     52     -14.2961      2.00000
     53     -14.2652      2.00000
     54     -14.2649      2.00000
     55     -14.2639      2.00000
     56     -14.1920      2.00000
     57     -14.1552      2.00000
     58     -14.1455      2.00000
     59     -14.1452      2.00000
     60     -14.1391      2.00000
     61     -14.1299      2.00000
     62     -14.1243      2.00000
     63     -14.1239      2.00000
     64     -14.0268      2.00000
     65     -14.0255      2.00000
     66     -14.0113      2.00000
     67     -14.0085      2.00000
     68     -14.0081      2.00000
     69     -13.9057      2.00000
     70     -13.9053      2.00000
     71     -13.7921      2.00000
     72     -13.7916      2.00000
     73     -12.5179      2.00000
     74     -12.5177      2.00000
     75     -12.3642      2.00000
     76     -12.3641      2.00000
     77     -11.9034      2.00000
     78     -11.9032      2.00000
     79     -11.8961      2.00000
     80     -11.8350      2.00000
     81     -11.8181      2.00000
     82     -11.8133      2.00000
     83     -11.7426      2.00000
     84     -11.7424      2.00000
     85     -11.7376      2.00000
     86     -11.7375      2.00000
     87     -11.7290      2.00000
     88     -11.7200      2.00000
     89     -11.6727      2.00000
     90     -11.6384      2.00000
     91     -11.6229      2.00000
     92     -11.6182      2.00000
     93     -11.6063      2.00000
     94     -11.6060      2.00000
     95     -11.5713      2.00000
     96     -11.5712      2.00000
     97     -11.5549      2.00000
     98     -11.5300      2.00000
     99     -11.4776      2.00000
    100     -11.4692      2.00000
    101     -11.4691      2.00000
    102     -11.4330      2.00000
    103     -11.4328      2.00000
    104     -11.4322      2.00000
    105     -11.4320      2.00000
    106     -11.2306      2.00000
    107     -11.2304      2.00000
    108     -11.1369      2.00000
    109     -11.1367      2.00000
    110     -11.0926      2.00000
    111     -11.0522      2.00000
    112     -11.0520      2.00000
    113     -10.9671      2.00000
    114     -10.9668      2.00000
    115     -10.9404      2.00000
    116     -10.9224      2.00000
    117     -10.9222      2.00000
    118     -10.8085      2.00000
    119     -10.8072      2.00000
    120     -10.8040      2.00000
    121     -10.8037      2.00000
    122     -10.7627      2.00000
    123     -10.7625      2.00000
    124     -10.6666      2.00000
    125     -10.6581      2.00000
    126     -10.6580      2.00000
    127     -10.5995      2.00000
    128     -10.5924      2.00000
    129     -10.5670      2.00000
    130     -10.5669      2.00000
    131     -10.5401      2.00000
    132     -10.5400      2.00000
    133     -10.5271      2.00000
    134     -10.4968      2.00000
    135     -10.4778      2.00000
    136     -10.4776      2.00000
    137     -10.4619      2.00000
    138     -10.4431      2.00000
    139     -10.4430      2.00000
    140     -10.4393      2.00000
    141     -10.3666      2.00000
    142     -10.3665      2.00000
    143     -10.3590      2.00000
    144     -10.3580      2.00000
    145     -10.3577      2.00000
    146     -10.2097      2.00000
    147     -10.2094      2.00000
    148     -10.1875      2.00000
    149     -10.1083      2.00000
    150     -10.0849      2.00000
    151     -10.0175      2.00000
    152     -10.0174      2.00000
    153      -9.9775      2.00000
    154      -9.9659      2.00000
    155      -9.9245      2.00000
    156      -9.9244      2.00000
    157      -9.8211      2.00000
    158      -9.7890      2.00000
    159      -9.7888      2.00000
    160      -9.5519      2.00000
    161      -9.5516      2.00000
    162      -9.5422      2.00000
    163      -9.3917      2.00000
    164      -9.3914      2.00000
    165      -9.2717      2.00000
    166      -9.2463      2.00000
    167      -9.2461      2.00000
    168      -9.2325      2.00000
    169      -9.2323      2.00000
    170      -9.1272      2.00000
    171      -9.1271      2.00000
    172      -9.1163      2.00000
    173      -9.1161      2.00000
    174      -9.1099      2.00000
    175      -8.8605      2.00000
    176      -8.8603      2.00000
    177      -8.8420      2.00000
    178      -8.7834      2.00000
    179      -8.7290      2.00000
    180      -8.7287      2.00000
    181      -8.6917      2.00000
    182      -8.6677      2.00000
    183      -8.5185      2.00000
    184      -8.5182      2.00000
    185      -8.3916      2.00000
    186      -8.3913      2.00000
    187      -8.3900      2.00000
    188      -8.3896      2.00000
    189      -8.3475      2.00000
    190      -8.3473      2.00000
    191      -8.2719      2.00000
    192      -8.2302      2.00000
    193      -8.2237      2.00000
    194      -8.1874      2.00000
    195      -8.1871      2.00000
    196      -8.1701      2.00000
    197      -8.1585      2.00000
    198      -8.1584      2.00000
    199      -8.1492      2.00000
    200      -8.1488      2.00000
    201      -8.1386      2.00000
    202      -8.1384      2.00000
    203      -8.1259      2.00000
    204      -8.1258      2.00000
    205      -8.1059      2.00000
    206      -8.1006      2.00000
    207      -8.1004      2.00000
    208      -8.0957      2.00000
    209      -8.0956      2.00000
    210      -8.0373      2.00000
    211      -8.0344      2.00000
    212      -8.0339      2.00000
    213      -8.0337      2.00000
    214      -8.0084      2.00000
    215      -7.9799      2.00000
    216      -7.9711      2.00000
    217      -7.9580      2.00000
    218      -7.9388      2.00000
    219      -7.7947      2.00000
    220      -7.6172      2.00000
    221      -7.5872      2.00000
    222      -7.5871      2.00000
    223      -7.5383      2.00000
    224      -7.5381      2.00000
    225      -7.5110      2.00000
    226      -7.5108      2.00000
    227      -7.4065      2.00000
    228      -7.4063      2.00000
    229      -7.4054      2.00000
    230      -7.4052      2.00000
    231      -7.3146      2.00000
    232      -7.3143      2.00000
    233      -7.3088      2.00000
    234      -7.3086      2.00000
    235      -7.2956      2.00000
    236      -7.2897      2.00000
    237      -7.2895      2.00000
    238      -7.2386      2.00000
    239      -7.2383      2.00000
    240      -7.2131      2.00000
    241      -7.1468      2.00000
    242      -7.1443      2.00000
    243      -7.1439      2.00000
    244      -7.1438      2.00000
    245      -7.1236      2.00000
    246      -7.1234      2.00000
    247      -7.1112      2.00000
    248      -7.0949      2.00000
    249      -7.0942      2.00000
    250      -7.0940      2.00000
    251      -7.0798      2.00000
    252      -7.0659      2.00000
    253      -7.0658      2.00000
    254      -7.0574      2.00000
    255      -7.0572      2.00000
    256      -7.0393      2.00000
    257      -7.0312      2.00000
    258      -7.0310      2.00000
    259      -7.0118      2.00000
    260      -7.0117      2.00000
    261      -6.9932      2.00000
    262      -6.9927      2.00000
    263      -6.9685      2.00000
    264      -6.8786      2.00000
    265      -6.8784      2.00000
    266      -6.8691      2.00000
    267      -6.8151      2.00000
    268      -6.8148      2.00000
    269      -6.7629      2.00000
    270      -6.6995      2.00000
    271      -6.6994      2.00000
    272      -6.6346      2.00000
    273      -6.6340      2.00000
    274      -6.6336      2.00000
    275      -6.6335      2.00000
    276      -6.5893      2.00000
    277      -6.5890      2.00000
    278      -6.5594      2.00000
    279      -6.5592      2.00000
    280      -6.5241      2.00000
    281      -6.5235      2.00000
    282      -6.4423      2.00000
    283      -6.3802      2.00000
    284      -6.3685      2.00000
    285      -6.3683      2.00000
    286      -6.3235      2.00000
    287      -6.3146      2.00000
    288      -6.3145      2.00000
    289      -6.2761      2.00000
    290      -6.2758      2.00000
    291      -6.2548      2.00000
    292      -6.2498      2.00000
    293      -6.2496      2.00000
    294      -6.2265      2.00000
    295      -6.2263      2.00000
    296      -6.2073      2.00000
    297      -6.2070      2.00000
    298      -6.1796      2.00000
    299      -6.1672      2.00000
    300      -6.1306      2.00000
    301      -6.1302      2.00000
    302      -6.1290      2.00000
    303      -6.1288      2.00000
    304      -6.0946      2.00000
    305      -6.0934      2.00000
    306      -6.0650      2.00000
    307      -6.0618      2.00000
    308      -6.0613      2.00000
    309      -6.0599      2.00000
    310      -6.0241      2.00000
    311      -6.0238      2.00000
    312      -6.0041      2.00000
    313      -6.0037      2.00000
    314      -5.8841      2.00000
    315      -5.8673      2.00000
    316      -5.8669      2.00000
    317      -5.8532      2.00000
    318      -5.8033      2.00000
    319      -5.7505      2.00000
    320      -5.7441      2.00000
    321      -5.7369      2.00000
    322      -5.7366      2.00000
    323      -5.7309      2.00000
    324      -5.7223      2.00000
    325      -5.7222      2.00000
    326      -5.6758      2.00000
    327      -5.6740      2.00000
    328      -5.6641      2.00000
    329      -5.6176      2.00000
    330      -5.6175      2.00000
    331      -5.6105      2.00000
    332      -5.5662      2.00000
    333      -5.5424      2.00000
    334      -5.5424      2.00000
    335      -5.5362      2.00000
    336      -5.5358      2.00000
    337      -5.5274      2.00000
    338      -5.5273      2.00000
    339      -5.5262      2.00000
    340      -5.5260      2.00000
    341      -5.5170      2.00000
    342      -5.5130      2.00000
    343      -5.4356      2.00000
    344      -5.4167      2.00000
    345      -5.4164      2.00000
    346      -5.3565      2.00000
    347      -5.3564      2.00000
    348      -5.3547      2.00000
    349      -5.3545      2.00000
    350      -5.3102      2.00000
    351      -5.2510      2.00000
    352      -5.2000      2.00000
    353      -5.1972      2.00000
    354      -5.1362      2.00000
    355      -5.0891      2.00000
    356      -5.0872      2.00000
    357      -5.0870      2.00000
    358      -5.0681      2.00000
    359      -5.0676      2.00000
    360      -5.0332      2.00000
    361      -4.9236      2.00000
    362      -4.9231      2.00000
    363      -4.8852      2.00000
    364      -4.8753      2.00000
    365      -4.8750      2.00000
    366      -4.8495      2.00000
    367      -4.8490      2.00000
    368      -4.8477      2.00000
    369      -4.8042      2.00000
    370      -4.8038      2.00000
    371      -4.7929      2.00000
    372      -4.6240      2.00000
    373      -4.5858      2.00000
    374      -4.5854      2.00000
    375      -4.5818      2.00000
    376      -4.5585      2.00000
    377      -4.5281      2.00000
    378      -4.5278      2.00000
    379      -4.4991      2.00000
    380      -4.4966      2.00000
    381      -4.4906      2.00000
    382      -4.4904      2.00000
    383      -4.4722      2.00000
    384      -4.4718      2.00000
    385      -4.4637      1.99999
    386      -4.4618      1.99999
    387      -4.4616      1.99999
    388      -4.4439      1.99998
    389      -4.4436      1.99998
    390      -4.3946      1.99959
    391      -4.3903      1.99948
    392      -4.3902      1.99948
    393      -4.3051      1.97667
    394      -4.2422      1.83194
    395      -4.2063      1.61619
    396      -4.2060      1.61381
    397      -4.1880      1.45999
    398      -4.1599      1.17024
    399      -4.0020      0.04364
    400      -3.9237      0.00177
    401      -3.8662      0.00008
    402      -3.8661      0.00008
    403      -3.8511      0.00003
    404      -3.8510      0.00003
    405      -3.8181      0.00000
    406      -3.8180      0.00000
    407      -3.7440      0.00000
    408      -3.7439      0.00000
    409      -3.4562      0.00000
    410      -3.3303      0.00000
    411      -2.1331      0.00000
    412      -2.1329      0.00000
    413      -2.0427      0.00000
    414      -2.0426      0.00000
    415      -1.2067      0.00000
    416      -0.9977      0.00000
    417      -0.9578      0.00000
    418      -0.9575      0.00000
    419      -0.5716      0.00000
    420      -0.5155      0.00000
    421      -0.5151      0.00000
    422      -0.4581      0.00000
    423      -0.3075      0.00000
    424      -0.3073      0.00000
    425      -0.2862      0.00000
    426      -0.2428      0.00000
    427      -0.2424      0.00000
    428      -0.0808      0.00000
    429      -0.0783      0.00000
    430      -0.0782      0.00000
    431       0.0551      0.00000
    432       0.0553      0.00000
    433       0.0563      0.00000
    434       0.0591      0.00000
    435       0.0593      0.00000
    436       0.1457      0.00000
    437       0.1461      0.00000
    438       0.1597      0.00000
    439       0.1648      0.00000
    440       0.1694      0.00000
    441       0.1749      0.00000
    442       0.1990      0.00000
    443       0.1996      0.00000
    444       0.2168      0.00000
    445       0.2172      0.00000
    446       0.2260      0.00000
    447       0.2821      0.00000
    448       0.2823      0.00000
    449       0.3795      0.00000
    450       0.3798      0.00000
    451       0.3816      0.00000
    452       0.3829      0.00000
    453       0.3833      0.00000
    454       0.3854      0.00000
    455       0.5889      0.00000
    456       0.6510      0.00000
    457       0.6614      0.00000
    458       0.6832      0.00000
    459       0.7100      0.00000
    460       0.7106      0.00000
    461       0.7173      0.00000
    462       0.7176      0.00000
    463       0.7652      0.00000
    464       0.8221      0.00000
    465       0.8226      0.00000
    466       0.8240      0.00000
    467       0.8242      0.00000
    468       0.8490      0.00000
    469       0.8512      0.00000
    470       0.8518      0.00000
    471       0.8527      0.00000
    472       0.8531      0.00000
    473       0.9840      0.00000
    474       0.9844      0.00000
    475       1.0535      0.00000
    476       1.1171      0.00000
    477       1.1173      0.00000
    478       1.1208      0.00000
    479       1.1394      0.00000
    480       1.1399      0.00000
    481       1.1603      0.00000
    482       1.1658      0.00000
    483       1.1660      0.00000
    484       1.2725      0.00000
    485       1.2850      0.00000
    486       1.2854      0.00000
    487       1.2954      0.00000
    488       1.3697      0.00000
    489       1.4254      0.00000
    490       1.4258      0.00000
    491       1.4488      0.00000
    492       1.4618      0.00000
    493       1.4845      0.00000
    494       1.4967      0.00000
    495       1.5283      0.00000
    496       1.5696      0.00000
    497       1.5753      0.00000
    498       1.6041      0.00000
    499       1.6045      0.00000
    500       1.6217      0.00000
    501       1.6222      0.00000
    502       1.6841      0.00000
    503       1.6845      0.00000
    504       1.8007      0.00000
    505       1.8011      0.00000
    506       1.8919      0.00000
    507       1.8924      0.00000
    508       1.9254      0.00000
    509       1.9256      0.00000
    510       1.9383      0.00000
    511       1.9485      0.00000
    512       1.9489      0.00000
    513       1.9537      0.00000
    514       1.9541      0.00000
    515       2.0146      0.00000
    516       2.0426      0.00000
    517       2.0427      0.00000
    518       2.0966      0.00000
    519       2.0998      0.00000
    520       2.1000      0.00000
    521       2.2390      0.00000
    522       2.2391      0.00000
    523       2.2394      0.00000
    524       2.2667      0.00000
    525       2.2707      0.00000
    526       2.3280      0.00000
    527       2.3283      0.00000
    528       2.3626      0.00000
    529       2.3838      0.00000
    530       2.3842      0.00000
    531       2.3907      0.00000
    532       2.3910      0.00000
    533       2.4203      0.00000
    534       2.4207      0.00000
    535       2.4253      0.00000
    536       2.4512      0.00000
    537       2.4516      0.00000
    538       2.4929      0.00000
    539       2.4934      0.00000
    540       2.5033      0.00000
    541       2.5297      0.00000
    542       2.5300      0.00000
    543       2.5316      0.00000
    544       2.5611      0.00000
    545       2.5613      0.00000
    546       2.5760      0.00000
    547       2.6906      0.00000
    548       2.6911      0.00000
    549       2.7301      0.00000
    550       2.7309      0.00000
    551       2.7388      0.00000
    552       2.7395      0.00000

 k-point     2 :       0.3750    0.0000    0.0000
  band No.  band energies     occupation 
      1     -18.4379      2.00000
      2     -18.3759      2.00000
      3     -18.3622      2.00000
      4     -18.3621      2.00000
      5     -18.3049      2.00000
      6     -18.3047      2.00000
      7     -18.3036      2.00000
      8     -18.2424      2.00000
      9     -18.2314      2.00000
     10     -18.2312      2.00000
     11     -18.1747      2.00000
     12     -18.1745      2.00000
     13     -18.0299      2.00000
     14     -17.9941      2.00000
     15     -17.9940      2.00000
     16     -17.9008      2.00000
     17     -17.8760      2.00000
     18     -17.8667      2.00000
     19     -17.8666      2.00000
     20     -17.8623      2.00000
     21     -17.8622      2.00000
     22     -17.7488      2.00000
     23     -17.7358      2.00000
     24     -17.7357      2.00000
     25     -17.5080      2.00000
     26     -17.5079      2.00000
     27     -17.4366      2.00000
     28     -17.4365      2.00000
     29     -17.4194      2.00000
     30     -17.3816      2.00000
     31     -17.3816      2.00000
     32     -17.3144      2.00000
     33     -17.3098      2.00000
     34     -17.3097      2.00000
     35     -17.2978      2.00000
     36     -17.1940      2.00000
     37     -14.5774      2.00000
     38     -14.5773      2.00000
     39     -14.5188      2.00000
     40     -14.5187      2.00000
     41     -14.5107      2.00000
     42     -14.5105      2.00000
     43     -14.4705      2.00000
     44     -14.4652      2.00000
     45     -14.4651      2.00000
     46     -14.4274      2.00000
     47     -14.4148      2.00000
     48     -14.4147      2.00000
     49     -14.4006      2.00000
     50     -14.4004      2.00000
     51     -14.3873      2.00000
     52     -14.3870      2.00000
     53     -14.3698      2.00000
     54     -14.3257      2.00000
     55     -14.2781      2.00000
     56     -14.2778      2.00000
     57     -14.2267      2.00000
     58     -14.1714      2.00000
     59     -14.1474      2.00000
     60     -14.1361      2.00000
     61     -14.1208      2.00000
     62     -14.0624      2.00000
     63     -14.0207      2.00000
     64     -14.0129      2.00000
     65     -14.0036      2.00000
     66     -14.0032      2.00000
     67     -13.9294      2.00000
     68     -13.9289      2.00000
     69     -13.8915      2.00000
     70     -13.8911      2.00000
     71     -13.8180      2.00000
     72     -13.8176      2.00000
     73     -12.4019      2.00000
     74     -12.4017      2.00000
     75     -12.2454      2.00000
     76     -12.2453      2.00000
     77     -12.1838      2.00000
     78     -12.1836      2.00000
     79     -12.0234      2.00000
     80     -12.0233      2.00000
     81     -11.9045      2.00000
     82     -11.8906      2.00000
     83     -11.8621      2.00000
     84     -11.7969      2.00000
     85     -11.7528      2.00000
     86     -11.7125      2.00000
     87     -11.7123      2.00000
     88     -11.7091      2.00000
     89     -11.6948      2.00000
     90     -11.6905      2.00000
     91     -11.6541      2.00000
     92     -11.6540      2.00000
     93     -11.5989      2.00000
     94     -11.5174      2.00000
     95     -11.4124      2.00000
     96     -11.4099      2.00000
     97     -11.3680      2.00000
     98     -11.3677      2.00000
     99     -11.3564      2.00000
    100     -11.3562      2.00000
    101     -11.3194      2.00000
    102     -11.3190      2.00000
    103     -11.2541      2.00000
    104     -11.2347      2.00000
    105     -11.2238      2.00000
    106     -11.2235      2.00000
    107     -11.2034      2.00000
    108     -11.2032      2.00000
    109     -11.1639      2.00000
    110     -11.1637      2.00000
    111     -11.1332      2.00000
    112     -11.1330      2.00000
    113     -11.1094      2.00000
    114     -11.0252      2.00000
    115     -11.0250      2.00000
    116     -11.0053      2.00000
    117     -11.0051      2.00000
    118     -10.9846      2.00000
    119     -10.9844      2.00000
    120     -10.9427      2.00000
    121     -10.9425      2.00000
    122     -10.9298      2.00000
    123     -10.8376      2.00000
    124     -10.8374      2.00000
    125     -10.8110      2.00000
    126     -10.7630      2.00000
    127     -10.7170      2.00000
    128     -10.6950      2.00000
    129     -10.6752      2.00000
    130     -10.6264      2.00000
    131     -10.6262      2.00000
    132     -10.6166      2.00000
    133     -10.5681      2.00000
    134     -10.5648      2.00000
    135     -10.5646      2.00000
    136     -10.4888      2.00000
    137     -10.3098      2.00000
    138     -10.2492      2.00000
    139     -10.2491      2.00000
    140     -10.1793      2.00000
    141     -10.1791      2.00000
    142     -10.1449      2.00000
    143     -10.1291      2.00000
    144     -10.1291      2.00000
    145     -10.0650      2.00000
    146     -10.0648      2.00000
    147     -10.0515      2.00000
    148     -10.0513      2.00000
    149      -9.8977      2.00000
    150      -9.8974      2.00000
    151      -9.8551      2.00000
    152      -9.8549      2.00000
    153      -9.8104      2.00000
    154      -9.8103      2.00000
    155      -9.7605      2.00000
    156      -9.7602      2.00000
    157      -9.7374      2.00000
    158      -9.7123      2.00000
    159      -9.7121      2.00000
    160      -9.7075      2.00000
    161      -9.6887      2.00000
    162      -9.6626      2.00000
    163      -9.6040      2.00000
    164      -9.6038      2.00000
    165      -9.5989      2.00000
    166      -9.5987      2.00000
    167      -9.5926      2.00000
    168      -9.5624      2.00000
    169      -9.2598      2.00000
    170      -9.2372      2.00000
    171      -9.1647      2.00000
    172      -9.1311      2.00000
    173      -9.1310      2.00000
    174      -9.0984      2.00000
    175      -9.0173      2.00000
    176      -9.0062      2.00000
    177      -9.0060      2.00000
    178      -8.9483      2.00000
    179      -8.9482      2.00000
    180      -8.8533      2.00000
    181      -8.8165      2.00000
    182      -8.8163      2.00000
    183      -8.6380      2.00000
    184      -8.4676      2.00000
    185      -8.3397      2.00000
    186      -8.3394      2.00000
    187      -8.3128      2.00000
    188      -8.3125      2.00000
    189      -8.2123      2.00000
    190      -8.1913      2.00000
    191      -8.1892      2.00000
    192      -8.1886      2.00000
    193      -8.1885      2.00000
    194      -8.1860      2.00000
    195      -8.1858      2.00000
    196      -8.1576      2.00000
    197      -8.1575      2.00000
    198      -8.1397      2.00000
    199      -8.1396      2.00000
    200      -8.1386      2.00000
    201      -8.1188      2.00000
    202      -8.1187      2.00000
    203      -8.0922      2.00000
    204      -8.0921      2.00000
    205      -8.0695      2.00000
    206      -8.0692      2.00000
    207      -8.0588      2.00000
    208      -8.0587      2.00000
    209      -8.0301      2.00000
    210      -8.0160      2.00000
    211      -7.9689      2.00000
    212      -7.9688      2.00000
    213      -7.9043      2.00000
    214      -7.9040      2.00000
    215      -7.7283      2.00000
    216      -7.7281      2.00000
    217      -7.7130      2.00000
    218      -7.6298      2.00000
    219      -7.6295      2.00000
    220      -7.5983      2.00000
    221      -7.5826      2.00000
    222      -7.5709      2.00000
    223      -7.5574      2.00000
    224      -7.5573      2.00000
    225      -7.5285      2.00000
    226      -7.4643      2.00000
    227      -7.4642      2.00000
    228      -7.4400      2.00000
    229      -7.4399      2.00000
    230      -7.4099      2.00000
    231      -7.4097      2.00000
    232      -7.4013      2.00000
    233      -7.4010      2.00000
    234      -7.3938      2.00000
    235      -7.3703      2.00000
    236      -7.3699      2.00000
    237      -7.3604      2.00000
    238      -7.3601      2.00000
    239      -7.2739      2.00000
    240      -7.2548      2.00000
    241      -7.2548      2.00000
    242      -7.2102      2.00000
    243      -7.2041      2.00000
    244      -7.1947      2.00000
    245      -7.1829      2.00000
    246      -7.1719      2.00000
    247      -7.0989      2.00000
    248      -7.0747      2.00000
    249      -7.0722      2.00000
    250      -7.0720      2.00000
    251      -7.0579      2.00000
    252      -7.0578      2.00000
    253      -7.0527      2.00000
    254      -7.0525      2.00000
    255      -7.0354      2.00000
    256      -7.0342      2.00000
    257      -6.9957      2.00000
    258      -6.9956      2.00000
    259      -6.9729      2.00000
    260      -6.9726      2.00000
    261      -6.9427      2.00000
    262      -6.9425      2.00000
    263      -6.9417      2.00000
    264      -6.9254      2.00000
    265      -6.9087      2.00000
    266      -6.9084      2.00000
    267      -6.8856      2.00000
    268      -6.8854      2.00000
    269      -6.8330      2.00000
    270      -6.8329      2.00000
    271      -6.8227      2.00000
    272      -6.8224      2.00000
    273      -6.6423      2.00000
    274      -6.6220      2.00000
    275      -6.6215      2.00000
    276      -6.6161      2.00000
    277      -6.6155      2.00000
    278      -6.5913      2.00000
    279      -6.5093      2.00000
    280      -6.4917      2.00000
    281      -6.4910      2.00000
    282      -6.4907      2.00000
    283      -6.4174      2.00000
    284      -6.4169      2.00000
    285      -6.4008      2.00000
    286      -6.3408      2.00000
    287      -6.3407      2.00000
    288      -6.3310      2.00000
    289      -6.2969      2.00000
    290      -6.2965      2.00000
    291      -6.2894      2.00000
    292      -6.2888      2.00000
    293      -6.2680      2.00000
    294      -6.2678      2.00000
    295      -6.2224      2.00000
    296      -6.1819      2.00000
    297      -6.1816      2.00000
    298      -6.1637      2.00000
    299      -6.0994      2.00000
    300      -6.0991      2.00000
    301      -6.0858      2.00000
    302      -6.0855      2.00000
    303      -6.0468      2.00000
    304      -6.0396      2.00000
    305      -6.0393      2.00000
    306      -6.0345      2.00000
    307      -6.0342      2.00000
    308      -5.9587      2.00000
    309      -5.9587      2.00000
    310      -5.9427      2.00000
    311      -5.9412      2.00000
    312      -5.9268      2.00000
    313      -5.9265      2.00000
    314      -5.9246      2.00000
    315      -5.9245      2.00000
    316      -5.9219      2.00000
    317      -5.8611      2.00000
    318      -5.7775      2.00000
    319      -5.7728      2.00000
    320      -5.7672      2.00000
    321      -5.7432      2.00000
    322      -5.7118      2.00000
    323      -5.6551      2.00000
    324      -5.6547      2.00000
    325      -5.6276      2.00000
    326      -5.6267      2.00000
    327      -5.6265      2.00000
    328      -5.6094      2.00000
    329      -5.5676      2.00000
    330      -5.5674      2.00000
    331      -5.5657      2.00000
    332      -5.5538      2.00000
    333      -5.5535      2.00000
    334      -5.5309      2.00000
    335      -5.5307      2.00000
    336      -5.4852      2.00000
    337      -5.4776      2.00000
    338      -5.4774      2.00000
    339      -5.4656      2.00000
    340      -5.4654      2.00000
    341      -5.4060      2.00000
    342      -5.4058      2.00000
    343      -5.4026      2.00000
    344      -5.3927      2.00000
    345      -5.3926      2.00000
    346      -5.3398      2.00000
    347      -5.3394      2.00000
    348      -5.3042      2.00000
    349      -5.3041      2.00000
    350      -5.2974      2.00000
    351      -5.2721      2.00000
    352      -5.2618      2.00000
    353      -5.2616      2.00000
    354      -5.1822      2.00000
    355      -5.1817      2.00000
    356      -5.1490      2.00000
    357      -5.1407      2.00000
    358      -5.0748      2.00000
    359      -5.0734      2.00000
    360      -5.0733      2.00000
    361      -4.9831      2.00000
    362      -4.9503      2.00000
    363      -4.9498      2.00000
    364      -4.9497      2.00000
    365      -4.8984      2.00000
    366      -4.8876      2.00000
    367      -4.8870      2.00000
    368      -4.8613      2.00000
    369      -4.8607      2.00000
    370      -4.8520      2.00000
    371      -4.8516      2.00000
    372      -4.8487      2.00000
    373      -4.7562      2.00000
    374      -4.7559      2.00000
    375      -4.7064      2.00000
    376      -4.6864      2.00000
    377      -4.6830      2.00000
    378      -4.6827      2.00000
    379      -4.6666      2.00000
    380      -4.6619      2.00000
    381      -4.6616      2.00000
    382      -4.6393      2.00000
    383      -4.6035      2.00000
    384      -4.5601      2.00000
    385      -4.4908      2.00000
    386      -4.4905      2.00000
    387      -4.4704      2.00000
    388      -4.4700      2.00000
    389      -4.4473      1.99998
    390      -4.4126      1.99985
    391      -4.3538      1.99690
    392      -4.3423      1.99480
    393      -4.2435      1.83772
    394      -4.2304      1.77456
    395      -4.2301      1.77278
    396      -4.2299      1.77185
    397      -4.0118      0.06015
    398      -4.0116      0.05978
    399      -4.0086      0.05432
    400      -4.0084      0.05390
    401      -3.8740      0.00013
    402      -3.8739      0.00013
    403      -3.7402      0.00000
    404      -3.6432      0.00000
    405      -3.5523      0.00000
    406      -3.4376      0.00000
    407      -3.1931      0.00000
    408      -3.1930      0.00000
    409      -3.0898      0.00000
    410      -3.0897      0.00000
    411      -2.5766      0.00000
    412      -2.5764      0.00000
    413      -2.4766      0.00000
    414      -2.4765      0.00000
    415      -1.1528      0.00000
    416      -0.9398      0.00000
    417      -0.8507      0.00000
    418      -0.8504      0.00000
    419      -0.7441      0.00000
    420      -0.6291      0.00000
    421      -0.6288      0.00000
    422      -0.4187      0.00000
    423      -0.3704      0.00000
    424      -0.2774      0.00000
    425      -0.2770      0.00000
    426      -0.2091      0.00000
    427      -0.1359      0.00000
    428      -0.1355      0.00000
    429      -0.0355      0.00000
    430      -0.0351      0.00000
    431      -0.0111      0.00000
    432       0.0767      0.00000
    433       0.0771      0.00000
    434       0.1438      0.00000
    435       0.1441      0.00000
    436       0.1481      0.00000
    437       0.1486      0.00000
    438       0.1591      0.00000
    439       0.1940      0.00000
    440       0.2305      0.00000
    441       0.2333      0.00000
    442       0.2335      0.00000
    443       0.2381      0.00000
    444       0.2761      0.00000
    445       0.2766      0.00000
    446       0.3133      0.00000
    447       0.3137      0.00000
    448       0.3200      0.00000
    449       0.3224      0.00000
    450       0.3799      0.00000
    451       0.3961      0.00000
    452       0.3964      0.00000
    453       0.4817      0.00000
    454       0.5485      0.00000
    455       0.5490      0.00000
    456       0.5696      0.00000
    457       0.5700      0.00000
    458       0.6001      0.00000
    459       0.6004      0.00000
    460       0.6283      0.00000
    461       0.6494      0.00000
    462       0.6898      0.00000
    463       0.6901      0.00000
    464       0.7403      0.00000
    465       0.7405      0.00000
    466       0.7841      0.00000
    467       0.7846      0.00000
    468       0.9102      0.00000
    469       0.9216      0.00000
    470       0.9221      0.00000
    471       0.9827      0.00000
    472       1.0178      0.00000
    473       1.0182      0.00000
    474       1.0512      0.00000
    475       1.1002      0.00000
    476       1.1320      0.00000
    477       1.1967      0.00000
    478       1.2382      0.00000
    479       1.2624      0.00000
    480       1.2907      0.00000
    481       1.2913      0.00000
    482       1.2915      0.00000
    483       1.2917      0.00000
    484       1.3690      0.00000
    485       1.3693      0.00000
    486       1.3805      0.00000
    487       1.4399      0.00000
    488       1.4467      0.00000
    489       1.4472      0.00000
    490       1.4499      0.00000
    491       1.4603      0.00000
    492       1.4833      0.00000
    493       1.4868      0.00000
    494       1.4871      0.00000
    495       1.5437      0.00000
    496       1.5444      0.00000
    497       1.5739      0.00000
    498       1.5744      0.00000
    499       1.5843      0.00000
    500       1.6861      0.00000
    501       1.6864      0.00000
    502       1.7417      0.00000
    503       1.7513      0.00000
    504       1.7834      0.00000
    505       1.7838      0.00000
    506       1.8084      0.00000
    507       1.8087      0.00000
    508       1.8149      0.00000
    509       1.8315      0.00000
    510       1.8590      0.00000
    511       1.8593      0.00000
    512       1.8648      0.00000
    513       1.8652      0.00000
    514       1.9170      0.00000
    515       1.9743      0.00000
    516       1.9748      0.00000
    517       1.9796      0.00000
    518       1.9802      0.00000
    519       1.9855      0.00000
    520       1.9967      0.00000
    521       1.9972      0.00000
    522       2.0708      0.00000
    523       2.1288      0.00000
    524       2.1289      0.00000
    525       2.1673      0.00000
    526       2.2378      0.00000
    527       2.2379      0.00000
    528       2.3291      0.00000
    529       2.3293      0.00000
    530       2.3307      0.00000
    531       2.3509      0.00000
    532       2.3514      0.00000
    533       2.3583      0.00000
    534       2.3586      0.00000
    535       2.3664      0.00000
    536       2.3669      0.00000
    537       2.4029      0.00000
    538       2.4159      0.00000
    539       2.4614      0.00000
    540       2.4618      0.00000
    541       2.4871      0.00000
    542       2.5141      0.00000
    543       2.5874      0.00000
    544       2.5937      0.00000
    545       2.6029      0.00000
    546       2.6059      0.00000
    547       2.6067      0.00000
    548       2.6407      0.00000
    549       2.6435      0.00000
    550       2.6975      0.00000
    551       2.7230      0.00000
    552       2.7259      0.00000

 k-point     3 :       0.1250    0.3333    0.0000
  band No.  band energies     occupation 
      1     -18.4583      2.00000
      2     -18.4286      2.00000
      3     -18.3646      2.00000
      4     -18.3240      2.00000
      5     -18.2956      2.00000
      6     -18.2759      2.00000
      7     -18.2517      2.00000
      8     -18.2349      2.00000
      9     -18.2002      2.00000
     10     -18.1607      2.00000
     11     -18.1440      2.00000
     12     -18.1407      2.00000
     13     -18.1208      2.00000
     14     -18.0990      2.00000
     15     -18.0720      2.00000
     16     -18.0302      2.00000
     17     -18.0111      2.00000
     18     -17.9716      2.00000
     19     -17.7368      2.00000
     20     -17.7223      2.00000
     21     -17.7168      2.00000
     22     -17.6267      2.00000
     23     -17.6103      2.00000
     24     -17.5968      2.00000
     25     -17.5916      2.00000
     26     -17.5841      2.00000
     27     -17.5651      2.00000
     28     -17.4996      2.00000
     29     -17.4596      2.00000
     30     -17.4447      2.00000
     31     -17.4415      2.00000
     32     -17.3342      2.00000
     33     -17.3150      2.00000
     34     -17.2788      2.00000
     35     -17.2104      2.00000
     36     -17.1579      2.00000
     37     -14.6392      2.00000
     38     -14.6332      2.00000
     39     -14.5281      2.00000
     40     -14.5201      2.00000
     41     -14.5093      2.00000
     42     -14.4896      2.00000
     43     -14.4824      2.00000
     44     -14.4796      2.00000
     45     -14.4549      2.00000
     46     -14.4276      2.00000
     47     -14.4125      2.00000
     48     -14.3898      2.00000
     49     -14.3810      2.00000
     50     -14.3646      2.00000
     51     -14.3634      2.00000
     52     -14.3596      2.00000
     53     -14.3236      2.00000
     54     -14.3185      2.00000
     55     -14.2530      2.00000
     56     -14.1997      2.00000
     57     -14.1851      2.00000
     58     -14.1625      2.00000
     59     -14.1386      2.00000
     60     -14.1208      2.00000
     61     -14.1010      2.00000
     62     -14.0892      2.00000
     63     -14.0712      2.00000
     64     -14.0427      2.00000
     65     -14.0282      2.00000
     66     -14.0273      2.00000
     67     -13.9944      2.00000
     68     -13.9873      2.00000
     69     -13.9773      2.00000
     70     -13.9071      2.00000
     71     -13.8065      2.00000
     72     -13.7001      2.00000
     73     -12.7047      2.00000
     74     -12.5454      2.00000
     75     -12.2339      2.00000
     76     -12.0845      2.00000
     77     -11.9789      2.00000
     78     -11.9545      2.00000
     79     -11.9184      2.00000
     80     -11.9182      2.00000
     81     -11.8716      2.00000
     82     -11.8283      2.00000
     83     -11.8184      2.00000
     84     -11.8047      2.00000
     85     -11.7969      2.00000
     86     -11.7837      2.00000
     87     -11.7273      2.00000
     88     -11.7246      2.00000
     89     -11.6796      2.00000
     90     -11.6751      2.00000
     91     -11.6428      2.00000
     92     -11.6375      2.00000
     93     -11.6305      2.00000
     94     -11.5867      2.00000
     95     -11.5361      2.00000
     96     -11.5236      2.00000
     97     -11.5182      2.00000
     98     -11.5131      2.00000
     99     -11.4351      2.00000
    100     -11.3644      2.00000
    101     -11.3454      2.00000
    102     -11.3404      2.00000
    103     -11.3316      2.00000
    104     -11.2393      2.00000
    105     -11.1881      2.00000
    106     -11.1700      2.00000
    107     -11.1587      2.00000
    108     -11.1496      2.00000
    109     -11.1264      2.00000
    110     -11.1052      2.00000
    111     -11.0972      2.00000
    112     -11.0927      2.00000
    113     -11.0419      2.00000
    114     -11.0139      2.00000
    115     -11.0056      2.00000
    116     -10.9913      2.00000
    117     -10.9843      2.00000
    118     -10.9613      2.00000
    119     -10.9540      2.00000
    120     -10.9447      2.00000
    121     -10.8785      2.00000
    122     -10.8006      2.00000
    123     -10.8001      2.00000
    124     -10.7849      2.00000
    125     -10.7815      2.00000
    126     -10.7318      2.00000
    127     -10.7098      2.00000
    128     -10.7033      2.00000
    129     -10.6265      2.00000
    130     -10.5986      2.00000
    131     -10.5766      2.00000
    132     -10.5625      2.00000
    133     -10.5400      2.00000
    134     -10.5174      2.00000
    135     -10.4702      2.00000
    136     -10.4490      2.00000
    137     -10.4310      2.00000
    138     -10.4139      2.00000
    139     -10.3608      2.00000
    140     -10.3345      2.00000
    141     -10.2721      2.00000
    142     -10.2693      2.00000
    143     -10.2624      2.00000
    144     -10.2293      2.00000
    145     -10.1446      2.00000
    146     -10.1223      2.00000
    147     -10.1156      2.00000
    148     -10.0373      2.00000
    149      -9.9957      2.00000
    150      -9.9835      2.00000
    151      -9.9819      2.00000
    152      -9.9674      2.00000
    153      -9.9552      2.00000
    154      -9.9015      2.00000
    155      -9.8759      2.00000
    156      -9.8719      2.00000
    157      -9.8344      2.00000
    158      -9.8338      2.00000
    159      -9.8262      2.00000
    160      -9.7474      2.00000
    161      -9.6720      2.00000
    162      -9.6539      2.00000
    163      -9.5773      2.00000
    164      -9.5598      2.00000
    165      -9.5319      2.00000
    166      -9.4348      2.00000
    167      -9.3334      2.00000
    168      -9.1718      2.00000
    169      -9.1436      2.00000
    170      -9.0655      2.00000
    171      -8.9796      2.00000
    172      -8.9717      2.00000
    173      -8.9342      2.00000
    174      -8.8753      2.00000
    175      -8.8742      2.00000
    176      -8.8701      2.00000
    177      -8.8294      2.00000
    178      -8.8027      2.00000
    179      -8.7904      2.00000
    180      -8.7352      2.00000
    181      -8.7286      2.00000
    182      -8.7096      2.00000
    183      -8.6679      2.00000
    184      -8.6267      2.00000
    185      -8.4376      2.00000
    186      -8.3672      2.00000
    187      -8.3610      2.00000
    188      -8.3148      2.00000
    189      -8.3072      2.00000
    190      -8.2684      2.00000
    191      -8.2620      2.00000
    192      -8.2463      2.00000
    193      -8.2318      2.00000
    194      -8.2158      2.00000
    195      -8.1910      2.00000
    196      -8.1797      2.00000
    197      -8.1767      2.00000
    198      -8.1718      2.00000
    199      -8.1627      2.00000
    200      -8.1509      2.00000
    201      -8.1295      2.00000
    202      -8.1145      2.00000
    203      -8.1092      2.00000
    204      -8.1078      2.00000
    205      -8.1034      2.00000
    206      -8.1017      2.00000
    207      -8.0964      2.00000
    208      -8.0866      2.00000
    209      -8.0860      2.00000
    210      -8.0742      2.00000
    211      -8.0659      2.00000
    212      -8.0553      2.00000
    213      -8.0308      2.00000
    214      -8.0145      2.00000
    215      -7.9257      2.00000
    216      -7.8836      2.00000
    217      -7.8589      2.00000
    218      -7.7853      2.00000
    219      -7.6625      2.00000
    220      -7.6213      2.00000
    221      -7.6180      2.00000
    222      -7.5627      2.00000
    223      -7.5513      2.00000
    224      -7.5271      2.00000
    225      -7.5208      2.00000
    226      -7.5204      2.00000
    227      -7.5006      2.00000
    228      -7.4850      2.00000
    229      -7.4712      2.00000
    230      -7.4556      2.00000
    231      -7.4415      2.00000
    232      -7.4265      2.00000
    233      -7.4017      2.00000
    234      -7.3490      2.00000
    235      -7.3379      2.00000
    236      -7.3346      2.00000
    237      -7.2827      2.00000
    238      -7.2797      2.00000
    239      -7.2695      2.00000
    240      -7.2454      2.00000
    241      -7.2444      2.00000
    242      -7.1932      2.00000
    243      -7.1680      2.00000
    244      -7.1484      2.00000
    245      -7.1181      2.00000
    246      -7.1070      2.00000
    247      -7.1061      2.00000
    248      -7.0928      2.00000
    249      -7.0617      2.00000
    250      -7.0382      2.00000
    251      -7.0351      2.00000
    252      -7.0332      2.00000
    253      -7.0301      2.00000
    254      -7.0300      2.00000
    255      -7.0203      2.00000
    256      -7.0055      2.00000
    257      -7.0045      2.00000
    258      -7.0028      2.00000
    259      -6.9984      2.00000
    260      -6.9962      2.00000
    261      -6.9825      2.00000
    262      -6.9764      2.00000
    263      -6.9361      2.00000
    264      -6.9200      2.00000
    265      -6.8612      2.00000
    266      -6.8339      2.00000
    267      -6.8334      2.00000
    268      -6.8062      2.00000
    269      -6.8056      2.00000
    270      -6.7574      2.00000
    271      -6.7359      2.00000
    272      -6.6967      2.00000
    273      -6.6551      2.00000
    274      -6.6426      2.00000
    275      -6.5834      2.00000
    276      -6.5801      2.00000
    277      -6.5315      2.00000
    278      -6.5201      2.00000
    279      -6.5008      2.00000
    280      -6.4813      2.00000
    281      -6.4576      2.00000
    282      -6.4528      2.00000
    283      -6.4493      2.00000
    284      -6.4476      2.00000
    285      -6.4213      2.00000
    286      -6.4087      2.00000
    287      -6.3990      2.00000
    288      -6.3964      2.00000
    289      -6.3306      2.00000
    290      -6.2904      2.00000
    291      -6.2745      2.00000
    292      -6.2638      2.00000
    293      -6.2582      2.00000
    294      -6.2499      2.00000
    295      -6.2452      2.00000
    296      -6.2146      2.00000
    297      -6.1560      2.00000
    298      -6.1476      2.00000
    299      -6.1395      2.00000
    300      -6.1258      2.00000
    301      -6.0907      2.00000
    302      -6.0726      2.00000
    303      -6.0182      2.00000
    304      -6.0117      2.00000
    305      -5.9878      2.00000
    306      -5.9836      2.00000
    307      -5.9805      2.00000
    308      -5.9682      2.00000
    309      -5.9405      2.00000
    310      -5.9236      2.00000
    311      -5.9055      2.00000
    312      -5.9043      2.00000
    313      -5.9038      2.00000
    314      -5.8976      2.00000
    315      -5.8959      2.00000
    316      -5.8491      2.00000
    317      -5.8249      2.00000
    318      -5.8235      2.00000
    319      -5.7983      2.00000
    320      -5.7753      2.00000
    321      -5.7679      2.00000
    322      -5.7076      2.00000
    323      -5.7038      2.00000
    324      -5.7024      2.00000
    325      -5.6769      2.00000
    326      -5.6737      2.00000
    327      -5.6495      2.00000
    328      -5.6266      2.00000
    329      -5.6096      2.00000
    330      -5.5738      2.00000
    331      -5.5719      2.00000
    332      -5.5698      2.00000
    333      -5.5629      2.00000
    334      -5.5460      2.00000
    335      -5.5402      2.00000
    336      -5.5355      2.00000
    337      -5.5293      2.00000
    338      -5.5274      2.00000
    339      -5.5225      2.00000
    340      -5.5084      2.00000
    341      -5.4868      2.00000
    342      -5.4571      2.00000
    343      -5.4417      2.00000
    344      -5.4316      2.00000
    345      -5.4080      2.00000
    346      -5.3963      2.00000
    347      -5.3802      2.00000
    348      -5.3593      2.00000
    349      -5.3532      2.00000
    350      -5.3039      2.00000
    351      -5.3006      2.00000
    352      -5.2813      2.00000
    353      -5.2730      2.00000
    354      -5.2463      2.00000
    355      -5.2386      2.00000
    356      -5.2317      2.00000
    357      -5.2224      2.00000
    358      -5.1442      2.00000
    359      -5.0951      2.00000
    360      -5.0629      2.00000
    361      -5.0607      2.00000
    362      -4.9595      2.00000
    363      -4.9487      2.00000
    364      -4.9075      2.00000
    365      -4.9012      2.00000
    366      -4.8565      2.00000
    367      -4.8302      2.00000
    368      -4.8296      2.00000
    369      -4.8020      2.00000
    370      -4.7813      2.00000
    371      -4.7111      2.00000
    372      -4.7098      2.00000
    373      -4.6993      2.00000
    374      -4.6880      2.00000
    375      -4.6122      2.00000
    376      -4.5828      2.00000
    377      -4.5679      2.00000
    378      -4.5597      2.00000
    379      -4.5564      2.00000
    380      -4.5475      2.00000
    381      -4.5121      2.00000
    382      -4.5092      2.00000
    383      -4.4990      2.00000
    384      -4.4931      2.00000
    385      -4.4683      2.00000
    386      -4.4264      1.99993
    387      -4.4025      1.99973
    388      -4.3663      1.99827
    389      -4.3170      1.98519
    390      -4.3145      1.98367
    391      -4.3031      1.97486
    392      -4.2832      1.94982
    393      -4.2730      1.93027
    394      -4.2357      1.80175
    395      -4.1851      1.43175
    396      -4.1612      1.18444
    397      -4.1610      1.18211
    398      -4.0158      0.06835
    399      -3.9530      0.00671
    400      -3.9470      0.00516
    401      -3.9376      0.00340
    402      -3.9189      0.00141
    403      -3.8933      0.00038
    404      -3.8406      0.00002
    405      -3.8368      0.00001
    406      -3.7894      0.00000
    407      -3.7705      0.00000
    408      -3.7495      0.00000
    409      -3.1617      0.00000
    410      -3.0422      0.00000
    411      -2.6147      0.00000
    412      -2.5073      0.00000
    413      -1.8640      0.00000
    414      -1.7868      0.00000
    415      -1.1657      0.00000
    416      -1.0725      0.00000
    417      -0.8739      0.00000
    418      -0.8583      0.00000
    419      -0.6059      0.00000
    420      -0.5261      0.00000
    421      -0.4788      0.00000
    422      -0.4113      0.00000
    423      -0.3583      0.00000
    424      -0.2948      0.00000
    425      -0.2600      0.00000
    426      -0.2226      0.00000
    427      -0.2185      0.00000
    428      -0.2055      0.00000
    429      -0.1903      0.00000
    430      -0.0514      0.00000
    431      -0.0095      0.00000
    432       0.0160      0.00000
    433       0.0176      0.00000
    434       0.0216      0.00000
    435       0.0366      0.00000
    436       0.0414      0.00000
    437       0.0601      0.00000
    438       0.0730      0.00000
    439       0.1063      0.00000
    440       0.1350      0.00000
    441       0.1550      0.00000
    442       0.1830      0.00000
    443       0.2021      0.00000
    444       0.2428      0.00000
    445       0.2792      0.00000
    446       0.2907      0.00000
    447       0.3123      0.00000
    448       0.3161      0.00000
    449       0.3786      0.00000
    450       0.3838      0.00000
    451       0.4398      0.00000
    452       0.5032      0.00000
    453       0.5119      0.00000
    454       0.5286      0.00000
    455       0.5957      0.00000
    456       0.5970      0.00000
    457       0.6243      0.00000
    458       0.6425      0.00000
    459       0.6452      0.00000
    460       0.6750      0.00000
    461       0.6998      0.00000
    462       0.7360      0.00000
    463       0.7369      0.00000
    464       0.7468      0.00000
    465       0.7550      0.00000
    466       0.8105      0.00000
    467       0.8308      0.00000
    468       0.8317      0.00000
    469       0.9132      0.00000
    470       0.9313      0.00000
    471       0.9631      0.00000
    472       1.0011      0.00000
    473       1.0466      0.00000
    474       1.0480      0.00000
    475       1.0545      0.00000
    476       1.0813      0.00000
    477       1.1003      0.00000
    478       1.1166      0.00000
    479       1.1260      0.00000
    480       1.1440      0.00000
    481       1.1473      0.00000
    482       1.1892      0.00000
    483       1.2189      0.00000
    484       1.2499      0.00000
    485       1.2601      0.00000
    486       1.2717      0.00000
    487       1.3500      0.00000
    488       1.3949      0.00000
    489       1.4383      0.00000
    490       1.4806      0.00000
    491       1.4829      0.00000
    492       1.5500      0.00000
    493       1.5585      0.00000
    494       1.5615      0.00000
    495       1.5771      0.00000
    496       1.5901      0.00000
    497       1.6037      0.00000
    498       1.6077      0.00000
    499       1.6349      0.00000
    500       1.6547      0.00000
    501       1.6846      0.00000
    502       1.6985      0.00000
    503       1.7145      0.00000
    504       1.7185      0.00000
    505       1.7802      0.00000
    506       1.7811      0.00000
    507       1.7885      0.00000
    508       1.7943      0.00000
    509       1.8467      0.00000
    510       1.8628      0.00000
    511       1.8881      0.00000
    512       1.9197      0.00000
    513       1.9247      0.00000
    514       1.9485      0.00000
    515       1.9835      0.00000
    516       2.0205      0.00000
    517       2.0406      0.00000
    518       2.0610      0.00000
    519       2.1790      0.00000
    520       2.1828      0.00000
    521       2.2121      0.00000
    522       2.2383      0.00000
    523       2.2453      0.00000
    524       2.2594      0.00000
    525       2.2808      0.00000
    526       2.2949      0.00000
    527       2.3118      0.00000
    528       2.3137      0.00000
    529       2.3314      0.00000
    530       2.3410      0.00000
    531       2.3509      0.00000
    532       2.3550      0.00000
    533       2.4226      0.00000
    534       2.4532      0.00000
    535       2.4539      0.00000
    536       2.4572      0.00000
    537       2.4624      0.00000
    538       2.4749      0.00000
    539       2.4870      0.00000
    540       2.4923      0.00000
    541       2.5173      0.00000
    542       2.5199      0.00000
    543       2.5445      0.00000
    544       2.5626      0.00000
    545       2.5699      0.00000
    546       2.5989      0.00000
    547       2.5995      0.00000
    548       2.6237      0.00000
    549       2.6245      0.00000
    550       2.6263      0.00000
    551       2.6435      0.00000
    552       2.7651      0.00000

 k-point     4 :       0.1250   -0.3333    0.0000
  band No.  band energies     occupation 
      1     -18.4583      2.00000
      2     -18.4286      2.00000
      3     -18.3646      2.00000
      4     -18.3240      2.00000
      5     -18.2956      2.00000
      6     -18.2759      2.00000
      7     -18.2517      2.00000
      8     -18.2349      2.00000
      9     -18.2002      2.00000
     10     -18.1607      2.00000
     11     -18.1440      2.00000
     12     -18.1407      2.00000
     13     -18.1208      2.00000
     14     -18.0990      2.00000
     15     -18.0720      2.00000
     16     -18.0302      2.00000
     17     -18.0111      2.00000
     18     -17.9716      2.00000
     19     -17.7368      2.00000
     20     -17.7223      2.00000
     21     -17.7168      2.00000
     22     -17.6267      2.00000
     23     -17.6103      2.00000
     24     -17.5968      2.00000
     25     -17.5916      2.00000
     26     -17.5841      2.00000
     27     -17.5651      2.00000
     28     -17.4996      2.00000
     29     -17.4596      2.00000
     30     -17.4447      2.00000
     31     -17.4415      2.00000
     32     -17.3342      2.00000
     33     -17.3150      2.00000
     34     -17.2788      2.00000
     35     -17.2104      2.00000
     36     -17.1579      2.00000
     37     -14.6392      2.00000
     38     -14.6332      2.00000
     39     -14.5280      2.00000
     40     -14.5201      2.00000
     41     -14.5092      2.00000
     42     -14.4896      2.00000
     43     -14.4824      2.00000
     44     -14.4796      2.00000
     45     -14.4549      2.00000
     46     -14.4276      2.00000
     47     -14.4125      2.00000
     48     -14.3898      2.00000
     49     -14.3810      2.00000
     50     -14.3647      2.00000
     51     -14.3634      2.00000
     52     -14.3596      2.00000
     53     -14.3236      2.00000
     54     -14.3185      2.00000
     55     -14.2530      2.00000
     56     -14.1997      2.00000
     57     -14.1850      2.00000
     58     -14.1625      2.00000
     59     -14.1387      2.00000
     60     -14.1208      2.00000
     61     -14.1009      2.00000
     62     -14.0893      2.00000
     63     -14.0711      2.00000
     64     -14.0427      2.00000
     65     -14.0282      2.00000
     66     -14.0273      2.00000
     67     -13.9945      2.00000
     68     -13.9873      2.00000
     69     -13.9774      2.00000
     70     -13.9071      2.00000
     71     -13.8065      2.00000
     72     -13.7001      2.00000
     73     -12.7047      2.00000
     74     -12.5454      2.00000
     75     -12.2339      2.00000
     76     -12.0845      2.00000
     77     -11.9788      2.00000
     78     -11.9545      2.00000
     79     -11.9184      2.00000
     80     -11.9182      2.00000
     81     -11.8717      2.00000
     82     -11.8284      2.00000
     83     -11.8184      2.00000
     84     -11.8047      2.00000
     85     -11.7970      2.00000
     86     -11.7837      2.00000
     87     -11.7273      2.00000
     88     -11.7246      2.00000
     89     -11.6796      2.00000
     90     -11.6750      2.00000
     91     -11.6428      2.00000
     92     -11.6375      2.00000
     93     -11.6306      2.00000
     94     -11.5870      2.00000
     95     -11.5361      2.00000
     96     -11.5236      2.00000
     97     -11.5181      2.00000
     98     -11.5129      2.00000
     99     -11.4351      2.00000
    100     -11.3644      2.00000
    101     -11.3453      2.00000
    102     -11.3404      2.00000
    103     -11.3316      2.00000
    104     -11.2394      2.00000
    105     -11.1881      2.00000
    106     -11.1698      2.00000
    107     -11.1588      2.00000
    108     -11.1497      2.00000
    109     -11.1262      2.00000
    110     -11.1054      2.00000
    111     -11.0972      2.00000
    112     -11.0929      2.00000
    113     -11.0419      2.00000
    114     -11.0139      2.00000
    115     -11.0058      2.00000
    116     -10.9913      2.00000
    117     -10.9843      2.00000
    118     -10.9609      2.00000
    119     -10.9540      2.00000
    120     -10.9448      2.00000
    121     -10.8784      2.00000
    122     -10.8006      2.00000
    123     -10.8002      2.00000
    124     -10.7848      2.00000
    125     -10.7814      2.00000
    126     -10.7318      2.00000
    127     -10.7098      2.00000
    128     -10.7033      2.00000
    129     -10.6266      2.00000
    130     -10.5986      2.00000
    131     -10.5766      2.00000
    132     -10.5625      2.00000
    133     -10.5399      2.00000
    134     -10.5176      2.00000
    135     -10.4702      2.00000
    136     -10.4490      2.00000
    137     -10.4310      2.00000
    138     -10.4138      2.00000
    139     -10.3608      2.00000
    140     -10.3344      2.00000
    141     -10.2721      2.00000
    142     -10.2694      2.00000
    143     -10.2625      2.00000
    144     -10.2293      2.00000
    145     -10.1446      2.00000
    146     -10.1223      2.00000
    147     -10.1156      2.00000
    148     -10.0373      2.00000
    149      -9.9957      2.00000
    150      -9.9834      2.00000
    151      -9.9819      2.00000
    152      -9.9674      2.00000
    153      -9.9553      2.00000
    154      -9.9015      2.00000
    155      -9.8759      2.00000
    156      -9.8719      2.00000
    157      -9.8343      2.00000
    158      -9.8339      2.00000
    159      -9.8262      2.00000
    160      -9.7474      2.00000
    161      -9.6720      2.00000
    162      -9.6538      2.00000
    163      -9.5773      2.00000
    164      -9.5598      2.00000
    165      -9.5317      2.00000
    166      -9.4348      2.00000
    167      -9.3334      2.00000
    168      -9.1718      2.00000
    169      -9.1436      2.00000
    170      -9.0655      2.00000
    171      -8.9795      2.00000
    172      -8.9717      2.00000
    173      -8.9342      2.00000
    174      -8.8753      2.00000
    175      -8.8741      2.00000
    176      -8.8701      2.00000
    177      -8.8294      2.00000
    178      -8.8027      2.00000
    179      -8.7904      2.00000
    180      -8.7352      2.00000
    181      -8.7287      2.00000
    182      -8.7095      2.00000
    183      -8.6679      2.00000
    184      -8.6267      2.00000
    185      -8.4375      2.00000
    186      -8.3669      2.00000
    187      -8.3611      2.00000
    188      -8.3147      2.00000
    189      -8.3074      2.00000
    190      -8.2684      2.00000
    191      -8.2620      2.00000
    192      -8.2465      2.00000
    193      -8.2317      2.00000
    194      -8.2158      2.00000
    195      -8.1910      2.00000
    196      -8.1794      2.00000
    197      -8.1767      2.00000
    198      -8.1718      2.00000
    199      -8.1628      2.00000
    200      -8.1509      2.00000
    201      -8.1296      2.00000
    202      -8.1145      2.00000
    203      -8.1092      2.00000
    204      -8.1078      2.00000
    205      -8.1034      2.00000
    206      -8.1015      2.00000
    207      -8.0964      2.00000
    208      -8.0865      2.00000
    209      -8.0860      2.00000
    210      -8.0741      2.00000
    211      -8.0662      2.00000
    212      -8.0553      2.00000
    213      -8.0308      2.00000
    214      -8.0145      2.00000
    215      -7.9258      2.00000
    216      -7.8837      2.00000
    217      -7.8592      2.00000
    218      -7.7856      2.00000
    219      -7.6623      2.00000
    220      -7.6212      2.00000
    221      -7.6180      2.00000
    222      -7.5627      2.00000
    223      -7.5514      2.00000
    224      -7.5272      2.00000
    225      -7.5206      2.00000
    226      -7.5203      2.00000
    227      -7.5003      2.00000
    228      -7.4849      2.00000
    229      -7.4712      2.00000
    230      -7.4557      2.00000
    231      -7.4414      2.00000
    232      -7.4265      2.00000
    233      -7.4020      2.00000
    234      -7.3490      2.00000
    235      -7.3378      2.00000
    236      -7.3346      2.00000
    237      -7.2827      2.00000
    238      -7.2798      2.00000
    239      -7.2696      2.00000
    240      -7.2455      2.00000
    241      -7.2445      2.00000
    242      -7.1932      2.00000
    243      -7.1679      2.00000
    244      -7.1484      2.00000
    245      -7.1182      2.00000
    246      -7.1069      2.00000
    247      -7.1061      2.00000
    248      -7.0929      2.00000
    249      -7.0618      2.00000
    250      -7.0381      2.00000
    251      -7.0352      2.00000
    252      -7.0332      2.00000
    253      -7.0303      2.00000
    254      -7.0299      2.00000
    255      -7.0203      2.00000
    256      -7.0054      2.00000
    257      -7.0044      2.00000
    258      -7.0027      2.00000
    259      -6.9984      2.00000
    260      -6.9963      2.00000
    261      -6.9826      2.00000
    262      -6.9763      2.00000
    263      -6.9362      2.00000
    264      -6.9200      2.00000
    265      -6.8612      2.00000
    266      -6.8340      2.00000
    267      -6.8333      2.00000
    268      -6.8061      2.00000
    269      -6.8056      2.00000
    270      -6.7574      2.00000
    271      -6.7359      2.00000
    272      -6.6967      2.00000
    273      -6.6550      2.00000
    274      -6.6427      2.00000
    275      -6.5834      2.00000
    276      -6.5801      2.00000
    277      -6.5315      2.00000
    278      -6.5201      2.00000
    279      -6.5006      2.00000
    280      -6.4813      2.00000
    281      -6.4577      2.00000
    282      -6.4528      2.00000
    283      -6.4493      2.00000
    284      -6.4476      2.00000
    285      -6.4213      2.00000
    286      -6.4087      2.00000
    287      -6.3989      2.00000
    288      -6.3963      2.00000
    289      -6.3306      2.00000
    290      -6.2904      2.00000
    291      -6.2746      2.00000
    292      -6.2637      2.00000
    293      -6.2585      2.00000
    294      -6.2499      2.00000
    295      -6.2452      2.00000
    296      -6.2146      2.00000
    297      -6.1561      2.00000
    298      -6.1475      2.00000
    299      -6.1396      2.00000
    300      -6.1260      2.00000
    301      -6.0908      2.00000
    302      -6.0726      2.00000
    303      -6.0182      2.00000
    304      -6.0117      2.00000
    305      -5.9878      2.00000
    306      -5.9840      2.00000
    307      -5.9802      2.00000
    308      -5.9679      2.00000
    309      -5.9402      2.00000
    310      -5.9236      2.00000
    311      -5.9056      2.00000
    312      -5.9042      2.00000
    313      -5.9039      2.00000
    314      -5.8975      2.00000
    315      -5.8960      2.00000
    316      -5.8491      2.00000
    317      -5.8249      2.00000
    318      -5.8235      2.00000
    319      -5.7984      2.00000
    320      -5.7752      2.00000
    321      -5.7679      2.00000
    322      -5.7076      2.00000
    323      -5.7038      2.00000
    324      -5.7025      2.00000
    325      -5.6771      2.00000
    326      -5.6735      2.00000
    327      -5.6494      2.00000
    328      -5.6266      2.00000
    329      -5.6094      2.00000
    330      -5.5737      2.00000
    331      -5.5721      2.00000
    332      -5.5698      2.00000
    333      -5.5630      2.00000
    334      -5.5458      2.00000
    335      -5.5402      2.00000
    336      -5.5356      2.00000
    337      -5.5294      2.00000
    338      -5.5274      2.00000
    339      -5.5224      2.00000
    340      -5.5082      2.00000
    341      -5.4868      2.00000
    342      -5.4573      2.00000
    343      -5.4416      2.00000
    344      -5.4314      2.00000
    345      -5.4080      2.00000
    346      -5.3963      2.00000
    347      -5.3805      2.00000
    348      -5.3594      2.00000
    349      -5.3533      2.00000
    350      -5.3038      2.00000
    351      -5.3007      2.00000
    352      -5.2813      2.00000
    353      -5.2732      2.00000
    354      -5.2462      2.00000
    355      -5.2386      2.00000
    356      -5.2318      2.00000
    357      -5.2224      2.00000
    358      -5.1440      2.00000
    359      -5.0951      2.00000
    360      -5.0629      2.00000
    361      -5.0606      2.00000
    362      -4.9596      2.00000
    363      -4.9486      2.00000
    364      -4.9075      2.00000
    365      -4.9013      2.00000
    366      -4.8563      2.00000
    367      -4.8303      2.00000
    368      -4.8298      2.00000
    369      -4.8019      2.00000
    370      -4.7813      2.00000
    371      -4.7110      2.00000
    372      -4.7098      2.00000
    373      -4.6992      2.00000
    374      -4.6880      2.00000
    375      -4.6122      2.00000
    376      -4.5829      2.00000
    377      -4.5678      2.00000
    378      -4.5597      2.00000
    379      -4.5563      2.00000
    380      -4.5474      2.00000
    381      -4.5122      2.00000
    382      -4.5092      2.00000
    383      -4.4990      2.00000
    384      -4.4931      2.00000
    385      -4.4683      2.00000
    386      -4.4264      1.99993
    387      -4.4025      1.99973
    388      -4.3662      1.99826
    389      -4.3171      1.98525
    390      -4.3146      1.98369
    391      -4.3031      1.97493
    392      -4.2831      1.94967
    393      -4.2730      1.93044
    394      -4.2357      1.80191
    395      -4.1851      1.43203
    396      -4.1611      1.18287
    397      -4.1610      1.18271
    398      -4.0159      0.06840
    399      -3.9530      0.00671
    400      -3.9469      0.00516
    401      -3.9377      0.00341
    402      -3.9188      0.00140
    403      -3.8933      0.00038
    404      -3.8406      0.00002
    405      -3.8368      0.00001
    406      -3.7894      0.00000
    407      -3.7705      0.00000
    408      -3.7495      0.00000
    409      -3.1617      0.00000
    410      -3.0422      0.00000
    411      -2.6147      0.00000
    412      -2.5073      0.00000
    413      -1.8639      0.00000
    414      -1.7868      0.00000
    415      -1.1658      0.00000
    416      -1.0725      0.00000
    417      -0.8739      0.00000
    418      -0.8583      0.00000
    419      -0.6059      0.00000
    420      -0.5261      0.00000
    421      -0.4787      0.00000
    422      -0.4114      0.00000
    423      -0.3584      0.00000
    424      -0.2948      0.00000
    425      -0.2600      0.00000
    426      -0.2226      0.00000
    427      -0.2184      0.00000
    428      -0.2055      0.00000
    429      -0.1904      0.00000
    430      -0.0515      0.00000
    431      -0.0095      0.00000
    432       0.0161      0.00000
    433       0.0173      0.00000
    434       0.0217      0.00000
    435       0.0366      0.00000
    436       0.0413      0.00000
    437       0.0600      0.00000
    438       0.0733      0.00000
    439       0.1063      0.00000
    440       0.1351      0.00000
    441       0.1550      0.00000
    442       0.1830      0.00000
    443       0.2021      0.00000
    444       0.2428      0.00000
    445       0.2792      0.00000
    446       0.2908      0.00000
    447       0.3125      0.00000
    448       0.3160      0.00000
    449       0.3787      0.00000
    450       0.3836      0.00000
    451       0.4396      0.00000
    452       0.5034      0.00000
    453       0.5119      0.00000
    454       0.5284      0.00000
    455       0.5957      0.00000
    456       0.5973      0.00000
    457       0.6245      0.00000
    458       0.6425      0.00000
    459       0.6454      0.00000
    460       0.6750      0.00000
    461       0.6997      0.00000
    462       0.7358      0.00000
    463       0.7370      0.00000
    464       0.7468      0.00000
    465       0.7548      0.00000
    466       0.8103      0.00000
    467       0.8308      0.00000
    468       0.8317      0.00000
    469       0.9130      0.00000
    470       0.9313      0.00000
    471       0.9631      0.00000
    472       1.0014      0.00000
    473       1.0465      0.00000
    474       1.0479      0.00000
    475       1.0544      0.00000
    476       1.0814      0.00000
    477       1.1004      0.00000
    478       1.1170      0.00000
    479       1.1260      0.00000
    480       1.1438      0.00000
    481       1.1472      0.00000
    482       1.1893      0.00000
    483       1.2188      0.00000
    484       1.2498      0.00000
    485       1.2601      0.00000
    486       1.2718      0.00000
    487       1.3499      0.00000
    488       1.3950      0.00000
    489       1.4381      0.00000
    490       1.4808      0.00000
    491       1.4831      0.00000
    492       1.5501      0.00000
    493       1.5584      0.00000
    494       1.5615      0.00000
    495       1.5771      0.00000
    496       1.5899      0.00000
    497       1.6037      0.00000
    498       1.6078      0.00000
    499       1.6348      0.00000
    500       1.6543      0.00000
    501       1.6845      0.00000
    502       1.6990      0.00000
    503       1.7144      0.00000
    504       1.7186      0.00000
    505       1.7801      0.00000
    506       1.7816      0.00000
    507       1.7886      0.00000
    508       1.7943      0.00000
    509       1.8464      0.00000
    510       1.8624      0.00000
    511       1.8881      0.00000
    512       1.9199      0.00000
    513       1.9248      0.00000
    514       1.9489      0.00000
    515       1.9830      0.00000
    516       2.0203      0.00000
    517       2.0406      0.00000
    518       2.0608      0.00000
    519       2.1790      0.00000
    520       2.1823      0.00000
    521       2.2123      0.00000
    522       2.2385      0.00000
    523       2.2453      0.00000
    524       2.2596      0.00000
    525       2.2809      0.00000
    526       2.2946      0.00000
    527       2.3118      0.00000
    528       2.3138      0.00000
    529       2.3315      0.00000
    530       2.3410      0.00000
    531       2.3512      0.00000
    532       2.3550      0.00000
    533       2.4227      0.00000
    534       2.4532      0.00000
    535       2.4536      0.00000
    536       2.4572      0.00000
    537       2.4623      0.00000
    538       2.4750      0.00000
    539       2.4866      0.00000
    540       2.4927      0.00000
    541       2.5172      0.00000
    542       2.5201      0.00000
    543       2.5503      0.00000
    544       2.5626      0.00000
    545       2.5700      0.00000
    546       2.5985      0.00000
    547       2.5996      0.00000
    548       2.6240      0.00000
    549       2.6244      0.00000
    550       2.6275      0.00000
    551       2.6437      0.00000
    552       2.7628      0.00000

 k-point     5 :       0.3750    0.3333    0.0000
  band No.  band energies     occupation 
      1     -18.4271      2.00000
      2     -18.3983      2.00000
      3     -18.3658      2.00000
      4     -18.3386      2.00000
      5     -18.3362      2.00000
      6     -18.2933      2.00000
      7     -18.2806      2.00000
      8     -18.2657      2.00000
      9     -18.2326      2.00000
     10     -18.2069      2.00000
     11     -18.2067      2.00000
     12     -18.1517      2.00000
     13     -18.0245      2.00000
     14     -18.0106      2.00000
     15     -17.9827      2.00000
     16     -17.8957      2.00000
     17     -17.8824      2.00000
     18     -17.8737      2.00000
     19     -17.8682      2.00000
     20     -17.8588      2.00000
     21     -17.8559      2.00000
     22     -17.7467      2.00000
     23     -17.7414      2.00000
     24     -17.7324      2.00000
     25     -17.5376      2.00000
     26     -17.4760      2.00000
     27     -17.4660      2.00000
     28     -17.4322      2.00000
     29     -17.4096      2.00000
     30     -17.3797      2.00000
     31     -17.3469      2.00000
     32     -17.3420      2.00000
     33     -17.3325      2.00000
     34     -17.3099      2.00000
     35     -17.2559      2.00000
     36     -17.2111      2.00000
     37     -14.5943      2.00000
     38     -14.5733      2.00000
     39     -14.5343      2.00000
     40     -14.5182      2.00000
     41     -14.5094      2.00000
     42     -14.4863      2.00000
     43     -14.4825      2.00000
     44     -14.4686      2.00000
     45     -14.4660      2.00000
     46     -14.4470      2.00000
     47     -14.4233      2.00000
     48     -14.4155      2.00000
     49     -14.4049      2.00000
     50     -14.4013      2.00000
     51     -14.3835      2.00000
     52     -14.3622      2.00000
     53     -14.3399      2.00000
     54     -14.2964      2.00000
     55     -14.2843      2.00000
     56     -14.2834      2.00000
     57     -14.2039      2.00000
     58     -14.1801      2.00000
     59     -14.1736      2.00000
     60     -14.1061      2.00000
     61     -14.0935      2.00000
     62     -14.0931      2.00000
     63     -14.0305      2.00000
     64     -14.0168      2.00000
     65     -14.0045      2.00000
     66     -13.9834      2.00000
     67     -13.9756      2.00000
     68     -13.9182      2.00000
     69     -13.9007      2.00000
     70     -13.8900      2.00000
     71     -13.8768      2.00000
     72     -13.7675      2.00000
     73     -12.5189      2.00000
     74     -12.3647      2.00000
     75     -12.1937      2.00000
     76     -12.1849      2.00000
     77     -12.0972      2.00000
     78     -12.0453      2.00000
     79     -12.0264      2.00000
     80     -11.9252      2.00000
     81     -11.9202      2.00000
     82     -11.9016      2.00000
     83     -11.8601      2.00000
     84     -11.8358      2.00000
     85     -11.7856      2.00000
     86     -11.7691      2.00000
     87     -11.7581      2.00000
     88     -11.7362      2.00000
     89     -11.7218      2.00000
     90     -11.7214      2.00000
     91     -11.6670      2.00000
     92     -11.6518      2.00000
     93     -11.6428      2.00000
     94     -11.5984      2.00000
     95     -11.5436      2.00000
     96     -11.4586      2.00000
     97     -11.4562      2.00000
     98     -11.4423      2.00000
     99     -11.4026      2.00000
    100     -11.3583      2.00000
    101     -11.3393      2.00000
    102     -11.3171      2.00000
    103     -11.2599      2.00000
    104     -11.2510      2.00000
    105     -11.2500      2.00000
    106     -11.2420      2.00000
    107     -11.2345      2.00000
    108     -11.1974      2.00000
    109     -11.1820      2.00000
    110     -11.1273      2.00000
    111     -11.0879      2.00000
    112     -11.0810      2.00000
    113     -11.0518      2.00000
    114     -11.0259      2.00000
    115     -11.0133      2.00000
    116     -11.0043      2.00000
    117     -10.9156      2.00000
    118     -10.9109      2.00000
    119     -10.9080      2.00000
    120     -10.8991      2.00000
    121     -10.8345      2.00000
    122     -10.8337      2.00000
    123     -10.7626      2.00000
    124     -10.7486      2.00000
    125     -10.7479      2.00000
    126     -10.6975      2.00000
    127     -10.6780      2.00000
    128     -10.6672      2.00000
    129     -10.6311      2.00000
    130     -10.6282      2.00000
    131     -10.5688      2.00000
    132     -10.5530      2.00000
    133     -10.5115      2.00000
    134     -10.5051      2.00000
    135     -10.4757      2.00000
    136     -10.4591      2.00000
    137     -10.4273      2.00000
    138     -10.3778      2.00000
    139     -10.3677      2.00000
    140     -10.3174      2.00000
    141     -10.3011      2.00000
    142     -10.2780      2.00000
    143     -10.2287      2.00000
    144     -10.1611      2.00000
    145     -10.1418      2.00000
    146     -10.1348      2.00000
    147     -10.1260      2.00000
    148     -10.0625      2.00000
    149     -10.0117      2.00000
    150      -9.9390      2.00000
    151      -9.9276      2.00000
    152      -9.9187      2.00000
    153      -9.8893      2.00000
    154      -9.8319      2.00000
    155      -9.7824      2.00000
    156      -9.7732      2.00000
    157      -9.7112      2.00000
    158      -9.7097      2.00000
    159      -9.7056      2.00000
    160      -9.7020      2.00000
    161      -9.6513      2.00000
    162      -9.6234      2.00000
    163      -9.5508      2.00000
    164      -9.5118      2.00000
    165      -9.4765      2.00000
    166      -9.4591      2.00000
    167      -9.4407      2.00000
    168      -9.3467      2.00000
    169      -9.3286      2.00000
    170      -9.3160      2.00000
    171      -9.2854      2.00000
    172      -9.2632      2.00000
    173      -9.2072      2.00000
    174      -9.1754      2.00000
    175      -9.1098      2.00000
    176      -9.0354      2.00000
    177      -8.8809      2.00000
    178      -8.7351      2.00000
    179      -8.7121      2.00000
    180      -8.6919      2.00000
    181      -8.6105      2.00000
    182      -8.5734      2.00000
    183      -8.5532      2.00000
    184      -8.5167      2.00000
    185      -8.5121      2.00000
    186      -8.3855      2.00000
    187      -8.3815      2.00000
    188      -8.3355      2.00000
    189      -8.3320      2.00000
    190      -8.3000      2.00000
    191      -8.2039      2.00000
    192      -8.2002      2.00000
    193      -8.1951      2.00000
    194      -8.1789      2.00000
    195      -8.1762      2.00000
    196      -8.1628      2.00000
    197      -8.1612      2.00000
    198      -8.1486      2.00000
    199      -8.1444      2.00000
    200      -8.1399      2.00000
    201      -8.1393      2.00000
    202      -8.1330      2.00000
    203      -8.1064      2.00000
    204      -8.0992      2.00000
    205      -8.0671      2.00000
    206      -8.0641      2.00000
    207      -8.0544      2.00000
    208      -8.0388      2.00000
    209      -8.0369      2.00000
    210      -8.0220      2.00000
    211      -7.9771      2.00000
    212      -7.9175      2.00000
    213      -7.9104      2.00000
    214      -7.8383      2.00000
    215      -7.8046      2.00000
    216      -7.7521      2.00000
    217      -7.6988      2.00000
    218      -7.6691      2.00000
    219      -7.6651      2.00000
    220      -7.6390      2.00000
    221      -7.5999      2.00000
    222      -7.5935      2.00000
    223      -7.5926      2.00000
    224      -7.5831      2.00000
    225      -7.5735      2.00000
    226      -7.5587      2.00000
    227      -7.5514      2.00000
    228      -7.5363      2.00000
    229      -7.5112      2.00000
    230      -7.4265      2.00000
    231      -7.4248      2.00000
    232      -7.3943      2.00000
    233      -7.3897      2.00000
    234      -7.3548      2.00000
    235      -7.3470      2.00000
    236      -7.3407      2.00000
    237      -7.3388      2.00000
    238      -7.3243      2.00000
    239      -7.3223      2.00000
    240      -7.2988      2.00000
    241      -7.2731      2.00000
    242      -7.2448      2.00000
    243      -7.2076      2.00000
    244      -7.2068      2.00000
    245      -7.1889      2.00000
    246      -7.1700      2.00000
    247      -7.1587      2.00000
    248      -7.1434      2.00000
    249      -7.0947      2.00000
    250      -7.0888      2.00000
    251      -7.0835      2.00000
    252      -7.0811      2.00000
    253      -7.0798      2.00000
    254      -7.0720      2.00000
    255      -7.0641      2.00000
    256      -7.0481      2.00000
    257      -7.0437      2.00000
    258      -7.0146      2.00000
    259      -7.0142      2.00000
    260      -6.9818      2.00000
    261      -6.9638      2.00000
    262      -6.9555      2.00000
    263      -6.9187      2.00000
    264      -6.9141      2.00000
    265      -6.9065      2.00000
    266      -6.9024      2.00000
    267      -6.8924      2.00000
    268      -6.8717      2.00000
    269      -6.7685      2.00000
    270      -6.7163      2.00000
    271      -6.6407      2.00000
    272      -6.6307      2.00000
    273      -6.6015      2.00000
    274      -6.5276      2.00000
    275      -6.5250      2.00000
    276      -6.4955      2.00000
    277      -6.4951      2.00000
    278      -6.4946      2.00000
    279      -6.4550      2.00000
    280      -6.4489      2.00000
    281      -6.4474      2.00000
    282      -6.4230      2.00000
    283      -6.4036      2.00000
    284      -6.3987      2.00000
    285      -6.3850      2.00000
    286      -6.3468      2.00000
    287      -6.3408      2.00000
    288      -6.3320      2.00000
    289      -6.3286      2.00000
    290      -6.3144      2.00000
    291      -6.2979      2.00000
    292      -6.2763      2.00000
    293      -6.2745      2.00000
    294      -6.2641      2.00000
    295      -6.2355      2.00000
    296      -6.2087      2.00000
    297      -6.1930      2.00000
    298      -6.1444      2.00000
    299      -6.1292      2.00000
    300      -6.0881      2.00000
    301      -6.0546      2.00000
    302      -6.0385      2.00000
    303      -6.0038      2.00000
    304      -5.9916      2.00000
    305      -5.9908      2.00000
    306      -5.9799      2.00000
    307      -5.9517      2.00000
    308      -5.9397      2.00000
    309      -5.9355      2.00000
    310      -5.9004      2.00000
    311      -5.8982      2.00000
    312      -5.8972      2.00000
    313      -5.8882      2.00000
    314      -5.8541      2.00000
    315      -5.8530      2.00000
    316      -5.8450      2.00000
    317      -5.8300      2.00000
    318      -5.8187      2.00000
    319      -5.8159      2.00000
    320      -5.8050      2.00000
    321      -5.7941      2.00000
    322      -5.7509      2.00000
    323      -5.7501      2.00000
    324      -5.7426      2.00000
    325      -5.7239      2.00000
    326      -5.7081      2.00000
    327      -5.6960      2.00000
    328      -5.6822      2.00000
    329      -5.6346      2.00000
    330      -5.6250      2.00000
    331      -5.6133      2.00000
    332      -5.6112      2.00000
    333      -5.6063      2.00000
    334      -5.5975      2.00000
    335      -5.5863      2.00000
    336      -5.5839      2.00000
    337      -5.5246      2.00000
    338      -5.4965      2.00000
    339      -5.4896      2.00000
    340      -5.4698      2.00000
    341      -5.4514      2.00000
    342      -5.4367      2.00000
    343      -5.4362      2.00000
    344      -5.4277      2.00000
    345      -5.3446      2.00000
    346      -5.3154      2.00000
    347      -5.3106      2.00000
    348      -5.3045      2.00000
    349      -5.2806      2.00000
    350      -5.2802      2.00000
    351      -5.2500      2.00000
    352      -5.2433      2.00000
    353      -5.2000      2.00000
    354      -5.1847      2.00000
    355      -5.1488      2.00000
    356      -5.1354      2.00000
    357      -5.1328      2.00000
    358      -5.1187      2.00000
    359      -5.1130      2.00000
    360      -5.0423      2.00000
    361      -5.0339      2.00000
    362      -5.0332      2.00000
    363      -5.0216      2.00000
    364      -5.0134      2.00000
    365      -4.9849      2.00000
    366      -4.9620      2.00000
    367      -4.8712      2.00000
    368      -4.8037      2.00000
    369      -4.8018      2.00000
    370      -4.7885      2.00000
    371      -4.7879      2.00000
    372      -4.7780      2.00000
    373      -4.7287      2.00000
    374      -4.7231      2.00000
    375      -4.7191      2.00000
    376      -4.7017      2.00000
    377      -4.6936      2.00000
    378      -4.6719      2.00000
    379      -4.6396      2.00000
    380      -4.6278      2.00000
    381      -4.6218      2.00000
    382      -4.6199      2.00000
    383      -4.6036      2.00000
    384      -4.5144      2.00000
    385      -4.4988      2.00000
    386      -4.4724      2.00000
    387      -4.4659      1.99999
    388      -4.4635      1.99999
    389      -4.4518      1.99999
    390      -4.4513      1.99999
    391      -4.4389      1.99997
    392      -4.4262      1.99993
    393      -4.4187      1.99989
    394      -4.3209      1.98726
    395      -4.1750      1.33175
    396      -4.1476      1.03293
    397      -4.1050      0.57477
    398      -4.0974      0.50335
    399      -4.0969      0.49857
    400      -3.9792      0.01925
    401      -3.7921      0.00000
    402      -3.7388      0.00000
    403      -3.5696      0.00000
    404      -3.4770      0.00000
    405      -3.3179      0.00000
    406      -3.3040      0.00000
    407      -3.2254      0.00000
    408      -3.1958      0.00000
    409      -3.1669      0.00000
    410      -3.0524      0.00000
    411      -2.8785      0.00000
    412      -2.7785      0.00000
    413      -2.4535      0.00000
    414      -2.3465      0.00000
    415      -1.0925      0.00000
    416      -0.9705      0.00000
    417      -0.8828      0.00000
    418      -0.7689      0.00000
    419      -0.7514      0.00000
    420      -0.6609      0.00000
    421      -0.5559      0.00000
    422      -0.3866      0.00000
    423      -0.3460      0.00000
    424      -0.3324      0.00000
    425      -0.2166      0.00000
    426      -0.2012      0.00000
    427      -0.2009      0.00000
    428      -0.1564      0.00000
    429      -0.1447      0.00000
    430      -0.0995      0.00000
    431      -0.0985      0.00000
    432      -0.0198      0.00000
    433      -0.0132      0.00000
    434      -0.0012      0.00000
    435       0.0213      0.00000
    436       0.1028      0.00000
    437       0.1178      0.00000
    438       0.1569      0.00000
    439       0.2139      0.00000
    440       0.2317      0.00000
    441       0.2846      0.00000
    442       0.2881      0.00000
    443       0.3367      0.00000
    444       0.3378      0.00000
    445       0.3440      0.00000
    446       0.3489      0.00000
    447       0.3552      0.00000
    448       0.3875      0.00000
    449       0.3943      0.00000
    450       0.4093      0.00000
    451       0.4312      0.00000
    452       0.4609      0.00000
    453       0.4798      0.00000
    454       0.4951      0.00000
    455       0.5078      0.00000
    456       0.5100      0.00000
    457       0.5195      0.00000
    458       0.5444      0.00000
    459       0.5742      0.00000
    460       0.6041      0.00000
    461       0.6629      0.00000
    462       0.6675      0.00000
    463       0.6716      0.00000
    464       0.7873      0.00000
    465       0.7880      0.00000
    466       0.8129      0.00000
    467       0.8138      0.00000
    468       0.8831      0.00000
    469       1.0134      0.00000
    470       1.1313      0.00000
    471       1.1505      0.00000
    472       1.1827      0.00000
    473       1.1869      0.00000
    474       1.2138      0.00000
    475       1.2297      0.00000
    476       1.2409      0.00000
    477       1.2479      0.00000
    478       1.2587      0.00000
    479       1.2895      0.00000
    480       1.2935      0.00000
    481       1.3020      0.00000
    482       1.3044      0.00000
    483       1.3058      0.00000
    484       1.3133      0.00000
    485       1.3348      0.00000
    486       1.3702      0.00000
    487       1.4183      0.00000
    488       1.4213      0.00000
    489       1.4359      0.00000
    490       1.4429      0.00000
    491       1.4436      0.00000
    492       1.5031      0.00000
    493       1.5049      0.00000
    494       1.5273      0.00000
    495       1.5370      0.00000
    496       1.5539      0.00000
    497       1.5576      0.00000
    498       1.5590      0.00000
    499       1.5838      0.00000
    500       1.5877      0.00000
    501       1.6049      0.00000
    502       1.6270      0.00000
    503       1.6707      0.00000
    504       1.6859      0.00000
    505       1.7011      0.00000
    506       1.7139      0.00000
    507       1.7201      0.00000
    508       1.7362      0.00000
    509       1.7536      0.00000
    510       1.7628      0.00000
    511       1.8215      0.00000
    512       1.8351      0.00000
    513       1.8589      0.00000
    514       1.8771      0.00000
    515       1.8889      0.00000
    516       1.8927      0.00000
    517       1.9198      0.00000
    518       1.9221      0.00000
    519       1.9226      0.00000
    520       1.9604      0.00000
    521       1.9685      0.00000
    522       2.0281      0.00000
    523       2.1183      0.00000
    524       2.1314      0.00000
    525       2.1370      0.00000
    526       2.2186      0.00000
    527       2.2213      0.00000
    528       2.2273      0.00000
    529       2.2590      0.00000
    530       2.2813      0.00000
    531       2.3220      0.00000
    532       2.3235      0.00000
    533       2.3325      0.00000
    534       2.4168      0.00000
    535       2.4323      0.00000
    536       2.4331      0.00000
    537       2.4847      0.00000
    538       2.4865      0.00000
    539       2.4957      0.00000
    540       2.5177      0.00000
    541       2.5306      0.00000
    542       2.5810      0.00000
    543       2.5821      0.00000
    544       2.5850      0.00000
    545       2.6408      0.00000
    546       2.6450      0.00000
    547       2.6611      0.00000
    548       2.6654      0.00000
    549       2.6768      0.00000
    550       2.6791      0.00000
    551       2.7012      0.00000
    552       2.7103      0.00000

 k-point     6 :       0.3750   -0.3333    0.0000
  band No.  band energies     occupation 
      1     -18.4271      2.00000
      2     -18.3983      2.00000
      3     -18.3658      2.00000
      4     -18.3386      2.00000
      5     -18.3362      2.00000
      6     -18.2933      2.00000
      7     -18.2806      2.00000
      8     -18.2657      2.00000
      9     -18.2326      2.00000
     10     -18.2069      2.00000
     11     -18.2067      2.00000
     12     -18.1517      2.00000
     13     -18.0245      2.00000
     14     -18.0106      2.00000
     15     -17.9827      2.00000
     16     -17.8957      2.00000
     17     -17.8824      2.00000
     18     -17.8737      2.00000
     19     -17.8682      2.00000
     20     -17.8588      2.00000
     21     -17.8559      2.00000
     22     -17.7467      2.00000
     23     -17.7414      2.00000
     24     -17.7324      2.00000
     25     -17.5376      2.00000
     26     -17.4760      2.00000
     27     -17.4660      2.00000
     28     -17.4322      2.00000
     29     -17.4096      2.00000
     30     -17.3797      2.00000
     31     -17.3469      2.00000
     32     -17.3420      2.00000
     33     -17.3325      2.00000
     34     -17.3099      2.00000
     35     -17.2559      2.00000
     36     -17.2111      2.00000
     37     -14.5943      2.00000
     38     -14.5732      2.00000
     39     -14.5343      2.00000
     40     -14.5182      2.00000
     41     -14.5094      2.00000
     42     -14.4863      2.00000
     43     -14.4825      2.00000
     44     -14.4686      2.00000
     45     -14.4660      2.00000
     46     -14.4470      2.00000
     47     -14.4233      2.00000
     48     -14.4155      2.00000
     49     -14.4049      2.00000
     50     -14.4013      2.00000
     51     -14.3835      2.00000
     52     -14.3622      2.00000
     53     -14.3399      2.00000
     54     -14.2964      2.00000
     55     -14.2842      2.00000
     56     -14.2834      2.00000
     57     -14.2039      2.00000
     58     -14.1800      2.00000
     59     -14.1736      2.00000
     60     -14.1061      2.00000
     61     -14.0935      2.00000
     62     -14.0932      2.00000
     63     -14.0305      2.00000
     64     -14.0168      2.00000
     65     -14.0045      2.00000
     66     -13.9834      2.00000
     67     -13.9756      2.00000
     68     -13.9183      2.00000
     69     -13.9007      2.00000
     70     -13.8900      2.00000
     71     -13.8768      2.00000
     72     -13.7675      2.00000
     73     -12.5189      2.00000
     74     -12.3647      2.00000
     75     -12.1937      2.00000
     76     -12.1849      2.00000
     77     -12.0972      2.00000
     78     -12.0453      2.00000
     79     -12.0263      2.00000
     80     -11.9252      2.00000
     81     -11.9201      2.00000
     82     -11.9017      2.00000
     83     -11.8600      2.00000
     84     -11.8359      2.00000
     85     -11.7856      2.00000
     86     -11.7690      2.00000
     87     -11.7581      2.00000
     88     -11.7363      2.00000
     89     -11.7220      2.00000
     90     -11.7212      2.00000
     91     -11.6669      2.00000
     92     -11.6519      2.00000
     93     -11.6429      2.00000
     94     -11.5984      2.00000
     95     -11.5436      2.00000
     96     -11.4586      2.00000
     97     -11.4562      2.00000
     98     -11.4420      2.00000
     99     -11.4025      2.00000
    100     -11.3585      2.00000
    101     -11.3393      2.00000
    102     -11.3171      2.00000
    103     -11.2599      2.00000
    104     -11.2510      2.00000
    105     -11.2499      2.00000
    106     -11.2420      2.00000
    107     -11.2345      2.00000
    108     -11.1975      2.00000
    109     -11.1821      2.00000
    110     -11.1273      2.00000
    111     -11.0877      2.00000
    112     -11.0809      2.00000
    113     -11.0518      2.00000
    114     -11.0259      2.00000
    115     -11.0134      2.00000
    116     -11.0045      2.00000
    117     -10.9157      2.00000
    118     -10.9107      2.00000
    119     -10.9078      2.00000
    120     -10.8991      2.00000
    121     -10.8345      2.00000
    122     -10.8337      2.00000
    123     -10.7626      2.00000
    124     -10.7486      2.00000
    125     -10.7479      2.00000
    126     -10.6975      2.00000
    127     -10.6780      2.00000
    128     -10.6672      2.00000
    129     -10.6311      2.00000
    130     -10.6280      2.00000
    131     -10.5688      2.00000
    132     -10.5529      2.00000
    133     -10.5115      2.00000
    134     -10.5051      2.00000
    135     -10.4757      2.00000
    136     -10.4591      2.00000
    137     -10.4271      2.00000
    138     -10.3779      2.00000
    139     -10.3678      2.00000
    140     -10.3176      2.00000
    141     -10.3011      2.00000
    142     -10.2780      2.00000
    143     -10.2288      2.00000
    144     -10.1610      2.00000
    145     -10.1418      2.00000
    146     -10.1348      2.00000
    147     -10.1260      2.00000
    148     -10.0626      2.00000
    149     -10.0117      2.00000
    150      -9.9390      2.00000
    151      -9.9277      2.00000
    152      -9.9187      2.00000
    153      -9.8893      2.00000
    154      -9.8320      2.00000
    155      -9.7824      2.00000
    156      -9.7732      2.00000
    157      -9.7112      2.00000
    158      -9.7097      2.00000
    159      -9.7056      2.00000
    160      -9.7020      2.00000
    161      -9.6515      2.00000
    162      -9.6234      2.00000
    163      -9.5508      2.00000
    164      -9.5119      2.00000
    165      -9.4765      2.00000
    166      -9.4590      2.00000
    167      -9.4407      2.00000
    168      -9.3466      2.00000
    169      -9.3284      2.00000
    170      -9.3160      2.00000
    171      -9.2854      2.00000
    172      -9.2630      2.00000
    173      -9.2072      2.00000
    174      -9.1755      2.00000
    175      -9.1097      2.00000
    176      -9.0356      2.00000
    177      -8.8808      2.00000
    178      -8.7351      2.00000
    179      -8.7121      2.00000
    180      -8.6920      2.00000
    181      -8.6106      2.00000
    182      -8.5734      2.00000
    183      -8.5533      2.00000
    184      -8.5168      2.00000
    185      -8.5119      2.00000
    186      -8.3856      2.00000
    187      -8.3813      2.00000
    188      -8.3355      2.00000
    189      -8.3319      2.00000
    190      -8.3000      2.00000
    191      -8.2039      2.00000
    192      -8.2001      2.00000
    193      -8.1951      2.00000
    194      -8.1789      2.00000
    195      -8.1762      2.00000
    196      -8.1629      2.00000
    197      -8.1612      2.00000
    198      -8.1487      2.00000
    199      -8.1444      2.00000
    200      -8.1399      2.00000
    201      -8.1393      2.00000
    202      -8.1330      2.00000
    203      -8.1064      2.00000
    204      -8.0992      2.00000
    205      -8.0672      2.00000
    206      -8.0641      2.00000
    207      -8.0545      2.00000
    208      -8.0388      2.00000
    209      -8.0369      2.00000
    210      -8.0220      2.00000
    211      -7.9771      2.00000
    212      -7.9174      2.00000
    213      -7.9105      2.00000
    214      -7.8380      2.00000
    215      -7.8048      2.00000
    216      -7.7521      2.00000
    217      -7.6991      2.00000
    218      -7.6690      2.00000
    219      -7.6652      2.00000
    220      -7.6390      2.00000
    221      -7.5997      2.00000
    222      -7.5935      2.00000
    223      -7.5925      2.00000
    224      -7.5830      2.00000
    225      -7.5735      2.00000
    226      -7.5586      2.00000
    227      -7.5514      2.00000
    228      -7.5367      2.00000
    229      -7.5111      2.00000
    230      -7.4262      2.00000
    231      -7.4248      2.00000
    232      -7.3942      2.00000
    233      -7.3898      2.00000
    234      -7.3547      2.00000
    235      -7.3470      2.00000
    236      -7.3408      2.00000
    237      -7.3389      2.00000
    238      -7.3242      2.00000
    239      -7.3224      2.00000
    240      -7.2988      2.00000
    241      -7.2732      2.00000
    242      -7.2447      2.00000
    243      -7.2075      2.00000
    244      -7.2068      2.00000
    245      -7.1889      2.00000
    246      -7.1700      2.00000
    247      -7.1586      2.00000
    248      -7.1435      2.00000
    249      -7.0947      2.00000
    250      -7.0889      2.00000
    251      -7.0834      2.00000
    252      -7.0811      2.00000
    253      -7.0796      2.00000
    254      -7.0719      2.00000
    255      -7.0641      2.00000
    256      -7.0483      2.00000
    257      -7.0437      2.00000
    258      -7.0147      2.00000
    259      -7.0141      2.00000
    260      -6.9818      2.00000
    261      -6.9638      2.00000
    262      -6.9555      2.00000
    263      -6.9188      2.00000
    264      -6.9141      2.00000
    265      -6.9066      2.00000
    266      -6.9024      2.00000
    267      -6.8922      2.00000
    268      -6.8715      2.00000
    269      -6.7685      2.00000
    270      -6.7163      2.00000
    271      -6.6409      2.00000
    272      -6.6307      2.00000
    273      -6.6015      2.00000
    274      -6.5276      2.00000
    275      -6.5248      2.00000
    276      -6.4955      2.00000
    277      -6.4951      2.00000
    278      -6.4947      2.00000
    279      -6.4550      2.00000
    280      -6.4488      2.00000
    281      -6.4473      2.00000
    282      -6.4229      2.00000
    283      -6.4037      2.00000
    284      -6.3985      2.00000
    285      -6.3850      2.00000
    286      -6.3470      2.00000
    287      -6.3408      2.00000
    288      -6.3319      2.00000
    289      -6.3286      2.00000
    290      -6.3147      2.00000
    291      -6.2979      2.00000
    292      -6.2765      2.00000
    293      -6.2747      2.00000
    294      -6.2641      2.00000
    295      -6.2355      2.00000
    296      -6.2090      2.00000
    297      -6.1929      2.00000
    298      -6.1444      2.00000
    299      -6.1292      2.00000
    300      -6.0879      2.00000
    301      -6.0546      2.00000
    302      -6.0386      2.00000
    303      -6.0037      2.00000
    304      -5.9915      2.00000
    305      -5.9909      2.00000
    306      -5.9796      2.00000
    307      -5.9517      2.00000
    308      -5.9396      2.00000
    309      -5.9355      2.00000
    310      -5.9002      2.00000
    311      -5.8983      2.00000
    312      -5.8971      2.00000
    313      -5.8883      2.00000
    314      -5.8542      2.00000
    315      -5.8526      2.00000
    316      -5.8452      2.00000
    317      -5.8299      2.00000
    318      -5.8186      2.00000
    319      -5.8161      2.00000
    320      -5.8051      2.00000
    321      -5.7941      2.00000
    322      -5.7506      2.00000
    323      -5.7500      2.00000
    324      -5.7427      2.00000
    325      -5.7238      2.00000
    326      -5.7080      2.00000
    327      -5.6962      2.00000
    328      -5.6824      2.00000
    329      -5.6346      2.00000
    330      -5.6250      2.00000
    331      -5.6133      2.00000
    332      -5.6110      2.00000
    333      -5.6064      2.00000
    334      -5.5973      2.00000
    335      -5.5862      2.00000
    336      -5.5840      2.00000
    337      -5.5244      2.00000
    338      -5.4967      2.00000
    339      -5.4896      2.00000
    340      -5.4698      2.00000
    341      -5.4516      2.00000
    342      -5.4367      2.00000
    343      -5.4361      2.00000
    344      -5.4277      2.00000
    345      -5.3444      2.00000
    346      -5.3156      2.00000
    347      -5.3107      2.00000
    348      -5.3045      2.00000
    349      -5.2807      2.00000
    350      -5.2803      2.00000
    351      -5.2498      2.00000
    352      -5.2435      2.00000
    353      -5.2001      2.00000
    354      -5.1848      2.00000
    355      -5.1486      2.00000
    356      -5.1354      2.00000
    357      -5.1328      2.00000
    358      -5.1188      2.00000
    359      -5.1129      2.00000
    360      -5.0423      2.00000
    361      -5.0340      2.00000
    362      -5.0329      2.00000
    363      -5.0216      2.00000
    364      -5.0135      2.00000
    365      -4.9850      2.00000
    366      -4.9619      2.00000
    367      -4.8713      2.00000
    368      -4.8038      2.00000
    369      -4.8016      2.00000
    370      -4.7883      2.00000
    371      -4.7881      2.00000
    372      -4.7779      2.00000
    373      -4.7287      2.00000
    374      -4.7229      2.00000
    375      -4.7190      2.00000
    376      -4.7017      2.00000
    377      -4.6937      2.00000
    378      -4.6722      2.00000
    379      -4.6395      2.00000
    380      -4.6278      2.00000
    381      -4.6217      2.00000
    382      -4.6200      2.00000
    383      -4.6035      2.00000
    384      -4.5144      2.00000
    385      -4.4988      2.00000
    386      -4.4725      2.00000
    387      -4.4661      1.99999
    388      -4.4634      1.99999
    389      -4.4519      1.99999
    390      -4.4511      1.99999
    391      -4.4389      1.99997
    392      -4.4262      1.99993
    393      -4.4187      1.99989
    394      -4.3209      1.98727
    395      -4.1750      1.33209
    396      -4.1476      1.03286
    397      -4.1051      0.57550
    398      -4.0975      0.50422
    399      -4.0967      0.49753
    400      -3.9791      0.01920
    401      -3.7921      0.00000
    402      -3.7388      0.00000
    403      -3.5696      0.00000
    404      -3.4770      0.00000
    405      -3.3179      0.00000
    406      -3.3040      0.00000
    407      -3.2254      0.00000
    408      -3.1958      0.00000
    409      -3.1669      0.00000
    410      -3.0524      0.00000
    411      -2.8785      0.00000
    412      -2.7785      0.00000
    413      -2.4535      0.00000
    414      -2.3465      0.00000
    415      -1.0926      0.00000
    416      -0.9705      0.00000
    417      -0.8827      0.00000
    418      -0.7689      0.00000
    419      -0.7515      0.00000
    420      -0.6609      0.00000
    421      -0.5558      0.00000
    422      -0.3866      0.00000
    423      -0.3461      0.00000
    424      -0.3325      0.00000
    425      -0.2166      0.00000
    426      -0.2014      0.00000
    427      -0.2006      0.00000
    428      -0.1566      0.00000
    429      -0.1446      0.00000
    430      -0.0994      0.00000
    431      -0.0986      0.00000
    432      -0.0198      0.00000
    433      -0.0131      0.00000
    434      -0.0014      0.00000
    435       0.0215      0.00000
    436       0.1028      0.00000
    437       0.1180      0.00000
    438       0.1571      0.00000
    439       0.2137      0.00000
    440       0.2316      0.00000
    441       0.2845      0.00000
    442       0.2881      0.00000
    443       0.3368      0.00000
    444       0.3377      0.00000
    445       0.3440      0.00000
    446       0.3491      0.00000
    447       0.3550      0.00000
    448       0.3878      0.00000
    449       0.3942      0.00000
    450       0.4090      0.00000
    451       0.4311      0.00000
    452       0.4612      0.00000
    453       0.4797      0.00000
    454       0.4952      0.00000
    455       0.5076      0.00000
    456       0.5098      0.00000
    457       0.5193      0.00000
    458       0.5446      0.00000
    459       0.5743      0.00000
    460       0.6041      0.00000
    461       0.6628      0.00000
    462       0.6675      0.00000
    463       0.6716      0.00000
    464       0.7874      0.00000
    465       0.7881      0.00000
    466       0.8130      0.00000
    467       0.8138      0.00000
    468       0.8830      0.00000
    469       1.0132      0.00000
    470       1.1314      0.00000
    471       1.1505      0.00000
    472       1.1826      0.00000
    473       1.1868      0.00000
    474       1.2137      0.00000
    475       1.2297      0.00000
    476       1.2408      0.00000
    477       1.2479      0.00000
    478       1.2589      0.00000
    479       1.2896      0.00000
    480       1.2937      0.00000
    481       1.3015      0.00000
    482       1.3045      0.00000
    483       1.3058      0.00000
    484       1.3133      0.00000
    485       1.3349      0.00000
    486       1.3705      0.00000
    487       1.4183      0.00000
    488       1.4213      0.00000
    489       1.4359      0.00000
    490       1.4429      0.00000
    491       1.4437      0.00000
    492       1.5029      0.00000
    493       1.5050      0.00000
    494       1.5274      0.00000
    495       1.5371      0.00000
    496       1.5539      0.00000
    497       1.5573      0.00000
    498       1.5595      0.00000
    499       1.5838      0.00000
    500       1.5874      0.00000
    501       1.6049      0.00000
    502       1.6272      0.00000
    503       1.6707      0.00000
    504       1.6854      0.00000
    505       1.7010      0.00000
    506       1.7140      0.00000
    507       1.7202      0.00000
    508       1.7361      0.00000
    509       1.7536      0.00000
    510       1.7625      0.00000
    511       1.8217      0.00000
    512       1.8351      0.00000
    513       1.8588      0.00000
    514       1.8772      0.00000
    515       1.8889      0.00000
    516       1.8929      0.00000
    517       1.9199      0.00000
    518       1.9219      0.00000
    519       1.9225      0.00000
    520       1.9605      0.00000
    521       1.9684      0.00000
    522       2.0281      0.00000
    523       2.1189      0.00000
    524       2.1313      0.00000
    525       2.1373      0.00000
    526       2.2186      0.00000
    527       2.2212      0.00000
    528       2.2274      0.00000
    529       2.2592      0.00000
    530       2.2811      0.00000
    531       2.3220      0.00000
    532       2.3232      0.00000
    533       2.3326      0.00000
    534       2.4168      0.00000
    535       2.4322      0.00000
    536       2.4330      0.00000
    537       2.4848      0.00000
    538       2.4865      0.00000
    539       2.4956      0.00000
    540       2.5178      0.00000
    541       2.5304      0.00000
    542       2.5810      0.00000
    543       2.5823      0.00000
    544       2.5848      0.00000
    545       2.6407      0.00000
    546       2.6548      0.00000
    547       2.6613      0.00000
    548       2.6656      0.00000
    549       2.6759      0.00000
    550       2.6889      0.00000
    551       2.7027      0.00000
    552       2.7162      0.00000


--------------------------------------------------------------------------------------------------------


 soft charge-density along one line, spin component           1
         0         1         2         3         4         5         6         7         8         9
 total charge-density along one line
 
 pseudopotential strength for first ion, spin component:           1
  6.811  10.397  -0.009   0.000   0.004  -0.014   0.000   0.007
 10.397  15.869  -0.013   0.000   0.007  -0.021   0.000   0.010
 -0.009  -0.013  -2.355   0.000  -0.001  -4.052   0.000  -0.002
  0.000   0.000   0.000  -2.350  -0.000   0.000  -4.041  -0.000
  0.004   0.007  -0.001  -0.000  -2.354  -0.002  -0.000  -4.049
 -0.014  -0.021  -4.052   0.000  -0.002  -6.774   0.000  -0.004
  0.000   0.000   0.000  -4.041  -0.000   0.000  -6.750   0.000
  0.007   0.010  -0.002  -0.000  -4.049  -0.004   0.000  -6.769
 total augmentation occupancy for first ion, spin component:           1
  3.702  -1.000  -0.247  -0.018   0.400   0.126   0.006  -0.168
 -1.000   0.293   0.163   0.005  -0.187  -0.058  -0.002   0.070
 -0.247   0.163   3.892  -0.017   0.325  -1.093   0.005  -0.119
 -0.018   0.005  -0.017   2.335  -0.024   0.005  -0.561   0.007
  0.400  -0.187   0.325  -0.024   3.646  -0.120   0.007  -0.997
  0.126  -0.058  -1.093   0.005  -0.120   0.316  -0.002   0.043
  0.006  -0.002   0.005  -0.561   0.007  -0.002   0.139  -0.002
 -0.168   0.070  -0.119   0.007  -0.997   0.043  -0.002   0.282


------------------------ aborting loop because EDIFF is reached ----------------------------------------





 total charge

# of ion       s       p       d       tot
------------------------------------------
    1        0.714   1.383   0.000   2.097
    2        0.714   1.383   0.000   2.097
    3        0.714   1.383   0.000   2.097
    4        0.714   1.383   0.000   2.097
    5        0.714   1.383   0.000   2.097
    6        0.714   1.383   0.000   2.097
    7        0.714   1.383   0.000   2.097
    8        0.714   1.383   0.000   2.097
    9        0.714   1.383   0.000   2.097
   10        0.714   1.385   0.000   2.099
   11        0.714   1.383   0.000   2.097
   12        0.714   1.383   0.000   2.097
   13        0.714   1.383   0.000   2.097
   14        0.714   1.383   0.000   2.097
   15        0.714   1.383   0.000   2.097
   16        0.714   1.383   0.000   2.097
   17        0.714   1.383   0.000   2.097
   18        0.714   1.383   0.000   2.097
   19        0.714   1.383   0.000   2.097
   20        0.714   1.383   0.000   2.097
   21        0.714   1.383   0.000   2.097
   22        0.714   1.383   0.000   2.097
   23        0.714   1.383   0.000   2.097
   24        0.714   1.383   0.000   2.097
   25        0.714   1.383   0.000   2.097
   26        0.714   1.383   0.000   2.097
   27        0.714   1.383   0.000   2.097
   28        0.714   1.383   0.000   2.097
   29        0.714   1.383   0.000   2.097
   30        0.714   1.383   0.000   2.097
   31        0.714   1.383   0.000   2.097
   32        0.714   1.383   0.000   2.097
   33        0.714   1.383   0.000   2.097
   34        0.714   1.383   0.000   2.097
   35        0.714   1.383   0.000   2.097
   36        0.714   1.383   0.000   2.097
   37        0.714   1.383   0.000   2.097
   38        0.714   1.383   0.000   2.097
   39        0.714   1.383   0.000   2.097
   40        0.714   1.383   0.000   2.097
   41        0.714   1.383   0.000   2.097
   42        0.714   1.383   0.000   2.097
   43        0.714   1.383   0.000   2.097
   44        0.714   1.383   0.000   2.097
   45        0.714   1.383   0.000   2.097
   46        0.714   1.383   0.000   2.097
   47        0.714   1.383   0.000   2.097
   48        0.714   1.383   0.000   2.097
   49        0.714   1.383   0.000   2.097
   50        0.714   1.383   0.000   2.097
   51        0.714   1.383   0.000   2.097
   52        0.714   1.383   0.000   2.097
   53        0.714   1.383   0.000   2.097
   54        0.714   1.383   0.000   2.097
   55        0.714   1.383   0.000   2.097
   56        0.714   1.383   0.000   2.097
   57        0.714   1.383   0.000   2.097
   58        0.714   1.383   0.000   2.097
   59        0.714   1.383   0.000   2.097
   60        0.714   1.383   0.000   2.097
   61        0.714   1.383   0.000   2.097
   62        0.714   1.383   0.000   2.097
   63        0.714   1.383   0.000   2.097
   64        0.714   1.383   0.000   2.097
   65        0.714   1.383   0.000   2.097
   66        0.714   1.383   0.000   2.097
   67        0.714   1.383   0.000   2.097
   68        0.714   1.383   0.000   2.097
   69        0.714   1.383   0.000   2.097
   70        0.714   1.383   0.000   2.097
   71        0.714   1.383   0.000   2.097
   72        0.714   1.383   0.000   2.097
   73        0.720   1.314   0.000   2.035
   74        0.720   1.314   0.000   2.035
   75        0.720   1.314   0.000   2.035
   76        0.720   1.314   0.000   2.035
   77        0.720   1.314   0.000   2.035
   78        0.720   1.314   0.000   2.035
   79        0.720   1.314   0.000   2.035
   80        0.720   1.314   0.000   2.035
   81        0.720   1.314   0.000   2.035
   82        0.720   1.314   0.000   2.034
   83        0.720   1.314   0.000   2.035
   84        0.720   1.314   0.000   2.035
   85        0.720   1.314   0.000   2.035
   86        0.720   1.314   0.000   2.035
   87        0.720   1.314   0.000   2.035
   88        0.720   1.314   0.000   2.035
   89        0.720   1.314   0.000   2.035
   90        0.720   1.314   0.000   2.035
   91        0.720   1.314   0.000   2.035
   92        0.720   1.314   0.000   2.035
   93        0.720   1.314   0.000   2.035
   94        0.720   1.314   0.000   2.035
   95        0.720   1.314   0.000   2.035
   96        0.720   1.314   0.000   2.035
   97        0.720   1.314   0.000   2.035
   98        0.720   1.314   0.000   2.035
   99        0.720   1.314   0.000   2.035
  100        0.720   1.314   0.000   2.035
  101        0.720   1.314   0.000   2.035
  102        0.720   1.314   0.000   2.035
  103        0.720   1.314   0.000   2.035
  104        0.720   1.314   0.000   2.035
  105        0.720   1.314   0.000   2.035
  106        0.720   1.314   0.000   2.035
  107        0.720   1.314   0.000   2.035
  108        0.720   1.314   0.000   2.035
  109        0.720   1.315   0.000   2.035
  110        0.720   1.314   0.000   2.035
  111        0.720   1.314   0.000   2.035
  112        0.720   1.314   0.000   2.035
  113        0.720   1.314   0.000   2.035
  114        0.720   1.314   0.000   2.035
  115        0.720   1.314   0.000   2.035
  116        0.720   1.314   0.000   2.035
  117        0.720   1.314   0.000   2.035
  118        0.720   1.312   0.000   2.032
  119        0.720   1.314   0.000   2.035
  120        0.720   1.314   0.000   2.035
  121        0.720   1.314   0.000   2.035
  122        0.720   1.314   0.000   2.035
  123        0.720   1.314   0.000   2.035
  124        0.720   1.314   0.000   2.035
  125        0.720   1.314   0.000   2.035
  126        0.720   1.314   0.000   2.035
  127        0.720   1.314   0.000   2.035
  128        0.720   1.314   0.000   2.035
  129        0.720   1.314   0.000   2.035
  130        0.720   1.314   0.000   2.035
  131        0.720   1.314   0.000   2.035
  132        0.720   1.314   0.000   2.035
  133        0.720   1.314   0.000   2.035
  134        0.720   1.314   0.000   2.035
  135        0.720   1.314   0.000   2.035
  136        0.720   1.314   0.000   2.035
  137        0.720   1.314   0.000   2.035
  138        0.720   1.314   0.000   2.035
  139        0.720   1.314   0.000   2.035
  140        0.720   1.314   0.000   2.035
  141        0.720   1.314   0.000   2.035
  142        0.720   1.314   0.000   2.035
  143        0.720   1.314   0.000   2.035
  144        0.720   1.314   0.000   2.035
  145        0.703   1.246   0.000   1.949
  146        0.703   1.246   0.000   1.949
  147        0.703   1.246   0.000   1.949
  148        0.703   1.246   0.000   1.949
  149        0.703   1.246   0.000   1.949
  150        0.703   1.246   0.000   1.949
  151        0.703   1.246   0.000   1.949
  152        0.703   1.246   0.000   1.949
  153        0.703   1.246   0.000   1.949
  154        0.699   1.245   0.000   1.944
  155        0.700   1.244   0.000   1.944
  156        0.700   1.244   0.000   1.944
  157        0.700   1.244   0.000   1.944
  158        0.700   1.244   0.000   1.944
  159        0.700   1.244   0.000   1.944
  160        0.700   1.244   0.000   1.944
  161        0.700   1.244   0.000   1.944
  162        0.700   1.244   0.000   1.944
  163        0.700   1.244   0.000   1.944
  164        0.700   1.244   0.000   1.944
  165        0.700   1.244   0.000   1.944
  166        0.700   1.244   0.000   1.944
  167        0.700   1.244   0.000   1.944
  168        0.700   1.244   0.000   1.944
  169        0.700   1.244   0.000   1.944
  170        0.700   1.244   0.000   1.944
  171        0.700   1.244   0.000   1.944
  172        0.703   1.246   0.000   1.949
  173        0.703   1.246   0.000   1.949
  174        0.703   1.246   0.000   1.949
  175        0.703   1.246   0.000   1.949
  176        0.703   1.246   0.000   1.949
  177        0.703   1.246   0.000   1.949
  178        0.703   1.246   0.000   1.949
  179        0.703   1.246   0.000   1.949
  180        0.703   1.246   0.000   1.949
  181        0.700   1.244   0.000   1.944
  182        0.700   1.244   0.000   1.944
  183        0.700   1.244   0.000   1.944
  184        0.700   1.244   0.000   1.944
  185        0.700   1.244   0.000   1.944
  186        0.700   1.244   0.000   1.944
  187        0.700   1.244   0.000   1.944
  188        0.700   1.244   0.000   1.944
  189        0.700   1.244   0.000   1.944
  190        0.703   1.246   0.000   1.949
  191        0.703   1.246   0.000   1.949
  192        0.703   1.246   0.000   1.949
  193        0.703   1.246   0.000   1.949
  194        0.703   1.246   0.000   1.949
  195        0.703   1.246   0.000   1.949
  196        0.703   1.246   0.000   1.949
  197        0.703   1.246   0.000   1.949
  198        0.703   1.246   0.000   1.949
  199        0.703   1.246   0.000   1.949
  200        0.703   1.246   0.000   1.949
  201        0.703   1.246   0.000   1.949
  202        0.703   1.246   0.000   1.949
  203        0.703   1.246   0.000   1.949
  204        0.703   1.246   0.000   1.949
  205        0.703   1.246   0.000   1.949
  206        0.703   1.246   0.000   1.949
  207        0.703   1.246   0.000   1.949
  208        0.700   1.244   0.000   1.944
  209        0.700   1.244   0.000   1.944
  210        0.700   1.244   0.000   1.944
  211        0.700   1.244   0.000   1.944
  212        0.700   1.244   0.000   1.944
  213        0.700   1.244   0.000   1.944
  214        0.700   1.244   0.000   1.944
  215        0.700   1.244   0.000   1.944
  216        0.700   1.244   0.000   1.944
  217        0.721   1.380   0.000   2.101
  218        0.721   1.380   0.000   2.101
  219        0.721   1.380   0.000   2.101
  220        0.721   1.380   0.000   2.101
  221        0.721   1.380   0.000   2.101
  222        0.721   1.380   0.000   2.101
  223        0.721   1.380   0.000   2.101
  224        0.721   1.380   0.000   2.101
  225        0.721   1.380   0.000   2.101
  226        0.721   1.380   0.000   2.101
  227        0.721   1.380   0.000   2.101
  228        0.721   1.380   0.000   2.101
  229        0.721   1.380   0.000   2.101
  230        0.721   1.380   0.000   2.101
  231        0.721   1.380   0.000   2.101
  232        0.721   1.380   0.000   2.101
  233        0.721   1.380   0.000   2.101
  234        0.721   1.380   0.000   2.101
  235        0.721   1.380   0.000   2.101
  236        0.721   1.380   0.000   2.101
  237        0.721   1.380   0.000   2.101
  238        0.721   1.380   0.000   2.101
  239        0.721   1.380   0.000   2.101
  240        0.721   1.380   0.000   2.101
  241        0.721   1.380   0.000   2.101
  242        0.721   1.380   0.000   2.101
  243        0.721   1.380   0.000   2.101
  244        0.721   1.382   0.000   2.102
  245        0.721   1.380   0.000   2.101
  246        0.721   1.380   0.000   2.101
  247        0.721   1.380   0.000   2.101
  248        0.721   1.380   0.000   2.101
  249        0.721   1.380   0.000   2.101
  250        0.721   1.380   0.000   2.101
  251        0.721   1.380   0.000   2.101
  252        0.721   1.380   0.000   2.101
  253        0.613   0.022   0.000   0.635
  254        0.613   0.022   0.000   0.635
  255        0.613   0.022   0.000   0.635
  256        0.613   0.022   0.000   0.635
  257        0.613   0.022   0.000   0.635
  258        0.613   0.022   0.000   0.635
  259        0.613   0.022   0.000   0.635
  260        0.613   0.022   0.000   0.635
  261        0.613   0.022   0.000   0.635
  262        0.613   0.022   0.000   0.635
  263        0.613   0.022   0.000   0.635
  264        0.613   0.022   0.000   0.635
  265        0.613   0.022   0.000   0.635
  266        0.613   0.022   0.000   0.635
  267        0.613   0.022   0.000   0.635
  268        0.613   0.022   0.000   0.635
  269        0.613   0.022   0.000   0.635
  270        0.613   0.022   0.000   0.635
  271        0.613   0.022   0.000   0.635
  272        0.613   0.022   0.000   0.635
  273        0.613   0.022   0.000   0.635
  274        0.613   0.022   0.000   0.635
  275        0.613   0.022   0.000   0.635
  276        0.613   0.022   0.000   0.635
  277        0.613   0.022   0.000   0.635
  278        0.613   0.022   0.000   0.635
  279        0.613   0.022   0.000   0.635
  280        0.613   0.022   0.000   0.635
  281        0.613   0.022   0.000   0.635
  282        0.613   0.022   0.000   0.635
  283        0.613   0.022   0.000   0.635
  284        0.613   0.022   0.000   0.635
  285        0.613   0.022   0.000   0.635
  286        0.613   0.022   0.000   0.635
  287        0.613   0.022   0.000   0.635
  288        0.613   0.022   0.000   0.635
--------------------------------------------------
tot        201.747 334.367   0.000 536.114
 
    CHARGE:  cpu time      4.1048: real time      4.1459
    FORLOC:  cpu time      0.1063: real time      0.1071
    FORNL :  cpu time     17.2290: real time     17.4301
    STRESS:  cpu time     51.6534: real time     52.3043
    FORCOR:  cpu time      0.4284: real time      0.4327
    FORHAR:  cpu time      0.1714: real time      0.1729
    MIXING:  cpu time      0.0092: real time      0.0093
    OFIELD:  cpu time      0.0001: real time      0.0001

 ---------------------------------------------------------------------------------------------

         DFTD3 V3.0 Rev 1        
 DF pbe       
 parameters
 k1-k3        =   16.0000    1.3333   -4.0000
 Edisp (eV)  -30.16922

 E6    (eV) :   -20.0307
 E8    (eV) :   -10.1385
 % E8        : 33.61
    FORVDW:  cpu time      3.8109: real time      3.8390

  FORCE on cell =-STRESS in cart. coord.  units (eV):
  Direction    XX          YY          ZZ          XY          YZ          ZX
  --------------------------------------------------------------------------------------
  Alpha Z   491.41331   491.41331   491.41331
  Ewald  243932.20111243087.38487************     0.07154     0.27754     0.27679
  Hartree243527.42123243035.60470************     0.03720    -0.01755    -0.01961
  E(xc)   -2539.39159 -2538.93833 -2558.15921    -0.00001     0.00017     0.00001
  Local  ************************489321.12001    -0.10536    -0.20754    -0.20063
  n-local  -262.87955  -270.03734  -327.89907     0.00034    -0.00762    -0.00537
  augment    28.66011    29.10433    28.17900     0.00004    -0.00043    -0.00037
  Kinetic  8393.84952  8370.42780  8979.50289    -0.00506     0.01697     0.01515
  Fock        0.00000     0.00000     0.00000     0.00000     0.00000     0.00000
  vdW       -31.75878   -31.24247   -20.61041     0.00001    -0.00001    -0.00002
  -------------------------------------------------------------------------------------
  Total      -3.98122     0.36849     0.45322    -0.00131     0.06152     0.06595
  in kB      -0.67464     0.06244     0.07680    -0.00022     0.01042     0.01118
  external pressure =       -0.18 kB  Pullay stress =        0.00 kB


 VOLUME and BASIS-vectors are now :
 -----------------------------------------------------------------------------
  energy-cutoff  :      600.00
  volume of cell :     9454.89
      direct lattice vectors                 reciprocal lattice vectors
    17.039988154  0.000000000  0.000000000     0.058685487  0.000000000  0.000000000
     0.000000000 18.441333559  0.000000000     0.000000000  0.054226013  0.000000000
     0.000000000  0.000000000 30.088116646     0.000000000  0.000000000  0.033235713

  length of vectors
    17.039988154 18.441333559 30.088116646     0.058685487  0.054226013  0.033235713


 FORCES acting on ions
    electron-ion (+dipol)            ewald-force                    non-local-force                 convergence-correction
 -----------------------------------------------------------------------------------------------
   0.479E+02 -.237E+02 0.234E+03   -.495E+02 0.271E+02 -.234E+03   0.166E+01 -.338E+01 0.505E-01   0.483E-06 0.239E-05 0.563E-05
   0.479E+02 -.237E+02 0.234E+03   -.495E+02 0.271E+02 -.234E+03   0.166E+01 -.338E+01 0.479E-01   -.435E-06 0.125E-05 0.246E-05
   0.479E+02 -.237E+02 0.234E+03   -.495E+02 0.271E+02 -.234E+03   0.166E+01 -.338E+01 0.508E-01   0.134E-05 0.721E-07 0.263E-05
   0.479E+02 -.237E+02 0.234E+03   -.495E+02 0.271E+02 -.234E+03   0.166E+01 -.338E+01 0.493E-01   0.288E-06 0.853E-06 0.230E-05
   0.479E+02 -.237E+02 0.234E+03   -.495E+02 0.271E+02 -.234E+03   0.166E+01 -.338E+01 0.478E-01   -.176E-05 0.506E-06 0.231E-05
   0.479E+02 -.237E+02 0.234E+03   -.495E+02 0.271E+02 -.234E+03   0.166E+01 -.338E+01 0.508E-01   0.938E-06 0.168E-05 0.257E-05
   0.479E+02 -.237E+02 0.234E+03   -.495E+02 0.271E+02 -.234E+03   0.166E+01 -.338E+01 0.492E-01   -.312E-05 0.165E-05 0.272E-05
   0.479E+02 -.237E+02 0.234E+03   -.495E+02 0.271E+02 -.234E+03   0.166E+01 -.338E+01 0.479E-01   0.108E-05 0.176E-05 0.189E-05
   0.479E+02 -.237E+02 0.234E+03   -.495E+02 0.271E+02 -.234E+03   0.166E+01 -.338E+01 0.508E-01   -.305E-06 0.108E-05 0.312E-05
   0.480E+02 -.237E+02 -.233E+03   -.497E+02 0.271E+02 0.234E+03   0.165E+01 -.338E+01 -.579E-01   0.561E-06 0.177E-05 -.534E-05
   0.479E+02 -.237E+02 -.234E+03   -.495E+02 0.271E+02 0.234E+03   0.166E+01 -.337E+01 -.518E-01   -.765E-06 0.779E-06 -.300E-05
   0.479E+02 -.237E+02 -.234E+03   -.495E+02 0.271E+02 0.234E+03   0.166E+01 -.338E+01 -.521E-01   0.122E-05 -.562E-06 -.363E-05
   0.479E+02 -.237E+02 -.234E+03   -.495E+02 0.270E+02 0.234E+03   0.166E+01 -.338E+01 -.498E-01   -.450E-06 0.392E-07 -.126E-05
   0.479E+02 -.237E+02 -.234E+03   -.495E+02 0.270E+02 0.234E+03   0.166E+01 -.337E+01 -.508E-01   -.155E-05 0.723E-06 -.246E-05
   0.479E+02 -.237E+02 -.234E+03   -.495E+02 0.271E+02 0.234E+03   0.166E+01 -.338E+01 -.521E-01   0.944E-06 0.113E-05 -.334E-05
   0.479E+02 -.237E+02 -.234E+03   -.495E+02 0.270E+02 0.234E+03   0.166E+01 -.338E+01 -.497E-01   -.288E-05 0.114E-05 -.164E-05
   0.479E+02 -.237E+02 -.234E+03   -.495E+02 0.271E+02 0.234E+03   0.166E+01 -.337E+01 -.509E-01   0.125E-05 0.156E-05 -.205E-05
   0.479E+02 -.237E+02 -.234E+03   -.495E+02 0.271E+02 0.234E+03   0.166E+01 -.338E+01 -.521E-01   0.339E-06 0.107E-05 -.344E-05
   -.479E+02 0.237E+02 0.234E+03   0.495E+02 -.271E+02 -.234E+03   -.166E+01 0.338E+01 0.506E-01   -.123E-05 -.151E-05 0.540E-05
   -.479E+02 0.237E+02 0.234E+03   0.495E+02 -.271E+02 -.234E+03   -.166E+01 0.338E+01 0.477E-01   0.107E-06 -.182E-05 0.364E-05
   -.479E+02 0.237E+02 0.234E+03   0.495E+02 -.271E+02 -.234E+03   -.166E+01 0.338E+01 0.492E-01   0.114E-05 -.293E-05 0.195E-05
   -.479E+02 0.237E+02 0.234E+03   0.495E+02 -.271E+02 -.234E+03   -.166E+01 0.338E+01 0.507E-01   0.905E-06 -.135E-05 0.305E-05
   -.479E+02 0.237E+02 0.234E+03   0.495E+02 -.271E+02 -.234E+03   -.166E+01 0.338E+01 0.479E-01   -.147E-05 -.196E-05 0.222E-05
   -.479E+02 0.237E+02 0.234E+03   0.495E+02 -.271E+02 -.234E+03   -.166E+01 0.338E+01 0.493E-01   0.224E-05 -.972E-06 0.235E-05
   -.479E+02 0.237E+02 0.234E+03   0.495E+02 -.271E+02 -.234E+03   -.166E+01 0.338E+01 0.508E-01   -.136E-05 -.197E-05 0.232E-05
   -.479E+02 0.237E+02 0.234E+03   0.495E+02 -.271E+02 -.234E+03   -.166E+01 0.338E+01 0.479E-01   0.133E-05 -.524E-07 0.131E-05
   -.479E+02 0.237E+02 0.234E+03   0.495E+02 -.271E+02 -.234E+03   -.166E+01 0.338E+01 0.492E-01   0.299E-07 0.940E-06 0.330E-05
   -.479E+02 0.238E+02 -.234E+03   0.495E+02 -.271E+02 0.234E+03   -.166E+01 0.337E+01 -.546E-01   -.155E-05 -.127E-05 -.529E-05
   -.479E+02 0.237E+02 -.234E+03   0.495E+02 -.270E+02 0.234E+03   -.166E+01 0.337E+01 -.510E-01   -.607E-06 -.119E-05 -.401E-05
   -.479E+02 0.237E+02 -.234E+03   0.495E+02 -.271E+02 0.234E+03   -.166E+01 0.338E+01 -.497E-01   0.134E-05 -.248E-05 -.289E-05
   -.479E+02 0.237E+02 -.234E+03   0.495E+02 -.271E+02 0.234E+03   -.166E+01 0.338E+01 -.524E-01   0.654E-06 -.123E-05 -.234E-05
   -.479E+02 0.237E+02 -.234E+03   0.495E+02 -.271E+02 0.234E+03   -.166E+01 0.337E+01 -.509E-01   -.197E-05 -.164E-05 -.190E-05
   -.479E+02 0.237E+02 -.234E+03   0.495E+02 -.271E+02 0.234E+03   -.166E+01 0.338E+01 -.497E-01   0.247E-05 -.894E-06 -.368E-05
   -.479E+02 0.237E+02 -.234E+03   0.495E+02 -.271E+02 0.234E+03   -.166E+01 0.338E+01 -.520E-01   -.214E-06 -.117E-05 -.124E-05
   -.479E+02 0.237E+02 -.234E+03   0.495E+02 -.271E+02 0.234E+03   -.166E+01 0.337E+01 -.511E-01   0.195E-05 0.105E-05 -.923E-06
   -.479E+02 0.237E+02 -.234E+03   0.495E+02 -.271E+02 0.234E+03   -.166E+01 0.338E+01 -.497E-01   -.171E-06 0.105E-05 -.386E-05
   -.479E+02 -.237E+02 0.234E+03   0.495E+02 0.271E+02 -.234E+03   -.166E+01 -.338E+01 0.490E-01   -.228E-05 0.242E-05 0.511E-05
   -.479E+02 -.237E+02 0.234E+03   0.495E+02 0.271E+02 -.234E+03   -.166E+01 -.338E+01 0.508E-01   0.543E-06 0.110E-06 0.165E-05
   -.479E+02 -.237E+02 0.234E+03   0.495E+02 0.271E+02 -.234E+03   -.166E+01 -.338E+01 0.478E-01   0.374E-06 0.114E-05 0.397E-05
   -.479E+02 -.237E+02 0.234E+03   0.495E+02 0.271E+02 -.234E+03   -.166E+01 -.338E+01 0.493E-01   -.176E-05 0.516E-06 0.188E-05
   -.479E+02 -.237E+02 0.234E+03   0.495E+02 0.271E+02 -.234E+03   -.166E+01 -.338E+01 0.508E-01   0.435E-06 0.160E-05 0.220E-05
   -.479E+02 -.237E+02 0.234E+03   0.495E+02 0.271E+02 -.234E+03   -.166E+01 -.338E+01 0.479E-01   0.185E-05 0.907E-06 0.310E-05
   -.479E+02 -.237E+02 0.234E+03   0.495E+02 0.271E+02 -.234E+03   -.166E+01 -.338E+01 0.492E-01   0.878E-06 0.200E-05 0.205E-05
   -.479E+02 -.237E+02 0.234E+03   0.495E+02 0.271E+02 -.234E+03   -.166E+01 -.338E+01 0.508E-01   0.223E-05 0.101E-05 0.249E-05
   -.479E+02 -.237E+02 0.234E+03   0.495E+02 0.271E+02 -.234E+03   -.166E+01 -.338E+01 0.478E-01   -.777E-06 0.173E-05 0.319E-05
   -.479E+02 -.239E+02 -.234E+03   0.495E+02 0.273E+02 0.234E+03   -.166E+01 -.340E+01 -.542E-01   -.243E-05 0.182E-05 -.482E-05
   -.479E+02 -.237E+02 -.234E+03   0.495E+02 0.271E+02 0.234E+03   -.166E+01 -.338E+01 -.518E-01   0.490E-06 -.310E-06 -.249E-05
   -.479E+02 -.237E+02 -.234E+03   0.495E+02 0.271E+02 0.234E+03   -.166E+01 -.337E+01 -.511E-01   0.901E-06 0.513E-06 -.466E-05
   -.479E+02 -.237E+02 -.234E+03   0.495E+02 0.270E+02 0.234E+03   -.166E+01 -.338E+01 -.497E-01   -.930E-06 -.246E-06 -.804E-06
   -.479E+02 -.237E+02 -.234E+03   0.495E+02 0.271E+02 0.234E+03   -.166E+01 -.338E+01 -.520E-01   0.190E-06 0.121E-05 -.289E-05
   -.479E+02 -.237E+02 -.234E+03   0.495E+02 0.271E+02 0.234E+03   -.166E+01 -.337E+01 -.511E-01   0.180E-05 0.915E-06 -.335E-05
   -.479E+02 -.237E+02 -.234E+03   0.495E+02 0.270E+02 0.234E+03   -.166E+01 -.338E+01 -.500E-01   0.103E-05 0.115E-05 -.103E-05
   -.479E+02 -.237E+02 -.234E+03   0.495E+02 0.271E+02 0.234E+03   -.166E+01 -.338E+01 -.519E-01   0.151E-05 0.898E-06 -.302E-05
   -.479E+02 -.237E+02 -.234E+03   0.495E+02 0.271E+02 0.234E+03   -.166E+01 -.337E+01 -.512E-01   -.124E-05 0.163E-05 -.308E-05
   0.479E+02 0.237E+02 0.234E+03   -.495E+02 -.271E+02 -.234E+03   0.166E+01 0.338E+01 0.476E-01   0.176E-07 -.207E-05 0.498E-05
   0.479E+02 0.237E+02 0.234E+03   -.495E+02 -.271E+02 -.234E+03   0.166E+01 0.338E+01 0.508E-01   -.919E-06 -.135E-05 0.473E-05
   0.479E+02 0.237E+02 0.234E+03   -.495E+02 -.271E+02 -.234E+03   0.166E+01 0.338E+01 0.492E-01   0.853E-06 -.285E-05 0.129E-05
   0.479E+02 0.237E+02 0.234E+03   -.495E+02 -.271E+02 -.234E+03   0.166E+01 0.338E+01 0.478E-01   0.126E-05 -.219E-05 0.295E-05
   0.479E+02 0.237E+02 0.234E+03   -.495E+02 -.271E+02 -.234E+03   0.166E+01 0.338E+01 0.507E-01   -.218E-05 -.134E-05 0.273E-05
   0.479E+02 0.237E+02 0.234E+03   -.495E+02 -.271E+02 -.234E+03   0.166E+01 0.338E+01 0.493E-01   -.772E-06 -.839E-06 0.196E-05
   0.479E+02 0.237E+02 0.234E+03   -.495E+02 -.271E+02 -.234E+03   0.166E+01 0.338E+01 0.479E-01   -.134E-05 0.133E-06 0.280E-05
   0.479E+02 0.237E+02 0.234E+03   -.495E+02 -.271E+02 -.234E+03   0.166E+01 0.338E+01 0.508E-01   -.655E-06 -.190E-05 0.138E-05
   0.479E+02 0.237E+02 0.234E+03   -.495E+02 -.271E+02 -.234E+03   0.166E+01 0.338E+01 0.493E-01   0.202E-05 0.715E-06 0.275E-05
   0.479E+02 0.237E+02 -.234E+03   -.495E+02 -.271E+02 0.234E+03   0.166E+01 0.337E+01 -.515E-01   0.535E-06 -.129E-05 -.528E-05
   0.478E+02 0.237E+02 -.234E+03   -.495E+02 -.270E+02 0.234E+03   0.166E+01 0.337E+01 -.551E-01   -.511E-06 -.109E-05 -.475E-05
   0.479E+02 0.237E+02 -.234E+03   -.495E+02 -.271E+02 0.234E+03   0.166E+01 0.338E+01 -.499E-01   0.756E-06 -.263E-05 -.217E-05
   0.479E+02 0.237E+02 -.234E+03   -.495E+02 -.271E+02 0.234E+03   0.166E+01 0.337E+01 -.510E-01   0.146E-05 -.183E-05 -.275E-05
   0.479E+02 0.237E+02 -.234E+03   -.495E+02 -.271E+02 0.234E+03   0.166E+01 0.338E+01 -.522E-01   -.166E-05 -.120E-05 -.195E-05
   0.479E+02 0.237E+02 -.234E+03   -.495E+02 -.271E+02 0.234E+03   0.166E+01 0.338E+01 -.497E-01   -.993E-06 -.707E-06 -.322E-05
   0.479E+02 0.237E+02 -.234E+03   -.495E+02 -.271E+02 0.234E+03   0.166E+01 0.337E+01 -.511E-01   -.180E-05 0.112E-05 -.215E-05
   0.479E+02 0.237E+02 -.234E+03   -.495E+02 -.271E+02 0.234E+03   0.166E+01 0.338E+01 -.522E-01   -.156E-05 -.125E-05 -.525E-06
   0.479E+02 0.237E+02 -.234E+03   -.495E+02 -.271E+02 0.234E+03   0.166E+01 0.338E+01 -.496E-01   0.180E-05 0.960E-06 -.333E-05
   0.283E+02 -.494E+02 0.236E+03   -.308E+02 0.536E+02 -.236E+03   0.246E+01 -.427E+01 0.721E-01   0.525E-06 0.125E-05 0.512E-05
   0.283E+02 -.494E+02 0.236E+03   -.308E+02 0.536E+02 -.236E+03   0.246E+01 -.427E+01 0.762E-01   -.114E-05 0.187E-05 0.191E-05
   0.283E+02 -.494E+02 0.236E+03   -.308E+02 0.536E+02 -.236E+03   0.246E+01 -.427E+01 0.714E-01   0.258E-05 0.871E-06 0.267E-05
   0.283E+02 -.494E+02 0.236E+03   -.308E+02 0.536E+02 -.236E+03   0.246E+01 -.427E+01 0.725E-01   -.136E-06 0.998E-06 0.178E-05
   0.283E+02 -.494E+02 0.236E+03   -.308E+02 0.536E+02 -.236E+03   0.246E+01 -.427E+01 0.762E-01   -.340E-06 0.267E-05 0.204E-05
   0.283E+02 -.494E+02 0.236E+03   -.308E+02 0.536E+02 -.236E+03   0.246E+01 -.427E+01 0.714E-01   0.106E-05 0.394E-05 0.271E-05
   0.283E+02 -.494E+02 0.236E+03   -.308E+02 0.536E+02 -.236E+03   0.246E+01 -.427E+01 0.725E-01   -.132E-05 0.303E-05 0.312E-05
   0.283E+02 -.494E+02 0.236E+03   -.308E+02 0.536E+02 -.236E+03   0.246E+01 -.427E+01 0.762E-01   0.135E-05 0.972E-06 0.233E-05
   0.283E+02 -.494E+02 0.236E+03   -.308E+02 0.536E+02 -.236E+03   0.246E+01 -.427E+01 0.713E-01   0.636E-06 0.922E-06 0.282E-05
   0.282E+02 -.495E+02 -.236E+03   -.306E+02 0.538E+02 0.236E+03   0.245E+01 -.429E+01 -.740E-01   0.636E-06 0.893E-06 -.478E-05
   0.283E+02 -.494E+02 -.236E+03   -.308E+02 0.536E+02 0.236E+03   0.246E+01 -.427E+01 -.723E-01   -.127E-05 0.135E-05 -.250E-05
   0.283E+02 -.494E+02 -.236E+03   -.308E+02 0.536E+02 0.236E+03   0.246E+01 -.427E+01 -.724E-01   0.213E-05 0.976E-06 -.374E-05
   0.283E+02 -.494E+02 -.236E+03   -.308E+02 0.536E+02 0.236E+03   0.247E+01 -.428E+01 -.729E-01   -.522E-06 0.133E-05 -.726E-06
   0.283E+02 -.494E+02 -.236E+03   -.308E+02 0.536E+02 0.236E+03   0.246E+01 -.427E+01 -.724E-01   -.420E-06 0.212E-05 -.230E-05
   0.283E+02 -.494E+02 -.236E+03   -.308E+02 0.536E+02 0.236E+03   0.246E+01 -.427E+01 -.724E-01   0.113E-05 0.377E-05 -.330E-05
   0.283E+02 -.494E+02 -.236E+03   -.308E+02 0.536E+02 0.236E+03   0.247E+01 -.428E+01 -.730E-01   -.178E-05 0.312E-05 -.231E-05
   0.283E+02 -.494E+02 -.236E+03   -.308E+02 0.536E+02 0.236E+03   0.246E+01 -.427E+01 -.727E-01   0.131E-05 0.160E-06 -.276E-05
   0.283E+02 -.494E+02 -.236E+03   -.308E+02 0.536E+02 0.236E+03   0.246E+01 -.427E+01 -.724E-01   0.839E-06 0.391E-06 -.320E-05
   -.283E+02 0.494E+02 0.236E+03   0.308E+02 -.536E+02 -.236E+03   -.246E+01 0.427E+01 0.712E-01   -.190E-05 -.103E-05 0.480E-05
   -.283E+02 0.494E+02 0.236E+03   0.308E+02 -.536E+02 -.236E+03   -.246E+01 0.427E+01 0.760E-01   -.276E-06 -.226E-05 0.368E-05
   -.283E+02 0.494E+02 0.236E+03   0.308E+02 -.536E+02 -.236E+03   -.246E+01 0.427E+01 0.725E-01   0.377E-06 -.347E-05 0.186E-05
   -.283E+02 0.494E+02 0.236E+03   0.308E+02 -.536E+02 -.236E+03   -.246E+01 0.427E+01 0.714E-01   -.529E-06 -.163E-05 0.354E-05
   -.283E+02 0.494E+02 0.236E+03   0.308E+02 -.536E+02 -.236E+03   -.246E+01 0.427E+01 0.762E-01   -.204E-05 -.170E-05 0.235E-05
   -.283E+02 0.494E+02 0.236E+03   0.308E+02 -.536E+02 -.236E+03   -.246E+01 0.427E+01 0.724E-01   0.132E-05 -.291E-05 0.225E-05
   -.283E+02 0.494E+02 0.236E+03   0.308E+02 -.536E+02 -.236E+03   -.246E+01 0.427E+01 0.714E-01   -.326E-06 -.275E-05 0.206E-05
   -.283E+02 0.494E+02 0.236E+03   0.308E+02 -.536E+02 -.236E+03   -.246E+01 0.427E+01 0.762E-01   -.382E-06 -.153E-05 0.114E-05
   -.283E+02 0.494E+02 0.236E+03   0.308E+02 -.536E+02 -.236E+03   -.246E+01 0.427E+01 0.725E-01   0.243E-06 0.112E-05 0.276E-05
   -.283E+02 0.494E+02 -.236E+03   0.308E+02 -.537E+02 0.236E+03   -.246E+01 0.427E+01 -.712E-01   -.156E-05 -.555E-06 -.468E-05
   -.283E+02 0.494E+02 -.236E+03   0.308E+02 -.536E+02 0.236E+03   -.246E+01 0.427E+01 -.716E-01   -.688E-06 -.194E-05 -.399E-05
   -.283E+02 0.494E+02 -.236E+03   0.308E+02 -.536E+02 0.236E+03   -.247E+01 0.428E+01 -.727E-01   0.424E-06 -.311E-05 -.273E-05
   -.284E+02 0.494E+02 -.236E+03   0.308E+02 -.536E+02 0.236E+03   -.246E+01 0.427E+01 -.727E-01   -.242E-06 -.112E-05 -.307E-05
   -.283E+02 0.494E+02 -.236E+03   0.308E+02 -.536E+02 0.236E+03   -.246E+01 0.427E+01 -.726E-01   -.241E-05 -.144E-05 -.208E-05
   -.283E+02 0.494E+02 -.236E+03   0.308E+02 -.536E+02 0.236E+03   -.247E+01 0.427E+01 -.728E-01   0.136E-05 -.289E-05 -.366E-05
   -.283E+02 0.494E+02 -.236E+03   0.308E+02 -.536E+02 0.236E+03   -.246E+01 0.427E+01 -.724E-01   0.511E-06 -.276E-05 -.117E-05
   -.283E+02 0.494E+02 -.236E+03   0.308E+02 -.536E+02 0.236E+03   -.246E+01 0.427E+01 -.723E-01   -.821E-07 -.198E-05 -.763E-06
   -.283E+02 0.494E+02 -.236E+03   0.308E+02 -.536E+02 0.236E+03   -.247E+01 0.428E+01 -.729E-01   0.832E-07 0.153E-05 -.345E-05
   -.283E+02 -.494E+02 0.236E+03   0.308E+02 0.536E+02 -.236E+03   -.247E+01 -.427E+01 0.713E-01   -.208E-05 0.137E-05 0.485E-05
   -.283E+02 -.494E+02 0.236E+03   0.308E+02 0.536E+02 -.236E+03   -.246E+01 -.427E+01 0.714E-01   -.997E-06 0.122E-05 0.165E-05
   -.283E+02 -.494E+02 0.236E+03   0.308E+02 0.536E+02 -.236E+03   -.246E+01 -.427E+01 0.761E-01   0.124E-05 0.137E-05 0.321E-05
   -.283E+02 -.494E+02 0.236E+03   0.308E+02 0.536E+02 -.236E+03   -.246E+01 -.427E+01 0.725E-01   -.173E-05 0.736E-06 0.143E-05
   -.283E+02 -.494E+02 0.236E+03   0.308E+02 0.536E+02 -.236E+03   -.246E+01 -.427E+01 0.714E-01   0.375E-06 0.378E-05 0.221E-05
   -.283E+02 -.494E+02 0.236E+03   0.308E+02 0.536E+02 -.236E+03   -.246E+01 -.427E+01 0.762E-01   0.796E-06 0.304E-05 0.290E-05
   -.283E+02 -.494E+02 0.236E+03   0.308E+02 0.536E+02 -.236E+03   -.246E+01 -.427E+01 0.724E-01   -.392E-06 0.312E-05 0.274E-05
   -.283E+02 -.494E+02 0.236E+03   0.308E+02 0.536E+02 -.236E+03   -.246E+01 -.427E+01 0.714E-01   0.905E-06 0.813E-06 0.215E-05
   -.283E+02 -.494E+02 0.236E+03   0.308E+02 0.536E+02 -.236E+03   -.246E+01 -.427E+01 0.762E-01   -.102E-05 0.990E-06 0.338E-05
   -.282E+02 -.493E+02 -.236E+03   0.307E+02 0.535E+02 0.237E+03   -.247E+01 -.428E+01 -.604E-01   -.225E-05 0.954E-06 -.448E-05
   -.283E+02 -.494E+02 -.236E+03   0.308E+02 0.536E+02 0.236E+03   -.246E+01 -.427E+01 -.724E-01   -.770E-06 0.115E-05 -.255E-05
   -.283E+02 -.494E+02 -.236E+03   0.308E+02 0.536E+02 0.236E+03   -.246E+01 -.427E+01 -.724E-01   0.158E-05 0.111E-05 -.399E-05
   -.283E+02 -.494E+02 -.236E+03   0.308E+02 0.536E+02 0.236E+03   -.247E+01 -.427E+01 -.728E-01   -.106E-05 0.126E-05 -.387E-06
   -.283E+02 -.494E+02 -.236E+03   0.308E+02 0.536E+02 0.236E+03   -.246E+01 -.427E+01 -.724E-01   0.349E-07 0.340E-05 -.275E-05
   -.283E+02 -.494E+02 -.236E+03   0.308E+02 0.536E+02 0.236E+03   -.246E+01 -.427E+01 -.724E-01   0.939E-06 0.258E-05 -.319E-05
   -.283E+02 -.494E+02 -.236E+03   0.308E+02 0.536E+02 0.236E+03   -.247E+01 -.428E+01 -.729E-01   -.836E-07 0.320E-05 -.197E-05
   -.283E+02 -.494E+02 -.236E+03   0.308E+02 0.536E+02 0.236E+03   -.246E+01 -.427E+01 -.723E-01   0.736E-06 0.468E-06 -.276E-05
   -.283E+02 -.494E+02 -.236E+03   0.308E+02 0.536E+02 0.236E+03   -.246E+01 -.427E+01 -.727E-01   -.112E-05 0.809E-07 -.356E-05
   0.283E+02 0.494E+02 0.236E+03   -.308E+02 -.536E+02 -.236E+03   0.246E+01 0.427E+01 0.756E-01   -.100E-06 -.186E-05 0.480E-05
   0.283E+02 0.494E+02 0.236E+03   -.308E+02 -.536E+02 -.236E+03   0.246E+01 0.427E+01 0.715E-01   -.886E-07 -.132E-05 0.404E-05
   0.283E+02 0.494E+02 0.236E+03   -.308E+02 -.536E+02 -.236E+03   0.246E+01 0.427E+01 0.724E-01   0.180E-05 -.353E-05 0.149E-05
   0.283E+02 0.494E+02 0.236E+03   -.308E+02 -.536E+02 -.236E+03   0.246E+01 0.427E+01 0.762E-01   0.150E-05 -.212E-05 0.312E-05
   0.283E+02 0.494E+02 0.236E+03   -.308E+02 -.536E+02 -.236E+03   0.246E+01 0.427E+01 0.717E-01   -.734E-06 -.128E-05 0.314E-05
   0.283E+02 0.494E+02 0.236E+03   -.308E+02 -.536E+02 -.236E+03   0.246E+01 0.427E+01 0.725E-01   0.349E-06 -.281E-05 0.189E-05
   0.283E+02 0.494E+02 0.236E+03   -.308E+02 -.536E+02 -.236E+03   0.246E+01 0.427E+01 0.762E-01   0.324E-06 -.127E-05 0.237E-05
   0.283E+02 0.494E+02 0.236E+03   -.308E+02 -.536E+02 -.236E+03   0.246E+01 0.427E+01 0.714E-01   -.120E-05 -.300E-05 0.113E-05
   0.283E+02 0.494E+02 0.236E+03   -.308E+02 -.536E+02 -.236E+03   0.246E+01 0.427E+01 0.725E-01   0.139E-05 0.965E-06 0.246E-05
   0.283E+02 0.494E+02 -.236E+03   -.308E+02 -.537E+02 0.236E+03   0.246E+01 0.427E+01 -.720E-01   0.505E-06 -.148E-05 -.495E-05
   0.283E+02 0.494E+02 -.236E+03   -.308E+02 -.536E+02 0.236E+03   0.246E+01 0.427E+01 -.726E-01   -.155E-06 -.711E-06 -.408E-05
   0.283E+02 0.494E+02 -.236E+03   -.308E+02 -.536E+02 0.236E+03   0.247E+01 0.427E+01 -.727E-01   0.147E-05 -.326E-05 -.238E-05
   0.283E+02 0.494E+02 -.236E+03   -.308E+02 -.536E+02 0.236E+03   0.246E+01 0.427E+01 -.720E-01   0.185E-05 -.213E-05 -.295E-05
   0.284E+02 0.494E+02 -.236E+03   -.308E+02 -.537E+02 0.236E+03   0.246E+01 0.427E+01 -.729E-01   -.863E-06 -.558E-06 -.261E-05
   0.283E+02 0.494E+02 -.236E+03   -.308E+02 -.536E+02 0.236E+03   0.247E+01 0.428E+01 -.728E-01   0.232E-06 -.274E-05 -.326E-05
   0.283E+02 0.494E+02 -.236E+03   -.308E+02 -.536E+02 0.236E+03   0.246E+01 0.427E+01 -.724E-01   -.499E-07 -.163E-05 -.179E-05
   0.283E+02 0.494E+02 -.236E+03   -.308E+02 -.536E+02 0.236E+03   0.246E+01 0.427E+01 -.725E-01   -.195E-05 -.297E-05 -.446E-06
   0.283E+02 0.494E+02 -.236E+03   -.308E+02 -.536E+02 0.236E+03   0.247E+01 0.428E+01 -.729E-01   0.139E-05 0.137E-05 -.314E-05
   -.154E-01 -.161E+02 0.438E+02   0.126E-01 0.173E+02 -.378E+02   0.573E-02 -.124E+01 -.604E+01   -.111E-05 0.114E-05 0.652E-05
   0.369E-02 -.160E+02 0.438E+02   -.375E-02 0.173E+02 -.378E+02   -.228E-02 -.125E+01 -.604E+01   -.101E-05 0.221E-06 0.457E-05
   0.365E-02 -.160E+02 0.438E+02   -.369E-02 0.173E+02 -.378E+02   0.243E-02 -.125E+01 -.604E+01   0.223E-05 -.282E-06 0.545E-05
   -.176E-02 -.160E+02 0.438E+02   0.178E-02 0.173E+02 -.378E+02   -.501E-04 -.125E+01 -.604E+01   -.107E-05 -.236E-06 0.117E-05
   0.160E-02 -.160E+02 0.438E+02   -.174E-02 0.173E+02 -.378E+02   -.216E-02 -.125E+01 -.604E+01   -.534E-06 0.153E-05 0.372E-05
   0.836E-04 -.160E+02 0.438E+02   0.544E-04 0.173E+02 -.378E+02   0.222E-02 -.125E+01 -.604E+01   0.165E-05 0.157E-05 0.402E-05
   -.182E-02 -.160E+02 0.438E+02   0.182E-02 0.173E+02 -.378E+02   -.419E-04 -.125E+01 -.604E+01   -.125E-05 0.239E-05 0.334E-05
   -.114E-03 -.160E+02 0.438E+02   0.529E-04 0.173E+02 -.378E+02   -.226E-02 -.125E+01 -.604E+01   0.131E-05 0.134E-05 0.359E-05
   0.170E-02 -.160E+02 0.438E+02   -.177E-02 0.173E+02 -.378E+02   0.242E-02 -.125E+01 -.604E+01   0.469E-08 0.102E-05 0.425E-05
   -.773E-02 -.134E+02 -.432E+03   0.146E-01 0.145E+02 0.437E+03   0.688E-01 -.100E+01 -.493E+01   -.612E-06 0.134E-05 -.146E-05
   0.113E-01 -.134E+02 -.432E+03   -.111E-01 0.145E+02 0.437E+03   -.320E-02 -.107E+01 -.492E+01   -.801E-06 0.235E-06 0.452E-06
   0.111E-01 -.134E+02 -.432E+03   -.111E-01 0.145E+02 0.437E+03   0.299E-02 -.107E+01 -.492E+01   0.149E-05 -.842E-07 -.523E-06
   -.320E-02 -.134E+02 -.432E+03   0.333E-02 0.145E+02 0.437E+03   0.795E-05 -.107E+01 -.491E+01   -.580E-06 0.416E-06 -.827E-06
   0.316E-02 -.134E+02 -.432E+03   -.320E-02 0.145E+02 0.437E+03   -.316E-02 -.107E+01 -.492E+01   -.856E-06 0.162E-05 0.141E-06
   -.114E-03 -.134E+02 -.432E+03   0.266E-03 0.145E+02 0.437E+03   0.310E-02 -.107E+01 -.492E+01   0.150E-05 0.160E-05 -.400E-06
   -.315E-02 -.134E+02 -.432E+03   0.336E-02 0.145E+02 0.437E+03   -.672E-04 -.107E+01 -.491E+01   -.775E-06 0.127E-05 0.714E-06
   -.257E-03 -.134E+02 -.432E+03   0.260E-03 0.145E+02 0.437E+03   -.311E-02 -.107E+01 -.492E+01   0.630E-06 0.903E-06 -.127E-05
   0.330E-02 -.134E+02 -.432E+03   -.321E-02 0.145E+02 0.437E+03   0.307E-02 -.107E+01 -.492E+01   0.778E-07 0.860E-06 -.176E-05
   -.993E-03 0.134E+02 0.432E+03   -.226E-03 -.145E+02 -.437E+03   -.378E-03 0.107E+01 0.491E+01   -.655E-06 -.128E-05 -.121E-05
   -.645E-03 0.134E+02 0.432E+03   0.139E-02 -.145E+02 -.437E+03   0.738E-03 0.107E+01 0.491E+01   -.393E-06 -.141E-05 -.226E-05
   0.135E-02 0.134E+02 0.432E+03   -.131E-02 -.145E+02 -.437E+03   -.349E-04 0.107E+01 0.491E+01   0.911E-06 -.251E-05 -.252E-05
   -.118E-02 0.134E+02 0.432E+03   0.138E-02 -.145E+02 -.437E+03   -.120E-02 0.107E+01 0.491E+01   0.592E-06 -.166E-05 -.100E-05
   -.250E-03 0.134E+02 0.432E+03   -.277E-03 -.145E+02 -.437E+03   0.134E-02 0.107E+01 0.491E+01   -.131E-05 -.165E-05 -.142E-05
   0.121E-02 0.134E+02 0.432E+03   -.121E-02 -.145E+02 -.437E+03   0.382E-05 0.107E+01 0.491E+01   0.637E-06 -.159E-05 -.311E-05
   -.264E-03 0.134E+02 0.432E+03   0.216E-03 -.145E+02 -.437E+03   -.102E-02 0.107E+01 0.491E+01   -.671E-06 -.960E-06 -.140E-05
   -.262E-03 0.134E+02 0.432E+03   0.295E-03 -.145E+02 -.437E+03   0.102E-02 0.107E+01 0.491E+01   0.708E-07 -.115E-05 -.231E-05
   0.426E-03 0.134E+02 0.432E+03   -.513E-03 -.145E+02 -.437E+03   0.101E-03 0.107E+01 0.491E+01   0.694E-06 0.100E-05 -.660E-06
   0.153E-01 0.161E+02 -.438E+02   -.119E-01 -.173E+02 0.378E+02   -.369E-02 0.124E+01 0.604E+01   -.200E-06 -.298E-06 -.428E-05
   -.109E-01 0.160E+02 -.438E+02   0.838E-02 -.173E+02 0.378E+02   0.144E-02 0.125E+01 0.604E+01   -.130E-05 -.627E-06 -.351E-05
   0.370E-02 0.160E+02 -.438E+02   -.366E-02 -.173E+02 0.378E+02   -.876E-04 0.124E+01 0.604E+01   0.141E-05 -.245E-05 -.172E-05
   -.829E-02 0.160E+02 -.438E+02   0.800E-02 -.173E+02 0.378E+02   -.108E-02 0.125E+01 0.604E+01   0.132E-05 -.179E-05 -.170E-05
   0.105E-01 0.161E+02 -.438E+02   -.926E-02 -.173E+02 0.378E+02   0.380E-03 0.124E+01 0.604E+01   -.240E-05 -.172E-05 -.969E-06
   0.333E-02 0.160E+02 -.438E+02   -.333E-02 -.173E+02 0.378E+02   -.209E-04 0.124E+01 0.604E+01   0.101E-05 -.169E-05 -.197E-05
   -.442E-03 0.160E+02 -.438E+02   0.370E-03 -.173E+02 0.378E+02   -.134E-02 0.125E+01 0.604E+01   -.845E-06 -.661E-07 -.152E-05
   -.617E-03 0.160E+02 -.438E+02   0.616E-03 -.173E+02 0.378E+02   0.130E-02 0.125E+01 0.604E+01   -.323E-06 -.564E-06 -.240E-06
   0.963E-03 0.160E+02 -.438E+02   -.100E-02 -.173E+02 0.378E+02   0.774E-04 0.124E+01 0.604E+01   0.114E-05 0.206E-05 -.152E-05
   0.928E-03 -.134E+02 0.432E+03   0.272E-02 0.145E+02 -.437E+03   -.160E-02 -.107E+01 0.491E+01   -.653E-06 0.162E-05 -.656E-06
   0.114E-02 -.134E+02 0.432E+03   -.122E-02 0.145E+02 -.437E+03   -.974E-03 -.107E+01 0.491E+01   -.514E-06 0.537E-06 -.315E-05
   0.122E-02 -.134E+02 0.432E+03   -.122E-02 0.145E+02 -.437E+03   0.114E-02 -.107E+01 0.491E+01   0.127E-05 0.333E-06 -.210E-05
   -.915E-03 -.134E+02 0.432E+03   0.883E-03 0.145E+02 -.437E+03   0.242E-05 -.107E+01 0.491E+01   -.628E-06 0.567E-06 -.856E-06
   0.729E-03 -.134E+02 0.432E+03   -.823E-03 0.145E+02 -.437E+03   -.945E-03 -.107E+01 0.491E+01   -.455E-06 0.169E-05 -.259E-05
   0.159E-03 -.134E+02 0.432E+03   -.436E-04 0.145E+02 -.437E+03   0.952E-03 -.107E+01 0.491E+01   0.112E-05 0.173E-05 -.189E-05
   -.924E-03 -.134E+02 0.432E+03   0.886E-03 0.145E+02 -.437E+03   0.772E-05 -.107E+01 0.491E+01   -.680E-06 0.188E-05 -.282E-05
   -.342E-04 -.134E+02 0.432E+03   -.457E-04 0.145E+02 -.437E+03   -.991E-03 -.107E+01 0.491E+01   0.103E-05 0.129E-05 -.137E-05
   0.770E-03 -.134E+02 0.432E+03   -.824E-03 0.145E+02 -.437E+03   0.115E-02 -.107E+01 0.491E+01   -.277E-06 0.121E-05 -.598E-06
   -.655E-01 -.161E+02 -.438E+02   0.633E-01 0.174E+02 0.378E+02   -.473E-02 -.125E+01 0.604E+01   -.111E-05 0.845E-06 -.407E-05
   0.725E-02 -.160E+02 -.438E+02   -.723E-02 0.173E+02 0.378E+02   -.119E-02 -.125E+01 0.604E+01   -.107E-05 -.574E-07 -.217E-05
   0.712E-02 -.160E+02 -.438E+02   -.714E-02 0.173E+02 0.378E+02   0.137E-02 -.125E+01 0.604E+01   0.223E-05 -.630E-06 -.329E-05
   -.262E-02 -.160E+02 -.438E+02   0.259E-02 0.173E+02 0.378E+02   0.789E-05 -.124E+01 0.604E+01   -.105E-05 -.303E-06 -.384E-06
   0.250E-02 -.160E+02 -.438E+02   -.253E-02 0.173E+02 0.378E+02   -.140E-02 -.125E+01 0.604E+01   -.642E-06 0.137E-05 -.127E-05
   -.906E-04 -.160E+02 -.438E+02   0.166E-03 0.173E+02 0.378E+02   0.118E-02 -.125E+01 0.604E+01   0.176E-05 0.134E-05 -.201E-05
   -.267E-02 -.160E+02 -.438E+02   0.267E-02 0.173E+02 0.378E+02   -.352E-04 -.124E+01 0.604E+01   -.132E-05 0.210E-05 -.163E-05
   -.401E-03 -.160E+02 -.438E+02   0.165E-03 0.173E+02 0.378E+02   -.122E-02 -.125E+01 0.604E+01   0.115E-05 0.104E-05 -.792E-06
   0.267E-02 -.160E+02 -.438E+02   -.259E-02 0.173E+02 0.378E+02   0.123E-02 -.125E+01 0.604E+01   0.127E-06 0.767E-06 -.177E-05
   0.245E-02 0.160E+02 0.438E+02   -.323E-02 -.173E+02 -.378E+02   -.261E-02 0.125E+01 -.605E+01   -.517E-06 -.703E-06 0.694E-05
   -.383E-02 0.160E+02 0.438E+02   0.416E-02 -.173E+02 -.378E+02   0.262E-02 0.125E+01 -.605E+01   -.111E-05 -.103E-05 0.640E-05
   0.265E-02 0.160E+02 0.438E+02   -.261E-02 -.173E+02 -.378E+02   -.307E-04 0.125E+01 -.604E+01   0.148E-05 -.273E-05 0.412E-05
   -.388E-02 0.160E+02 0.438E+02   0.406E-02 -.173E+02 -.378E+02   -.236E-02 0.125E+01 -.604E+01   0.920E-06 -.187E-05 0.362E-05
   0.257E-02 0.160E+02 0.438E+02   -.286E-02 -.173E+02 -.378E+02   0.218E-02 0.125E+01 -.604E+01   -.208E-05 -.191E-05 0.316E-05
   0.240E-02 0.160E+02 0.438E+02   -.240E-02 -.173E+02 -.378E+02   0.186E-04 0.125E+01 -.604E+01   0.105E-05 -.169E-05 0.452E-05
   -.384E-03 0.160E+02 0.438E+02   0.320E-03 -.173E+02 -.378E+02   -.227E-02 0.125E+01 -.604E+01   -.103E-05 -.291E-06 0.234E-05
   -.454E-03 0.160E+02 0.438E+02   0.484E-03 -.173E+02 -.378E+02   0.227E-02 0.125E+01 -.604E+01   -.627E-07 -.798E-06 0.157E-05
   0.712E-03 0.160E+02 0.438E+02   -.812E-03 -.173E+02 -.378E+02   0.103E-03 0.125E+01 -.604E+01   0.118E-05 0.194E-05 0.374E-05
   0.319E-01 0.135E+02 -.432E+03   -.303E-01 -.145E+02 0.437E+03   -.412E-02 0.107E+01 -.492E+01   -.378E-07 -.920E-06 -.128E-05
   -.144E-01 0.134E+02 -.432E+03   0.142E-01 -.145E+02 0.437E+03   0.451E-02 0.107E+01 -.492E+01   -.831E-06 -.103E-05 -.329E-06
   0.453E-02 0.134E+02 -.432E+03   -.450E-02 -.145E+02 0.437E+03   -.128E-03 0.107E+01 -.491E+01   0.809E-06 -.230E-05 -.330E-06
   -.130E-01 0.134E+02 -.432E+03   0.130E-01 -.145E+02 0.437E+03   -.330E-02 0.107E+01 -.492E+01   0.134E-05 -.145E-05 -.125E-05
   0.211E-01 0.135E+02 -.432E+03   -.201E-01 -.145E+02 0.437E+03   0.221E-02 0.107E+01 -.492E+01   -.193E-05 -.133E-05 -.851E-06
   0.396E-02 0.134E+02 -.432E+03   -.401E-02 -.145E+02 0.437E+03   -.275E-04 0.107E+01 -.491E+01   0.539E-06 -.166E-05 0.264E-06
   -.389E-03 0.134E+02 -.432E+03   0.379E-03 -.145E+02 0.437E+03   -.311E-02 0.107E+01 -.492E+01   -.183E-06 -.509E-06 -.119E-06
   -.602E-03 0.134E+02 -.432E+03   0.727E-03 -.145E+02 0.437E+03   0.314E-02 0.107E+01 -.492E+01   -.500E-06 -.733E-06 0.479E-06
   0.105E-02 0.134E+02 -.432E+03   -.113E-02 -.145E+02 0.437E+03   0.191E-04 0.107E+01 -.491E+01   0.633E-06 0.116E-05 -.156E-05
   -.655E-04 -.615E+02 0.233E+03   -.509E-03 0.639E+02 -.233E+03   0.152E-02 -.242E+01 0.295E-01   -.280E-06 0.215E-06 0.531E-05
   -.172E-02 -.615E+02 0.233E+03   0.178E-02 0.639E+02 -.233E+03   -.112E-02 -.242E+01 0.295E-01   -.101E-05 0.700E-06 0.422E-05
   0.226E-02 -.615E+02 0.233E+03   -.226E-02 0.639E+02 -.233E+03   0.289E-04 -.242E+01 0.297E-01   0.112E-05 -.615E-06 0.169E-05
   -.198E-02 -.615E+02 0.233E+03   0.184E-02 0.639E+02 -.233E+03   0.100E-02 -.242E+01 0.295E-01   0.127E-05 0.470E-06 0.306E-05
   0.920E-03 -.615E+02 0.233E+03   -.673E-03 0.639E+02 -.233E+03   -.101E-02 -.242E+01 0.297E-01   -.203E-05 0.183E-06 0.243E-05
   0.122E-02 -.615E+02 0.233E+03   -.128E-02 0.639E+02 -.233E+03   0.464E-04 -.242E+01 0.297E-01   0.705E-06 0.174E-05 0.221E-05
   0.569E-04 -.615E+02 0.233E+03   -.791E-04 0.639E+02 -.233E+03   0.990E-03 -.242E+01 0.296E-01   -.208E-05 0.180E-05 0.300E-05
   -.792E-03 -.615E+02 0.233E+03   0.838E-03 0.639E+02 -.233E+03   -.101E-02 -.242E+01 0.296E-01   0.117E-05 0.171E-05 0.166E-05
   0.755E-03 -.615E+02 0.233E+03   -.772E-03 0.639E+02 -.233E+03   0.396E-04 -.242E+01 0.297E-01   0.997E-06 0.132E-05 0.337E-05
   0.535E-01 -.615E+02 -.233E+03   -.544E-01 0.639E+02 0.233E+03   -.425E-02 -.242E+01 -.259E-01   -.730E-07 -.103E-06 -.533E-05
   0.416E-02 -.615E+02 -.233E+03   -.470E-02 0.639E+02 0.233E+03   0.313E-02 -.241E+01 -.208E-01   -.108E-05 0.211E-06 -.431E-05
   0.580E-02 -.615E+02 -.233E+03   -.537E-02 0.639E+02 0.233E+03   0.164E-03 -.242E+01 -.317E-01   0.114E-05 -.787E-06 -.251E-05
   -.665E-02 -.615E+02 -.233E+03   0.638E-02 0.639E+02 0.233E+03   -.397E-02 -.242E+01 -.246E-01   0.191E-05 0.206E-06 -.254E-05
   0.488E-02 -.615E+02 -.233E+03   -.526E-02 0.639E+02 0.233E+03   0.388E-02 -.242E+01 -.247E-01   -.256E-05 -.280E-06 -.181E-05
   0.268E-02 -.615E+02 -.233E+03   -.258E-02 0.639E+02 0.233E+03   -.132E-04 -.242E+01 -.318E-01   0.571E-06 0.173E-05 -.337E-05
   0.640E-03 -.615E+02 -.233E+03   -.686E-03 0.639E+02 0.233E+03   -.393E-02 -.242E+01 -.247E-01   -.182E-05 0.231E-05 -.211E-05
   -.195E-02 -.615E+02 -.233E+03   0.195E-02 0.639E+02 0.233E+03   0.398E-02 -.242E+01 -.247E-01   0.101E-05 0.234E-05 -.984E-06
   0.140E-02 -.615E+02 -.233E+03   -.135E-02 0.639E+02 0.233E+03   -.157E-04 -.242E+01 -.319E-01   0.844E-06 0.105E-05 -.387E-05
   -.355E-02 0.615E+02 0.233E+03   0.476E-02 -.639E+02 -.233E+03   -.530E-03 0.242E+01 0.300E-01   -.773E-06 0.789E-06 0.540E-05
   0.110E-02 0.615E+02 0.233E+03   -.126E-02 -.639E+02 -.233E+03   0.107E-02 0.242E+01 0.296E-01   -.275E-06 -.168E-05 0.223E-05
   0.249E-02 0.615E+02 0.233E+03   -.259E-02 -.639E+02 -.233E+03   -.851E-03 0.242E+01 0.296E-01   0.123E-05 -.173E-05 0.360E-05
   -.204E-02 0.615E+02 0.233E+03   0.210E-02 -.639E+02 -.233E+03   -.354E-04 0.242E+01 0.297E-01   -.547E-06 -.119E-05 0.260E-05
   0.170E-02 0.615E+02 0.233E+03   -.186E-02 -.639E+02 -.233E+03   0.106E-02 0.242E+01 0.296E-01   -.137E-05 -.139E-05 0.237E-05
   0.154E-03 0.615E+02 0.233E+03   -.877E-04 -.639E+02 -.233E+03   -.104E-02 0.242E+01 0.296E-01   0.199E-05 -.143E-05 0.303E-05
   -.859E-03 0.615E+02 0.233E+03   0.859E-03 -.639E+02 -.233E+03   -.126E-04 0.242E+01 0.297E-01   -.109E-05 -.181E-05 0.232E-05
   0.499E-04 0.615E+02 0.233E+03   -.129E-03 -.639E+02 -.233E+03   0.105E-02 0.242E+01 0.296E-01   0.151E-05 0.313E-06 0.220E-05
   0.901E-03 0.615E+02 0.233E+03   -.720E-03 -.639E+02 -.233E+03   -.102E-02 0.242E+01 0.296E-01   -.536E-06 0.360E-06 0.329E-05
   -.111E+00 0.616E+02 -.233E+03   0.115E+00 -.640E+02 0.233E+03   -.852E-02 0.243E+01 -.176E-01   -.787E-06 0.955E-06 -.503E-05
   0.436E-02 0.615E+02 -.233E+03   -.525E-02 -.639E+02 0.233E+03   -.414E-02 0.242E+01 -.246E-01   -.306E-06 -.150E-05 -.280E-05
   0.116E-01 0.615E+02 -.233E+03   -.112E-01 -.639E+02 0.233E+03   0.374E-02 0.242E+01 -.248E-01   0.115E-05 -.180E-05 -.430E-05
   -.775E-02 0.615E+02 -.233E+03   0.763E-02 -.639E+02 0.233E+03   0.695E-04 0.242E+01 -.318E-01   -.547E-06 -.178E-05 -.154E-05
   0.554E-02 0.615E+02 -.233E+03   -.550E-02 -.639E+02 0.233E+03   -.397E-02 0.242E+01 -.246E-01   -.110E-05 -.992E-06 -.274E-05
   0.572E-04 0.615E+02 -.233E+03   0.396E-04 -.639E+02 0.233E+03   0.387E-02 0.242E+01 -.250E-01   0.175E-05 -.135E-05 -.350E-05
   -.169E-02 0.615E+02 -.233E+03   0.167E-02 -.639E+02 0.233E+03   0.318E-05 0.242E+01 -.317E-01   -.970E-06 -.202E-05 -.119E-05
   0.785E-04 0.615E+02 -.233E+03   -.922E-04 -.639E+02 0.233E+03   -.389E-02 0.242E+01 -.248E-01   0.114E-05 0.856E-06 -.244E-05
   0.160E-02 0.615E+02 -.233E+03   -.152E-02 -.639E+02 0.233E+03   0.385E-02 0.242E+01 -.248E-01   -.194E-06 0.119E-05 -.332E-05
   0.270E-03 0.217E+00 0.174E+03   0.109E-04 0.911E-01 -.178E+03   0.664E-04 -.314E+00 0.406E+01   -.156E-06 -.131E-06 -.108E-05
   -.381E-03 0.216E+00 0.174E+03   0.273E-03 0.913E-01 -.178E+03   -.308E-04 -.315E+00 0.406E+01   -.861E-07 -.150E-06 -.151E-05
   0.287E-03 0.217E+00 0.174E+03   -.297E-03 0.911E-01 -.178E+03   0.846E-06 -.315E+00 0.406E+01   0.223E-06 -.473E-06 -.558E-06
   -.284E-03 0.217E+00 0.174E+03   0.270E-03 0.912E-01 -.178E+03   -.169E-04 -.314E+00 0.406E+01   0.167E-06 -.271E-06 -.881E-06
   0.105E-03 0.217E+00 0.174E+03   -.960E-05 0.909E-01 -.178E+03   0.370E-04 -.314E+00 0.406E+01   -.352E-06 -.282E-06 -.117E-05
   0.270E-03 0.217E+00 0.174E+03   -.271E-03 0.910E-01 -.178E+03   0.186E-05 -.315E+00 0.406E+01   0.176E-06 -.293E-06 -.174E-05
   -.457E-04 0.217E+00 0.174E+03   0.534E-04 0.906E-01 -.178E+03   -.954E-05 -.314E+00 0.406E+01   -.165E-06 -.636E-07 -.104E-05
   -.756E-04 0.217E+00 0.174E+03   0.758E-04 0.907E-01 -.178E+03   0.935E-05 -.314E+00 0.406E+01   -.131E-07 -.115E-06 -.136E-05
   0.135E-03 0.217E+00 0.174E+03   -.130E-03 0.908E-01 -.178E+03   0.360E-05 -.315E+00 0.406E+01   0.189E-06 0.255E-06 -.102E-05
   -.140E-02 -.219E+00 0.174E+03   0.491E-03 -.904E-01 -.178E+03   -.251E-03 0.314E+00 0.406E+01   -.185E-06 0.201E-06 -.113E-05
   0.246E-03 -.217E+00 0.174E+03   -.229E-03 -.907E-01 -.178E+03   -.494E-05 0.314E+00 0.406E+01   -.613E-07 -.158E-07 -.116E-05
   0.226E-03 -.217E+00 0.174E+03   -.238E-03 -.907E-01 -.178E+03   0.140E-04 0.314E+00 0.406E+01   0.261E-06 -.843E-07 -.876E-06
   -.193E-03 -.217E+00 0.174E+03   0.205E-03 -.912E-01 -.178E+03   0.148E-05 0.315E+00 0.406E+01   -.175E-06 0.391E-07 -.723E-06
   0.191E-03 -.217E+00 0.174E+03   -.183E-03 -.912E-01 -.178E+03   -.671E-05 0.314E+00 0.406E+01   -.942E-07 0.288E-06 -.192E-05
   0.411E-05 -.217E+00 0.174E+03   -.195E-04 -.910E-01 -.178E+03   0.648E-05 0.314E+00 0.406E+01   0.275E-06 0.271E-06 -.165E-05
   -.184E-03 -.217E+00 0.174E+03   0.197E-03 -.912E-01 -.178E+03   -.278E-06 0.315E+00 0.406E+01   -.196E-06 0.270E-06 -.150E-05
   0.244E-04 -.217E+00 0.174E+03   -.204E-04 -.910E-01 -.178E+03   -.728E-05 0.314E+00 0.406E+01   0.257E-06 0.255E-06 -.952E-06
   0.167E-03 -.217E+00 0.174E+03   -.175E-03 -.912E-01 -.178E+03   0.117E-04 0.314E+00 0.406E+01   -.524E-07 0.250E-06 -.577E-06
   0.803E-02 0.224E+00 -.174E+03   -.841E-02 0.835E-01 0.178E+03   -.143E-03 -.315E+00 -.406E+01   -.413E-07 -.110E-06 -.173E-06
   -.388E-02 0.213E+00 -.174E+03   0.409E-02 0.951E-01 0.178E+03   0.869E-04 -.314E+00 -.406E+01   -.175E-06 -.119E-06 0.279E-06
   0.145E-02 0.217E+00 -.174E+03   -.145E-02 0.913E-01 0.178E+03   -.321E-05 -.314E+00 -.406E+01   0.207E-06 -.423E-06 -.336E-06
   -.370E-02 0.215E+00 -.174E+03   0.370E-02 0.926E-01 0.178E+03   -.355E-04 -.314E+00 -.406E+01   0.305E-06 -.246E-06 -.463E-06
   0.492E-02 0.223E+00 -.174E+03   -.506E-02 0.845E-01 0.178E+03   0.273E-05 -.314E+00 -.406E+01   -.466E-06 -.255E-06 -.268E-06
   0.125E-02 0.217E+00 -.174E+03   -.125E-02 0.911E-01 0.178E+03   0.580E-06 -.314E+00 -.406E+01   0.152E-06 -.249E-06 0.101E-05
   -.119E-03 0.218E+00 -.174E+03   0.104E-03 0.896E-01 0.178E+03   -.232E-04 -.314E+00 -.406E+01   -.500E-07 0.132E-07 -.202E-06
   -.245E-03 0.218E+00 -.174E+03   0.255E-03 0.897E-01 0.178E+03   0.207E-04 -.314E+00 -.406E+01   -.131E-06 -.323E-07 0.176E-06
   0.374E-03 0.217E+00 -.174E+03   -.367E-03 0.905E-01 0.178E+03   0.167E-05 -.314E+00 -.406E+01   0.175E-06 0.296E-06 -.131E-06
   -.160E+00 -.388E+00 -.174E+03   0.173E+00 0.928E-01 0.178E+03   -.264E-01 0.287E+00 -.407E+01   -.181E-06 0.177E-06 -.292E-06
   0.317E-02 -.219E+00 -.174E+03   -.323E-02 -.894E-01 0.178E+03   -.182E-04 0.314E+00 -.406E+01   -.142E-06 -.880E-07 0.192E-06
   0.342E-02 -.218E+00 -.174E+03   -.338E-02 -.895E-01 0.178E+03   0.147E-04 0.314E+00 -.406E+01   0.329E-06 -.186E-06 0.265E-07
   -.112E-02 -.214E+00 -.174E+03   0.110E-02 -.940E-01 0.178E+03   -.165E-05 0.314E+00 -.406E+01   -.160E-06 0.170E-07 -.505E-06
   0.105E-02 -.216E+00 -.174E+03   -.105E-02 -.921E-01 0.178E+03   -.218E-04 0.314E+00 -.406E+01   -.195E-06 0.287E-06 0.710E-06
   -.721E-04 -.217E+00 -.174E+03   0.826E-04 -.911E-01 0.178E+03   0.172E-04 0.314E+00 -.406E+01   0.364E-06 0.264E-06 0.546E-06
   -.103E-02 -.214E+00 -.174E+03   0.100E-02 -.938E-01 0.178E+03   -.470E-05 0.314E+00 -.406E+01   -.201E-06 0.170E-06 0.183E-06
   -.835E-04 -.217E+00 -.174E+03   0.742E-04 -.911E-01 0.178E+03   -.185E-04 0.314E+00 -.406E+01   0.160E-06 0.205E-06 -.245E-06
   0.989E-03 -.216E+00 -.174E+03   -.972E-03 -.921E-01 0.178E+03   0.138E-04 0.314E+00 -.406E+01   0.380E-07 0.223E-06 -.748E-06
 -----------------------------------------------------------------------------------------------
   0.108E-01 0.289E-02 0.298E-01   -.108E-11 0.213E-12 -.301E-11   -.117E-01 -.271E-02 -.135E+00   -.168E-06 -.273E-05 -.312E-04
 
 
 POSITION                                       TOTAL-FORCE (eV/Angst)
 -----------------------------------------------------------------------------------
      2.96805      3.92015      4.01906         0.015318     -0.032010      0.001761
      8.64805      3.92015      4.01906         0.018323     -0.028873     -0.000376
     14.32804      3.92015      4.01906         0.019214     -0.029955      0.002494
      2.96805     10.06727      4.01906         0.018926     -0.030804      0.000935
      8.64805     10.06727      4.01906         0.018399     -0.028750     -0.000496
     14.32804     10.06727      4.01906         0.019091     -0.029980      0.002494
      2.96805     16.21438      4.01906         0.019005     -0.030747      0.000919
      8.64805     16.21438      4.01906         0.018159     -0.028874     -0.000419
     14.32804     16.21438      4.01906         0.019032     -0.029840      0.002492
      2.96805      3.92015      8.06906         0.004568     -0.039784     -0.013327
      8.64805      3.92015      8.06906         0.020096     -0.025921     -0.003128
     14.32804      3.92015      8.06906         0.018784     -0.030254     -0.002916
      2.96805     10.06727      8.06906         0.019946     -0.030005     -0.000823
      8.64805     10.06727      8.06906         0.019688     -0.025463     -0.001967
     14.32804     10.06727      8.06906         0.019400     -0.029941     -0.003198
      2.96805     16.21438      8.06906         0.020001     -0.030198     -0.000854
      8.64805     16.21438      8.06906         0.019368     -0.025408     -0.002242
     14.32804     16.21438      8.06906         0.019325     -0.029970     -0.003034
      2.71194      2.22696      4.01906        -0.017280      0.030309      0.002486
      8.39194      2.22696      4.01906        -0.018511      0.028885     -0.000597
     14.07194      2.22696      4.01906        -0.019004      0.030812      0.000935
      2.71194      8.37407      4.01906        -0.019178      0.029781      0.002523
      8.39194      8.37407      4.01906        -0.018259      0.029101     -0.000261
     14.07194      8.37407      4.01906        -0.018963      0.030792      0.000946
      2.71194     14.52118      4.01906        -0.019158      0.029939      0.002484
      8.39194     14.52118      4.01906        -0.018178      0.028777     -0.000437
     14.07194     14.52118      4.01906        -0.018900      0.030885      0.000928
      2.71194      2.22696      8.06906        -0.026203      0.020998     -0.012992
      8.39194      2.22696      8.06906        -0.017472      0.025671      0.000068
     14.07194      2.22696      8.06906        -0.020763      0.030036     -0.000843
      2.71194      8.37407      8.06906        -0.019200      0.030128     -0.003540
      8.39194      8.37407      8.06906        -0.019838      0.024994     -0.002400
     14.07194      8.37407      8.06906        -0.019948      0.030102     -0.000694
      2.71194     14.52118      8.06906        -0.019397      0.029885     -0.002967
      8.39194     14.52118      8.06906        -0.019364      0.025412     -0.001901
     14.07194     14.52118      8.06906        -0.019934      0.030177     -0.000714
      5.55194      3.92015      4.01906        -0.019297     -0.029519      0.000663
     11.23194      3.92015      4.01906        -0.019126     -0.029958      0.002524
     16.91193      3.92015      4.01906        -0.018369     -0.028642     -0.000458
      5.55194     10.06727      4.01906        -0.018878     -0.030879      0.000915
     11.23194     10.06727      4.01906        -0.019167     -0.029884      0.002505
     16.91193     10.06727      4.01906        -0.018218     -0.028782     -0.000420
      5.55194     16.21438      4.01906        -0.018992     -0.030771      0.000944
     11.23194     16.21438      4.01906        -0.019107     -0.030042      0.002508
     16.91193     16.21438      4.01906        -0.018227     -0.028893     -0.000438
      5.55194      3.92015      8.06906        -0.029332     -0.031454      0.003047
     11.23194      3.92015      8.06906        -0.019275     -0.029789     -0.002752
     16.91193      3.92015      8.06906        -0.017672     -0.026000     -0.002055
      5.55194     10.06727      8.06906        -0.020005     -0.029899     -0.000614
     11.23194     10.06727      8.06906        -0.019532     -0.029941     -0.002980
     16.91193     10.06727      8.06906        -0.019311     -0.025409     -0.002039
      5.55194     16.21438      8.06906        -0.020055     -0.030049     -0.000619
     11.23194     16.21438      8.06906        -0.019370     -0.030024     -0.003098
     16.91193     16.21438      8.06906        -0.019389     -0.025511     -0.002116
      0.12805      2.22696      4.01906         0.018151      0.028533     -0.000604
      5.80805      2.22696      4.01906         0.019406      0.030289      0.002611
     11.48805      2.22696      4.01906         0.018944      0.030841      0.000892
      0.12805      8.37407      4.01906         0.018310      0.028892     -0.000439
      5.80805      8.37407      4.01906         0.019143      0.029560      0.002549
     11.48805      8.37407      4.01906         0.019016      0.030840      0.000924
      0.12805     14.52118      4.01906         0.018245      0.028765     -0.000426
      5.80805     14.52118      4.01906         0.019210      0.029941      0.002503
     11.48805     14.52118      4.01906         0.018928      0.030829      0.000930
      0.12805      2.22696      8.06906         0.019723      0.025895     -0.002346
      5.80805      2.22696      8.06906         0.020932      0.027491     -0.008576
     11.48805      2.22696      8.06906         0.020198      0.029890     -0.001072
      0.12805      8.37407      8.06906         0.019629      0.025661     -0.002107
      5.80805      8.37407      8.06906         0.019021      0.031231     -0.003177
     11.48805      8.37407      8.06906         0.020125      0.030194     -0.000756
      0.12805     14.52118      8.06906         0.019385      0.025426     -0.002071
      5.80805     14.52118      8.06906         0.019362      0.029906     -0.003130
     11.48805     14.52118      8.06906         0.019970      0.030116     -0.000528
      3.39666      5.53313      4.00005         0.005436     -0.005968     -0.003253
      9.07665      5.53313      4.00005        -0.000934     -0.006612      0.000827
     14.75665      5.53313      4.00005         0.003003     -0.007166     -0.003952
      3.39666     11.68024      4.00005         0.003445     -0.007032     -0.002919
      9.07665     11.68024      4.00005        -0.000853     -0.006715      0.000793
     14.75665     11.68024      4.00005         0.002999     -0.007093     -0.004003
      3.39666     17.82735      4.00005         0.003486     -0.007168     -0.002912
      9.07665     17.82735      4.00005        -0.000739     -0.006607      0.000823
     14.75665     17.82735      4.00005         0.002987     -0.007179     -0.003994
      3.39666      5.53313      8.08806         0.007909     -0.010867      0.008383
      9.07665      5.53313      8.08806        -0.000569     -0.007457      0.003725
     14.75665      5.53313      8.08806        -0.000084     -0.005822      0.003752
      3.39666     11.68024      8.08806         0.004191     -0.008085      0.003222
      9.07665     11.68024      8.08806        -0.000107     -0.007532      0.003804
     14.75665     11.68024      8.08806         0.000054     -0.005896      0.003641
      3.39666     17.82735      8.08806         0.004014     -0.007711      0.003222
      9.07665     17.82735      8.08806         0.000241     -0.007312      0.003263
     14.75665     17.82735      8.08806         0.000029     -0.005974      0.003667
      2.28334      0.61398      4.00005        -0.003261      0.006711     -0.003952
      7.96333      0.61398      4.00005         0.000788      0.006716      0.000686
     13.64333      0.61398      4.00005        -0.003490      0.007106     -0.002899
      2.28334      6.76109      4.00005        -0.003174      0.007365     -0.003953
      7.96333      6.76109      4.00005         0.000511      0.006478      0.000851
     13.64333      6.76109      4.00005        -0.003506      0.007101     -0.002917
      2.28334     12.90820      4.00005        -0.002998      0.007130     -0.003987
      7.96333     12.90820      4.00005         0.000884      0.006653      0.000798
     13.64333     12.90820      4.00005        -0.003434      0.006934     -0.002916
      2.28334      0.61398      8.08806        -0.000101      0.006528      0.003498
      7.96333      0.61398      8.08806        -0.000276      0.007350      0.004489
     13.64333      0.61398      8.08806        -0.004034      0.008165      0.003160
      2.28334      6.76109      8.08806        -0.000968      0.005786      0.004071
      7.96333      6.76109      8.08806         0.001103      0.007551      0.003543
     13.64333      6.76109      8.08806        -0.004229      0.007990      0.003206
      2.28334     12.90820      8.08806        -0.000096      0.005896      0.003731
      7.96333     12.90820      8.08806         0.000068      0.007543      0.003776
     13.64333     12.90820      8.08806        -0.004223      0.008036      0.003335
      5.12334      5.53313      4.00005        -0.005665     -0.009008     -0.003876
     10.80333      5.53313      4.00005        -0.002933     -0.007144     -0.003969
     16.48333      5.53313      4.00005         0.000898     -0.006569      0.000792
      5.12334     11.68024      4.00005        -0.003453     -0.007023     -0.002895
     10.80333     11.68024      4.00005        -0.003050     -0.007250     -0.004028
     16.48333     11.68024      4.00005         0.000868     -0.006652      0.000812
      5.12334     17.82735      4.00005        -0.003432     -0.007015     -0.002915
     10.80333     17.82735      4.00005        -0.003131     -0.007104     -0.003981
     16.48333     17.82735      4.00005         0.000956     -0.006523      0.000830
      5.12334      5.53313      8.08806        -0.028476     -0.035333      0.025798
     10.80333      5.53313      8.08806        -0.000555     -0.006055      0.003511
     16.48333      5.53313      8.08806         0.000011     -0.007599      0.003553
      5.12334     11.68024      8.08806        -0.004270     -0.008042      0.003367
     10.80333     11.68024      8.08806        -0.000123     -0.006039      0.003813
     16.48333     11.68024      8.08806         0.000104     -0.007482      0.003835
      5.12334     17.82735      8.08806        -0.004204     -0.007837      0.003238
     10.80333     17.82735      8.08806        -0.000238     -0.005879      0.003793
     16.48333     17.82735      8.08806         0.000365     -0.007190      0.003744
      0.55666      0.61398      4.00005        -0.000699      0.006707      0.000408
      6.23666      0.61398      4.00005         0.002981      0.006628     -0.003851
     11.91665      0.61398      4.00005         0.003489      0.007066     -0.002893
      0.55666      6.76109      4.00005        -0.000838      0.006515      0.000825
      6.23666      6.76109      4.00005         0.003680      0.007884     -0.003778
     11.91665      6.76109      4.00005         0.003498      0.007048     -0.002915
      0.55666     12.90820      4.00005        -0.000869      0.006635      0.000811
      6.23666     12.90820      4.00005         0.003007      0.007136     -0.003979
     11.91665     12.90820      4.00005         0.003465      0.007031     -0.002889
      0.55666      0.61398      8.08806        -0.001389      0.006674      0.003956
      6.23666      0.61398      8.08806         0.000943      0.007011      0.001344
     11.91665      0.61398      8.08806         0.004550      0.008125      0.003274
      0.55666      6.76109      8.08806         0.000243      0.007406      0.003978
      6.23666      6.76109      8.08806        -0.001926      0.004175      0.007229
     11.91665      6.76109      8.08806         0.004399      0.008308      0.003313
      0.55666     12.90820      8.08806        -0.000099      0.007501      0.003657
      6.23666     12.90820      8.08806         0.000126      0.005885      0.003534
     11.91665     12.90820      8.08806         0.004276      0.008127      0.003336
      4.26000      4.50802      5.22143         0.002951      0.011817     -0.017792
      9.93999      4.50802      5.22143        -0.002333      0.006657     -0.020322
     15.61999      4.50802      5.22143         0.002395      0.006647     -0.020416
      4.26000     10.65513      5.22143        -0.000037      0.008736     -0.016715
      9.93999     10.65513      5.22143        -0.002296      0.006732     -0.020521
     15.61999     10.65513      5.22143         0.002364      0.006748     -0.020388
      4.26000     16.80224      5.22143        -0.000035      0.008705     -0.016750
      9.93999     16.80224      5.22143        -0.002313      0.006755     -0.020404
     15.61999     16.80224      5.22143         0.002352      0.006788     -0.020305
      4.25321      4.47263      9.26014         0.075640      0.084266     -0.018477
      9.93999      4.47998      9.26014        -0.003041      0.006588      0.003608
     15.61999      4.47998      9.26014         0.003017      0.006855      0.003611
      4.26000     10.62709      9.26014         0.000144      0.006587      0.009973
      9.93999     10.62709      9.26014        -0.003204      0.006737      0.003418
     15.61999     10.62709      9.26014         0.003260      0.006827      0.003556
      4.26000     16.77420      9.26014         0.000144      0.006587      0.010019
      9.93999     16.77420      9.26014        -0.003102      0.006837      0.003586
     15.61999     16.77420      9.26014         0.003160      0.006732      0.003549
      1.42000      1.66714      2.82797        -0.001595     -0.006516     -0.010026
      7.10000      1.66714      2.82797         0.001491     -0.005639     -0.009906
     12.77999      1.66714      2.82797         0.000011     -0.007741     -0.004733
      1.42000      7.81425      2.82797        -0.000987     -0.005999     -0.009894
      7.10000      7.81425      2.82797         0.000811     -0.006313     -0.009920
     12.77999      7.81425      2.82797         0.000006     -0.007751     -0.004718
      1.42000     13.96136      2.82797        -0.001062     -0.006069     -0.009913
      7.10000     13.96136      2.82797         0.001059     -0.006084     -0.009934
     12.77999     13.96136      2.82797         0.000018     -0.007738     -0.004737
      1.42000      1.63909      6.86669        -0.000298     -0.008573      0.016580
      7.10000      1.63909      6.86669        -0.001104     -0.011952      0.015691
     12.77999      1.63909      6.86669        -0.000043     -0.011229      0.018371
      1.42000      7.78620      6.86669        -0.001361     -0.009320      0.016167
      7.10000      7.78620      6.86669         0.001610     -0.009147      0.016265
     12.77999      7.78620      6.86669        -0.000023     -0.011310      0.018224
      1.42000     13.93331      6.86669        -0.001410     -0.009312      0.016017
      7.10000     13.93331      6.86669         0.001300     -0.009330      0.016003
     12.77999     13.93331      6.86669         0.000043     -0.011289      0.018069
      4.26000      4.47998      2.82797         0.002046      0.009961     -0.004185
      9.93999      4.47998      2.82797        -0.001052      0.006056     -0.009978
     15.61999      4.47998      2.82797         0.001143      0.006000     -0.009875
      4.26000     10.62709      2.82797        -0.000028      0.007798     -0.004741
      9.93999     10.62709      2.82797        -0.001037      0.006100     -0.009881
     15.61999     10.62709      2.82797         0.001072      0.006074     -0.009933
      4.26000     16.77420      2.82797        -0.000028      0.007796     -0.004714
      9.93999     16.77420      2.82797        -0.001066      0.006073     -0.009945
     15.61999     16.77420      2.82797         0.001103      0.006100     -0.009947
      4.26000      4.50802      6.86669        -0.006861      0.003173      0.017710
      9.93999      4.50802      6.86669        -0.001162      0.009467      0.015880
     15.61999      4.50802      6.86669         0.001359      0.009626      0.015839
      4.26000     10.65513      6.86669        -0.000017      0.011311      0.018139
      9.93999     10.65513      6.86669        -0.001423      0.009147      0.015992
     15.61999     10.65513      6.86669         0.001259      0.009142      0.016082
      4.26000     16.80224      6.86669        -0.000032      0.011231      0.018083
      9.93999     16.80224      6.86669        -0.001452      0.009125      0.016170
     15.61999     16.80224      6.86669         0.001304      0.009186      0.016077
      1.42000      1.63909      5.22143        -0.003379     -0.007819     -0.019456
      7.10000      1.63909      5.22143         0.002954     -0.006104     -0.020422
     12.77999      1.63909      5.22143         0.000016     -0.008714     -0.016808
      1.42000      7.78620      5.22143        -0.002166     -0.006622     -0.020464
      7.10000      7.78620      5.22143         0.001899     -0.007063     -0.020995
     12.77999      7.78620      5.22143         0.000028     -0.008687     -0.016833
      1.42000     13.93331      5.22143        -0.002332     -0.006737     -0.020406
      7.10000     13.93331      5.22143         0.002305     -0.006718     -0.020418
     12.77999     13.93331      5.22143         0.000007     -0.008664     -0.016715
      1.42000      1.66714      9.26014        -0.002427     -0.005728      0.003926
      7.10000      1.66714      9.26014         0.004310     -0.005379      0.003368
     12.77999      1.66714      9.26014        -0.000092     -0.006674      0.010071
      1.42000      7.81425      9.26014        -0.003329     -0.006930      0.003509
      7.10000      7.81425      9.26014         0.003275     -0.006698      0.003811
     12.77999      7.81425      9.26014        -0.000078     -0.006671      0.010041
      1.42000     13.96136      9.26014        -0.003118     -0.006730      0.003472
      7.10000     13.96136      9.26014         0.003268     -0.006698      0.003474
     12.77999     13.96136      9.26014        -0.000056     -0.006722      0.009978
      1.42000      3.23176      4.02330         0.000947     -0.028281      0.000355
      7.10000      3.23176      4.02330        -0.001049     -0.030285      0.000257
     12.77999      3.23176      4.02330         0.000029     -0.033000      0.000433
      1.42000      9.37887      4.02330         0.000861     -0.029740      0.000299
      7.10000      9.37887      4.02330        -0.000761     -0.029732      0.000542
     12.77999      9.37887      4.02330        -0.000013     -0.032987      0.000462
      1.42000     15.52598      4.02330         0.000969     -0.029728      0.000372
      7.10000     15.52598      4.02330        -0.000961     -0.029681      0.000404
     12.77999     15.52598      4.02330         0.000027     -0.032908      0.000469
      1.42000      3.23176      8.06482        -0.005181     -0.029131      0.003663
      7.10000      3.23176      8.06482         0.002582     -0.025498      0.011337
     12.77999      3.23176      8.06482         0.000608     -0.030562     -0.001852
      1.42000      9.37887      8.06482        -0.004235     -0.025840      0.005300
      7.10000      9.37887      8.06482         0.003502     -0.026313      0.004968
     12.77999      9.37887      8.06482         0.000088     -0.030676     -0.001908
      1.42000     15.52598      8.06482        -0.003975     -0.025744      0.005174
      7.10000     15.52598      8.06482         0.003989     -0.025713      0.005223
     12.77999     15.52598      8.06482         0.000035     -0.030544     -0.001958
      4.26000      2.91535      4.02330         0.000682      0.031160      0.001095
      9.93999      2.91535      4.02330         0.000911      0.029681      0.000381
     15.61999      2.91535      4.02330        -0.000948      0.029783      0.000370
      4.26000      9.06246      4.02330         0.000026      0.032865      0.000476
      9.93999      9.06246      4.02330         0.000908      0.029811      0.000376
     15.61999      9.06246      4.02330        -0.000970      0.029727      0.000390
      4.26000     15.20957      4.02330        -0.000010      0.032990      0.000484
      9.93999     15.20957      4.02330         0.000980      0.029696      0.000370
     15.61999     15.20957      4.02330        -0.000839      0.029653      0.000376
      4.26000      2.91535      8.06482        -0.004217      0.030445      0.002813
      9.93999      2.91535      8.06482        -0.005027      0.025678      0.005381
     15.61999      2.91535      8.06482         0.004112      0.025670      0.005392
      4.26000      9.06246      8.06482        -0.000050      0.030430     -0.001885
      9.93999      9.06246      8.06482        -0.003935      0.025878      0.005215
     15.61999      9.06246      8.06482         0.003969      0.025812      0.004972
      4.26000     15.20957      8.06482        -0.000014      0.030647     -0.001778
      9.93999     15.20957      8.06482        -0.003901      0.025751      0.005008
     15.61999     15.20957      8.06482         0.003942      0.025682      0.005060
      1.42000      1.76500      1.63975         0.000350     -0.003348     -0.002157
      7.10000      1.76500      1.63975        -0.000137     -0.003828     -0.002219
     12.77999      1.76500      1.63975        -0.000005     -0.003694     -0.002240
      1.42000      7.91211      1.63975        -0.000027     -0.003696     -0.002204
      7.10000      7.91211      1.63975         0.000135     -0.003530     -0.002195
     12.77999      7.91211      1.63975         0.000005     -0.003697     -0.002238
      1.42000     14.05922      1.63975         0.000001     -0.003687     -0.002199
      7.10000     14.05922      1.63975         0.000013     -0.003683     -0.002195
     12.77999     14.05922      1.63975         0.000013     -0.003694     -0.002233
      4.26000      4.38211      1.63975        -0.001152      0.002417     -0.002155
      9.93999      4.38211      1.63975         0.000014      0.003702     -0.002195
     15.61999      4.38211      1.63975         0.000005      0.003704     -0.002203
      4.26000     10.52922      1.63975         0.000016      0.003690     -0.002234
      9.93999     10.52922      1.63975         0.000004      0.003683     -0.002201
     15.61999     10.52922      1.63975        -0.000005      0.003684     -0.002197
      4.26000     16.67633      1.63975         0.000015      0.003696     -0.002242
      9.93999     16.67633      1.63975         0.000000      0.003669     -0.002194
     15.61999     16.67633      1.63975         0.000007      0.003686     -0.002196
      1.42000      1.76500     10.44837        -0.000512     -0.004139      0.002964
      7.10000      1.76500     10.44837         0.000294     -0.003681      0.002870
     12.77999      1.76500     10.44837        -0.000005     -0.003598      0.002889
      1.42000      7.91211     10.44837        -0.000028     -0.003639      0.002850
      7.10000      7.91211     10.44837        -0.000125     -0.003858      0.002795
     12.77999      7.91211     10.44837         0.000008     -0.003605      0.002890
      1.42000     14.05922     10.44837        -0.000034     -0.003646      0.002864
      7.10000     14.05922     10.44837         0.000034     -0.003640      0.002864
     12.77999     14.05922     10.44837         0.000012     -0.003586      0.002888
      4.26000      4.38211     10.44837        -0.013724     -0.011777      0.014718
      9.93999      4.38211     10.44837        -0.000069      0.003642      0.002847
     15.61999      4.38211     10.44837         0.000055      0.003613      0.002837
      4.26000     10.52922     10.44837        -0.000020      0.003603      0.002888
      9.93999     10.52922     10.44837        -0.000019      0.003663      0.002871
     15.61999     10.52922     10.44837         0.000031      0.003660      0.002864
      4.26000     16.67633     10.44837        -0.000027      0.003632      0.002885
      9.93999     16.67633     10.44837        -0.000024      0.003629      0.002858
     15.61999     16.67633     10.44837         0.000034      0.003638      0.002858
 -----------------------------------------------------------------------------------
    total drift:                               -0.000905      0.000180     -0.105475


--------------------------------------------------------------------------------------------------------



  FREE ENERGIE OF THE ION-ELECTRON SYSTEM (eV)
  ---------------------------------------------------
  free  energy   TOTEN  =     -1785.58260144 eV

  energy  without entropy=    -1785.36352330  energy(sigma->0) =    -1785.47306237
 


--------------------------------------------------------------------------------------------------------


    POTLOK:  cpu time      0.4008: real time      0.4032


--------------------------------------------------------------------------------------------------------


     LOOP+:  cpu time   2287.2235: real time   2308.8624
 vacuum level on the upper side and lower side of the slab         2.188         2.187
    4ORBIT:  cpu time      0.0000: real time      0.0000



 total charge

# of ion       s       p       d       tot
------------------------------------------
    1        0.714   1.383   0.000   2.097
    2        0.714   1.383   0.000   2.097
    3        0.714   1.383   0.000   2.097
    4        0.714   1.383   0.000   2.097
    5        0.714   1.383   0.000   2.097
    6        0.714   1.383   0.000   2.097
    7        0.714   1.383   0.000   2.097
    8        0.714   1.383   0.000   2.097
    9        0.714   1.383   0.000   2.097
   10        0.714   1.385   0.000   2.099
   11        0.714   1.383   0.000   2.097
   12        0.714   1.383   0.000   2.097
   13        0.714   1.383   0.000   2.097
   14        0.714   1.383   0.000   2.097
   15        0.714   1.383   0.000   2.097
   16        0.714   1.383   0.000   2.097
   17        0.714   1.383   0.000   2.097
   18        0.714   1.383   0.000   2.097
   19        0.714   1.383   0.000   2.097
   20        0.714   1.383   0.000   2.097
   21        0.714   1.383   0.000   2.097
   22        0.714   1.383   0.000   2.097
   23        0.714   1.383   0.000   2.097
   24        0.714   1.383   0.000   2.097
   25        0.714   1.383   0.000   2.097
   26        0.714   1.383   0.000   2.097
   27        0.714   1.383   0.000   2.097
   28        0.714   1.383   0.000   2.097
   29        0.714   1.383   0.000   2.097
   30        0.714   1.383   0.000   2.097
   31        0.714   1.383   0.000   2.097
   32        0.714   1.383   0.000   2.097
   33        0.714   1.383   0.000   2.097
   34        0.714   1.383   0.000   2.097
   35        0.714   1.383   0.000   2.097
   36        0.714   1.383   0.000   2.097
   37        0.714   1.383   0.000   2.097
   38        0.714   1.383   0.000   2.097
   39        0.714   1.383   0.000   2.097
   40        0.714   1.383   0.000   2.097
   41        0.714   1.383   0.000   2.097
   42        0.714   1.383   0.000   2.097
   43        0.714   1.383   0.000   2.097
   44        0.714   1.383   0.000   2.097
   45        0.714   1.383   0.000   2.097
   46        0.714   1.383   0.000   2.097
   47        0.714   1.383   0.000   2.097
   48        0.714   1.383   0.000   2.097
   49        0.714   1.383   0.000   2.097
   50        0.714   1.383   0.000   2.097
   51        0.714   1.383   0.000   2.097
   52        0.714   1.383   0.000   2.097
   53        0.714   1.383   0.000   2.097
   54        0.714   1.383   0.000   2.097
   55        0.714   1.383   0.000   2.097
   56        0.714   1.383   0.000   2.097
   57        0.714   1.383   0.000   2.097
   58        0.714   1.383   0.000   2.097
   59        0.714   1.383   0.000   2.097
   60        0.714   1.383   0.000   2.097
   61        0.714   1.383   0.000   2.097
   62        0.714   1.383   0.000   2.097
   63        0.714   1.383   0.000   2.097
   64        0.714   1.383   0.000   2.097
   65        0.714   1.383   0.000   2.097
   66        0.714   1.383   0.000   2.097
   67        0.714   1.383   0.000   2.097
   68        0.714   1.383   0.000   2.097
   69        0.714   1.383   0.000   2.097
   70        0.714   1.383   0.000   2.097
   71        0.714   1.383   0.000   2.097
   72        0.714   1.383   0.000   2.097
   73        0.720   1.314   0.000   2.035
   74        0.720   1.314   0.000   2.035
   75        0.720   1.314   0.000   2.035
   76        0.720   1.314   0.000   2.035
   77        0.720   1.314   0.000   2.035
   78        0.720   1.314   0.000   2.035
   79        0.720   1.314   0.000   2.035
   80        0.720   1.314   0.000   2.035
   81        0.720   1.314   0.000   2.035
   82        0.720   1.314   0.000   2.034
   83        0.720   1.314   0.000   2.035
   84        0.720   1.314   0.000   2.035
   85        0.720   1.314   0.000   2.035
   86        0.720   1.314   0.000   2.035
   87        0.720   1.314   0.000   2.035
   88        0.720   1.314   0.000   2.035
   89        0.720   1.314   0.000   2.035
   90        0.720   1.314   0.000   2.035
   91        0.720   1.314   0.000   2.035
   92        0.720   1.314   0.000   2.035
   93        0.720   1.314   0.000   2.035
   94        0.720   1.314   0.000   2.035
   95        0.720   1.314   0.000   2.035
   96        0.720   1.314   0.000   2.035
   97        0.720   1.314   0.000   2.035
   98        0.720   1.314   0.000   2.035
   99        0.720   1.314   0.000   2.035
  100        0.720   1.314   0.000   2.035
  101        0.720   1.314   0.000   2.035
  102        0.720   1.314   0.000   2.035
  103        0.720   1.314   0.000   2.035
  104        0.720   1.314   0.000   2.035
  105        0.720   1.314   0.000   2.035
  106        0.720   1.314   0.000   2.035
  107        0.720   1.314   0.000   2.035
  108        0.720   1.314   0.000   2.035
  109        0.720   1.315   0.000   2.035
  110        0.720   1.314   0.000   2.035
  111        0.720   1.314   0.000   2.035
  112        0.720   1.314   0.000   2.035
  113        0.720   1.314   0.000   2.035
  114        0.720   1.314   0.000   2.035
  115        0.720   1.314   0.000   2.035
  116        0.720   1.314   0.000   2.035
  117        0.720   1.314   0.000   2.035
  118        0.720   1.312   0.000   2.032
  119        0.720   1.314   0.000   2.035
  120        0.720   1.314   0.000   2.035
  121        0.720   1.314   0.000   2.035
  122        0.720   1.314   0.000   2.035
  123        0.720   1.314   0.000   2.035
  124        0.720   1.314   0.000   2.035
  125        0.720   1.314   0.000   2.035
  126        0.720   1.314   0.000   2.035
  127        0.720   1.314   0.000   2.035
  128        0.720   1.314   0.000   2.035
  129        0.720   1.314   0.000   2.035
  130        0.720   1.314   0.000   2.035
  131        0.720   1.314   0.000   2.035
  132        0.720   1.314   0.000   2.035
  133        0.720   1.314   0.000   2.035
  134        0.720   1.314   0.000   2.035
  135        0.720   1.314   0.000   2.035
  136        0.720   1.314   0.000   2.035
  137        0.720   1.314   0.000   2.035
  138        0.720   1.314   0.000   2.035
  139        0.720   1.314   0.000   2.035
  140        0.720   1.314   0.000   2.035
  141        0.720   1.314   0.000   2.035
  142        0.720   1.314   0.000   2.035
  143        0.720   1.314   0.000   2.035
  144        0.720   1.314   0.000   2.035
  145        0.703   1.246   0.000   1.949
  146        0.703   1.246   0.000   1.949
  147        0.703   1.246   0.000   1.949
  148        0.703   1.246   0.000   1.949
  149        0.703   1.246   0.000   1.949
  150        0.703   1.246   0.000   1.949
  151        0.703   1.246   0.000   1.949
  152        0.703   1.246   0.000   1.949
  153        0.703   1.246   0.000   1.949
  154        0.699   1.245   0.000   1.944
  155        0.700   1.244   0.000   1.944
  156        0.700   1.244   0.000   1.944
  157        0.700   1.244   0.000   1.944
  158        0.700   1.244   0.000   1.944
  159        0.700   1.244   0.000   1.944
  160        0.700   1.244   0.000   1.944
  161        0.700   1.244   0.000   1.944
  162        0.700   1.244   0.000   1.944
  163        0.700   1.244   0.000   1.944
  164        0.700   1.244   0.000   1.944
  165        0.700   1.244   0.000   1.944
  166        0.700   1.244   0.000   1.944
  167        0.700   1.244   0.000   1.944
  168        0.700   1.244   0.000   1.944
  169        0.700   1.244   0.000   1.944
  170        0.700   1.244   0.000   1.944
  171        0.700   1.244   0.000   1.944
  172        0.703   1.246   0.000   1.949
  173        0.703   1.246   0.000   1.949
  174        0.703   1.246   0.000   1.949
  175        0.703   1.246   0.000   1.949
  176        0.703   1.246   0.000   1.949
  177        0.703   1.246   0.000   1.949
  178        0.703   1.246   0.000   1.949
  179        0.703   1.246   0.000   1.949
  180        0.703   1.246   0.000   1.949
  181        0.700   1.244   0.000   1.944
  182        0.700   1.244   0.000   1.944
  183        0.700   1.244   0.000   1.944
  184        0.700   1.244   0.000   1.944
  185        0.700   1.244   0.000   1.944
  186        0.700   1.244   0.000   1.944
  187        0.700   1.244   0.000   1.944
  188        0.700   1.244   0.000   1.944
  189        0.700   1.244   0.000   1.944
  190        0.703   1.246   0.000   1.949
  191        0.703   1.246   0.000   1.949
  192        0.703   1.246   0.000   1.949
  193        0.703   1.246   0.000   1.949
  194        0.703   1.246   0.000   1.949
  195        0.703   1.246   0.000   1.949
  196        0.703   1.246   0.000   1.949
  197        0.703   1.246   0.000   1.949
  198        0.703   1.246   0.000   1.949
  199        0.703   1.246   0.000   1.949
  200        0.703   1.246   0.000   1.949
  201        0.703   1.246   0.000   1.949
  202        0.703   1.246   0.000   1.949
  203        0.703   1.246   0.000   1.949
  204        0.703   1.246   0.000   1.949
  205        0.703   1.246   0.000   1.949
  206        0.703   1.246   0.000   1.949
  207        0.703   1.246   0.000   1.949
  208        0.700   1.244   0.000   1.944
  209        0.700   1.244   0.000   1.944
  210        0.700   1.244   0.000   1.944
  211        0.700   1.244   0.000   1.944
  212        0.700   1.244   0.000   1.944
  213        0.700   1.244   0.000   1.944
  214        0.700   1.244   0.000   1.944
  215        0.700   1.244   0.000   1.944
  216        0.700   1.244   0.000   1.944
  217        0.721   1.380   0.000   2.101
  218        0.721   1.380   0.000   2.101
  219        0.721   1.380   0.000   2.101
  220        0.721   1.380   0.000   2.101
  221        0.721   1.380   0.000   2.101
  222        0.721   1.380   0.000   2.101
  223        0.721   1.380   0.000   2.101
  224        0.721   1.380   0.000   2.101
  225        0.721   1.380   0.000   2.101
  226        0.721   1.380   0.000   2.101
  227        0.721   1.380   0.000   2.101
  228        0.721   1.380   0.000   2.101
  229        0.721   1.380   0.000   2.101
  230        0.721   1.380   0.000   2.101
  231        0.721   1.380   0.000   2.101
  232        0.721   1.380   0.000   2.101
  233        0.721   1.380   0.000   2.101
  234        0.721   1.380   0.000   2.101
  235        0.721   1.380   0.000   2.101
  236        0.721   1.380   0.000   2.101
  237        0.721   1.380   0.000   2.101
  238        0.721   1.380   0.000   2.101
  239        0.721   1.380   0.000   2.101
  240        0.721   1.380   0.000   2.101
  241        0.721   1.380   0.000   2.101
  242        0.721   1.380   0.000   2.101
  243        0.721   1.380   0.000   2.101
  244        0.721   1.382   0.000   2.102
  245        0.721   1.380   0.000   2.101
  246        0.721   1.380   0.000   2.101
  247        0.721   1.380   0.000   2.101
  248        0.721   1.380   0.000   2.101
  249        0.721   1.380   0.000   2.101
  250        0.721   1.380   0.000   2.101
  251        0.721   1.380   0.000   2.101
  252        0.721   1.380   0.000   2.101
  253        0.613   0.022   0.000   0.635
  254        0.613   0.022   0.000   0.635
  255        0.613   0.022   0.000   0.635
  256        0.613   0.022   0.000   0.635
  257        0.613   0.022   0.000   0.635
  258        0.613   0.022   0.000   0.635
  259        0.613   0.022   0.000   0.635
  260        0.613   0.022   0.000   0.635
  261        0.613   0.022   0.000   0.635
  262        0.613   0.022   0.000   0.635
  263        0.613   0.022   0.000   0.635
  264        0.613   0.022   0.000   0.635
  265        0.613   0.022   0.000   0.635
  266        0.613   0.022   0.000   0.635
  267        0.613   0.022   0.000   0.635
  268        0.613   0.022   0.000   0.635
  269        0.613   0.022   0.000   0.635
  270        0.613   0.022   0.000   0.635
  271        0.613   0.022   0.000   0.635
  272        0.613   0.022   0.000   0.635
  273        0.613   0.022   0.000   0.635
  274        0.613   0.022   0.000   0.635
  275        0.613   0.022   0.000   0.635
  276        0.613   0.022   0.000   0.635
  277        0.613   0.022   0.000   0.635
  278        0.613   0.022   0.000   0.635
  279        0.613   0.022   0.000   0.635
  280        0.613   0.022   0.000   0.635
  281        0.613   0.022   0.000   0.635
  282        0.613   0.022   0.000   0.635
  283        0.613   0.022   0.000   0.635
  284        0.613   0.022   0.000   0.635
  285        0.613   0.022   0.000   0.635
  286        0.613   0.022   0.000   0.635
  287        0.613   0.022   0.000   0.635
  288        0.613   0.022   0.000   0.635
--------------------------------------------------
tot        201.747 334.367   0.000 536.114
 

 total amount of memory used by VASP MPI-rank0   229218. kBytes
=======================================================================

   base                                    :      30000. kBytes
   nonlr-proj                              :      23128. kBytes
   fftplans                                :      30624. kBytes
   grid                                    :      45024. kBytes
   one-center                              :        129. kBytes
   wavefun                                 :     100313. kBytes
 
  
  
 General timing and accounting informations for this job:
 ========================================================
  
                  Total CPU time used (sec):     2344.183
                            User time (sec):     2174.723
                          System time (sec):      169.460
                         Elapsed time (sec):     2366.874
  
                   Maximum memory used (kb):      931768.
                   Average memory used (kb):          N/A
  
                          Minor page faults:       133668
                          Major page faults:           85
                 Voluntary context switches:         1347
