 running  168 mpi-ranks, on    1 nodes
 distrk:  each k-point on  168 cores,    1 groups
 distr:  one band on    7 cores,   24 groups
 vasp.6.5.1 10Mar25 (build Mar 14 2025 17:12:02) complex                        
  
 POSCAR found type information on POSCAR B H 
 POSCAR found :  2 types and     288 ions
 Reading from existing POTCAR
 scaLAPACK will be used
 Reading from existing POTCAR
 LDA part: xc-table for (Slater+PW92), standard interpolation
 POSCAR, INCAR and KPOINTS ok, starting setup
 FFT: planning ... GRIDC
 FFT: planning ... GRID_SOFT
 FFT: planning ... GRID
 WAVECAR not read
 entering main loop
       N       E                     dE             d eps       ncg     rms          rms(c)
DAV:   1     0.606998509984E+04    0.60700E+04   -0.29715E+05  6696   0.119E+03
DAV:   2    -0.101219914686E+04   -0.70822E+04   -0.68639E+04  9576   0.257E+02
DAV:   3    -0.187777233852E+04   -0.86557E+03   -0.85470E+03  7824   0.953E+01
DAV:   4    -0.190383195709E+04   -0.26060E+02   -0.25913E+02  8856   0.173E+01
DAV:   5    -0.190465330332E+04   -0.82135E+00   -0.82015E+00  8688   0.275E+00    0.567E+01
DAV:   6    -0.179489290681E+04    0.10976E+03   -0.11293E+02  7272   0.108E+01    0.318E+01
DAV:   7    -0.175566607579E+04    0.39227E+02   -0.13027E+02  7656   0.109E+01    0.650E+00
DAV:   8    -0.175559356573E+04    0.72510E-01   -0.98746E+00  8184   0.365E+00    0.247E+00
DAV:   9    -0.175542038828E+04    0.17318E+00   -0.98671E-01  8184   0.105E+00    0.100E+00
DAV:  10    -0.175540779961E+04    0.12589E-01   -0.18793E-01  8040   0.562E-01    0.580E-01
DAV:  11    -0.175538534117E+04    0.22458E-01   -0.12691E-01  8256   0.458E-01    0.374E-01
DAV:  12    -0.175536138135E+04    0.23960E-01   -0.91170E-02  7848   0.327E-01    0.217E-01
DAV:  13    -0.175537160590E+04   -0.10225E-01   -0.27074E-02  7896   0.210E-01    0.144E-01
DAV:  14    -0.175538132851E+04   -0.97226E-02   -0.89310E-03  7392   0.133E-01    0.918E-02
DAV:  15    -0.175538792148E+04   -0.65930E-02   -0.31151E-03  7440   0.676E-02    0.642E-02
DAV:  16    -0.175539420876E+04   -0.62873E-02   -0.15924E-03  7656   0.531E-02    0.459E-02
DAV:  17    -0.175539951602E+04   -0.53073E-02   -0.76609E-04  7536   0.342E-02    0.287E-02
DAV:  18    -0.175540516185E+04   -0.56458E-02   -0.34969E-04  7536   0.193E-02    0.167E-02
DAV:  19    -0.175540812894E+04   -0.29671E-02   -0.15197E-04  7560   0.124E-02    0.126E-02
DAV:  20    -0.175540983484E+04   -0.17059E-02   -0.75529E-05  7512   0.939E-03    0.961E-03
DAV:  21    -0.175541161182E+04   -0.17770E-02   -0.81611E-05  7584   0.805E-03    0.533E-03
DAV:  22    -0.175541249547E+04   -0.88365E-03   -0.33043E-05  8040   0.471E-03    0.387E-03
DAV:  23    -0.175541297186E+04   -0.47639E-03   -0.11603E-05  7152   0.272E-03    0.222E-03
DAV:  24    -0.175541326190E+04   -0.29004E-03   -0.73582E-06  6936   0.202E-03    0.116E-03
DAV:  25    -0.175541335972E+04   -0.97815E-04   -0.14913E-06  6456   0.951E-04    0.571E-04
DAV:  26    -0.175541340301E+04   -0.43297E-04   -0.61022E-07  5712   0.630E-04    0.346E-04
DAV:  27    -0.175541341445E+04   -0.11435E-04   -0.11281E-07  5376   0.355E-04    0.215E-04
DAV:  28    -0.175541342378E+04   -0.93317E-05   -0.89762E-08  5016   0.247E-04    0.953E-05
DAV:  29    -0.175541342736E+04   -0.35830E-05   -0.19807E-08  4920   0.143E-04    0.517E-05
DAV:  30    -0.175541342853E+04   -0.11678E-05    0.10860E-08  4656   0.833E-05    0.290E-05
DAV:  31    -0.175541342925E+04   -0.72167E-06    0.14092E-08  4968   0.635E-05
   1 F= -.17855827E+04 E0= -.17854731E+04  d E =-.219074E+00
