  32  32   0   0
  0.3282949E+02  0.5679996E-09  0.6147111E-09  0.3008812E-08  0.5000000E-15
  1.000000000000000E-004
  CAR 
 SCF                                     
      6.65336513    -19.67160377  301     -4.13695990      1.00000000
    -19.672  0.0000E+00  0.0000E+00
    -19.584  0.0000E+00  0.0000E+00
    -19.496  0.0000E+00  0.0000E+00
    -19.408  0.0000E+00  0.0000E+00
    -19.321  0.0000E+00  0.0000E+00
    -19.233  0.0000E+00  0.0000E+00
    -19.145  0.0000E+00  0.0000E+00
    -19.057  0.4217E-16  0.3701E-17
    -18.970  0.8119E-12  0.7124E-13
    -18.882  0.3089E-08  0.2711E-09
    -18.794  0.2723E-05  0.2392E-06
    -18.706  0.5761E-03  0.5079E-04
    -18.619  0.3106E-01  0.2776E-02
    -18.531  0.4729E+00  0.4428E-01
    -18.443  0.2438E+01  0.2582E+00
    -18.355  0.5680E+01  0.7566E+00
    -18.268  0.8176E+01  0.1474E+01
    -18.180  0.8439E+01  0.2215E+01
    -18.092  0.6985E+01  0.2827E+01
    -18.004  0.5780E+01  0.3335E+01
    -17.917  0.5195E+01  0.3791E+01
    -17.829  0.4921E+01  0.4222E+01
    -17.741  0.4837E+01  0.4647E+01
    -17.653  0.4942E+01  0.5080E+01
    -17.566  0.5348E+01  0.5550E+01
    -17.478  0.6213E+01  0.6095E+01
    -17.390  0.6982E+01  0.6708E+01
    -17.302  0.6694E+01  0.7295E+01
    -17.215  0.4864E+01  0.7722E+01
    -17.127  0.2395E+01  0.7932E+01
    -17.039  0.6904E+00  0.7992E+01
    -16.951  0.8255E-01  0.8000E+01
    -16.864  0.3070E-02  0.8000E+01
    -16.776  0.3048E-04  0.8000E+01
    -16.688  0.7461E-07  0.8000E+01
    -16.600  0.4300E-10  0.8000E+01
    -16.513  0.5651E-14  0.8000E+01
    -16.425  0.0000E+00  0.8000E+01
    -16.337  0.0000E+00  0.8000E+01
    -16.249  0.0000E+00  0.8000E+01
    -16.162  0.0000E+00  0.8000E+01
    -16.074  0.0000E+00  0.8000E+01
    -15.986  0.0000E+00  0.8000E+01
    -15.898  0.0000E+00  0.8000E+01
    -15.811  0.0000E+00  0.8000E+01
    -15.723  0.0000E+00  0.8000E+01
    -15.635  0.0000E+00  0.8000E+01
    -15.547  0.0000E+00  0.8000E+01
    -15.460  0.0000E+00  0.8000E+01
    -15.372  0.0000E+00  0.8000E+01
    -15.284  0.0000E+00  0.8000E+01
    -15.196  0.4611E-14  0.8000E+01
    -15.109  0.4016E-10  0.8000E+01
    -15.021  0.8006E-07  0.8000E+01
    -14.933  0.3745E-04  0.8000E+01
    -14.845  0.4294E-02  0.8000E+01
    -14.758  0.1304E+00  0.8012E+01
    -14.670  0.1222E+01  0.8119E+01
    -14.582  0.4734E+01  0.8534E+01
    -14.494  0.1036E+02  0.9444E+01
    -14.407  0.1375E+02  0.1065E+02
    -14.319  0.1167E+02  0.1167E+02
    -14.231  0.8364E+01  0.1241E+02
    -14.143  0.8470E+01  0.1315E+02
    -14.056  0.9803E+01  0.1401E+02
    -13.968  0.9354E+01  0.1483E+02
    -13.880  0.6739E+01  0.1542E+02
    -13.792  0.3906E+01  0.1577E+02
    -13.705  0.1915E+01  0.1593E+02
    -13.617  0.6416E+00  0.1599E+02
    -13.529  0.1029E+00  0.1600E+02
    -13.441  0.5686E-02  0.1600E+02
    -13.354  0.8859E-04  0.1600E+02
    -13.266  0.3499E-06  0.1600E+02
    -13.178  0.4754E-09  0.1600E+02
    -13.090  0.1610E-06  0.1600E+02
    -13.003  0.4108E-04  0.1600E+02
    -12.915  0.2546E-02  0.1600E+02
    -12.827  0.4253E-01  0.1600E+02
    -12.739  0.2297E+00  0.1602E+02
    -12.652  0.5495E+00  0.1607E+02
    -12.564  0.9195E+00  0.1615E+02
    -12.476  0.1278E+01  0.1627E+02
    -12.388  0.1490E+01  0.1640E+02
    -12.301  0.1740E+01  0.1655E+02
    -12.213  0.1901E+01  0.1672E+02
    -12.125  0.2324E+01  0.1692E+02
    -12.037  0.2807E+01  0.1717E+02
    -11.950  0.4319E+01  0.1754E+02
    -11.862  0.6891E+01  0.1815E+02
    -11.774  0.8912E+01  0.1893E+02
    -11.686  0.9967E+01  0.1981E+02
    -11.599  0.9255E+01  0.2062E+02
    -11.511  0.7821E+01  0.2130E+02
    -11.423  0.7121E+01  0.2193E+02
    -11.335  0.7251E+01  0.2257E+02
    -11.248  0.7829E+01  0.2325E+02
    -11.160  0.8599E+01  0.2401E+02
    -11.072  0.9534E+01  0.2484E+02
    -10.984  0.9796E+01  0.2570E+02
    -10.897  0.8793E+01  0.2647E+02
    -10.809  0.7687E+01  0.2715E+02
    -10.721  0.7915E+01  0.2784E+02
    -10.633  0.8549E+01  0.2859E+02
    -10.546  0.8958E+01  0.2938E+02
    -10.458  0.8441E+01  0.3012E+02
    -10.370  0.7588E+01  0.3079E+02
    -10.282  0.6720E+01  0.3138E+02
    -10.195  0.6422E+01  0.3194E+02
    -10.107  0.6293E+01  0.3249E+02
    -10.019  0.6535E+01  0.3307E+02
     -9.931  0.7294E+01  0.3371E+02
     -9.844  0.7885E+01  0.3440E+02
     -9.756  0.7183E+01  0.3503E+02
     -9.668  0.6502E+01  0.3560E+02
     -9.580  0.5939E+01  0.3612E+02
     -9.493  0.4921E+01  0.3655E+02
     -9.405  0.4198E+01  0.3692E+02
     -9.317  0.4180E+01  0.3729E+02
     -9.229  0.4176E+01  0.3765E+02
     -9.142  0.4110E+01  0.3801E+02
     -9.054  0.4216E+01  0.3838E+02
     -8.966  0.4642E+01  0.3879E+02
     -8.878  0.4845E+01  0.3922E+02
     -8.791  0.5148E+01  0.3967E+02
     -8.703  0.4992E+01  0.4011E+02
     -8.615  0.3898E+01  0.4045E+02
     -8.527  0.3449E+01  0.4075E+02
     -8.440  0.4023E+01  0.4110E+02
     -8.352  0.5671E+01  0.4160E+02
     -8.264  0.8924E+01  0.4238E+02
     -8.176  0.1495E+02  0.4370E+02
     -8.089  0.1984E+02  0.4544E+02
     -8.001  0.1559E+02  0.4681E+02
     -7.913  0.8103E+01  0.4752E+02
     -7.825  0.4593E+01  0.4792E+02
     -7.738  0.4236E+01  0.4829E+02
     -7.650  0.6178E+01  0.4883E+02
     -7.562  0.9171E+01  0.4964E+02
     -7.474  0.1090E+02  0.5059E+02
     -7.387  0.1220E+02  0.5166E+02
     -7.299  0.1258E+02  0.5277E+02
     -7.211  0.1209E+02  0.5383E+02
     -7.123  0.1322E+02  0.5499E+02
     -7.036  0.1749E+02  0.5652E+02
     -6.948  0.1705E+02  0.5802E+02
     -6.860  0.1188E+02  0.5906E+02
     -6.772  0.8008E+01  0.5977E+02
     -6.685  0.6669E+01  0.6035E+02
     -6.597  0.7846E+01  0.6104E+02
     -6.509  0.9858E+01  0.6191E+02
     -6.421  0.1144E+02  0.6291E+02
     -6.334  0.1235E+02  0.6399E+02
     -6.246  0.1262E+02  0.6510E+02
     -6.158  0.1236E+02  0.6618E+02
     -6.070  0.1148E+02  0.6719E+02
     -5.983  0.1260E+02  0.6830E+02
     -5.895  0.1389E+02  0.6952E+02
     -5.807  0.1338E+02  0.7069E+02
     -5.719  0.1308E+02  0.7184E+02
     -5.632  0.1409E+02  0.7308E+02
     -5.544  0.1584E+02  0.7447E+02
     -5.456  0.1448E+02  0.7574E+02
     -5.368  0.1261E+02  0.7684E+02
     -5.281  0.1157E+02  0.7786E+02
     -5.193  0.9776E+01  0.7872E+02
     -5.105  0.8807E+01  0.7949E+02
     -5.017  0.7989E+01  0.8019E+02
     -4.930  0.7657E+01  0.8086E+02
     -4.842  0.9124E+01  0.8166E+02
     -4.754  0.1022E+02  0.8256E+02
     -4.666  0.9985E+01  0.8343E+02
     -4.579  0.1045E+02  0.8435E+02
     -4.491  0.1190E+02  0.8540E+02
     -4.403  0.1114E+02  0.8637E+02
     -4.315  0.7376E+01  0.8702E+02
     -4.228  0.5471E+01  0.8750E+02
     -4.140  0.5502E+01  0.8798E+02
     -4.052  0.5612E+01  0.8848E+02
     -3.964  0.4939E+01  0.8891E+02
     -3.877  0.3965E+01  0.8926E+02
     -3.789  0.3602E+01  0.8957E+02
     -3.701  0.3186E+01  0.8985E+02
     -3.613  0.2225E+01  0.9005E+02
     -3.526  0.1520E+01  0.9018E+02
     -3.438  0.1420E+01  0.9031E+02
     -3.350  0.1801E+01  0.9046E+02
     -3.262  0.2021E+01  0.9064E+02
     -3.175  0.1674E+01  0.9079E+02
     -3.087  0.1180E+01  0.9089E+02
     -2.999  0.1037E+01  0.9098E+02
     -2.911  0.1203E+01  0.9109E+02
     -2.824  0.1264E+01  0.9120E+02
     -2.736  0.1091E+01  0.9130E+02
     -2.648  0.8309E+00  0.9137E+02
     -2.560  0.7405E+00  0.9143E+02
     -2.473  0.8895E+00  0.9151E+02
     -2.385  0.9561E+00  0.9160E+02
     -2.297  0.7593E+00  0.9166E+02
     -2.209  0.5646E+00  0.9171E+02
     -2.122  0.6070E+00  0.9176E+02
     -2.034  0.6891E+00  0.9183E+02
     -1.946  0.6145E+00  0.9188E+02
     -1.858  0.4642E+00  0.9192E+02
     -1.771  0.4259E+00  0.9196E+02
     -1.683  0.3429E+00  0.9199E+02
     -1.595  0.1284E+00  0.9200E+02
     -1.507  0.1708E-01  0.9200E+02
     -1.420  0.1542E-02  0.9200E+02
     -1.332  0.3094E-01  0.9200E+02
     -1.244  0.3040E+00  0.9203E+02
     -1.156  0.9859E+00  0.9212E+02
     -1.069  0.1509E+01  0.9225E+02
     -0.981  0.1835E+01  0.9241E+02
     -0.893  0.2194E+01  0.9260E+02
     -0.805  0.2280E+01  0.9280E+02
     -0.718  0.2067E+01  0.9298E+02
     -0.630  0.2059E+01  0.9316E+02
     -0.542  0.2161E+01  0.9335E+02
     -0.454  0.2643E+01  0.9359E+02
     -0.367  0.3518E+01  0.9389E+02
     -0.279  0.4628E+01  0.9430E+02
     -0.191  0.5707E+01  0.9480E+02
     -0.103  0.6222E+01  0.9535E+02
     -0.016  0.7126E+01  0.9597E+02
      0.072  0.8420E+01  0.9671E+02
      0.160  0.8915E+01  0.9749E+02
      0.248  0.9591E+01  0.9834E+02
      0.335  0.1026E+02  0.9924E+02
      0.423  0.9935E+01  0.1001E+03
      0.511  0.8924E+01  0.1009E+03
      0.599  0.8805E+01  0.1017E+03
      0.686  0.9321E+01  0.1025E+03
      0.774  0.8342E+01  0.1032E+03
      0.862  0.6689E+01  0.1038E+03
      0.950  0.5934E+01  0.1043E+03
      1.037  0.6608E+01  0.1049E+03
      1.125  0.8521E+01  0.1056E+03
      1.213  0.9854E+01  0.1065E+03
      1.301  0.9619E+01  0.1074E+03
      1.388  0.9725E+01  0.1082E+03
      1.476  0.1088E+02  0.1092E+03
      1.564  0.1195E+02  0.1102E+03
      1.652  0.1146E+02  0.1112E+03
      1.739  0.1054E+02  0.1121E+03
      1.827  0.1050E+02  0.1131E+03
      1.915  0.1051E+02  0.1140E+03
      2.003  0.9736E+01  0.1148E+03
      2.090  0.8130E+01  0.1156E+03
      2.178  0.7393E+01  0.1162E+03
      2.266  0.9195E+01  0.1170E+03
      2.354  0.1127E+02  0.1180E+03
      2.441  0.1195E+02  0.1190E+03
      2.529  0.1265E+02  0.1202E+03
      2.617  0.1418E+02  0.1214E+03
      2.705  0.1520E+02  0.1227E+03
      2.792  0.1529E+02  0.1241E+03
      2.880  0.1520E+02  0.1254E+03
      2.968  0.1438E+02  0.1267E+03
      3.056  0.1415E+02  0.1279E+03
      3.143  0.1598E+02  0.1293E+03
      3.231  0.1804E+02  0.1309E+03
      3.319  0.1815E+02  0.1325E+03
      3.407  0.1725E+02  0.1340E+03
      3.494  0.1652E+02  0.1355E+03
      3.582  0.1733E+02  0.1370E+03
      3.670  0.1810E+02  0.1386E+03
      3.758  0.1698E+02  0.1401E+03
      3.845  0.1639E+02  0.1415E+03
      3.933  0.1814E+02  0.1431E+03
      4.021  0.2072E+02  0.1449E+03
      4.109  0.2213E+02  0.1468E+03
      4.196  0.2169E+02  0.1487E+03
      4.284  0.2046E+02  0.1505E+03
      4.372  0.2024E+02  0.1523E+03
      4.460  0.1882E+02  0.1540E+03
      4.547  0.1767E+02  0.1555E+03
      4.635  0.1744E+02  0.1571E+03
      4.723  0.1898E+02  0.1587E+03
      4.811  0.2092E+02  0.1606E+03
      4.898  0.2174E+02  0.1625E+03
      4.986  0.2139E+02  0.1643E+03
      5.074  0.1716E+02  0.1658E+03
      5.162  0.1099E+02  0.1668E+03
      5.249  0.6609E+01  0.1674E+03
      5.337  0.3947E+01  0.1677E+03
      5.425  0.2030E+01  0.1679E+03
      5.513  0.8217E+00  0.1680E+03
      5.600  0.1886E+00  0.1680E+03
      5.688  0.1561E-01  0.1680E+03
      5.776  0.3544E-03  0.1680E+03
      5.864  0.1961E-05  0.1680E+03
      5.951  0.2506E-08  0.1680E+03
      6.039  0.7210E-12  0.1680E+03
      6.127  0.2812E-16  0.1680E+03
      6.215  0.0000E+00  0.1680E+03
      6.302  0.0000E+00  0.1680E+03
      6.390  0.0000E+00  0.1680E+03
      6.478  0.0000E+00  0.1680E+03
      6.566  0.0000E+00  0.1680E+03
      6.653  0.0000E+00  0.1680E+03
