SCF                                     
           1
     5.679996    0.000000    0.000000
     0.000000    6.147111    0.000000
     0.000000    0.000000   30.088117
   B    H 
    28     4
Direct configuration=     1
   0.52254459  0.63772295  0.13357634
   0.52254459  0.63772295  0.26818083
   0.47745541  0.36227705  0.13357634
   0.47745541  0.36227705  0.26818083
   0.97745541  0.63772295  0.13357634
   0.97745541  0.63772295  0.26818083
   0.02254459  0.36227705  0.13357634
   0.02254459  0.36227705  0.26818083
   0.59800345  0.90011909  0.13294458
   0.59800345  0.90011909  0.26881259
   0.40199655  0.09988090  0.13294458
   0.40199655  0.09988090  0.26881259
   0.90199655  0.90011909  0.13294458
   0.90199655  0.90011909  0.26881259
   0.09800345  0.09988090  0.13294458
   0.09800345  0.09988090  0.26881259
   0.75000000  0.73335616  0.17353786
   0.75000000  0.72879364  0.30776750
   0.25000000  0.27120636  0.09398968
   0.25000000  0.26664384  0.22821932
   0.75000000  0.72879364  0.09398968
   0.75000000  0.73335616  0.22821932
   0.25000000  0.26664384  0.17353786
   0.25000000  0.27120636  0.30776750
   0.25000000  0.52573638  0.13371722
   0.25000000  0.52573638  0.26803996
   0.75000000  0.47426359  0.13371722
   0.75000000  0.47426359  0.26803996
   0.25000000  0.28712701  0.05449827
   0.75000000  0.71287299  0.05449827
   0.25000000  0.28712701  0.34725890
   0.75000000  0.71287299  0.34725890
