o-B14
0.9991
    15.000      0.0000      0.0000
    0.0000      12.500      0.0000
    0.0000      0.0000      18.000
    B
    1
Direct
    0.521230000     0.545000000     0.637960000