k-points
0
Monkhorst-pack
17  24  16
0   0   0