 running   42 mpi-ranks, on    1 nodes
 distrk:  each k-point on   42 cores,    1 groups
 distr:  one band on    7 cores,    6 groups
 vasp.6.5.0 16Dec24 (build Jan 08 2025 16:17:04) complex                        
  
 POSCAR found type information on POSCAR B H 
 POSCAR found :  2 types and     270 ions
 Reading from existing POTCAR
 scaLAPACK will be used
 Reading from existing POTCAR
 LDA part: xc-table for (Slater+PW92), standard interpolation
 POSCAR, INCAR and KPOINTS ok, starting setup
 FFT: planning ... GRIDC
 FFT: planning ... GRID_SOFT
 FFT: planning ... GRID
 WAVECAR not read
 entering main loop
       N       E                     dE             d eps       ncg     rms          rms(c)
DAV:   1     0.607499194731E+04    0.60750E+04   -0.29267E+05  6576   0.122E+03
DAV:   2    -0.893111212636E+03   -0.69681E+04   -0.67241E+04  9072   0.263E+02
DAV:   3    -0.176223661161E+04   -0.86913E+03   -0.85631E+03  7200   0.981E+01
DAV:   4    -0.179178729617E+04   -0.29551E+02   -0.29317E+02  8556   0.186E+01
DAV:   5    -0.179279535493E+04   -0.10081E+01   -0.10060E+01  8412   0.301E+00    0.547E+01
DAV:   6    -0.166556160973E+04    0.12723E+03   -0.17797E+02  7332   0.143E+01    0.291E+01
DAV:   7    -0.163529549226E+04    0.30266E+02   -0.11355E+02  7680   0.110E+01    0.883E+00
DAV:   8    -0.163433366668E+04    0.96183E+00   -0.93971E+00  7764   0.379E+00    0.326E+00
DAV:   9    -0.163391485062E+04    0.41882E+00   -0.12469E+00  7656   0.131E+00    0.115E+00
DAV:  10    -0.163386156346E+04    0.53287E-01   -0.17478E-01  8124   0.465E-01    0.649E-01
DAV:  11    -0.163380619991E+04    0.55364E-01   -0.91912E-02  7452   0.305E-01    0.302E-01
DAV:  12    -0.163380209937E+04    0.41005E-02   -0.40141E-02  7656   0.207E-01    0.215E-01
DAV:  13    -0.163382218319E+04   -0.20084E-01   -0.20155E-02  7128   0.157E-01    0.132E-01
DAV:  14    -0.163383718897E+04   -0.15006E-01   -0.78900E-03  7104   0.114E-01    0.740E-02
DAV:  15    -0.163384948415E+04   -0.12295E-01   -0.27593E-03  7380   0.539E-02    0.494E-02
DAV:  16    -0.163385974785E+04   -0.10264E-01   -0.92507E-04  7596   0.308E-02    0.245E-02
DAV:  17    -0.163386453701E+04   -0.47892E-02   -0.24695E-04  7548   0.169E-02    0.174E-02
DAV:  18    -0.163386919125E+04   -0.46542E-02   -0.31961E-04  7344   0.133E-02    0.103E-02
DAV:  19    -0.163387136785E+04   -0.21766E-02   -0.12173E-04  7728   0.813E-03    0.664E-03
DAV:  20    -0.163387265546E+04   -0.12876E-02   -0.58848E-05  7272   0.552E-03    0.391E-03
DAV:  21    -0.163387326494E+04   -0.60948E-03   -0.16968E-05  7260   0.289E-03    0.225E-03
DAV:  22    -0.163387360431E+04   -0.33937E-03   -0.86753E-06  6468   0.178E-03    0.110E-03
DAV:  23    -0.163387372057E+04   -0.11625E-03   -0.21412E-06  6072   0.931E-04    0.550E-04
DAV:  24    -0.163387375881E+04   -0.38244E-04   -0.47656E-07  5532   0.500E-04    0.250E-04
DAV:  25    -0.163387377060E+04   -0.11794E-04   -0.82204E-08  5112   0.259E-04    0.113E-04
DAV:  26    -0.163387377437E+04   -0.37720E-05   -0.23106E-08  4752   0.148E-04    0.581E-05
DAV:  27    -0.163387377596E+04   -0.15894E-05    0.70806E-09  4464   0.912E-05    0.269E-05
DAV:  28    -0.163387377653E+04   -0.56694E-06    0.15585E-08  4500   0.629E-05
   1 F= -.16658324E+04 E0= -.16657602E+04  d E =-.144531E+00
