k-points
0
Monkhorst-pack
24  34  22
0   0   0