       N       E                     dE             d eps       ncg     rms          rms(c)
DAV:   1     0.468452973928E+03    0.46845E+03   -0.25778E+04 26880   0.759E+02
DAV:   2    -0.108715222032E+03   -0.57717E+03   -0.53715E+03 47166   0.129E+02
DAV:   3    -0.169606482538E+03   -0.60891E+02   -0.59515E+02 39606   0.528E+01
DAV:   4    -0.170692239997E+03   -0.10858E+01   -0.10823E+01 39312   0.822E+00
DAV:   5    -0.170715939971E+03   -0.23700E-01   -0.23685E-01 36246   0.118E+00
DAV:   6    -0.170716816443E+03   -0.87647E-03   -0.87619E-03 40656   0.228E-01
DAV:   7    -0.170716852095E+03   -0.35652E-04   -0.35650E-04 40740   0.389E-02
DAV:   8    -0.170716852368E+03   -0.27300E-06   -0.27109E-06 40908   0.268E-03
   1 F= -.17309679E+03 E0= -.17303999E+03  d E =-.113615E+00
