<?xml version="1.0" encoding="ISO-8859-1"?>
<modeling>
 <generator>
  <i name="program" type="string">vasp </i>
  <i name="version" type="string">6.5.0  </i>
  <i name="subversion" type="string">16Dec24 (build Jan 08 2025 16:17:04) complex                          parallel </i>
  <i name="platform" type="string">LinuxIFC </i>
  <i name="date" type="string">2025 05 06 </i>
  <i name="time" type="string">06:18:53 </i>
 </generator>
 <incar>
  <i type="string" name="SYSTEM">BS</i>
  <i type="int" name="ISTART">     0</i>
  <i type="string" name="PREC">Accurate</i>
  <i type="string" name="ALGO">Normal</i>
  <i type="int" name="ICHARG">    11</i>
  <i type="int" name="NELM">    64</i>
  <i name="EDIFF">      0.00000100</i>
  <i name="EDIFFG">     -0.00100000</i>
  <i name="ENCUT">    600.00000000</i>
  <i type="int" name="ISMEAR">     0</i>
  <i name="SIGMA">      0.10000000</i>
  <i type="int" name="LORBIT">    11</i>
  <i type="string" name="GGA">PE</i>
  <i type="logical" name="LDIPOL"> T  </i>
  <i type="int" name="IDIPOL">     3</i>
  <v name="DIPOL">      0.50000000      0.50000000      0.08500000</v>
  <i type="int" name="IVDW">    12</i>
 </incar>
 <primitive_cell>
  <structure name="primitive_cell" >
   <crystal>
    <varray name="basis" >
     <v>      11.39951611       0.00000000       0.00000000 </v>
     <v>       0.00000000       6.31413364       0.00000000 </v>
     <v>       0.00000000       0.00000000      24.04405785 </v>
    </varray>
    <i name="volume">   1730.64483472 </i>
    <varray name="rec_basis" >
     <v>       0.08772302       0.00000000       0.00000000 </v>
     <v>       0.00000000       0.15837485       0.00000000 </v>
     <v>       0.00000000       0.00000000       0.04159032 </v>
    </varray>
   </crystal>
   <varray name="positions" >
    <v>       0.25697135       0.64087710       0.08456482 </v>
    <v>       0.75697178       0.64087689       0.08519060 </v>
    <v>       0.24321096       0.35938181       0.08472250 </v>
    <v>       0.74323646       0.35932035       0.08531008 </v>
    <v>       0.49321262       0.64081842       0.08558638 </v>
    <v>       0.99319136       0.64082492       0.08449796 </v>
    <v>       0.00697850       0.35935827       0.08434471 </v>
    <v>       0.50698452       0.35941165       0.08566171 </v>
    <v>       0.29812434       0.90129880       0.08484927 </v>
    <v>       0.79809224       0.90128658       0.08517584 </v>
    <v>       0.20210675       0.09899816       0.08458939 </v>
    <v>       0.70205558       0.09891501       0.08541026 </v>
    <v>       0.45211377       0.90122696       0.08548994 </v>
    <v>       0.95211869       0.90120502       0.08457167 </v>
    <v>       0.04810164       0.09897981       0.08444539 </v>
    <v>       0.54806001       0.09903213       0.08565205 </v>
    <v>       0.37432053       0.72375798       0.12643277 </v>
    <v>       0.87569213       0.72364961       0.12612211 </v>
    <v>       0.12532152       0.27633908       0.04316364 </v>
    <v>       0.62481568       0.27650875       0.04429725 </v>
    <v>       0.37585749       0.72371587       0.04386803 </v>
    <v>       0.87444598       0.72390722       0.04353173 </v>
    <v>       0.12487585       0.27663872       0.12573136 </v>
    <v>       0.62540019       0.27648377       0.12685810 </v>
    <v>       0.12508976       0.51652262       0.08410633 </v>
    <v>       0.62511776       0.51653451       0.08577688 </v>
    <v>       0.37508666       0.48371798       0.08529978 </v>
    <v>       0.87508019       0.48373778       0.08461876 </v>
   </varray>
  </structure>
  <varray name="primitive_index" >
   <v type="int" >        1 </v>
   <v type="int" >        2 </v>
   <v type="int" >        3 </v>
   <v type="int" >        4 </v>
   <v type="int" >        5 </v>
   <v type="int" >        6 </v>
   <v type="int" >        7 </v>
   <v type="int" >        8 </v>
   <v type="int" >        9 </v>
   <v type="int" >       10 </v>
   <v type="int" >       11 </v>
   <v type="int" >       12 </v>
   <v type="int" >       13 </v>
   <v type="int" >       14 </v>
   <v type="int" >       15 </v>
   <v type="int" >       16 </v>
   <v type="int" >       17 </v>
   <v type="int" >       18 </v>
   <v type="int" >       19 </v>
   <v type="int" >       20 </v>
   <v type="int" >       21 </v>
   <v type="int" >       22 </v>
   <v type="int" >       23 </v>
   <v type="int" >       24 </v>
   <v type="int" >       25 </v>
   <v type="int" >       26 </v>
   <v type="int" >       27 </v>
   <v type="int" >       28 </v>
  </varray>
 </primitive_cell>
 <kpoints>
  <generation param="listgenerated">
   <i name="divisions" type="int">      40 </i>
   <v>       0.00000000       0.00000000       0.00000000 </v>
   <v>       0.00000000       0.50000000       0.00000000 </v>
   <v>       0.50000000       0.50000000       0.00000000 </v>
   <v>       0.50000000       0.00000000       0.00000000 </v>
   <v>       0.00000000       0.00000000       0.00000000 </v>
  </generation>
  <varray name="kpointlist" >
   <v>       0.00000000       0.00000000       0.00000000 </v>
   <v>       0.00000000       0.01282051       0.00000000 </v>
   <v>       0.00000000       0.02564103       0.00000000 </v>
   <v>       0.00000000       0.03846154       0.00000000 </v>
   <v>       0.00000000       0.05128205       0.00000000 </v>
   <v>       0.00000000       0.06410256       0.00000000 </v>
   <v>       0.00000000       0.07692308       0.00000000 </v>
   <v>       0.00000000       0.08974359       0.00000000 </v>
   <v>       0.00000000       0.10256410       0.00000000 </v>
   <v>       0.00000000       0.11538462       0.00000000 </v>
   <v>       0.00000000       0.12820513       0.00000000 </v>
   <v>       0.00000000       0.14102564       0.00000000 </v>
   <v>       0.00000000       0.15384615       0.00000000 </v>
   <v>       0.00000000       0.16666667       0.00000000 </v>
   <v>       0.00000000       0.17948718       0.00000000 </v>
   <v>       0.00000000       0.19230769       0.00000000 </v>
   <v>       0.00000000       0.20512821       0.00000000 </v>
   <v>       0.00000000       0.21794872       0.00000000 </v>
   <v>       0.00000000       0.23076923       0.00000000 </v>
   <v>       0.00000000       0.24358974       0.00000000 </v>
   <v>       0.00000000       0.25641026       0.00000000 </v>
   <v>       0.00000000       0.26923077       0.00000000 </v>
   <v>       0.00000000       0.28205128       0.00000000 </v>
   <v>       0.00000000       0.29487179       0.00000000 </v>
   <v>       0.00000000       0.30769231       0.00000000 </v>
   <v>       0.00000000       0.32051282       0.00000000 </v>
   <v>       0.00000000       0.33333333       0.00000000 </v>
   <v>       0.00000000       0.34615385       0.00000000 </v>
   <v>       0.00000000       0.35897436       0.00000000 </v>
   <v>       0.00000000       0.37179487       0.00000000 </v>
   <v>       0.00000000       0.38461538       0.00000000 </v>
   <v>       0.00000000       0.39743590       0.00000000 </v>
   <v>       0.00000000       0.41025641       0.00000000 </v>
   <v>       0.00000000       0.42307692       0.00000000 </v>
   <v>       0.00000000       0.43589744       0.00000000 </v>
   <v>       0.00000000       0.44871795       0.00000000 </v>
   <v>       0.00000000       0.46153846       0.00000000 </v>
   <v>       0.00000000       0.47435897       0.00000000 </v>
   <v>       0.00000000       0.48717949       0.00000000 </v>
   <v>       0.00000000       0.50000000       0.00000000 </v>
   <v>       0.00000000       0.50000000       0.00000000 </v>
   <v>       0.01282051       0.50000000       0.00000000 </v>
   <v>       0.02564103       0.50000000       0.00000000 </v>
   <v>       0.03846154       0.50000000       0.00000000 </v>
   <v>       0.05128205       0.50000000       0.00000000 </v>
   <v>       0.06410256       0.50000000       0.00000000 </v>
   <v>       0.07692308       0.50000000       0.00000000 </v>
   <v>       0.08974359       0.50000000       0.00000000 </v>
   <v>       0.10256410       0.50000000       0.00000000 </v>
   <v>       0.11538462       0.50000000       0.00000000 </v>
   <v>       0.12820513       0.50000000       0.00000000 </v>
   <v>       0.14102564       0.50000000       0.00000000 </v>
   <v>       0.15384615       0.50000000       0.00000000 </v>
   <v>       0.16666667       0.50000000       0.00000000 </v>
   <v>       0.17948718       0.50000000       0.00000000 </v>
   <v>       0.19230769       0.50000000       0.00000000 </v>
   <v>       0.20512821       0.50000000       0.00000000 </v>
   <v>       0.21794872       0.50000000       0.00000000 </v>
   <v>       0.23076923       0.50000000       0.00000000 </v>
   <v>       0.24358974       0.50000000       0.00000000 </v>
   <v>       0.25641026       0.50000000       0.00000000 </v>
   <v>       0.26923077       0.50000000       0.00000000 </v>
   <v>       0.28205128       0.50000000       0.00000000 </v>
   <v>       0.29487179       0.50000000       0.00000000 </v>
   <v>       0.30769231       0.50000000       0.00000000 </v>
   <v>       0.32051282       0.50000000       0.00000000 </v>
   <v>       0.33333333       0.50000000       0.00000000 </v>
   <v>       0.34615385       0.50000000       0.00000000 </v>
   <v>       0.35897436       0.50000000       0.00000000 </v>
   <v>       0.37179487       0.50000000       0.00000000 </v>
   <v>       0.38461538       0.50000000       0.00000000 </v>
   <v>       0.39743590       0.50000000       0.00000000 </v>
   <v>       0.41025641       0.50000000       0.00000000 </v>
   <v>       0.42307692       0.50000000       0.00000000 </v>
   <v>       0.43589744       0.50000000       0.00000000 </v>
   <v>       0.44871795       0.50000000       0.00000000 </v>
   <v>       0.46153846       0.50000000       0.00000000 </v>
   <v>       0.47435897       0.50000000       0.00000000 </v>
   <v>       0.48717949       0.50000000       0.00000000 </v>
   <v>       0.50000000       0.50000000       0.00000000 </v>
   <v>       0.50000000       0.50000000       0.00000000 </v>
   <v>       0.50000000       0.48717949       0.00000000 </v>
   <v>       0.50000000       0.47435897       0.00000000 </v>
   <v>       0.50000000       0.46153846       0.00000000 </v>
   <v>       0.50000000       0.44871795       0.00000000 </v>
   <v>       0.50000000       0.43589744       0.00000000 </v>
   <v>       0.50000000       0.42307692       0.00000000 </v>
   <v>       0.50000000       0.41025641       0.00000000 </v>
   <v>       0.50000000       0.39743590       0.00000000 </v>
   <v>       0.50000000       0.38461538       0.00000000 </v>
   <v>       0.50000000       0.37179487       0.00000000 </v>
   <v>       0.50000000       0.35897436       0.00000000 </v>
   <v>       0.50000000       0.34615385       0.00000000 </v>
   <v>       0.50000000       0.33333333       0.00000000 </v>
   <v>       0.50000000       0.32051282       0.00000000 </v>
   <v>       0.50000000       0.30769231       0.00000000 </v>
   <v>       0.50000000       0.29487179       0.00000000 </v>
   <v>       0.50000000       0.28205128       0.00000000 </v>
   <v>       0.50000000       0.26923077       0.00000000 </v>
   <v>       0.50000000       0.25641026       0.00000000 </v>
   <v>       0.50000000       0.24358974       0.00000000 </v>
   <v>       0.50000000       0.23076923       0.00000000 </v>
   <v>       0.50000000       0.21794872       0.00000000 </v>
   <v>       0.50000000       0.20512821       0.00000000 </v>
   <v>       0.50000000       0.19230769       0.00000000 </v>
   <v>       0.50000000       0.17948718       0.00000000 </v>
   <v>       0.50000000       0.16666667       0.00000000 </v>
   <v>       0.50000000       0.15384615       0.00000000 </v>
   <v>       0.50000000       0.14102564       0.00000000 </v>
   <v>       0.50000000       0.12820513       0.00000000 </v>
   <v>       0.50000000       0.11538462       0.00000000 </v>
   <v>       0.50000000       0.10256410       0.00000000 </v>
   <v>       0.50000000       0.08974359       0.00000000 </v>
   <v>       0.50000000       0.07692308       0.00000000 </v>
   <v>       0.50000000       0.06410256       0.00000000 </v>
   <v>       0.50000000       0.05128205       0.00000000 </v>
   <v>       0.50000000       0.03846154       0.00000000 </v>
   <v>       0.50000000       0.02564103       0.00000000 </v>
   <v>       0.50000000       0.01282051       0.00000000 </v>
   <v>       0.50000000       0.00000000       0.00000000 </v>
   <v>       0.50000000       0.00000000       0.00000000 </v>
   <v>       0.48717949       0.00000000       0.00000000 </v>
   <v>       0.47435897       0.00000000       0.00000000 </v>
   <v>       0.46153846       0.00000000       0.00000000 </v>
   <v>       0.44871795       0.00000000       0.00000000 </v>
   <v>       0.43589744       0.00000000       0.00000000 </v>
   <v>       0.42307692       0.00000000       0.00000000 </v>
   <v>       0.41025641       0.00000000       0.00000000 </v>
   <v>       0.39743590       0.00000000       0.00000000 </v>
   <v>       0.38461538       0.00000000       0.00000000 </v>
   <v>       0.37179487       0.00000000       0.00000000 </v>
   <v>       0.35897436       0.00000000       0.00000000 </v>
   <v>       0.34615385       0.00000000       0.00000000 </v>
   <v>       0.33333333       0.00000000       0.00000000 </v>
   <v>       0.32051282       0.00000000       0.00000000 </v>
   <v>       0.30769231       0.00000000       0.00000000 </v>
   <v>       0.29487179       0.00000000       0.00000000 </v>
   <v>       0.28205128       0.00000000       0.00000000 </v>
   <v>       0.26923077       0.00000000       0.00000000 </v>
   <v>       0.25641026       0.00000000       0.00000000 </v>
   <v>       0.24358974       0.00000000       0.00000000 </v>
   <v>       0.23076923       0.00000000       0.00000000 </v>
   <v>       0.21794872       0.00000000       0.00000000 </v>
   <v>       0.20512821       0.00000000       0.00000000 </v>
   <v>       0.19230769       0.00000000       0.00000000 </v>
   <v>       0.17948718       0.00000000       0.00000000 </v>
   <v>       0.16666667       0.00000000       0.00000000 </v>
   <v>       0.15384615       0.00000000       0.00000000 </v>
   <v>       0.14102564       0.00000000       0.00000000 </v>
   <v>       0.12820513       0.00000000       0.00000000 </v>
   <v>       0.11538462       0.00000000       0.00000000 </v>
   <v>       0.10256410       0.00000000       0.00000000 </v>
   <v>       0.08974359       0.00000000       0.00000000 </v>
   <v>       0.07692308       0.00000000       0.00000000 </v>
   <v>       0.06410256       0.00000000       0.00000000 </v>
   <v>       0.05128205       0.00000000       0.00000000 </v>
   <v>       0.03846154       0.00000000       0.00000000 </v>
   <v>       0.02564103       0.00000000       0.00000000 </v>
   <v>       0.01282051       0.00000000       0.00000000 </v>
   <v>       0.00000000       0.00000000       0.00000000 </v>
  </varray>
  <varray name="weights" >
   <v>       0.00625000 </v>
   <v>       0.00625000 </v>
   <v>       0.00625000 </v>
   <v>       0.00625000 </v>
   <v>       0.00625000 </v>
   <v>       0.00625000 </v>
   <v>       0.00625000 </v>
   <v>       0.00625000 </v>
   <v>       0.00625000 </v>
   <v>       0.00625000 </v>
   <v>       0.00625000 </v>
   <v>       0.00625000 </v>
   <v>       0.00625000 </v>
   <v>       0.00625000 </v>
   <v>       0.00625000 </v>
   <v>       0.00625000 </v>
   <v>       0.00625000 </v>
   <v>       0.00625000 </v>
   <v>       0.00625000 </v>
   <v>       0.00625000 </v>
   <v>       0.00625000 </v>
   <v>       0.00625000 </v>
   <v>       0.00625000 </v>
   <v>       0.00625000 </v>
   <v>       0.00625000 </v>
   <v>       0.00625000 </v>
   <v>       0.00625000 </v>
   <v>       0.00625000 </v>
   <v>       0.00625000 </v>
   <v>       0.00625000 </v>
   <v>       0.00625000 </v>
   <v>       0.00625000 </v>
   <v>       0.00625000 </v>
   <v>       0.00625000 </v>
   <v>       0.00625000 </v>
   <v>       0.00625000 </v>
   <v>       0.00625000 </v>
   <v>       0.00625000 </v>
   <v>       0.00625000 </v>
   <v>       0.00625000 </v>
   <v>       0.00625000 </v>
   <v>       0.00625000 </v>
   <v>       0.00625000 </v>
   <v>       0.00625000 </v>
   <v>       0.00625000 </v>
   <v>       0.00625000 </v>
   <v>       0.00625000 </v>
   <v>       0.00625000 </v>
   <v>       0.00625000 </v>
   <v>       0.00625000 </v>
   <v>       0.00625000 </v>
   <v>       0.00625000 </v>
   <v>       0.00625000 </v>
   <v>       0.00625000 </v>
   <v>       0.00625000 </v>
   <v>       0.00625000 </v>
   <v>       0.00625000 </v>
   <v>       0.00625000 </v>
   <v>       0.00625000 </v>
   <v>       0.00625000 </v>
   <v>       0.00625000 </v>
   <v>       0.00625000 </v>
   <v>       0.00625000 </v>
   <v>       0.00625000 </v>
   <v>       0.00625000 </v>
   <v>       0.00625000 </v>
   <v>       0.00625000 </v>
   <v>       0.00625000 </v>
   <v>       0.00625000 </v>
   <v>       0.00625000 </v>
   <v>       0.00625000 </v>
   <v>       0.00625000 </v>
   <v>       0.00625000 </v>
   <v>       0.00625000 </v>
   <v>       0.00625000 </v>
   <v>       0.00625000 </v>
   <v>       0.00625000 </v>
   <v>       0.00625000 </v>
   <v>       0.00625000 </v>
   <v>       0.00625000 </v>
   <v>       0.00625000 </v>
   <v>       0.00625000 </v>
   <v>       0.00625000 </v>
   <v>       0.00625000 </v>
   <v>       0.00625000 </v>
   <v>       0.00625000 </v>
   <v>       0.00625000 </v>
   <v>       0.00625000 </v>
   <v>       0.00625000 </v>
   <v>       0.00625000 </v>
   <v>       0.00625000 </v>
   <v>       0.00625000 </v>
   <v>       0.00625000 </v>
   <v>       0.00625000 </v>
   <v>       0.00625000 </v>
   <v>       0.00625000 </v>
   <v>       0.00625000 </v>
   <v>       0.00625000 </v>
   <v>       0.00625000 </v>
   <v>       0.00625000 </v>
   <v>       0.00625000 </v>
   <v>       0.00625000 </v>
   <v>       0.00625000 </v>
   <v>       0.00625000 </v>
   <v>       0.00625000 </v>
   <v>       0.00625000 </v>
   <v>       0.00625000 </v>
   <v>       0.00625000 </v>
   <v>       0.00625000 </v>
   <v>       0.00625000 </v>
   <v>       0.00625000 </v>
   <v>       0.00625000 </v>
   <v>       0.00625000 </v>
   <v>       0.00625000 </v>
   <v>       0.00625000 </v>
   <v>       0.00625000 </v>
   <v>       0.00625000 </v>
   <v>       0.00625000 </v>
   <v>       0.00625000 </v>
   <v>       0.00625000 </v>
   <v>       0.00625000 </v>
   <v>       0.00625000 </v>
   <v>       0.00625000 </v>
   <v>       0.00625000 </v>
   <v>       0.00625000 </v>
   <v>       0.00625000 </v>
   <v>       0.00625000 </v>
   <v>       0.00625000 </v>
   <v>       0.00625000 </v>
   <v>       0.00625000 </v>
   <v>       0.00625000 </v>
   <v>       0.00625000 </v>
   <v>       0.00625000 </v>
   <v>       0.00625000 </v>
   <v>       0.00625000 </v>
   <v>       0.00625000 </v>
   <v>       0.00625000 </v>
   <v>       0.00625000 </v>
   <v>       0.00625000 </v>
   <v>       0.00625000 </v>
   <v>       0.00625000 </v>
   <v>       0.00625000 </v>
   <v>       0.00625000 </v>
   <v>       0.00625000 </v>
   <v>       0.00625000 </v>
   <v>       0.00625000 </v>
   <v>       0.00625000 </v>
   <v>       0.00625000 </v>
   <v>       0.00625000 </v>
   <v>       0.00625000 </v>
   <v>       0.00625000 </v>
   <v>       0.00625000 </v>
   <v>       0.00625000 </v>
   <v>       0.00625000 </v>
   <v>       0.00625000 </v>
   <v>       0.00625000 </v>
   <v>       0.00625000 </v>
   <v>       0.00625000 </v>
   <v>       0.00625000 </v>
   <v>       0.00625000 </v>
  </varray>
  <kpoints_labels>
   <i name="Γ" type="int">       1 </i>
   <i name="Z" type="int">       2 </i>
   <i name="Z" type="int">       3 </i>
   <i name="T" type="int">       4 </i>
   <i name="T" type="int">       5 </i>
   <i name="Y" type="int">       6 </i>
   <i name="Y" type="int">       7 </i>
   <i name="Γ" type="int">       8 </i>
  </kpoints_labels>
 </kpoints>
 <parameters>
  <separator name="general" >
   <i type="string" name="SYSTEM">BS</i>
   <i type="logical" name="LCOMPAT"> F  </i>
  </separator>
  <separator name="electronic" >
   <i type="string" name="PREC">accura</i>
   <i name="ENMAX">    600.00000000</i>
   <i name="ENAUG">    535.51400000</i>
   <i name="EDIFF">      0.00000100</i>
   <i type="int" name="IALGO">    38</i>
   <i type="int" name="IWAVPR">    10</i>
   <i type="int" name="NBANDS">    84</i>
   <i type="int" name="NBANDSLOW">    -1</i>
   <i type="int" name="NBANDSHIGH">    -1</i>
   <i name="NELECT">     84.00000000</i>
   <i type="int" name="TURBO">     0</i>
   <i type="int" name="IRESTART">     0</i>
   <i type="int" name="NREBOOT">     0</i>
   <i type="int" name="NMIN">     0</i>
   <i name="EREF">      0.00000000</i>
   <separator name="electronic smearing" >
    <i type="int" name="ISMEAR">     0</i>
    <i name="SIGMA">      0.10000000</i>
    <i name="KSPACING">      0.50000000</i>
    <i type="logical" name="KGAMMA"> T  </i>
    <i type="logical" name="KBLOWUP"> T  </i>
   </separator>
   <separator name="electronic projectors" >
    <i type="logical" name="LREAL"> F  </i>
    <v name="ROPT">      0.00000000</v>
    <i type="int" name="LMAXPAW">  -100</i>
    <i type="int" name="LMAXMIX">     2</i>
    <i type="logical" name="NLSPLINE"> F  </i>
   </separator>
   <separator name="electronic startup" >
    <i type="int" name="ISTART">     0</i>
    <i type="int" name="ICHARG">    11</i>
    <i type="int" name="INIWAV">     1</i>
   </separator>
   <separator name="electronic spin" >
    <i type="int" name="ISPIN">     1</i>
    <i type="logical" name="LNONCOLLINEAR"> F  </i>
    <v name="MAGMOM">      1.00000000      1.00000000      1.00000000      1.00000000      1.00000000      1.00000000      1.00000000      1.00000000      1.00000000      1.00000000      1.00000000      1.00000000      1.00000000      1.00000000      1.00000000      1.00000000      1.00000000      1.00000000      1.00000000      1.00000000
      1.00000000      1.00000000      1.00000000      1.00000000      1.00000000      1.00000000      1.00000000      1.00000000</v>
    <i name="NUPDOWN">     -1.00000000</i>
    <i type="logical" name="LSORBIT"> F  </i>
    <v name="SAXIS">      0.00000000      0.00000000      1.00000000</v>
    <i type="logical" name="LSPIRAL"> F  </i>
    <v name="QSPIRAL">      0.00000000      0.00000000      0.00000000</v>
    <i type="logical" name="LZEROZ"> F  </i>
   </separator>
   <separator name="electronic exchange-correlation" >
    <i type="logical" name="LASPH"> F  </i>
   </separator>
   <separator name="electronic convergence" >
    <i type="int" name="NELM">    64</i>
    <i type="int" name="NELMDL">    -5</i>
    <i type="int" name="NELMIN">     2</i>
    <i name="ENINI">    600.00000000</i>
    <separator name="electronic convergence detail" >
     <i type="logical" name="LDIAG"> T  </i>
     <i type="logical" name="LSUBROT"> F  </i>
     <i name="WEIMIN">      0.00000000</i>
     <i name="EBREAK">      0.00000000</i>
     <i name="DEPER">      0.30000000</i>
     <i type="int" name="NRMM">     4</i>
     <i name="TIME">      0.40000000</i>
    </separator>
   </separator>
   <separator name="electronic mixer" >
    <i name="AMIX">      0.40000000</i>
    <i name="BMIX">      1.00000000</i>
    <i name="AMIN">      0.10000000</i>
    <i name="AMIX_MAG">      1.60000000</i>
    <i name="BMIX_MAG">      1.00000000</i>
    <separator name="electronic mixer details" >
     <i type="int" name="IMIX">     4</i>
     <i type="logical" name="MIXFIRST"> F  </i>
     <i type="int" name="MAXMIX">   -45</i>
     <i name="WC">    100.00000000</i>
     <i type="int" name="INIMIX">     1</i>
     <i type="int" name="MIXPRE">     1</i>
     <i type="int" name="MREMOVE">     5</i>
    </separator>
   </separator>
   <separator name="electronic dipolcorrection" >
    <i type="logical" name="LDIPOL"> T  </i>
    <i type="logical" name="LMONO"> F  </i>
    <i type="int" name="IDIPOL">     3</i>
    <i name="EPSILON">      1.00000000</i>
    <v name="DIPOL">      0.50000000      0.50000000      0.08500000</v>
    <i name="EFIELD">      0.00000000</i>
    <i type="logical" name="LVACPOTAV"> F  </i>
   </separator>
  </separator>
  <separator name="grids" >
   <i type="int" name="NGX">    96</i>
   <i type="int" name="NGY">    50</i>
   <i type="int" name="NGZ">   192</i>
   <i type="int" name="NGXF">   192</i>
   <i type="int" name="NGYF">   100</i>
   <i type="int" name="NGZF">   384</i>
   <i type="logical" name="ADDGRID"> F  </i>
  </separator>
  <separator name="ionic" >
   <i type="int" name="NSW">     0</i>
   <i type="int" name="IBRION">    -1</i>
   <i type="int" name="MDALGO">     0</i>
   <i type="int" name="ISIF">     2</i>
   <i name="PSTRESS">      0.00000000</i>
   <i name="EDIFFG">     -0.00100000</i>
   <i type="int" name="NFREE">     0</i>
   <i name="POTIM">      0.50000000</i>
   <i name="SMASS">     -3.00000000</i>
   <i name="SCALEE">      1.00000000</i>
  </separator>
  <separator name="ionic md" >
   <i name="TEBEG">      0.00010000</i>
   <i name="TEEND">      0.00010000</i>
   <i type="int" name="NBLOCK">     1</i>
   <i type="int" name="KBLOCK">     1</i>
   <i type="int" name="NPACO">   256</i>
   <i name="APACO">     10.00000000</i>
  </separator>
  <separator name="symmetry" >
   <i type="int" name="ISYM">     2</i>
   <i name="SYMPREC">      0.00001000</i>
  </separator>
  <separator name="dos" >
   <i type="int" name="LORBIT">    11</i>
   <v name="RWIGS">     -1.00000000</v>
   <i type="int" name="NEDOS">   301</i>
   <i name="EMIN">     10.00000000</i>
   <i name="EMAX">    -10.00000000</i>
   <i name="EFERMI">      0.00000000</i>
  </separator>
  <separator name="writing" >
   <i type="int" name="NWRITE">     2</i>
   <i type="logical" name="LWAVE"> T  </i>
   <i type="logical" name="LDOWNSAMPLE"> F  </i>
   <i type="logical" name="LCHARG"> T  </i>
   <i type="logical" name="LPARD"> F  </i>
   <i type="logical" name="LVTOT"> F  </i>
   <i type="logical" name="LVHAR"> F  </i>
   <i type="logical" name="LELF"> F  </i>
   <i type="logical" name="LOPTICS"> F  </i>
   <v name="STM">      0.00000000      0.00000000      0.00000000      0.00000000      0.00000000      0.00000000      0.00000000</v>
  </separator>
  <separator name="performance" >
   <i type="int" name="NPAR">    42</i>
   <i type="int" name="NSIM">     4</i>
   <i type="int" name="NBLK">    -1</i>
   <i type="logical" name="LPLANE"> T  </i>
   <i type="logical" name="LSCALAPACK"> T  </i>
   <i type="logical" name="LSCAAWARE"> F  </i>
   <i type="logical" name="LSCALU"> F  </i>
   <i type="logical" name="LASYNC"> F  </i>
   <i type="logical" name="LORBITALREAL"> F  </i>
  </separator>
  <separator name="miscellaneous" >
   <i type="int" name="IDIOT">     3</i>
   <i type="int" name="PHON_NSTRUCT">    -1</i>
   <i type="logical" name="LMUSIC"> F  </i>
   <v name="POMASS">     10.81100000</v>
   <v name="DARWINR">      0.00000000</v>
   <v name="DARWINV">      1.00000000</v>
   <i type="logical" name="LCORR"> T  </i>
  </separator>
  <i type="logical" name="GGA_COMPAT"> T  </i>
  <i type="logical" name="LBERRY"> F  </i>
  <i type="int" name="ICORELEVEL">     0</i>
  <i type="logical" name="LDAU"> F  </i>
  <i type="int" name="I_CONSTRAINED_M">     0</i>
  <separator name="electronic exchange-correlation" >
   <i type="string" name="GGA    ">PE</i>
   <i type="string" name="XC_C">1</i>
   <i type="int" name="VOSKOWN">     0</i>
   <i type="logical" name="LHFCALC"> F  </i>
   <i type="string" name="PRECFOCK"></i>
   <i type="logical" name="LSYMGRAD"> F  </i>
   <i type="logical" name="LHFONE"> F  </i>
   <i type="logical" name="LRHFCALC"> F  </i>
   <i type="logical" name="LTHOMAS"> F  </i>
   <i type="logical" name="LMODELHF"> F  </i>
   <i type="logical" name="LFOCKACE"> F  </i>
   <i name="ENCUT4O">     -1.00000000</i>
   <i type="int" name="EXXOEP">     0</i>
   <i type="int" name="FOURORBIT">     0</i>
   <i name="AEXX">      0.00000000</i>
   <i name="HFALPHA">      0.00000000</i>
   <i name="MCALPHA">      0.00000000</i>
   <i name="ALDAX">      1.00000000</i>
   <i name="AGGAX">      1.00000000</i>
   <i name="AMGGAX">      1.00000000</i>
   <i name="ALDAC">      1.00000000</i>
   <i name="AGGAC">      1.00000000</i>
   <i name="AMGGAC">      1.00000000</i>
   <i type="int" name="NKREDX">     1</i>
   <i type="int" name="NKREDY">     1</i>
   <i type="int" name="NKREDZ">     1</i>
   <i type="logical" name="SHIFTRED"> F  </i>
   <i type="logical" name="ODDONLY"> F  </i>
   <i type="logical" name="EVENONLY"> F  </i>
   <i type="int" name="LMAXFOCK">     0</i>
   <i type="int" name="NMAXFOCKAE">     0</i>
   <i type="logical" name="LFOCKAEDFT"> F  </i>
   <i name="HFSCREEN">      0.00000000</i>
   <i name="HFSCREENC">      0.00000000</i>
   <i type="int" name="NBANDSGWLOW">     0</i>
  </separator>
  <separator name="vdW DFT" >
   <i type="logical" name="LUSE_VDW"> F  </i>
   <i type="int" name="IVDW_NL">    -1</i>
   <i type="logical" name="LSPIN_VDW"> F  </i>
   <i name="ZAB_VDW">     -0.84910000</i>
   <i name="GAMMA_VDW">      1.39626340</i>
   <i name="ALPHA_VDW">      0.00000000</i>
   <i name="PARAM1">      0.12340000</i>
   <i name="PARAM2">      1.00000000</i>
   <i name="BPARAM">      6.30000000</i>
   <i name="CPARAM">      0.00930000</i>
  </separator>
  <separator name="model GW" >
   <i type="int" name="MODEL_GW">     0</i>
   <i name="MODEL_EPS0">     37.08524646</i>
   <i name="MODEL_ALPHA">      1.00000000</i>
  </separator>
  <separator name="linear response parameters" >
   <i type="logical" name="LEPSILON"> F  </i>
   <i type="logical" name="LRPA"> F  </i>
   <i type="logical" name="LNABLA"> F  </i>
   <i type="logical" name="LVEL"> F  </i>
   <i name="CSHIFT">      0.10000000</i>
   <i name="OMEGAMAX">     -1.00000000</i>
   <i name="DEG_THRESHOLD">      0.00200000</i>
   <i name="RTIME">     -0.10000000</i>
   <i name="WPLASMAI">      0.00000000</i>
   <v name="DFIELD">      0.00000000      0.00000000      0.00000000</v>
   <v name="WPLASMA">      0.00000000      0.00000000      0.00000000      0.00000000      0.00000000      0.00000000      0.00000000      0.00000000      0.00000000</v>
  </separator>
  <separator name="orbital magnetization" >
   <i type="logical" name="NUCIND"> F  </i>
   <v name="MAGPOS">      0.00000000      0.00000000      0.00000000</v>
   <i type="logical" name="LNICSALL"> T  </i>
   <i type="logical" name="ORBITALMAG"> F  </i>
   <i type="logical" name="LMAGBLOCH"> F  </i>
   <i type="logical" name="LCHIMAG"> F  </i>
   <i type="logical" name="LGAUGE"> T  </i>
   <i type="int" name="MAGATOM">     0</i>
   <v name="MAGDIPOL">      0.00000000      0.00000000      0.00000000</v>
   <v name="AVECCONST">      0.00000000      0.00000000      0.00000000</v>
  </separator>
  <separator name="response functions" >
   <i type="logical" name="LALL_IN_ONE"> F  </i>
   <i type="int" name="IALL_IN_ONE">    -1</i>
   <i type="int" name="NBANDS_WAVE">    -1</i>
   <i type="logical" name="LFINITE_TEMPERATURE"> F  </i>
   <i type="logical" name="LADDER"> F  </i>
   <i type="logical" name="LRPAFORCE"> F  </i>
   <i type="logical" name="LFXC"> F  </i>
   <i type="logical" name="LHARTREE"> T  </i>
   <i type="int" name="IBSE">     2</i>
   <v type="int" name="KPOINT">    -1     0     0     0</v>
   <i type="logical" name="LTCTC"> F  </i>
   <i type="logical" name="LTCTE"> F  </i>
   <i type="logical" name="LTETE"> F  </i>
   <i type="logical" name="LTRIPLET"> F  </i>
   <i type="logical" name="LFXCEPS"> F  </i>
   <i type="logical" name="LFXHEG"> F  </i>
   <i type="int" name="NATURALO">     2</i>
   <i type="logical" name="LHOLEGF"> F  </i>
   <i type="logical" name="L2ORDER"> F  </i>
   <i type="logical" name="LDMP1"> F  </i>
   <i type="logical" name="LMP2LT"> F  </i>
   <i type="logical" name="LSMP2LT"> F  </i>
   <i type="logical" name="LGWLF"> F  </i>
   <i name="ENCUTGW">     -1.60000002</i>
   <i name="ENCUTGWSOFT">     -1.60000002</i>
   <i name="ENCUTLF">     -1.00000000</i>
   <i type="logical" name="ESF_SPLINES"> F  </i>
   <i name="ESF_CONV">      0.01000000</i>
   <i type="int" name="ESF_NINTER">    15</i>
   <i type="int" name="LMAXMP2">    -1</i>
   <i name="SCISSOR">      0.00000000</i>
   <i type="int" name="NOMEGA">     0</i>
   <i type="int" name="NOMEGAR">     0</i>
   <i type="int" name="NBANDSGW">    -1</i>
   <i type="int" name="NBANDSO">    -1</i>
   <i type="int" name="NBANDSV">    -1</i>
   <i type="int" name="NELMGW">     1</i>
   <i type="int" name="NELMHF">     1</i>
   <i type="int" name="DIM">     3</i>
   <i type="int" name="IESPILON">     4</i>
   <i type="int" name="ANTIRES">     0</i>
   <i name="OMEGAMAX">    -30.00000000</i>
   <i name="OMEGAMIN">    -30.00000000</i>
   <i name="OMEGATL">   -200.00000000</i>
   <i type="int" name="OMEGAGRID">     0</i>
   <i name="CSHIFT">     -0.10000000</i>
   <i type="logical" name="LSELFENERGY"> F  </i>
   <i type="logical" name="LSPECTRAL"> F  </i>
   <i type="logical" name="LSPECTRALGW"> F  </i>
   <i type="logical" name="LSINGLES"> F  </i>
   <i type="logical" name="LFERMIGW"> F  </i>
   <i type="logical" name="ODDONLYGW"> F  </i>
   <i type="logical" name="EVENONLYGW"> F  </i>
   <i type="int" name="NKREDLFX">     1</i>
   <i type="int" name="NKREDLFY">     1</i>
   <i type="int" name="NKREDLFZ">     1</i>
   <i type="int" name="MAXMEM">  2800</i>
   <i type="int" name="TELESCOPE">     0</i>
   <i type="int" name="NTAUPAR">    -1</i>
   <i type="int" name="NOMEGAPAR">    -1</i>
   <i name="DAMP_NEWTON">      0.80000001</i>
   <i name="LAMBDA">      1.00000000</i>
  </separator>
  <separator name="External order field" >
   <i name="OFIELD_KAPPA">      0.00000000</i>
   <v name="OFIELD_K">      0.00000000      0.00000000      0.00000000</v>
   <i name="OFIELD_Q6_NEAR">      0.00000000</i>
   <i name="OFIELD_Q6_FAR">      0.00000000</i>
   <i name="OFIELD_A">      0.00000000</i>
  </separator>
  <separator name="optional k-points parameters" >
   <i type="int" name="KPOINTS_OPT_MODE">     1</i>
   <i type="logical" name="LKPOINTS_OPT"> F  </i>
  </separator>
 </parameters>
 <atominfo>
  <atoms>      28 </atoms>
  <types>       1 </types>
  <array name="atoms" >
   <dimension dim="1">ion</dimension>
   <field type="string">element</field>
   <field type="int">atomtype</field>
   <set>
    <rc><c>B </c><c>   1</c></rc>
    <rc><c>B </c><c>   1</c></rc>
    <rc><c>B </c><c>   1</c></rc>
    <rc><c>B </c><c>   1</c></rc>
    <rc><c>B </c><c>   1</c></rc>
    <rc><c>B </c><c>   1</c></rc>
    <rc><c>B </c><c>   1</c></rc>
    <rc><c>B </c><c>   1</c></rc>
    <rc><c>B </c><c>   1</c></rc>
    <rc><c>B </c><c>   1</c></rc>
    <rc><c>B </c><c>   1</c></rc>
    <rc><c>B </c><c>   1</c></rc>
    <rc><c>B </c><c>   1</c></rc>
    <rc><c>B </c><c>   1</c></rc>
    <rc><c>B </c><c>   1</c></rc>
    <rc><c>B </c><c>   1</c></rc>
    <rc><c>B </c><c>   1</c></rc>
    <rc><c>B </c><c>   1</c></rc>
    <rc><c>B </c><c>   1</c></rc>
    <rc><c>B </c><c>   1</c></rc>
    <rc><c>B </c><c>   1</c></rc>
    <rc><c>B </c><c>   1</c></rc>
    <rc><c>B </c><c>   1</c></rc>
    <rc><c>B </c><c>   1</c></rc>
    <rc><c>B </c><c>   1</c></rc>
    <rc><c>B </c><c>   1</c></rc>
    <rc><c>B </c><c>   1</c></rc>
    <rc><c>B </c><c>   1</c></rc>
   </set>
  </array>
  <array name="atomtypes" >
   <dimension dim="1">type</dimension>
   <field type="int">atomspertype</field>
   <field type="string">element</field>
   <field>mass</field>
   <field>valence</field>
   <field type="string">pseudopotential</field>
   <set>
    <rc><c>  28</c><c>B </c><c>     10.81100000</c><c>      3.00000000</c><c>  PAW_PBE B 06Sep2000                   </c></rc>
   </set>
  </array>
 </atominfo>
 <structure name="initialpos" >
  <crystal>
   <varray name="basis" >
    <v>      11.39951611       0.00000000       0.00000000 </v>
    <v>       0.00000000       6.31413364       0.00000000 </v>
    <v>       0.00000000       0.00000000      24.04405785 </v>
   </varray>
   <i name="volume">   1730.64483472 </i>
   <varray name="rec_basis" >
    <v>       0.08772302       0.00000000       0.00000000 </v>
    <v>       0.00000000       0.15837485       0.00000000 </v>
    <v>       0.00000000       0.00000000       0.04159032 </v>
   </varray>
  </crystal>
  <varray name="positions" >
   <v>       0.25697135       0.64087710       0.08456482 </v>
   <v>       0.75697178       0.64087689       0.08519060 </v>
   <v>       0.24321096       0.35938181       0.08472250 </v>
   <v>       0.74323646       0.35932035       0.08531008 </v>
   <v>       0.49321262       0.64081842       0.08558638 </v>
   <v>       0.99319136       0.64082492       0.08449796 </v>
   <v>       0.00697850       0.35935827       0.08434471 </v>
   <v>       0.50698452       0.35941165       0.08566171 </v>
   <v>       0.29812434       0.90129880       0.08484927 </v>
   <v>       0.79809224       0.90128658       0.08517584 </v>
   <v>       0.20210675       0.09899816       0.08458939 </v>
   <v>       0.70205558       0.09891501       0.08541026 </v>
   <v>       0.45211377       0.90122696       0.08548994 </v>
   <v>       0.95211869       0.90120502       0.08457167 </v>
   <v>       0.04810164       0.09897981       0.08444539 </v>
   <v>       0.54806001       0.09903213       0.08565205 </v>
   <v>       0.37432053       0.72375798       0.12643277 </v>
   <v>       0.87569213       0.72364961       0.12612211 </v>
   <v>       0.12532152       0.27633908       0.04316364 </v>
   <v>       0.62481568       0.27650875       0.04429725 </v>
   <v>       0.37585749       0.72371587       0.04386803 </v>
   <v>       0.87444598       0.72390722       0.04353173 </v>
   <v>       0.12487585       0.27663872       0.12573136 </v>
   <v>       0.62540019       0.27648377       0.12685810 </v>
   <v>       0.12508976       0.51652262       0.08410633 </v>
   <v>       0.62511776       0.51653451       0.08577688 </v>
   <v>       0.37508666       0.48371798       0.08529978 </v>
   <v>       0.87508019       0.48373778       0.08461876 </v>
  </varray>
 </structure>
 <calculation>
  <scstep>
   <time name="dav">   86.62   87.15</time>
   <time name="total">   86.76   87.29</time>
   <dipole>
    <v name="dipole">      0.00000000       0.00000000       0.00040263 </v>
    <i name="Tr[quadrupol]">  -1221.64517901 </i>
    <i name="Echarged">      0.00000000 </i>
    <i name="Edipol_quadrupol">      0.00000000 </i>
    <i name="Eion">      0.00000000 </i>
   </dipole>
   <energy>
    <i name="alphaZ">     31.16474875 </i>
    <i name="ewald">  12734.00291247 </i>
    <i name="hartreedc"> -14295.28602729 </i>
    <i name="XCdc">    200.97825433 </i>
    <i name="pawpsdc">   7527.38414994 </i>
    <i name="pawaedc">  -7505.74196789 </i>
    <i name="eentropy">     -0.05981009 </i>
    <i name="bandstr">   -216.73810737 </i>
    <i name="atom">   1992.74882108 </i>
    <i name="e_fr_energy">    468.45297393 </i>
    <i name="e_wo_entrp">    468.51278402 </i>
    <i name="e_0_energy">    468.48287897 </i>
   </energy>
  </scstep>
  <scstep>
   <time name="dav">  135.51  136.30</time>
   <time name="total">  135.51  136.30</time>
   <dipole>
    <v name="dipole">      0.00000000       0.00000000       0.00040263 </v>
    <i name="Tr[quadrupol]">  -1221.64517901 </i>
    <i name="Echarged">      0.00000000 </i>
    <i name="Edipol_quadrupol">      0.00000000 </i>
    <i name="Eion">      0.00000000 </i>
   </dipole>
   <energy>
    <i name="e_fr_energy">   -108.71522203 </i>
    <i name="e_wo_entrp">   -108.66073913 </i>
    <i name="e_0_energy">   -108.68798058 </i>
   </energy>
  </scstep>
  <scstep>
   <time name="dav">  117.47  118.17</time>
   <time name="total">  117.48  118.17</time>
   <dipole>
    <v name="dipole">      0.00000000       0.00000000       0.00040263 </v>
    <i name="Tr[quadrupol]">  -1221.64517901 </i>
    <i name="Echarged">      0.00000000 </i>
    <i name="Edipol_quadrupol">      0.00000000 </i>
    <i name="Eion">      0.00000000 </i>
   </dipole>
   <energy>
    <i name="e_fr_energy">   -169.60648254 </i>
    <i name="e_wo_entrp">   -169.49160081 </i>
    <i name="e_0_energy">   -169.54904167 </i>
   </energy>
  </scstep>
  <scstep>
