       N       E                     dE             d eps       ncg     rms          rms(c)
DAV:   1     0.331510637585E+04    0.33151E+04   -0.13792E+05  3744   0.108E+03
DAV:   2    -0.408962863623E+03   -0.37241E+04   -0.36002E+04  5244   0.229E+02
DAV:   3    -0.100414266077E+04   -0.59518E+03   -0.58984E+03  4404   0.986E+01
DAV:   4    -0.102329529273E+04   -0.19153E+02   -0.19021E+02  4404   0.198E+01
DAV:   5    -0.102382352022E+04   -0.52823E+00   -0.52688E+00  4752   0.294E+00    0.423E+01
DAV:   6    -0.963727774541E+03    0.60096E+02   -0.60123E+01  3972   0.106E+01    0.237E+01
DAV:   7    -0.940421994298E+03    0.23306E+02   -0.71193E+01  4188   0.108E+01    0.486E+00
DAV:   8    -0.940163912081E+03    0.25808E+00   -0.53880E+00  4416   0.350E+00    0.225E+00
DAV:   9    -0.939964492905E+03    0.19942E+00   -0.95003E-01  4452   0.169E+00    0.135E+00
DAV:  10    -0.939789052673E+03    0.17544E+00   -0.32710E-01  4452   0.119E+00    0.721E-01
DAV:  11    -0.939764087218E+03    0.24965E-01   -0.12511E-01  4428   0.626E-01    0.522E-01
DAV:  12    -0.939742560202E+03    0.21527E-01   -0.46864E-02  4296   0.404E-01    0.321E-01
DAV:  13    -0.939728915625E+03    0.13645E-01   -0.61132E-02  4260   0.383E-01    0.238E-01
DAV:  14    -0.939731207212E+03   -0.22916E-02   -0.22724E-02  4236   0.261E-01    0.163E-01
DAV:  15    -0.939741010190E+03   -0.98030E-02   -0.74394E-03  3948   0.161E-01    0.127E-01
DAV:  16    -0.939751128366E+03   -0.10118E-01   -0.47562E-03  4080   0.127E-01    0.699E-02
DAV:  17    -0.939759221719E+03   -0.80934E-02   -0.20109E-03  4092   0.649E-02    0.500E-02
DAV:  18    -0.939771190813E+03   -0.11969E-01   -0.99340E-04  4068   0.430E-02    0.285E-02
DAV:  19    -0.939777569749E+03   -0.63789E-02   -0.40128E-04  3984   0.280E-02    0.192E-02
DAV:  20    -0.939780930108E+03   -0.33604E-02   -0.15914E-04  4116   0.184E-02    0.144E-02
DAV:  21    -0.939784691000E+03   -0.37609E-02   -0.22750E-04  3972   0.166E-02    0.840E-03
DAV:  22    -0.939786090875E+03   -0.13999E-02   -0.60543E-05  4272   0.874E-03    0.568E-03
DAV:  23    -0.939786912228E+03   -0.82135E-03   -0.26713E-05  3924   0.571E-03    0.332E-03
DAV:  24    -0.939787316288E+03   -0.40406E-03   -0.95362E-06  3654   0.332E-03    0.182E-03
DAV:  25    -0.939787507614E+03   -0.19133E-03   -0.35861E-06  3480   0.193E-03    0.928E-04
DAV:  26    -0.939787599385E+03   -0.91771E-04   -0.17032E-06  3162   0.122E-03    0.426E-04
DAV:  27    -0.939787625422E+03   -0.26037E-04   -0.29354E-07  2916   0.576E-04    0.222E-04
DAV:  28    -0.939787634214E+03   -0.87923E-05   -0.11493E-07  2766   0.318E-04    0.108E-04
DAV:  29    -0.939787637168E+03   -0.29533E-05   -0.20762E-08  2760   0.181E-04    0.573E-05
DAV:  30    -0.939787638303E+03   -0.11353E-05   -0.12348E-09  2652   0.121E-04    0.302E-05
DAV:  31    -0.939787638702E+03   -0.39934E-06    0.72350E-09  2592   0.755E-05
   1 F= -.95251594E+03 E0= -.95242087E+03  d E =-.190140E+00
