       N       E                     dE             d eps       ncg     rms          rms(c)
DAV:   1     0.607480162569E+04    0.60748E+04   -0.29267E+05  6576   0.122E+03
DAV:   2    -0.893113722109E+03   -0.69679E+04   -0.67240E+04  9072   0.263E+02
DAV:   3    -0.176220631975E+04   -0.86909E+03   -0.85628E+03  7200   0.981E+01
DAV:   4    -0.179175545704E+04   -0.29549E+02   -0.29316E+02  8556   0.186E+01
DAV:   5    -0.179276052156E+04   -0.10051E+01   -0.10029E+01  8364   0.301E+00    0.547E+01
DAV:   6    -0.166555686275E+04    0.12720E+03   -0.17796E+02  7308   0.143E+01    0.291E+01
DAV:   7    -0.163529590909E+04    0.30261E+02   -0.11348E+02  7680   0.110E+01    0.883E+00
DAV:   8    -0.163433377518E+04    0.96213E+00   -0.93929E+00  7788   0.379E+00    0.326E+00
DAV:   9    -0.163391473710E+04    0.41904E+00   -0.12453E+00  7656   0.131E+00    0.115E+00
DAV:  10    -0.163386143424E+04    0.53303E-01   -0.17356E-01  8148   0.460E-01    0.649E-01
DAV:  11    -0.163380530572E+04    0.56129E-01   -0.93188E-02  7476   0.300E-01    0.298E-01
DAV:  12    -0.163380236678E+04    0.29389E-02   -0.37764E-02  7644   0.194E-01    0.213E-01
DAV:  13    -0.163382501624E+04   -0.22649E-01   -0.22194E-02  7176   0.143E-01    0.118E-01
DAV:  14    -0.163383981810E+04   -0.14802E-01   -0.52092E-03  7224   0.966E-02    0.693E-02
DAV:  15    -0.163384973704E+04   -0.99189E-02   -0.21195E-03  7356   0.543E-02    0.487E-02
DAV:  16    -0.163386010562E+04   -0.10369E-01   -0.10987E-03  7560   0.325E-02    0.241E-02
DAV:  17    -0.163386523641E+04   -0.51308E-02   -0.28258E-04  7440   0.168E-02    0.160E-02
DAV:  18    -0.163386922383E+04   -0.39874E-02   -0.25718E-04  7500   0.127E-02    0.102E-02
DAV:  19    -0.163387157445E+04   -0.23506E-02   -0.14261E-04  7680   0.827E-03    0.571E-03
DAV:  20    -0.163387256676E+04   -0.99231E-03   -0.38464E-05  7416   0.442E-03    0.372E-03
DAV:  21    -0.163387316315E+04   -0.59639E-03   -0.15984E-05  6984   0.276E-03    0.199E-03
DAV:  22    -0.163387345135E+04   -0.28820E-03   -0.69162E-06  6588   0.159E-03    0.107E-03
DAV:  23    -0.163387356671E+04   -0.11536E-03   -0.20528E-06  5964   0.906E-04    0.481E-04
DAV:  24    -0.163387359700E+04   -0.30294E-04   -0.36956E-07  5508   0.458E-04    0.233E-04
DAV:  25    -0.163387360731E+04   -0.10311E-04   -0.65209E-08  5028   0.245E-04    0.988E-05
DAV:  26    -0.163387361044E+04   -0.31283E-05   -0.14623E-08  4764   0.139E-04    0.518E-05
DAV:  27    -0.163387361165E+04   -0.12115E-05    0.11380E-08  4464   0.816E-05    0.271E-05
DAV:  28    -0.163387361221E+04   -0.55198E-06    0.16353E-08  4476   0.611E-05
   1 F= -.16658323E+04 E0= -.16657601E+04  d E =-.144584E+00
