       N       E                     dE             d eps       ncg     rms          rms(c)
DAV:   1     0.331500487003E+04    0.33150E+04   -0.13792E+05  3744   0.108E+03
DAV:   2    -0.408975549692E+03   -0.37240E+04   -0.36001E+04  5244   0.229E+02
DAV:   3    -0.100412415939E+04   -0.59515E+03   -0.58981E+03  4404   0.986E+01
DAV:   4    -0.102328501494E+04   -0.19161E+02   -0.19031E+02  4416   0.198E+01
DAV:   5    -0.102380459378E+04   -0.51958E+00   -0.51827E+00  4728   0.292E+00    0.423E+01
DAV:   6    -0.963726057359E+03    0.60079E+02   -0.60103E+01  3972   0.106E+01    0.237E+01
DAV:   7    -0.940419803716E+03    0.23306E+02   -0.71162E+01  4188   0.108E+01    0.485E+00
DAV:   8    -0.940147708583E+03    0.27210E+00   -0.53578E+00  4392   0.345E+00    0.218E+00
DAV:   9    -0.939859786984E+03    0.28792E+00   -0.74147E-01  4356   0.132E+00    0.102E+00
DAV:  10    -0.939790911484E+03    0.68876E-01   -0.16601E-01  4500   0.942E-01    0.679E-01
DAV:  11    -0.939762273593E+03    0.28638E-01   -0.76734E-02  4404   0.521E-01    0.431E-01
DAV:  12    -0.939733655804E+03    0.28618E-01   -0.68895E-02  4344   0.446E-01    0.294E-01
DAV:  13    -0.939726990602E+03    0.66652E-02   -0.52725E-02  4224   0.356E-01    0.191E-01
DAV:  14    -0.939736741831E+03   -0.97512E-02   -0.11625E-02  4020   0.179E-01    0.135E-01
DAV:  15    -0.939750892211E+03   -0.14150E-01   -0.80458E-03  4068   0.123E-01    0.762E-02
DAV:  16    -0.939757868352E+03   -0.69761E-02   -0.11898E-03  4152   0.569E-02    0.514E-02
DAV:  17    -0.939770952770E+03   -0.13084E-01   -0.11488E-03  3936   0.467E-02    0.322E-02
DAV:  18    -0.939775913845E+03   -0.49611E-02   -0.32223E-04  4104   0.334E-02    0.249E-02
DAV:  19    -0.939780517485E+03   -0.46036E-02   -0.27481E-04  3918   0.245E-02    0.160E-02
DAV:  20    -0.939784587253E+03   -0.40698E-02   -0.24665E-04  4056   0.182E-02    0.109E-02
DAV:  21    -0.939786330532E+03   -0.17433E-02   -0.72683E-05  4236   0.106E-02    0.713E-03
DAV:  22    -0.939787664321E+03   -0.13338E-02   -0.53906E-05  4020   0.805E-03    0.446E-03
DAV:  23    -0.939788226887E+03   -0.56257E-03   -0.17187E-05  3948   0.492E-03    0.274E-03
DAV:  24    -0.939788443583E+03   -0.21670E-03   -0.37381E-06  3624   0.244E-03    0.167E-03
DAV:  25    -0.939788652027E+03   -0.20844E-03   -0.52133E-06  3480   0.214E-03    0.781E-04
DAV:  26    -0.939788696176E+03   -0.44149E-04   -0.53618E-07  2976   0.881E-04    0.402E-04
DAV:  27    -0.939788719900E+03   -0.23724E-04   -0.34610E-07  2748   0.561E-04    0.188E-04
DAV:  28    -0.939788727183E+03   -0.72821E-05   -0.94124E-08  2772   0.289E-04    0.924E-05
DAV:  29    -0.939788729192E+03   -0.20097E-05   -0.11983E-08  2784   0.161E-04    0.528E-05
DAV:  30    -0.939788729869E+03   -0.67723E-06    0.32910E-09  2424   0.969E-05
   1 F= -.95251710E+03 E0= -.95242202E+03  d E =-.190164E+00
