       N       E                     dE             d eps       ncg     rms          rms(c)
DAV:   1     0.606997164714E+04    0.60700E+04   -0.29715E+05  6696   0.119E+03
DAV:   2    -0.101220137653E+04   -0.70822E+04   -0.68639E+04  9576   0.257E+02
DAV:   3    -0.187777496156E+04   -0.86557E+03   -0.85470E+03  7824   0.953E+01
DAV:   4    -0.190383466631E+04   -0.26060E+02   -0.25913E+02  8856   0.173E+01
DAV:   5    -0.190465724842E+04   -0.82258E+00   -0.82142E+00  8712   0.275E+00    0.567E+01
DAV:   6    -0.179489207523E+04    0.10977E+03   -0.11296E+02  7272   0.108E+01    0.318E+01
DAV:   7    -0.175566675327E+04    0.39225E+02   -0.13025E+02  7680   0.109E+01    0.650E+00
DAV:   8    -0.175559360104E+04    0.73152E-01   -0.98670E+00  8208   0.364E+00    0.247E+00
DAV:   9    -0.175541782288E+04    0.17578E+00   -0.97178E-01  8184   0.102E+00    0.988E-01
DAV:  10    -0.175540209771E+04    0.15725E-01   -0.11454E-01  7800   0.402E-01    0.489E-01
DAV:  11    -0.175537789390E+04    0.24204E-01   -0.97298E-02  8208   0.392E-01    0.353E-01
DAV:  12    -0.175536242399E+04    0.15470E-01   -0.71267E-02  7824   0.318E-01    0.203E-01
DAV:  13    -0.175537490375E+04   -0.12480E-01   -0.35590E-02  7536   0.192E-01    0.131E-01
DAV:  14    -0.175538380683E+04   -0.89031E-02   -0.56794E-03  7560   0.100E-01    0.794E-02
DAV:  15    -0.175539096564E+04   -0.71588E-02   -0.26792E-03  7536   0.695E-02    0.580E-02
DAV:  16    -0.175539607147E+04   -0.51058E-02   -0.12574E-03  7584   0.438E-02    0.385E-02
DAV:  17    -0.175540174733E+04   -0.56759E-02   -0.44007E-04  7536   0.291E-02    0.255E-02
DAV:  18    -0.175540610136E+04   -0.43540E-02   -0.29745E-04  7536   0.224E-02    0.160E-02
DAV:  19    -0.175540900228E+04   -0.29009E-02   -0.15364E-04  7488   0.115E-02    0.112E-02
DAV:  20    -0.175541125201E+04   -0.22497E-02   -0.10145E-04  7536   0.891E-03    0.757E-03
DAV:  21    -0.175541235571E+04   -0.11037E-02   -0.47480E-05  7944   0.686E-03    0.496E-03
DAV:  22    -0.175541300517E+04   -0.64946E-03   -0.20789E-05  7608   0.413E-03    0.343E-03
DAV:  23    -0.175541346920E+04   -0.46404E-03   -0.12540E-05  7224   0.268E-03    0.180E-03
DAV:  24    -0.175541365726E+04   -0.18806E-03   -0.33686E-06  6720   0.152E-03    0.106E-03
DAV:  25    -0.175541376206E+04   -0.10480E-03   -0.17262E-06  6552   0.989E-04    0.577E-04
DAV:  26    -0.175541380518E+04   -0.43114E-04   -0.61590E-07  5712   0.569E-04    0.283E-04
DAV:  27    -0.175541381739E+04   -0.12213E-04   -0.11503E-07  5328   0.318E-04    0.170E-04
DAV:  28    -0.175541382259E+04   -0.52012E-05   -0.46495E-08  4872   0.219E-04    0.941E-05
DAV:  29    -0.175541382551E+04   -0.29223E-05   -0.64516E-09  4848   0.135E-04    0.489E-05
DAV:  30    -0.175541382662E+04   -0.11089E-05    0.11264E-08  4656   0.838E-05    0.268E-05
DAV:  31    -0.175541382728E+04   -0.65940E-06    0.15314E-08  4992   0.599E-05
   1 F= -.17855831E+04 E0= -.17854735E+04  d E =-.219071E+00
