o-B14                                   
   1.00000000000000     
     6.2018711954847099    0.0000000000000000    0.0000000000000000
     0.0000000000000000    5.7009706947548304    0.0000000000000000
     0.0000000000000000    0.0000000000000000    4.0440580960754202
  B             
    14
Direct
  0.6379577017999978  0.5000000000000000  0.5212898848999998
  0.3620422982000022  0.5000000000000000  0.4787101151000002
  0.6379577017999978  0.5000000000000000  0.9787101151000002
  0.3620422982000022  0.5000000000000000  0.0212898848999998
  0.8998683156000027  0.5000000000000000  0.5974496620999972
  0.1001316843999973  0.5000000000000000  0.4025503379000028
  0.8998683156000027  0.5000000000000000  0.9025503379000028
  0.1001316843999973  0.5000000000000000  0.0974496620999972
  0.7295793958999965  0.7915649322000036  0.7500000000000000
  0.2704206041000035  0.2084350678000035  0.2500000000000000
  0.7295793958999965  0.2084350678000035  0.7500000000000000
  0.2704206041000035  0.7915649322000036  0.2500000000000000
  0.5239930349999966  0.5000000000000000  0.2500000000000000
  0.4760069650000034  0.5000000000000000  0.7500000000000000
 
  0.00000000E+00  0.00000000E+00  0.00000000E+00
  0.00000000E+00  0.00000000E+00  0.00000000E+00
  0.00000000E+00  0.00000000E+00  0.00000000E+00
  0.00000000E+00  0.00000000E+00  0.00000000E+00
  0.00000000E+00  0.00000000E+00  0.00000000E+00
  0.00000000E+00  0.00000000E+00  0.00000000E+00
  0.00000000E+00  0.00000000E+00  0.00000000E+00
  0.00000000E+00  0.00000000E+00  0.00000000E+00
  0.00000000E+00  0.00000000E+00  0.00000000E+00
  0.00000000E+00  0.00000000E+00  0.00000000E+00
  0.00000000E+00  0.00000000E+00  0.00000000E+00
  0.00000000E+00  0.00000000E+00  0.00000000E+00
  0.00000000E+00  0.00000000E+00  0.00000000E+00
  0.00000000E+00  0.00000000E+00  0.00000000E+00
