 running   42 mpi-ranks, on    1 nodes
 distrk:  each k-point on   42 cores,    1 groups
 distr:  one band on    7 cores,    6 groups
 vasp.6.5.0 16Dec24 (build Jan 08 2025 16:17:04) complex                        
  
 POSCAR found type information on POSCAR B H 
 POSCAR found :  2 types and     144 ions
 Reading from existing POTCAR
 scaLAPACK will be used
 Reading from existing POTCAR
 LDA part: xc-table for (Slater+PW92), standard interpolation
 POSCAR, INCAR and KPOINTS ok, starting setup
 FFT: planning ... GRIDC
 FFT: planning ... GRID_SOFT
 FFT: planning ... GRID
 WAVECAR not read
 entering main loop
       N       E                     dE             d eps       ncg     rms          rms(c)
DAV:   1     0.328980145841E+04    0.32898E+04   -0.13064E+05  3564   0.109E+03
DAV:   2    -0.267136758816E+03   -0.35569E+04   -0.34111E+04  4896   0.228E+02
DAV:   3    -0.867379998896E+03   -0.60024E+03   -0.59470E+03  3912   0.101E+02
DAV:   4    -0.891650437666E+03   -0.24270E+02   -0.23942E+02  4152   0.218E+01
DAV:   5    -0.892422831903E+03   -0.77239E+00   -0.76721E+00  4596   0.345E+00    0.386E+01
DAV:   6    -0.823909836034E+03    0.68513E+02   -0.91077E+01  3876   0.135E+01    0.202E+01
DAV:   7    -0.807061225687E+03    0.16849E+02   -0.69899E+01  3924   0.112E+01    0.625E+00
DAV:   8    -0.806120792793E+03    0.94043E+00   -0.62153E+00  4116   0.436E+00    0.181E+00
DAV:   9    -0.805747708218E+03    0.37308E+00   -0.70524E-01  3936   0.130E+00    0.828E-01
DAV:  10    -0.805674169944E+03    0.73538E-01   -0.10192E-01  4212   0.475E-01    0.457E-01
DAV:  11    -0.805595189399E+03    0.78981E-01   -0.12847E-01  3912   0.390E-01    0.279E-01
DAV:  12    -0.805603798925E+03   -0.86095E-02   -0.33109E-02  4104   0.232E-01    0.203E-01
DAV:  13    -0.805623064911E+03   -0.19266E-01   -0.90136E-03  3612   0.152E-01    0.108E-01
DAV:  14    -0.805639132748E+03   -0.16068E-01   -0.57014E-03  3936   0.830E-02    0.637E-02
DAV:  15    -0.805652901323E+03   -0.13769E-01   -0.12101E-03  3888   0.387E-02    0.379E-02
DAV:  16    -0.805665991252E+03   -0.13090E-01   -0.15294E-03  3876   0.328E-02    0.191E-02
DAV:  17    -0.805670354656E+03   -0.43634E-02   -0.29687E-04  4032   0.150E-02    0.123E-02
DAV:  18    -0.805673759213E+03   -0.34046E-02   -0.28366E-04  3900   0.108E-02    0.671E-03
DAV:  19    -0.805675084402E+03   -0.13252E-02   -0.84323E-05  3780   0.562E-03    0.375E-03
DAV:  20    -0.805675700508E+03   -0.61611E-03   -0.25252E-05  3468   0.363E-03    0.206E-03
DAV:  21    -0.805675865487E+03   -0.16498E-03   -0.31282E-06  3156   0.157E-03    0.105E-03
DAV:  22    -0.805675952295E+03   -0.86809E-04   -0.18308E-06  3048   0.106E-03    0.427E-04
DAV:  23    -0.805675972850E+03   -0.20554E-04   -0.21513E-07  2844   0.485E-04    0.240E-04
DAV:  24    -0.805675980126E+03   -0.72764E-05   -0.89689E-08  2808   0.270E-04    0.872E-05
DAV:  25    -0.805675981349E+03   -0.12224E-05   -0.29127E-09  2544   0.142E-04    0.413E-05
DAV:  26    -0.805675981620E+03   -0.27106E-06    0.95723E-09  2448   0.809E-05
   1 F= -.81835282E+03 E0= -.81835281E+03  d E =-.182544E-04
