o-B14
1.0002
    5.6970      0.0000      0.0000
    0.0000      4.0479      0.0000
    0.0000      0.0000      6.2042
    B
   14
Direct
    0.521230000     0.500000000     0.637960000
    0.478770000     0.500000000     0.362040000
    0.978770000     0.500000000     0.637960000
    0.021230000     0.500000000     0.362040000
    0.600900000     0.500000000     0.899910000
    0.399100000     0.500000000     0.100090000
    0.899100000     0.500000000     0.899910000
    0.100900000     0.500000000     0.100090000
    0.750000000     0.791710000     0.729730000
    0.250000000     0.208290000     0.270270000
    0.750000000     0.208290000     0.729730000
    0.250000000     0.791710000     0.270270000
    0.250000000     0.500000000     0.523670000
    0.750000000     0.500000000     0.476330000