k-points
0
Monkhorst-pack
22  31  20
0   0   0